variable TLJ equal (${T}/1000)
variable TLJ equal (440/1000)
variable NCyle equal 5
variable iStep equal (${f})
variable iStep equal (100000)
variable dumpStep equal (${f}*100)
variable dumpStep equal (100000*100)
variable runStep equal (${f}*100*${NCyle})
variable runStep equal (100000*100*${NCyle})
variable runStep equal (100000*100*5)

units       lj
atom_style  atomic
dimension 3
boundary     p p p
pair_style  lj/cut 2.5
read_data  ../data/T${T}.dat
read_data  ../data/T440.dat
Reading data file ...
  orthogonal box = (0.97250269 0.97250269 0.97250269) to (37.866338 37.866338 37.866338)
  1 by 1 by 5 MPI processor grid
  reading atoms ...
  70304 atoms
  reading velocities ...
  70304 velocities
  read_data CPU = 0.209 seconds
change_box all triclinic
Changing box ...
  triclinic box = (0.97250269 0.97250269 0.97250269) to (37.866338 37.866338 37.866338) with tilt (0 0 0)
mass 1 1
mass 2 1
pair_modify shift yes
pair_coeff  1 1 1 1
pair_coeff  1 2 1.5 0.8
pair_coeff  2 2 0.5 0.88


timestep 0.01
thermo ${iStep}
thermo 100000
reset_timestep 0
thermo_style custom step temp pe etotal press vol lx ly lz
fix             1 all nvt temp ${TLJ}  ${TLJ}  0.1
fix             1 all nvt temp 0.44  ${TLJ}  0.1
fix             1 all nvt temp 0.44  0.44  0.1
thermo_modify flush yes

fix dsf all deform 1 xy  wiggle 0.5  ${f}   units box
fix dsf all deform 1 xy  wiggle 0.5  100000   units box
fix ps1 all ave/time 1 1 ${iStep} c_thermo_press[1] c_thermo_press[2]  c_thermo_press[3] c_thermo_press[4]  c_thermo_press[5] c_thermo_press[6]  file  stress.${T}
fix ps1 all ave/time 1 1 100000 c_thermo_press[1] c_thermo_press[2]  c_thermo_press[3] c_thermo_press[4]  c_thermo_press[5] c_thermo_press[6]  file  stress.${T}
fix ps1 all ave/time 1 1 100000 c_thermo_press[1] c_thermo_press[2]  c_thermo_press[3] c_thermo_press[4]  c_thermo_press[5] c_thermo_press[6]  file  stress.440
dump            1 all custom ${dumpStep} dump.${T} id type x y z
dump            1 all custom 10000000 dump.${T} id type x y z
dump            1 all custom 10000000 dump.440 id type x y z
dump_modify 1 sort id
fix nodrift all momentum 1  linear 1 1 1
fix com_seed all recenter INIT INIT INIT shift all
run ${runStep}
run 50000000
Generated 0 of 1 mixed pair_coeff terms from geometric mixing rule
Per MPI rank memory allocation (min/avg/max) = 6.668 | 8.471 | 8.925 Mbytes
   Step          Temp          PotEng         TotEng         Press          Volume           Lx             Ly             Lz      
         0   0.44063242    -7.9306102     -7.269671       2.7216203      50218.233      36.893836      36.893836      36.893836    
    100000   0.44026144    -7.9273881     -7.2670053      2.7351814      50218.233      36.893836      36.893836      36.893836    
    200000   0.44171642    -7.9289417     -7.2663765      2.7347946      50218.233      36.893836      36.893836      36.893836    
    300000   0.43950985    -7.9284042     -7.2691488      2.7347205      50218.233      36.893836      36.893836      36.893836    
    400000   0.438819      -7.9272102     -7.2689911      2.7323385      50218.233      36.893836      36.893836      36.893836    
    500000   0.44045781    -7.9228327     -7.2621553      2.7641578      50218.233      36.893836      36.893836      36.893836    
    600000   0.43842608    -7.931125      -7.2734952      2.7112372      50218.233      36.893836      36.893836      36.893836    
    700000   0.43990698    -7.9232612     -7.2634101      2.7758751      50218.233      36.893836      36.893836      36.893836    
    800000   0.43848673    -7.9256267     -7.267906       2.7594818      50218.233      36.893836      36.893836      36.893836    
    900000   0.43843855    -7.9280111     -7.2703626      2.7338414      50218.233      36.893836      36.893836      36.893836    
   1000000   0.43883045    -7.9277213     -7.269485       2.73645        50218.233      36.893836      36.893836      36.893836    
   1100000   0.43830582    -7.9287776     -7.2713282      2.7285992      50218.233      36.893836      36.893836      36.893836    
   1200000   0.43900433    -7.9267174     -7.2682203      2.7529746      50218.233      36.893836      36.893836      36.893836    
   1300000   0.44254948    -7.9288071     -7.2649923      2.7303712      50218.233      36.893836      36.893836      36.893836    
   1400000   0.44140797    -7.9277793     -7.2656768      2.7364468      50218.233      36.893836      36.893836      36.893836    
   1500000   0.43988291    -7.9231985     -7.2633835      2.763532       50218.233      36.893836      36.893836      36.893836    
   1600000   0.4411289     -7.9226406     -7.2609567      2.7656134      50218.233      36.893836      36.893836      36.893836    
   1700000   0.44028295    -7.9218201     -7.2614051      2.7818108      50218.233      36.893836      36.893836      36.893836    
   1800000   0.43962271    -7.9245204     -7.2650957      2.7576831      50218.233      36.893836      36.893836      36.893836    
   1900000   0.44074016    -7.928476      -7.2673752      2.733746       50218.233      36.893836      36.893836      36.893836    
   2000000   0.44026858    -7.9269365     -7.266543       2.7381033      50218.233      36.893836      36.893836      36.893836    
   2100000   0.44095967    -7.925446      -7.2640159      2.7470292      50218.233      36.893836      36.893836      36.893836    
   2200000   0.43710054    -7.9259519     -7.2703104      2.7458834      50218.233      36.893836      36.893836      36.893836    
   2300000   0.44169022    -7.9250723     -7.2625464      2.7607627      50218.233      36.893836      36.893836      36.893836    
   2400000   0.440448      -7.9242598     -7.2635972      2.7668866      50218.233      36.893836      36.893836      36.893836    
   2500000   0.4393208     -7.9280763     -7.2691044      2.7387603      50218.233      36.893836      36.893836      36.893836    
   2600000   0.43995095    -7.926927      -7.26701        2.7396758      50218.233      36.893836      36.893836      36.893836    
   2700000   0.44008282    -7.9296342     -7.2695194      2.7263725      50218.233      36.893836      36.893836      36.893836    
   2800000   0.44250591    -7.9283724     -7.264623       2.736607       50218.233      36.893836      36.893836      36.893836    
   2900000   0.43815041    -7.9256322     -7.268416       2.7516454      50218.233      36.893836      36.893836      36.893836    
   3000000   0.43974337    -7.9284644     -7.2688587      2.7404474      50218.233      36.893836      36.893836      36.893836    
   3100000   0.4398356     -7.9287057     -7.2689617      2.7312467      50218.233      36.893836      36.893836      36.893836    
   3200000   0.44202935    -7.9278559     -7.2648213      2.7369699      50218.233      36.893836      36.893836      36.893836    
   3300000   0.4385992     -7.9260873     -7.2681978      2.7332465      50218.233      36.893836      36.893836      36.893836    
   3400000   0.43959719    -7.9315091     -7.2721227      2.7102954      50218.233      36.893836      36.893836      36.893836    
   3500000   0.43770823    -7.9264297     -7.2698767      2.7466205      50218.233      36.893836      36.893836      36.893836    
   3600000   0.43764991    -7.9240412     -7.2675757      2.7679592      50218.233      36.893836      36.893836      36.893836    
   3700000   0.44018194    -7.9246335     -7.26437        2.7623301      50218.233      36.893836      36.893836      36.893836    
   3800000   0.44139185    -7.9277156     -7.2656372      2.741837       50218.233      36.893836      36.893836      36.893836    
   3900000   0.44151209    -7.9284092     -7.2661505      2.7418378      50218.233      36.893836      36.893836      36.893836    
   4000000   0.4423339     -7.9274001     -7.2639087      2.7426388      50218.233      36.893836      36.893836      36.893836    
   4100000   0.43971307    -7.9283656     -7.2688054      2.7327124      50218.233      36.893836      36.893836      36.893836    
   4200000   0.44062273    -7.9308264     -7.2699018      2.7120905      50218.233      36.893836      36.893836      36.893836    
   4300000   0.44106315    -7.9301747     -7.2685894      2.7223424      50218.233      36.893836      36.893836      36.893836    
   4400000   0.43978678    -7.9298746     -7.2702038      2.738981       50218.233      36.893836      36.893836      36.893836    
   4500000   0.44014415    -7.92569       -7.2654832      2.7573338      50218.233      36.893836      36.893836      36.893836    
   4600000   0.44017604    -7.9246954     -7.2644407      2.7666528      50218.233      36.893836      36.893836      36.893836    
   4700000   0.44184923    -7.9304914     -7.267727       2.7160988      50218.233      36.893836      36.893836      36.893836    
   4800000   0.44118421    -7.9277142     -7.2659473      2.7333138      50218.233      36.893836      36.893836      36.893836    
   4900000   0.44225095    -7.932968      -7.269601       2.6978468      50218.233      36.893836      36.893836      36.893836    
   5000000   0.43745454    -7.9309832     -7.2748107      2.7112592      50218.233      36.893836      36.893836      36.893836    
   5100000   0.44033006    -7.9303341     -7.2698484      2.7179178      50218.233      36.893836      36.893836      36.893836    
   5200000   0.44017634    -7.9302225     -7.2699674      2.7172785      50218.233      36.893836      36.893836      36.893836    
   5300000   0.43933873    -7.9310643     -7.2720656      2.7074474      50218.233      36.893836      36.893836      36.893836    
   5400000   0.44134833    -7.9279286     -7.2659156      2.7326626      50218.233      36.893836      36.893836      36.893836    
   5500000   0.43709154    -7.9280603     -7.2724323      2.7306427      50218.233      36.893836      36.893836      36.893836    
   5600000   0.44117382    -7.9292031     -7.2674518      2.7374402      50218.233      36.893836      36.893836      36.893836    
   5700000   0.44077568    -7.9259276     -7.2647735      2.7438301      50218.233      36.893836      36.893836      36.893836    
   5800000   0.44042585    -7.9286671     -7.2680378      2.7293401      50218.233      36.893836      36.893836      36.893836    
   5900000   0.44047389    -7.9318007     -7.2710993      2.707748       50218.233      36.893836      36.893836      36.893836    
   6000000   0.44032768    -7.9283825     -7.2679004      2.7206035      50218.233      36.893836      36.893836      36.893836    
   6100000   0.44066993    -7.9250061     -7.2640106      2.756761       50218.233      36.893836      36.893836      36.893836    
   6200000   0.43918353    -7.9266135     -7.2678476      2.7498801      50218.233      36.893836      36.893836      36.893836    
   6300000   0.44009345    -7.9232533     -7.2631226      2.7700772      50218.233      36.893836      36.893836      36.893836    
   6400000   0.44167194    -7.9306714     -7.268173       2.7188524      50218.233      36.893836      36.893836      36.893836    
   6500000   0.43657058    -7.9242098     -7.2693633      2.7594822      50218.233      36.893836      36.893836      36.893836    
   6600000   0.43760889    -7.9290132     -7.2726092      2.7255728      50218.233      36.893836      36.893836      36.893836    
   6700000   0.441629      -7.9264673     -7.2640332      2.7550296      50218.233      36.893836      36.893836      36.893836    
   6800000   0.43934271    -7.9281821     -7.2691775      2.7334199      50218.233      36.893836      36.893836      36.893836    
   6900000   0.44078742    -7.9303753     -7.2692036      2.7165323      50218.233      36.893836      36.893836      36.893836    
   7000000   0.44213611    -7.9253674     -7.2621727      2.7490974      50218.233      36.893836      36.893836      36.893836    
   7100000   0.44307198    -7.9275343     -7.2629358      2.7447585      50218.233      36.893836      36.893836      36.893836    
   7200000   0.43983385    -7.9259949     -7.2662535      2.7570155      50218.233      36.893836      36.893836      36.893836    
   7300000   0.43911735    -7.9255429     -7.2668763      2.7498884      50218.233      36.893836      36.893836      36.893836    
   7400000   0.43971904    -7.927617      -7.2680478      2.7320746      50218.233      36.893836      36.893836      36.893836    
   7500000   0.43809111    -7.9279409     -7.2708136      2.736442       50218.233      36.893836      36.893836      36.893836    
   7600000   0.44125415    -7.9224284     -7.2605566      2.7850593      50218.233      36.893836      36.893836      36.893836    
   7700000   0.44036661    -7.9265839     -7.2660433      2.7560316      50218.233      36.893836      36.893836      36.893836    
   7800000   0.4379783     -7.9277168     -7.2707587      2.7414731      50218.233      36.893836      36.893836      36.893836    
   7900000   0.4422352     -7.9280945     -7.2647511      2.7331062      50218.233      36.893836      36.893836      36.893836    
   8000000   0.4406843     -7.9288422     -7.2678251      2.7225494      50218.233      36.893836      36.893836      36.893836    
   8100000   0.43929966    -7.9231169     -7.2641768      2.7636965      50218.233      36.893836      36.893836      36.893836    
   8200000   0.43969095    -7.9248145     -7.2652875      2.754092       50218.233      36.893836      36.893836      36.893836    
   8300000   0.44006562    -7.9261577     -7.2660687      2.7566816      50218.233      36.893836      36.893836      36.893836    
   8400000   0.43926908    -7.923513      -7.2646187      2.7630816      50218.233      36.893836      36.893836      36.893836    
   8500000   0.44129835    -7.9262395     -7.2643014      2.7594419      50218.233      36.893836      36.893836      36.893836    
   8600000   0.44072424    -7.92494       -7.2638631      2.75943        50218.233      36.893836      36.893836      36.893836    
   8700000   0.44102114    -7.9268141     -7.2652918      2.751425       50218.233      36.893836      36.893836      36.893836    
   8800000   0.43735828    -7.9273709     -7.2713428      2.7403031      50218.233      36.893836      36.893836      36.893836    
   8900000   0.43929129    -7.9296484     -7.2707209      2.7258692      50218.233      36.893836      36.893836      36.893836    
   9000000   0.43964727    -7.9305862     -7.2711247      2.720108       50218.233      36.893836      36.893836      36.893836    
   9100000   0.43715798    -7.9279619     -7.2722343      2.734657       50218.233      36.893836      36.893836      36.893836    
   9200000   0.44128274    -7.9259644     -7.2640497      2.7574166      50218.233      36.893836      36.893836      36.893836    
   9300000   0.44199103    -7.927162      -7.2641849      2.7488597      50218.233      36.893836      36.893836      36.893836    
   9400000   0.43993816    -7.928122      -7.2682242      2.744464       50218.233      36.893836      36.893836      36.893836    
   9500000   0.43874409    -7.9241262     -7.2660194      2.7688359      50218.233      36.893836      36.893836      36.893836    
   9600000   0.44042033    -7.9284516     -7.2678305      2.736875       50218.233      36.893836      36.893836      36.893836    
   9700000   0.44006939    -7.9257116     -7.2656169      2.7606822      50218.233      36.893836      36.893836      36.893836    
   9800000   0.43986469    -7.9303797     -7.2705921      2.7122997      50218.233      36.893836      36.893836      36.893836    
   9900000   0.44118791    -7.9273158     -7.2655434      2.7355397      50218.233      36.893836      36.893836      36.893836    
  10000000   0.43956282    -7.9257655     -7.2664307      2.7461374      50218.233      36.893836      36.893836      36.893836    
  10100000   0.4392345     -7.929593      -7.2707506      2.7234283      50218.233      36.893836      36.893836      36.893836    
  10200000   0.43874715    -7.9275916     -7.2694802      2.7386745      50218.233      36.893836      36.893836      36.893836    
  10300000   0.43915633    -7.9273057     -7.2685806      2.7481451      50218.233      36.893836      36.893836      36.893836    
  10400000   0.44119308    -7.928188      -7.2664078      2.7327961      50218.233      36.893836      36.893836      36.893836    
  10500000   0.44215642    -7.9260406     -7.2628154      2.7495917      50218.233      36.893836      36.893836      36.893836    
  10600000   0.44219558    -7.9258567     -7.2625728      2.7653395      50218.233      36.893836      36.893836      36.893836    
  10700000   0.44092963    -7.9274316     -7.2660465      2.729717       50218.233      36.893836      36.893836      36.893836    
  10800000   0.44030966    -7.9274333     -7.2669782      2.7412944      50218.233      36.893836      36.893836      36.893836    
  10900000   0.4417856     -7.9261227     -7.2634538      2.7546439      50218.233      36.893836      36.893836      36.893836    
  11000000   0.43860311    -7.9273415     -7.2694462      2.7481311      50218.233      36.893836      36.893836      36.893836    
  11100000   0.44127864    -7.9277893     -7.2658808      2.7472854      50218.233      36.893836      36.893836      36.893836    
  11200000   0.4396244     -7.9281565     -7.2687293      2.738355       50218.233      36.893836      36.893836      36.893836    
  11300000   0.43853484    -7.9275775     -7.2697846      2.7364957      50218.233      36.893836      36.893836      36.893836    
  11400000   0.43859987    -7.9283621     -7.2704717      2.7320996      50218.233      36.893836      36.893836      36.893836    
  11500000   0.44117769    -7.9271235     -7.2653664      2.7438166      50218.233      36.893836      36.893836      36.893836    
  11600000   0.4414868     -7.9313195     -7.2690987      2.705453       50218.233      36.893836      36.893836      36.893836    
  11700000   0.43771795    -7.9274746     -7.270907       2.7347889      50218.233      36.893836      36.893836      36.893836    
  11800000   0.43846184    -7.9267729     -7.2690895      2.7458059      50218.233      36.893836      36.893836      36.893836    
  11900000   0.43990081    -7.9273055     -7.2674637      2.7424906      50218.233      36.893836      36.893836      36.893836    
  12000000   0.43970664    -7.9281069     -7.2685563      2.7235902      50218.233      36.893836      36.893836      36.893836    
  12100000   0.44183898    -7.9283446     -7.2655955      2.7377803      50218.233      36.893836      36.893836      36.893836    
  12200000   0.44194849    -7.9292417     -7.2663284      2.7320671      50218.233      36.893836      36.893836      36.893836    
  12300000   0.4413582     -7.9240499     -7.262022       2.7609492      50218.233      36.893836      36.893836      36.893836    
  12400000   0.44095985    -7.9282048     -7.2667744      2.7321013      50218.233      36.893836      36.893836      36.893836    
  12500000   0.44195636    -7.9293793     -7.2664542      2.725892       50218.233      36.893836      36.893836      36.893836    
  12600000   0.44016111    -7.9286157     -7.2683834      2.7425286      50218.233      36.893836      36.893836      36.893836    
  12700000   0.44062995    -7.9277289     -7.2667934      2.739745       50218.233      36.893836      36.893836      36.893836    
  12800000   0.43845889    -7.9265885     -7.2689095      2.7342438      50218.233      36.893836      36.893836      36.893836    
  12900000   0.44183326    -7.9280206     -7.2652801      2.7316241      50218.233      36.893836      36.893836      36.893836    
  13000000   0.44001073    -7.9256339     -7.2656272      2.744185       50218.233      36.893836      36.893836      36.893836    
  13100000   0.43864591    -7.9292241     -7.2712646      2.7191913      50218.233      36.893836      36.893836      36.893836    
  13200000   0.43908767    -7.9258773     -7.2672552      2.755852       50218.233      36.893836      36.893836      36.893836    
  13300000   0.44056903    -7.9273073     -7.2664632      2.7337991      50218.233      36.893836      36.893836      36.893836    
  13400000   0.43755498    -7.9282723     -7.2719491      2.7353015      50218.233      36.893836      36.893836      36.893836    
  13500000   0.44040475    -7.9234691     -7.2628714      2.7745549      50218.233      36.893836      36.893836      36.893836    
  13600000   0.43974117    -7.9308825     -7.2712801      2.7141154      50218.233      36.893836      36.893836      36.893836    
  13700000   0.44034532    -7.9283698     -7.2678612      2.732628       50218.233      36.893836      36.893836      36.893836    
  13800000   0.44061945    -7.9291552     -7.2682355      2.7282374      50218.233      36.893836      36.893836      36.893836    
  13900000   0.44260635    -7.9265354     -7.2626353      2.742236       50218.233      36.893836      36.893836      36.893836    
  14000000   0.43974334    -7.9294747     -7.2698691      2.7197771      50218.233      36.893836      36.893836      36.893836    
  14100000   0.43913226    -7.9307914     -7.2721024      2.7269453      50218.233      36.893836      36.893836      36.893836    
  14200000   0.44080926    -7.9274386     -7.2662341      2.7334387      50218.233      36.893836      36.893836      36.893836    
  14300000   0.44022489    -7.9292664     -7.2689384      2.7184517      50218.233      36.893836      36.893836      36.893836    
  14400000   0.43890666    -7.930008      -7.2716574      2.7165313      50218.233      36.893836      36.893836      36.893836    
  14500000   0.4422497     -7.9265741     -7.263209       2.74285        50218.233      36.893836      36.893836      36.893836    
  14600000   0.44060828    -7.9268547     -7.2659517      2.7529009      50218.233      36.893836      36.893836      36.893836    
  14700000   0.43800044    -7.9266156     -7.2696243      2.7377407      50218.233      36.893836      36.893836      36.893836    
  14800000   0.43885585    -7.9294137     -7.2711393      2.726033       50218.233      36.893836      36.893836      36.893836    
  14900000   0.44037575    -7.9298981     -7.2693439      2.7194826      50218.233      36.893836      36.893836      36.893836    
  15000000   0.43869634    -7.9303716     -7.2723365      2.7126905      50218.233      36.893836      36.893836      36.893836    
  15100000   0.43942833    -7.927768      -7.2686349      2.7349828      50218.233      36.893836      36.893836      36.893836    
  15200000   0.4405102     -7.9295651     -7.2688092      2.7297323      50218.233      36.893836      36.893836      36.893836    
  15300000   0.43845098    -7.9285161     -7.270849       2.7269284      50218.233      36.893836      36.893836      36.893836    
  15400000   0.43913455    -7.930758      -7.2720656      2.7038504      50218.233      36.893836      36.893836      36.893836    
  15500000   0.4383526     -7.9317744     -7.2742549      2.7190825      50218.233      36.893836      36.893836      36.893836    
  15600000   0.44088562    -7.9303916     -7.2690726      2.7084907      50218.233      36.893836      36.893836      36.893836    
  15700000   0.43839956    -7.927466      -7.269876       2.7357998      50218.233      36.893836      36.893836      36.893836    
  15800000   0.44014044    -7.9267567     -7.2665554      2.7415797      50218.233      36.893836      36.893836      36.893836    
  15900000   0.43888549    -7.9263364     -7.2680176      2.7400009      50218.233      36.893836      36.893836      36.893836    
  16000000   0.4395013     -7.9239235     -7.2646809      2.7589041      50218.233      36.893836      36.893836      36.893836    
  16100000   0.44007408    -7.9274249     -7.2673232      2.7323813      50218.233      36.893836      36.893836      36.893836    
  16200000   0.43851315    -7.928169      -7.2704086      2.7300362      50218.233      36.893836      36.893836      36.893836    
  16300000   0.44145073    -7.9304591     -7.2682925      2.7218123      50218.233      36.893836      36.893836      36.893836    
  16400000   0.44030757    -7.9268518     -7.2663999      2.7398997      50218.233      36.893836      36.893836      36.893836    
  16500000   0.4423614     -7.9264729     -7.2629402      2.7413108      50218.233      36.893836      36.893836      36.893836    
  16600000   0.44042494    -7.9270381     -7.2664101      2.744384       50218.233      36.893836      36.893836      36.893836    
  16700000   0.43776884    -7.9288847     -7.2722408      2.7187081      50218.233      36.893836      36.893836      36.893836    
  16800000   0.44099181    -7.9263002     -7.2648219      2.7425654      50218.233      36.893836      36.893836      36.893836    
  16900000   0.44067963    -7.9275397     -7.2665296      2.7313755      50218.233      36.893836      36.893836      36.893836    
  17000000   0.43885212    -7.9278839     -7.2696151      2.731387       50218.233      36.893836      36.893836      36.893836    
  17100000   0.43838707    -7.9294757     -7.2719045      2.7231433      50218.233      36.893836      36.893836      36.893836    
  17200000   0.44132793    -7.9300736     -7.2680911      2.7244522      50218.233      36.893836      36.893836      36.893836    
  17300000   0.44023992    -7.9249184     -7.2645679      2.7617867      50218.233      36.893836      36.893836      36.893836    
  17400000   0.43879201    -7.9288481     -7.2706694      2.7341866      50218.233      36.893836      36.893836      36.893836    
  17500000   0.44041346    -7.9275475     -7.2669367      2.736215       50218.233      36.893836      36.893836      36.893836    
  17600000   0.44106619    -7.9273046     -7.2657147      2.7409811      50218.233      36.893836      36.893836      36.893836    
  17700000   0.43997915    -7.9287978     -7.2688384      2.7298571      50218.233      36.893836      36.893836      36.893836    
  17800000   0.44002762    -7.9297822     -7.2697501      2.7221195      50218.233      36.893836      36.893836      36.893836    
  17900000   0.44101191    -7.9259556     -7.2644471      2.7500543      50218.233      36.893836      36.893836      36.893836    
  18000000   0.43652767    -7.9280891     -7.2733069      2.7337182      50218.233      36.893836      36.893836      36.893836    
  18100000   0.43868202    -7.9259227     -7.267909       2.7489268      50218.233      36.893836      36.893836      36.893836    
  18200000   0.44044176    -7.9273988     -7.2667456      2.7413608      50218.233      36.893836      36.893836      36.893836    
  18300000   0.43944835    -7.9261457     -7.2669826      2.7434264      50218.233      36.893836      36.893836      36.893836    
  18400000   0.44129123    -7.9279338     -7.2660064      2.7360589      50218.233      36.893836      36.893836      36.893836    
  18500000   0.44323925    -7.928894      -7.2640446      2.7331858      50218.233      36.893836      36.893836      36.893836    
  18600000   0.43752095    -7.924193      -7.2679209      2.7630929      50218.233      36.893836      36.893836      36.893836    
  18700000   0.44050921    -7.9286942     -7.2679398      2.7311676      50218.233      36.893836      36.893836      36.893836    
  18800000   0.44074032    -7.9260371     -7.264936       2.7455812      50218.233      36.893836      36.893836      36.893836    
  18900000   0.44269392    -7.9301435     -7.2661121      2.7334105      50218.233      36.893836      36.893836      36.893836    
  19000000   0.4426077     -7.9264701     -7.262568       2.7519069      50218.233      36.893836      36.893836      36.893836    
  19100000   0.44210361    -7.9281578     -7.2650118      2.7264202      50218.233      36.893836      36.893836      36.893836    
  19200000   0.4392912     -7.9291877     -7.2702603      2.7257123      50218.233      36.893836      36.893836      36.893836    
  19300000   0.43870479    -7.9308816     -7.2728338      2.7096362      50218.233      36.893836      36.893836      36.893836    
  19400000   0.4398887     -7.9277134     -7.2678898      2.7263198      50218.233      36.893836      36.893836      36.893836    
  19500000   0.43873801    -7.9311098     -7.2730122      2.6994695      50218.233      36.893836      36.893836      36.893836    
  19600000   0.44112319    -7.9294525     -7.2677771      2.7276294      50218.233      36.893836      36.893836      36.893836    
  19700000   0.44162129    -7.9318978     -7.2694752      2.7107099      50218.233      36.893836      36.893836      36.893836    
  19800000   0.44014919    -7.9237678     -7.2635534      2.7623426      50218.233      36.893836      36.893836      36.893836    
  19900000   0.44273889    -7.9287171     -7.2646182      2.7273079      50218.233      36.893836      36.893836      36.893836    
  20000000   0.44126089    -7.9273583     -7.2654763      2.7371776      50218.233      36.893836      36.893836      36.893836    
  20100000   0.43842372    -7.9273587     -7.2697324      2.7431544      50218.233      36.893836      36.893836      36.893836    
  20200000   0.44143439    -7.9304217     -7.2682795      2.7059944      50218.233      36.893836      36.893836      36.893836    
  20300000   0.44178597    -7.9262822     -7.2636127      2.7433535      50218.233      36.893836      36.893836      36.893836    
  20400000   0.44088562    -7.9318324     -7.2705133      2.7106622      50218.233      36.893836      36.893836      36.893836    
  20500000   0.43976858    -7.9279104     -7.2682669      2.7342079      50218.233      36.893836      36.893836      36.893836    
  20600000   0.43922075    -7.9299312     -7.2711095      2.7175912      50218.233      36.893836      36.893836      36.893836    
  20700000   0.437113      -7.926997      -7.2713369      2.7473375      50218.233      36.893836      36.893836      36.893836    
  20800000   0.44210139    -7.9321759     -7.2690332      2.7102449      50218.233      36.893836      36.893836      36.893836    
  20900000   0.44043335    -7.9248926     -7.264252       2.7630987      50218.233      36.893836      36.893836      36.893836    
  21000000   0.43767755    -7.9269738     -7.2704668      2.7411912      50218.233      36.893836      36.893836      36.893836    
  21100000   0.43697499    -7.9275616     -7.2721085      2.7393879      50218.233      36.893836      36.893836      36.893836    
  21200000   0.44058001    -7.927413      -7.2665524      2.7382208      50218.233      36.893836      36.893836      36.893836    
  21300000   0.44106067    -7.9303528     -7.2687712      2.7179429      50218.233      36.893836      36.893836      36.893836    
  21400000   0.44118239    -7.9252835     -7.2635194      2.766484       50218.233      36.893836      36.893836      36.893836    
  21500000   0.44001829    -7.9278534     -7.2678354      2.7331529      50218.233      36.893836      36.893836      36.893836    
  21600000   0.43988964    -7.9228701     -7.2630451      2.7712044      50218.233      36.893836      36.893836      36.893836    
  21700000   0.44027683    -7.9282169     -7.2678111      2.7332441      50218.233      36.893836      36.893836      36.893836    
  21800000   0.4389164     -7.9274448     -7.2690796      2.7406753      50218.233      36.893836      36.893836      36.893836    
  21900000   0.44182319    -7.9264296     -7.2637042      2.7598076      50218.233      36.893836      36.893836      36.893836    
  22000000   0.44069744    -7.9263553     -7.2653186      2.7465876      50218.233      36.893836      36.893836      36.893836    
  22100000   0.43939578    -7.9271787     -7.2680944      2.7390308      50218.233      36.893836      36.893836      36.893836    
  22200000   0.44162364    -7.9300484     -7.2676224      2.7179781      50218.233      36.893836      36.893836      36.893836    
  22300000   0.43861063    -7.9254344     -7.2675278      2.7593497      50218.233      36.893836      36.893836      36.893836    
  22400000   0.43912527    -7.9305898     -7.2719113      2.7181067      50218.233      36.893836      36.893836      36.893836    
  22500000   0.44215642    -7.9246296     -7.2614044      2.7684779      50218.233      36.893836      36.893836      36.893836    
  22600000   0.44048053    -7.9253076     -7.2645962      2.7530952      50218.233      36.893836      36.893836      36.893836    
  22700000   0.44261399    -7.9278488     -7.2639372      2.748977       50218.233      36.893836      36.893836      36.893836    
  22800000   0.43790197    -7.9235281     -7.2666845      2.7752357      50218.233      36.893836      36.893836      36.893836    
  22900000   0.439404      -7.92713       -7.2680334      2.7444193      50218.233      36.893836      36.893836      36.893836    
  23000000   0.44047643    -7.9282448     -7.2675395      2.7450748      50218.233      36.893836      36.893836      36.893836    
  23100000   0.43961599    -7.9299368     -7.2705222      2.7208104      50218.233      36.893836      36.893836      36.893836    
  23200000   0.44008975    -7.9283834     -7.2682581      2.7302643      50218.233      36.893836      36.893836      36.893836    
  23300000   0.43885946    -7.927482      -7.2692022      2.7431559      50218.233      36.893836      36.893836      36.893836    
  23400000   0.43814041    -7.9252654     -7.2680641      2.7594952      50218.233      36.893836      36.893836      36.893836    
  23500000   0.43900802    -7.9262837     -7.267781       2.7437236      50218.233      36.893836      36.893836      36.893836    
  23600000   0.43902974    -7.9290961     -7.2705609      2.7273238      50218.233      36.893836      36.893836      36.893836    
  23700000   0.44179407    -7.9262512     -7.2635695      2.7543385      50218.233      36.893836      36.893836      36.893836    
  23800000   0.44231616    -7.9249719     -7.2615071      2.7595612      50218.233      36.893836      36.893836      36.893836    
  23900000   0.43907838    -7.9266511     -7.2680429      2.7461468      50218.233      36.893836      36.893836      36.893836    
  24000000   0.44158977    -7.9288166     -7.2664414      2.7400145      50218.233      36.893836      36.893836      36.893836    
  24100000   0.43847226    -7.9281475     -7.2704485      2.74064        50218.233      36.893836      36.893836      36.893836    
  24200000   0.43773416    -7.92768       -7.2710881      2.7342205      50218.233      36.893836      36.893836      36.893836    
  24300000   0.43921019    -7.9269013     -7.2680954      2.7359605      50218.233      36.893836      36.893836      36.893836    
  24400000   0.44063048    -7.9290844     -7.2681481      2.7422456      50218.233      36.893836      36.893836      36.893836    
  24500000   0.43812635    -7.9252811     -7.2681009      2.7654532      50218.233      36.893836      36.893836      36.893836    
  24600000   0.44125323    -7.9292844     -7.2674139      2.7283246      50218.233      36.893836      36.893836      36.893836    
  24700000   0.44038514    -7.9281687     -7.2676003      2.7386855      50218.233      36.893836      36.893836      36.893836    
  24800000   0.4386142     -7.9268064     -7.2688944      2.7414042      50218.233      36.893836      36.893836      36.893836    
  24900000   0.43609944    -7.9288042     -7.2746644      2.7292744      50218.233      36.893836      36.893836      36.893836    
  25000000   0.44066618    -7.9272647     -7.2662748      2.7515142      50218.233      36.893836      36.893836      36.893836    
  25100000   0.43840032    -7.929748      -7.2721569      2.7191908      50218.233      36.893836      36.893836      36.893836    
  25200000   0.43772927    -7.9272848     -7.2707003      2.7423266      50218.233      36.893836      36.893836      36.893836    
  25300000   0.43940395    -7.9268318     -7.2677353      2.7427821      50218.233      36.893836      36.893836      36.893836    
  25400000   0.441006      -7.9326019     -7.2711023      2.7094157      50218.233      36.893836      36.893836      36.893836    
  25500000   0.43885929    -7.932609      -7.2743294      2.7041824      50218.233      36.893836      36.893836      36.893836    
  25600000   0.44112884    -7.9295059     -7.267822       2.7303264      50218.233      36.893836      36.893836      36.893836    
  25700000   0.44085925    -7.9310465     -7.269767       2.7198661      50218.233      36.893836      36.893836      36.893836    
  25800000   0.44155695    -7.9245624     -7.2622364      2.7676559      50218.233      36.893836      36.893836      36.893836    
  25900000   0.44066876    -7.9276452     -7.2666515      2.7482432      50218.233      36.893836      36.893836      36.893836    
  26000000   0.4379333     -7.9296754     -7.2727848      2.726213       50218.233      36.893836      36.893836      36.893836    
  26100000   0.4383737     -7.9315597     -7.2740085      2.7092731      50218.233      36.893836      36.893836      36.893836    
  26200000   0.44046238    -7.9289565     -7.2682723      2.7284786      50218.233      36.893836      36.893836      36.893836    
  26300000   0.44042275    -7.9264128     -7.2657881      2.754468       50218.233      36.893836      36.893836      36.893836    
  26400000   0.43782097    -7.9282429     -7.2715207      2.7411879      50218.233      36.893836      36.893836      36.893836    
  26500000   0.43771161    -7.9285171     -7.2719591      2.7336401      50218.233      36.893836      36.893836      36.893836    
  26600000   0.43973786    -7.9304201     -7.2708227      2.7116744      50218.233      36.893836      36.893836      36.893836    
  26700000   0.43908834    -7.9299679     -7.2713448      2.7145463      50218.233      36.893836      36.893836      36.893836    
  26800000   0.43680807    -7.9276131     -7.2724103      2.7366766      50218.233      36.893836      36.893836      36.893836    
  26900000   0.43990878    -7.9360402     -7.2761864      2.6786662      50218.233      36.893836      36.893836      36.893836    
  27000000   0.43895421    -7.9309182     -7.2724962      2.7184559      50218.233      36.893836      36.893836      36.893836    
  27100000   0.43969702    -7.9255479     -7.2660118      2.7547449      50218.233      36.893836      36.893836      36.893836    
  27200000   0.43834061    -7.9277878     -7.2702863      2.7344675      50218.233      36.893836      36.893836      36.893836    
  27300000   0.43859173    -7.9258237     -7.2679455      2.7432083      50218.233      36.893836      36.893836      36.893836    
  27400000   0.44245328    -7.9285074     -7.264837       2.7357009      50218.233      36.893836      36.893836      36.893836    
  27500000   0.43898804    -7.9273377     -7.268865       2.7483549      50218.233      36.893836      36.893836      36.893836    
  27600000   0.43783602    -7.9281654     -7.2714207      2.7373946      50218.233      36.893836      36.893836      36.893836    
  27700000   0.4406023     -7.9281181     -7.267224       2.7421022      50218.233      36.893836      36.893836      36.893836    
  27800000   0.43978177    -7.9272657     -7.2676025      2.7365226      50218.233      36.893836      36.893836      36.893836    
  27900000   0.43887858    -7.9308975     -7.272589       2.7175191      50218.233      36.893836      36.893836      36.893836    
  28000000   0.43856582    -7.9260277     -7.2681884      2.7544773      50218.233      36.893836      36.893836      36.893836    
  28100000   0.43829383    -7.9280029     -7.2705715      2.7341812      50218.233      36.893836      36.893836      36.893836    
  28200000   0.43900952    -7.9329978     -7.2744929      2.6981546      50218.233      36.893836      36.893836      36.893836    
  28300000   0.43891652    -7.9304576     -7.2720922      2.705844       50218.233      36.893836      36.893836      36.893836    
  28400000   0.44125417    -7.9314794     -7.2696076      2.7105734      50218.233      36.893836      36.893836      36.893836    
  28500000   0.43918313    -7.9306145     -7.2718492      2.7184616      50218.233      36.893836      36.893836      36.893836    
  28600000   0.4388884     -7.9269193     -7.2685961      2.7445304      50218.233      36.893836      36.893836      36.893836    
  28700000   0.44104577    -7.9306419     -7.2690826      2.722766       50218.233      36.893836      36.893836      36.893836    
  28800000   0.43950734    -7.9274863     -7.2682346      2.7375883      50218.233      36.893836      36.893836      36.893836    
  28900000   0.43931141    -7.9291009     -7.2701431      2.7289917      50218.233      36.893836      36.893836      36.893836    
  29000000   0.44153742    -7.9258258     -7.2635291      2.7575162      50218.233      36.893836      36.893836      36.893836    
  29100000   0.43926366    -7.9291913     -7.2703052      2.7339305      50218.233      36.893836      36.893836      36.893836    
  29200000   0.43814725    -7.9309463     -7.2737348      2.7087373      50218.233      36.893836      36.893836      36.893836    
  29300000   0.43829647    -7.9316881     -7.2742527      2.7054684      50218.233      36.893836      36.893836      36.893836    
  29400000   0.44097087    -7.9291031     -7.2676562      2.7392672      50218.233      36.893836      36.893836      36.893836    
  29500000   0.43833005    -7.9298295     -7.2723438      2.7198058      50218.233      36.893836      36.893836      36.893836    
  29600000   0.44074729    -7.9317337     -7.2706221      2.7138164      50218.233      36.893836      36.893836      36.893836    
  29700000   0.4413439     -7.925902      -7.2638956      2.756813       50218.233      36.893836      36.893836      36.893836    
  29800000   0.43965969    -7.9284584     -7.2689782      2.7310807      50218.233      36.893836      36.893836      36.893836    
  29900000   0.44016968    -7.9302308     -7.2699857      2.7237736      50218.233      36.893836      36.893836      36.893836    
  30000000   0.43868936    -7.9291783     -7.2711536      2.7230125      50218.233      36.893836      36.893836      36.893836    
  30100000   0.44016299    -7.9296191     -7.269384       2.7219381      50218.233      36.893836      36.893836      36.893836    
  30200000   0.43985698    -7.9269789     -7.2672028      2.7361355      50218.233      36.893836      36.893836      36.893836    
  30300000   0.44172261    -7.9301354     -7.2675609      2.7177399      50218.233      36.893836      36.893836      36.893836    
  30400000   0.44085561    -7.9314278     -7.2701538      2.7191425      50218.233      36.893836      36.893836      36.893836    
  30500000   0.4409037     -7.9306723     -7.2693261      2.7162449      50218.233      36.893836      36.893836      36.893836    
  30600000   0.43930991    -7.9300187     -7.2710633      2.7267865      50218.233      36.893836      36.893836      36.893836    
  30700000   0.44013798    -7.9280485     -7.2678509      2.7402008      50218.233      36.893836      36.893836      36.893836    
  30800000   0.43878364    -7.9297574     -7.2715912      2.7268954      50218.233      36.893836      36.893836      36.893836    
  30900000   0.43844752    -7.9283619     -7.2706999      2.7270693      50218.233      36.893836      36.893836      36.893836    
  31000000   0.44024945    -7.9329478     -7.272583       2.7029589      50218.233      36.893836      36.893836      36.893836    
  31100000   0.43857985    -7.9298953     -7.2720349      2.7287349      50218.233      36.893836      36.893836      36.893836    
  31200000   0.44024824    -7.9290552     -7.2686922      2.7301609      50218.233      36.893836      36.893836      36.893836    
  31300000   0.43950245    -7.9296411     -7.2703968      2.7225889      50218.233      36.893836      36.893836      36.893836    
  31400000   0.43786793    -7.9280821     -7.2712895      2.7382892      50218.233      36.893836      36.893836      36.893836    
  31500000   0.4412544     -7.9329851     -7.2711129      2.6990316      50218.233      36.893836      36.893836      36.893836    
  31600000   0.44048573    -7.9338593     -7.2731401      2.6964891      50218.233      36.893836      36.893836      36.893836    
  31700000   0.44002122    -7.9274032     -7.2673808      2.7380138      50218.233      36.893836      36.893836      36.893836    
  31800000   0.43876838    -7.9278217     -7.2696784      2.7405284      50218.233      36.893836      36.893836      36.893836    
  31900000   0.43874706    -7.9276124     -7.2695012      2.7389701      50218.233      36.893836      36.893836      36.893836    
  32000000   0.44155789    -7.9275954     -7.265268       2.7442         50218.233      36.893836      36.893836      36.893836    
  32100000   0.44121603    -7.928279      -7.2664644      2.728711       50218.233      36.893836      36.893836      36.893836    
  32200000   0.44240877    -7.9303801     -7.2667764      2.7200324      50218.233      36.893836      36.893836      36.893836    
  32300000   0.43996993    -7.9302977     -7.2703522      2.7240739      50218.233      36.893836      36.893836      36.893836    
  32400000   0.43857336    -7.9293313     -7.2714807      2.7279738      50218.233      36.893836      36.893836      36.893836    
  32500000   0.43980086    -7.929189      -7.2694971      2.7322251      50218.233      36.893836      36.893836      36.893836    
  32600000   0.439267      -7.9324758     -7.2735846      2.7086099      50218.233      36.893836      36.893836      36.893836    
  32700000   0.44141389    -7.9289943     -7.2668829      2.7361829      50218.233      36.893836      36.893836      36.893836    
  32800000   0.43922173    -7.9347317     -7.2759085      2.681116       50218.233      36.893836      36.893836      36.893836    
  32900000   0.43772577    -7.9301293     -7.27355        2.7197933      50218.233      36.893836      36.893836      36.893836    
  33000000   0.44213411    -7.9285463     -7.2653546      2.7293562      50218.233      36.893836      36.893836      36.893836    
  33100000   0.43971052    -7.9295086     -7.2699522      2.7174468      50218.233      36.893836      36.893836      36.893836    
  33200000   0.43953658    -7.9294669     -7.2701714      2.726567       50218.233      36.893836      36.893836      36.893836    
  33300000   0.43829609    -7.9303992     -7.2729644      2.7253905      50218.233      36.893836      36.893836      36.893836    
  33400000   0.44110078    -7.9308145     -7.2691728      2.7261537      50218.233      36.893836      36.893836      36.893836    
  33500000   0.43903595    -7.9332888     -7.2747442      2.6886089      50218.233      36.893836      36.893836      36.893836    
  33600000   0.44001934    -7.9272626     -7.267243       2.7541599      50218.233      36.893836      36.893836      36.893836    
  33700000   0.43978161    -7.9298844     -7.2702213      2.7204564      50218.233      36.893836      36.893836      36.893836    
  33800000   0.44096044    -7.9326539     -7.2712226      2.7073471      50218.233      36.893836      36.893836      36.893836    
  33900000   0.44099028    -7.927617      -7.2661409      2.7402508      50218.233      36.893836      36.893836      36.893836    
  34000000   0.44098419    -7.9302415     -7.2687747      2.7154567      50218.233      36.893836      36.893836      36.893836    
  34100000   0.43889418    -7.9332491     -7.2749172      2.7039922      50218.233      36.893836      36.893836      36.893836    
  34200000   0.44085303    -7.9357467     -7.2744766      2.6840894      50218.233      36.893836      36.893836      36.893836    
  34300000   0.43868465    -7.9330385     -7.2750208      2.7075221      50218.233      36.893836      36.893836      36.893836    
  34400000   0.43937174    -7.9258859     -7.2668377      2.7496372      50218.233      36.893836      36.893836      36.893836    
  34500000   0.44082295    -7.9326517     -7.2714267      2.6947058      50218.233      36.893836      36.893836      36.893836    
  34600000   0.43950581    -7.9313017     -7.2720523      2.704027       50218.233      36.893836      36.893836      36.893836    
  34700000   0.43749423    -7.9304183     -7.2741863      2.707172       50218.233      36.893836      36.893836      36.893836    
  34800000   0.43954513    -7.9312103     -7.2719019      2.7156905      50218.233      36.893836      36.893836      36.893836    
  34900000   0.44219435    -7.9324412     -7.2691591      2.7103084      50218.233      36.893836      36.893836      36.893836    
  35000000   0.43995059    -7.9323815     -7.272465       2.709796       50218.233      36.893836      36.893836      36.893836    
  35100000   0.43767342    -7.9317275     -7.2752267      2.7055095      50218.233      36.893836      36.893836      36.893836    
  35200000   0.44020541    -7.9342787     -7.2739799      2.6885162      50218.233      36.893836      36.893836      36.893836    
  35300000   0.44332696    -7.931728      -7.266747       2.7170998      50218.233      36.893836      36.893836      36.893836    
  35400000   0.44014137    -7.9316901     -7.2714875      2.7065756      50218.233      36.893836      36.893836      36.893836    
  35500000   0.44256667    -7.9272214     -7.2633808      2.7451839      50218.233      36.893836      36.893836      36.893836    
  35600000   0.44142891    -7.9346349     -7.272501       2.6867832      50218.233      36.893836      36.893836      36.893836    
  35700000   0.43836735    -7.9318089     -7.2742672      2.7178394      50218.233      36.893836      36.893836      36.893836    
  35800000   0.43944361    -7.9318712     -7.2727152      2.7164585      50218.233      36.893836      36.893836      36.893836    
  35900000   0.43882702    -7.9277577     -7.2695265      2.7475374      50218.233      36.893836      36.893836      36.893836    
  36000000   0.44011917    -7.9323905     -7.2722212      2.6987211      50218.233      36.893836      36.893836      36.893836    
  36100000   0.43678061    -7.9305325     -7.2753709      2.7159667      50218.233      36.893836      36.893836      36.893836    
  36200000   0.44148178    -7.9310528     -7.2688396      2.7201867      50218.233      36.893836      36.893836      36.893836    
  36300000   0.44215835    -7.9313375     -7.2681094      2.7129914      50218.233      36.893836      36.893836      36.893836    
  36400000   0.43845121    -7.9321831     -7.2745156      2.7113263      50218.233      36.893836      36.893836      36.893836    
  36500000   0.44307003    -7.9294843     -7.2648887      2.7316414      50218.233      36.893836      36.893836      36.893836    
  36600000   0.4374221     -7.9274368     -7.271313       2.7388115      50218.233      36.893836      36.893836      36.893836    
  36700000   0.44241506    -7.9310161     -7.267403       2.7114839      50218.233      36.893836      36.893836      36.893836    
  36800000   0.43872703    -7.9278849     -7.2698037      2.7405878      50218.233      36.893836      36.893836      36.893836    
  36900000   0.44119637    -7.9274081     -7.2656229      2.7378441      50218.233      36.893836      36.893836      36.893836    
  37000000   0.44157365    -7.9308281     -7.268477       2.7138911      50218.233      36.893836      36.893836      36.893836    
  37100000   0.43757098    -7.9274237     -7.2710766      2.7391852      50218.233      36.893836      36.893836      36.893836    
  37200000   0.43806675    -7.9269319     -7.2698411      2.7379212      50218.233      36.893836      36.893836      36.893836    
  37300000   0.43991785    -7.9278835     -7.2680161      2.7345492      50218.233      36.893836      36.893836      36.893836    
  37400000   0.44023874    -7.9303829     -7.2700342      2.7135732      50218.233      36.893836      36.893836      36.893836    
  37500000   0.43956013    -7.9302578     -7.270927       2.7189712      50218.233      36.893836      36.893836      36.893836    
  37600000   0.44082127    -7.9313945     -7.270172       2.7033182      50218.233      36.893836      36.893836      36.893836    
  37700000   0.4390686     -7.9288969     -7.2703034      2.7265912      50218.233      36.893836      36.893836      36.893836    
  37800000   0.44030818    -7.9318228     -7.2713699      2.7074069      50218.233      36.893836      36.893836      36.893836    
  37900000   0.44124341    -7.9275016     -7.2656459      2.747423       50218.233      36.893836      36.893836      36.893836    
  38000000   0.4384349     -7.9269277     -7.2692847      2.7414454      50218.233      36.893836      36.893836      36.893836    
  38100000   0.44000212    -7.9304313     -7.2704375      2.7214735      50218.233      36.893836      36.893836      36.893836    
  38200000   0.43882092    -7.9278609     -7.2696389      2.7318533      50218.233      36.893836      36.893836      36.893836    
  38300000   0.43852518    -7.9317664     -7.273988       2.7002582      50218.233      36.893836      36.893836      36.893836    
  38400000   0.44269653    -7.926681      -7.2626456      2.7420603      50218.233      36.893836      36.893836      36.893836    
  38500000   0.43919057    -7.931587      -7.2728105      2.7046914      50218.233      36.893836      36.893836      36.893836    
  38600000   0.43803572    -7.9327883     -7.275744       2.7146958      50218.233      36.893836      36.893836      36.893836    
  38700000   0.43850736    -7.9294141     -7.2716624      2.7285585      50218.233      36.893836      36.893836      36.893836    
  38800000   0.44047546    -7.9266549     -7.2659511      2.7508923      50218.233      36.893836      36.893836      36.893836    
  38900000   0.44179308    -7.9316993     -7.2690191      2.7064946      50218.233      36.893836      36.893836      36.893836    
  39000000   0.44081934    -7.9299737     -7.2687541      2.7220623      50218.233      36.893836      36.893836      36.893836    
  39100000   0.44025936    -7.9286365     -7.2682568      2.7361504      50218.233      36.893836      36.893836      36.893836    
  39200000   0.44112274    -7.9312161     -7.2695414      2.7139359      50218.233      36.893836      36.893836      36.893836    
  39300000   0.43966395    -7.9305391     -7.2710526      2.7226796      50218.233      36.893836      36.893836      36.893836    
  39400000   0.44025018    -7.9324208     -7.2720549      2.7088536      50218.233      36.893836      36.893836      36.893836    
  39500000   0.44003812    -7.9306747     -7.2706269      2.7156098      50218.233      36.893836      36.893836      36.893836    
  39600000   0.43898763    -7.9317838     -7.2733117      2.7054065      50218.233      36.893836      36.893836      36.893836    
  39700000   0.43855232    -7.9291092     -7.2712901      2.7318182      50218.233      36.893836      36.893836      36.893836    
  39800000   0.43784556    -7.925468      -7.268709       2.7416554      50218.233      36.893836      36.893836      36.893836    
  39900000   0.44064378    -7.928105      -7.2671488      2.732725       50218.233      36.893836      36.893836      36.893836    
  40000000   0.43953337    -7.9302026     -7.2709119      2.7252966      50218.233      36.893836      36.893836      36.893836    
  40100000   0.43766573    -7.9303444     -7.2738551      2.7165007      50218.233      36.893836      36.893836      36.893836    
  40200000   0.44163621    -7.9329481     -7.2705032      2.6989557      50218.233      36.893836      36.893836      36.893836    
  40300000   0.43791804    -7.933368      -7.2765003      2.697567       50218.233      36.893836      36.893836      36.893836    
  40400000   0.44051768    -7.9311396     -7.2703725      2.7101522      50218.233      36.893836      36.893836      36.893836    
  40500000   0.43895967    -7.9285527     -7.2701225      2.7360355      50218.233      36.893836      36.893836      36.893836    
  40600000   0.44130566    -7.9268603     -7.2649113      2.7464002      50218.233      36.893836      36.893836      36.893836    
  40700000   0.43993521    -7.9289972     -7.2691038      2.7326618      50218.233      36.893836      36.893836      36.893836    
  40800000   0.44165565    -7.9300238     -7.2675498      2.7193796      50218.233      36.893836      36.893836      36.893836    
  40900000   0.4409463     -7.9262389     -7.2648289      2.7498604      50218.233      36.893836      36.893836      36.893836    
  41000000   0.44228625    -7.9262466     -7.2628267      2.7510311      50218.233      36.893836      36.893836      36.893836    
  41100000   0.43980512    -7.9285725     -7.2688742      2.722925       50218.233      36.893836      36.893836      36.893836    
  41200000   0.43945376    -7.9281661     -7.2689948      2.7320596      50218.233      36.893836      36.893836      36.893836    
  41300000   0.44192956    -7.9307874     -7.2679025      2.727412       50218.233      36.893836      36.893836      36.893836    
  41400000   0.43915072    -7.9265043     -7.2677876      2.7440288      50218.233      36.893836      36.893836      36.893836    
  41500000   0.44254864    -7.9292898     -7.2654763      2.7390328      50218.233      36.893836      36.893836      36.893836    
  41600000   0.44129418    -7.931259      -7.2693271      2.709527       50218.233      36.893836      36.893836      36.893836    
  41700000   0.43982385    -7.9227564     -7.26303        2.780872       50218.233      36.893836      36.893836      36.893836    
  41800000   0.44015645    -7.9275725     -7.2673472      2.7437768      50218.233      36.893836      36.893836      36.893836    
  41900000   0.44327535    -7.926118      -7.2612145      2.7608958      50218.233      36.893836      36.893836      36.893836    
  42000000   0.43740061    -7.923273      -7.2671814      2.7655509      50218.233      36.893836      36.893836      36.893836    
  42100000   0.43923163    -7.9241369     -7.2652988      2.7656975      50218.233      36.893836      36.893836      36.893836    
  42200000   0.43892462    -7.9287445     -7.2703669      2.7302271      50218.233      36.893836      36.893836      36.893836    
  42300000   0.44207462    -7.9276867     -7.2645842      2.7315513      50218.233      36.893836      36.893836      36.893836    
  42400000   0.44110046    -7.9241015     -7.2624602      2.7563943      50218.233      36.893836      36.893836      36.893836    
  42500000   0.44147719    -7.9251919     -7.2629856      2.7609752      50218.233      36.893836      36.893836      36.893836    
  42600000   0.44142331    -7.9292672     -7.2671417      2.7292664      50218.233      36.893836      36.893836      36.893836    
  42700000   0.43854642    -7.9259714     -7.2681612      2.7463808      50218.233      36.893836      36.893836      36.893836    
  42800000   0.44180504    -7.9285743     -7.2658762      2.7335016      50218.233      36.893836      36.893836      36.893836    
  42900000   0.43988673    -7.9261593     -7.2663386      2.749326       50218.233      36.893836      36.893836      36.893836    
  43000000   0.43855941    -7.9304908     -7.2726611      2.7136815      50218.233      36.893836      36.893836      36.893836    
  43100000   0.43712534    -7.9314894     -7.2758107      2.7003516      50218.233      36.893836      36.893836      36.893836    
  43200000   0.43945823    -7.9309019     -7.2717239      2.716429       50218.233      36.893836      36.893836      36.893836    
  43300000   0.44114496    -7.92808       -7.266372       2.7341938      50218.233      36.893836      36.893836      36.893836    
  43400000   0.43849198    -7.9284869     -7.2707583      2.7345514      50218.233      36.893836      36.893836      36.893836    
  43500000   0.43891309    -7.9295268     -7.2711665      2.7231776      50218.233      36.893836      36.893836      36.893836    
  43600000   0.443211      -7.9323766     -7.2675696      2.7071469      50218.233      36.893836      36.893836      36.893836    
  43700000   0.44018596    -7.9323965     -7.272127       2.7059982      50218.233      36.893836      36.893836      36.893836    
  43800000   0.43938668    -7.9288391     -7.2697685      2.7345964      50218.233      36.893836      36.893836      36.893836    
  43900000   0.43840173    -7.9320532     -7.27446        2.7079088      50218.233      36.893836      36.893836      36.893836    
  44000000   0.43778663    -7.929068      -7.2723973      2.7232152      50218.233      36.893836      36.893836      36.893836    
  44100000   0.43946246    -7.9291981     -7.2700138      2.7370762      50218.233      36.893836      36.893836      36.893836    
  44200000   0.43877273    -7.9258932     -7.2677435      2.7486026      50218.233      36.893836      36.893836      36.893836    
  44300000   0.4398914     -7.9308235     -7.2709958      2.7183201      50218.233      36.893836      36.893836      36.893836    
  44400000   0.44026095    -7.9303351     -7.2699531      2.7214771      50218.233      36.893836      36.893836      36.893836    
  44500000   0.43859077    -7.9288        -7.2709232      2.7279951      50218.233      36.893836      36.893836      36.893836    
  44600000   0.44060791    -7.9277994     -7.2668969      2.7369147      50218.233      36.893836      36.893836      36.893836    
  44700000   0.44047406    -7.9317469     -7.2710452      2.7130197      50218.233      36.893836      36.893836      36.893836    
  44800000   0.43760912    -7.9349558     -7.2785515      2.6737645      50218.233      36.893836      36.893836      36.893836    
  44900000   0.43950914    -7.9321886     -7.2729343      2.6976354      50218.233      36.893836      36.893836      36.893836    
  45000000   0.44055993    -7.9284675     -7.267637       2.7384617      50218.233      36.893836      36.893836      36.893836    
  45100000   0.44168597    -7.9309762     -7.2684567      2.7133381      50218.233      36.893836      36.893836      36.893836    
  45200000   0.43871594    -7.9283986     -7.2703341      2.7356509      50218.233      36.893836      36.893836      36.893836    
  45300000   0.44000614    -7.9295935     -7.2695937      2.7328377      50218.233      36.893836      36.893836      36.893836    
  45400000   0.43939483    -7.9311584     -7.2720755      2.7165757      50218.233      36.893836      36.893836      36.893836    
  45500000   0.44242653    -7.9273191     -7.2636887      2.7523854      50218.233      36.893836      36.893836      36.893836    
  45600000   0.4393353     -7.9297905     -7.2707969      2.7284923      50218.233      36.893836      36.893836      36.893836    
  45700000   0.43821468    -7.9282369     -7.2709243      2.7344815      50218.233      36.893836      36.893836      36.893836    
  45800000   0.43859904    -7.9308557     -7.2729665      2.7200785      50218.233      36.893836      36.893836      36.893836    
  45900000   0.43993356    -7.9313765     -7.2714855      2.7184605      50218.233      36.893836      36.893836      36.893836    
  46000000   0.44000754    -7.9306658     -7.2706638      2.7178824      50218.233      36.893836      36.893836      36.893836    
  46100000   0.44137335    -7.9297675     -7.2677169      2.7337114      50218.233      36.893836      36.893836      36.893836    
  46200000   0.43962837    -7.9290405     -7.2696073      2.7354705      50218.233      36.893836      36.893836      36.893836    
  46300000   0.44054564    -7.9256387     -7.2648296      2.7585804      50218.233      36.893836      36.893836      36.893836    
  46400000   0.44057037    -7.9284929     -7.2676468      2.7384214      50218.233      36.893836      36.893836      36.893836    
  46500000   0.44018672    -7.927309      -7.2670383      2.7568483      50218.233      36.893836      36.893836      36.893836    
  46600000   0.44049859    -7.927569      -7.2668305      2.7433071      50218.233      36.893836      36.893836      36.893836    
  46700000   0.441344      -7.9276297     -7.2656231      2.7410343      50218.233      36.893836      36.893836      36.893836    
  46800000   0.43901333    -7.9272511     -7.2687404      2.7526048      50218.233      36.893836      36.893836      36.893836    
  46900000   0.43952157    -7.9280469     -7.2687739      2.741173       50218.233      36.893836      36.893836      36.893836    
  47000000   0.44021711    -7.9254741     -7.2651578      2.7639228      50218.233      36.893836      36.893836      36.893836    
  47100000   0.44131429    -7.92937       -7.267408       2.7339696      50218.233      36.893836      36.893836      36.893836    
  47200000   0.43925003    -7.9295928     -7.2707271      2.7201016      50218.233      36.893836      36.893836      36.893836    
  47300000   0.43773573    -7.931401      -7.2748067      2.712651       50218.233      36.893836      36.893836      36.893836    
  47400000   0.44150368    -7.9305271     -7.268281       2.7180306      50218.233      36.893836      36.893836      36.893836    
  47500000   0.43815332    -7.9322673     -7.2750467      2.7108948      50218.233      36.893836      36.893836      36.893836    
  47600000   0.4390671     -7.9280353     -7.269444       2.7282455      50218.233      36.893836      36.893836      36.893836    
  47700000   0.44079894    -7.9251736     -7.2639846      2.7576648      50218.233      36.893836      36.893836      36.893836    
  47800000   0.43950816    -7.9320228     -7.27277        2.7055596      50218.233      36.893836      36.893836      36.893836    
  47900000   0.44054231    -7.9296906     -7.2688865      2.7385783      50218.233      36.893836      36.893836      36.893836    
  48000000   0.43863166    -7.9309102     -7.2729721      2.7131581      50218.233      36.893836      36.893836      36.893836    
  48100000   0.43775671    -7.9315742     -7.2749485      2.7098091      50218.233      36.893836      36.893836      36.893836    
  48200000   0.43941373    -7.9311449     -7.2720336      2.7166646      50218.233      36.893836      36.893836      36.893836    
  48300000   0.43817356    -7.9299317     -7.2726807      2.7180307      50218.233      36.893836      36.893836      36.893836    
  48400000   0.43965837    -7.931789      -7.2723108      2.7044342      50218.233      36.893836      36.893836      36.893836    
  48500000   0.43834997    -7.9307584     -7.2732428      2.7076366      50218.233      36.893836      36.893836      36.893836    
  48600000   0.44033349    -7.9279703     -7.2674795      2.735969       50218.233      36.893836      36.893836      36.893836    
  48700000   0.44228201    -7.9335385     -7.2701249      2.6871605      50218.233      36.893836      36.893836      36.893836    
  48800000   0.43899902    -7.9287093     -7.2702202      2.7305404      50218.233      36.893836      36.893836      36.893836    
  48900000   0.43858335    -7.9305767     -7.2727111      2.706546       50218.233      36.893836      36.893836      36.893836    
  49000000   0.44077544    -7.9301204     -7.2689666      2.7265426      50218.233      36.893836      36.893836      36.893836    
  49100000   0.43859482    -7.9317408     -7.2738579      2.7159277      50218.233      36.893836      36.893836      36.893836    
  49200000   0.44003959    -7.9291161     -7.2690661      2.7208782      50218.233      36.893836      36.893836      36.893836    
  49300000   0.4395127     -7.9375049     -7.2782452      2.6727493      50218.233      36.893836      36.893836      36.893836    
  49400000   0.4396874     -7.9340288     -7.2745071      2.689451       50218.233      36.893836      36.893836      36.893836    
  49500000   0.44139096    -7.9329038     -7.2708268      2.697562       50218.233      36.893836      36.893836      36.893836    
  49600000   0.44071094    -7.9282618     -7.2672048      2.7395314      50218.233      36.893836      36.893836      36.893836    
  49700000   0.44073883    -7.9275734     -7.2664746      2.7347522      50218.233      36.893836      36.893836      36.893836    
  49800000   0.43899687    -7.9319394     -7.2734535      2.7068335      50218.233      36.893836      36.893836      36.893836    
  49900000   0.438856      -7.9312963     -7.2730216      2.7107235      50218.233      36.893836      36.893836      36.893836    
  50000000   0.44096686    -7.9327258     -7.271285       2.7038595      50218.233      36.893836      36.893836      36.893836    
Loop time of 70021.8 on 5 procs for 50000000 steps with 70304 atoms

Performance: 616950.725 tau/day, 714.063 timesteps/s, 50.202 Matom-step/s
94.9% CPU use with 5 MPI tasks x 1 OpenMP threads

MPI task timing breakdown:
Section |  min time  |  avg time  |  max time  |%varavg| %total
---------------------------------------------------------------
Pair    | 21579      | 25016      | 28223      |1593.2 | 35.73
Neigh   | 213.63     | 232.59     | 254.9      |  89.1 |  0.33
Comm    | 11215      | 11431      | 11574      | 122.9 | 16.32
Output  | 0.089736   | 0.093292   | 0.099843   |   1.2 |  0.00
Modify  | 26317      | 29732      | 33473      |1548.3 | 42.46
Other   |            | 3611       |            |       |  5.16

Nlocal:        14060.8 ave       14135 max       14022 min
Histogram: 2 0 1 0 1 0 0 0 0 1
Nghost:        18746.6 ave       18789 max       18696 min
Histogram: 1 0 1 0 0 1 0 0 0 2
Neighs:              0 ave           0 max           0 min
Histogram: 5 0 0 0 0 0 0 0 0 0

Total # of neighbors = 0
Ave neighs/atom = 0
Neighbor list builds = 9998897
Dangerous builds = 0
clear
OMP_NUM_THREADS environment is not set. Defaulting to 1 thread. (src/comm.cpp:98)
  using 1 OpenMP thread(s) per MPI task
package gpu 0
jump dms420.lmp

variable T equal 420
# T = 1000* (temp in LJ unit)
variable f equal 100000
log log.${T}
log log.420
