variable TLJ equal (${T}/1000)
variable TLJ equal (485/1000)
variable NCyle equal 5
variable iStep equal (${f})
variable iStep equal (100000)
variable dumpStep equal (${f}*100)
variable dumpStep equal (100000*100)
variable runStep equal (${f}*100*${NCyle})
variable runStep equal (100000*100*${NCyle})
variable runStep equal (100000*100*5)

units       lj
atom_style  atomic
dimension 3
boundary     p p p
pair_style  lj/cut 2.5
read_data  ../data/T${T}.dat
read_data  ../data/T485.dat
Reading data file ...
  orthogonal box = (0.97250269 0.97250269 0.97250269) to (37.866338 37.866338 37.866338)
  1 by 1 by 5 MPI processor grid
  reading atoms ...
  70304 atoms
  reading velocities ...
  70304 velocities
  read_data CPU = 0.209 seconds
change_box all triclinic
Changing box ...
  triclinic box = (0.97250269 0.97250269 0.97250269) to (37.866338 37.866338 37.866338) with tilt (0 0 0)
mass 1 1
mass 2 1
pair_modify shift yes
pair_coeff  1 1 1 1
pair_coeff  1 2 1.5 0.8
pair_coeff  2 2 0.5 0.88


timestep 0.01
thermo ${iStep}
thermo 100000
reset_timestep 0
thermo_style custom step temp pe etotal press vol lx ly lz
fix             1 all nvt temp ${TLJ}  ${TLJ}  0.1
fix             1 all nvt temp 0.485  ${TLJ}  0.1
fix             1 all nvt temp 0.485  0.485  0.1
thermo_modify flush yes

fix dsf all deform 1 xy  wiggle 0.5  ${f}   units box
fix dsf all deform 1 xy  wiggle 0.5  100000   units box
fix ps1 all ave/time 1 1 ${iStep} c_thermo_press[1] c_thermo_press[2]  c_thermo_press[3] c_thermo_press[4]  c_thermo_press[5] c_thermo_press[6]  file  stress.${T}
fix ps1 all ave/time 1 1 100000 c_thermo_press[1] c_thermo_press[2]  c_thermo_press[3] c_thermo_press[4]  c_thermo_press[5] c_thermo_press[6]  file  stress.${T}
fix ps1 all ave/time 1 1 100000 c_thermo_press[1] c_thermo_press[2]  c_thermo_press[3] c_thermo_press[4]  c_thermo_press[5] c_thermo_press[6]  file  stress.485
dump            1 all custom ${dumpStep} dump.${T} id type x y z
dump            1 all custom 10000000 dump.${T} id type x y z
dump            1 all custom 10000000 dump.485 id type x y z
dump_modify 1 sort id
fix nodrift all momentum 1  linear 1 1 1
fix com_seed all recenter INIT INIT INIT shift all
run ${runStep}
run 50000000
Generated 0 of 1 mixed pair_coeff terms from geometric mixing rule
Per MPI rank memory allocation (min/avg/max) = 6.661 | 8.468 | 8.921 Mbytes
   Step          Temp          PotEng         TotEng         Press          Volume           Lx             Ly             Lz      
         0   0.48656364    -7.8564828     -7.1266477      3.3443906      50218.233      36.893836      36.893836      36.893836    
    100000   0.48417271    -7.8467526     -7.1205039      3.4061424      50218.233      36.893836      36.893836      36.893836    
    200000   0.48536816    -7.8457508     -7.1177089      3.4011477      50218.233      36.893836      36.893836      36.893836    
    300000   0.48518005    -7.8472249     -7.1194651      3.4047194      50218.233      36.893836      36.893836      36.893836    
    400000   0.48405596    -7.8488044     -7.1227308      3.3869362      50218.233      36.893836      36.893836      36.893836    
    500000   0.48401388    -7.8428912     -7.1168807      3.4239318      50218.233      36.893836      36.893836      36.893836    
    600000   0.48099384    -7.8452436     -7.1237631      3.4118684      50218.233      36.893836      36.893836      36.893836    
    700000   0.4844791     -7.8453791     -7.1186708      3.4268238      50218.233      36.893836      36.893836      36.893836    
    800000   0.48180413    -7.8466001     -7.1239042      3.3881204      50218.233      36.893836      36.893836      36.893836    
    900000   0.48472692    -7.8455071     -7.118427       3.3997288      50218.233      36.893836      36.893836      36.893836    
   1000000   0.4839147     -7.8432786     -7.1174169      3.4198058      50218.233      36.893836      36.893836      36.893836    
   1100000   0.48715433    -7.8448352     -7.1141141      3.4051815      50218.233      36.893836      36.893836      36.893836    
   1200000   0.48442642    -7.8489474     -7.1223181      3.3763444      50218.233      36.893836      36.893836      36.893836    
   1300000   0.48341612    -7.8442712     -7.1191573      3.4041686      50218.233      36.893836      36.893836      36.893836    
   1400000   0.48879088    -7.8495933     -7.1164174      3.3855889      50218.233      36.893836      36.893836      36.893836    
   1500000   0.48407775    -7.8475864     -7.1214801      3.3981588      50218.233      36.893836      36.893836      36.893836    
   1600000   0.48566212    -7.8461401     -7.1176573      3.4044544      50218.233      36.893836      36.893836      36.893836    
   1700000   0.48501749    -7.8457326     -7.1182167      3.4118357      50218.233      36.893836      36.893836      36.893836    
   1800000   0.48482844    -7.8479825     -7.1207502      3.3861738      50218.233      36.893836      36.893836      36.893836    
   1900000   0.48588516    -7.8443907     -7.1155734      3.4217528      50218.233      36.893836      36.893836      36.893836    
   2000000   0.4827255     -7.8485141     -7.1244362      3.3763859      50218.233      36.893836      36.893836      36.893836    
   2100000   0.48648378    -7.8474932     -7.1177779      3.3951785      50218.233      36.893836      36.893836      36.893836    
   2200000   0.48415144    -7.8451341     -7.1189173      3.4085288      50218.233      36.893836      36.893836      36.893836    
   2300000   0.48678081    -7.8403285     -7.1101677      3.4510872      50218.233      36.893836      36.893836      36.893836    
   2400000   0.48211139    -7.8455977     -7.1224409      3.4071794      50218.233      36.893836      36.893836      36.893836    
   2500000   0.48595299    -7.8454785     -7.1165594      3.4059212      50218.233      36.893836      36.893836      36.893836    
   2600000   0.48433497    -7.848162      -7.1216699      3.3882347      50218.233      36.893836      36.893836      36.893836    
   2700000   0.48511838    -7.844568      -7.1169008      3.4188156      50218.233      36.893836      36.893836      36.893836    
   2800000   0.4850913     -7.8424551     -7.1148285      3.4413349      50218.233      36.893836      36.893836      36.893836    
   2900000   0.48622447    -7.844175      -7.1148487      3.4067778      50218.233      36.893836      36.893836      36.893836    
   3000000   0.48675608    -7.8469717     -7.116848       3.3927782      50218.233      36.893836      36.893836      36.893836    
   3100000   0.48495137    -7.8429301     -7.1155134      3.430324       50218.233      36.893836      36.893836      36.893836    
   3200000   0.48493712    -7.8492153     -7.12182        3.3712698      50218.233      36.893836      36.893836      36.893836    
   3300000   0.48342935    -7.8425452     -7.1174114      3.4266172      50218.233      36.893836      36.893836      36.893836    
   3400000   0.48767521    -7.8453027     -7.1138003      3.4143233      50218.233      36.893836      36.893836      36.893836    
   3500000   0.48455859    -7.8438385     -7.1170109      3.4214667      50218.233      36.893836      36.893836      36.893836    
   3600000   0.48385146    -7.8439652     -7.1181983      3.4194534      50218.233      36.893836      36.893836      36.893836    
   3700000   0.48345192    -7.8469981     -7.1218305      3.3921669      50218.233      36.893836      36.893836      36.893836    
   3800000   0.48553816    -7.8472882     -7.1189913      3.3922041      50218.233      36.893836      36.893836      36.893836    
   3900000   0.48554448    -7.8508127     -7.1225063      3.3649337      50218.233      36.893836      36.893836      36.893836    
   4000000   0.48501404    -7.8496321     -7.1221214      3.3781658      50218.233      36.893836      36.893836      36.893836    
   4100000   0.48876919    -7.8433973     -7.1102539      3.4259586      50218.233      36.893836      36.893836      36.893836    
   4200000   0.48765657    -7.8480664     -7.1165919      3.3946864      50218.233      36.893836      36.893836      36.893836    
   4300000   0.48534643    -7.8462773     -7.118268       3.3958203      50218.233      36.893836      36.893836      36.893836    
   4400000   0.4868669     -7.8522882     -7.1219983      3.3538874      50218.233      36.893836      36.893836      36.893836    
   4500000   0.48366439    -7.8507166     -7.1252303      3.3646222      50218.233      36.893836      36.893836      36.893836    
   4600000   0.48507828    -7.8457091     -7.118102       3.4034973      50218.233      36.893836      36.893836      36.893836    
   4700000   0.48346205    -7.8452449     -7.1200622      3.4115936      50218.233      36.893836      36.893836      36.893836    
   4800000   0.48678065    -7.8476934     -7.1175328      3.3836494      50218.233      36.893836      36.893836      36.893836    
   4900000   0.48532032    -7.8498047     -7.1218345      3.3711969      50218.233      36.893836      36.893836      36.893836    
   5000000   0.48515994    -7.847619      -7.1198894      3.3955412      50218.233      36.893836      36.893836      36.893836    
   5100000   0.48320183    -7.8452981     -7.1205056      3.4057238      50218.233      36.893836      36.893836      36.893836    
   5200000   0.48493262    -7.8463019     -7.1189134      3.387347       50218.233      36.893836      36.893836      36.893836    
   5300000   0.48453698    -7.8440502     -7.1172551      3.4103073      50218.233      36.893836      36.893836      36.893836    
   5400000   0.48354862    -7.8432465     -7.1179338      3.4214919      50218.233      36.893836      36.893836      36.893836    
   5500000   0.4845081     -7.8469547     -7.1202029      3.3970631      50218.233      36.893836      36.893836      36.893836    
   5600000   0.48575367    -7.84454       -7.1159199      3.4066611      50218.233      36.893836      36.893836      36.893836    
   5700000   0.4840991     -7.8458946     -7.1197563      3.3939283      50218.233      36.893836      36.893836      36.893836    
   5800000   0.48376551    -7.8472984     -7.1216604      3.3953224      50218.233      36.893836      36.893836      36.893836    
   5900000   0.48681753    -7.8471431     -7.1169272      3.4019155      50218.233      36.893836      36.893836      36.893836    
   6000000   0.48423292    -7.846841      -7.1205019      3.3973001      50218.233      36.893836      36.893836      36.893836    
   6100000   0.47985619    -7.8451926     -7.1254185      3.3959589      50218.233      36.893836      36.893836      36.893836    
   6200000   0.48705851    -7.842374      -7.1117966      3.4418871      50218.233      36.893836      36.893836      36.893836    
   6300000   0.48611051    -7.8471169     -7.1179615      3.387225       50218.233      36.893836      36.893836      36.893836    
   6400000   0.48560223    -7.8485924     -7.1201994      3.3863598      50218.233      36.893836      36.893836      36.893836    
   6500000   0.48358268    -7.8443117     -7.118948       3.4231418      50218.233      36.893836      36.893836      36.893836    
   6600000   0.48401579    -7.8490526     -7.1230393      3.3742831      50218.233      36.893836      36.893836      36.893836    
   6700000   0.48453332    -7.8424447     -7.1156551      3.4371675      50218.233      36.893836      36.893836      36.893836    
   6800000   0.48517577    -7.8454853     -7.1177319      3.4099243      50218.233      36.893836      36.893836      36.893836    
   6900000   0.48488843    -7.8500082     -7.1226859      3.3855644      50218.233      36.893836      36.893836      36.893836    
   7000000   0.48574208    -7.8455927     -7.11699        3.402249       50218.233      36.893836      36.893836      36.893836    
   7100000   0.4839757     -7.8463552     -7.1204019      3.3961904      50218.233      36.893836      36.893836      36.893836    
   7200000   0.48799591    -7.848321      -7.1163376      3.390599       50218.233      36.893836      36.893836      36.893836    
   7300000   0.48591698    -7.8437222     -7.1148571      3.4146922      50218.233      36.893836      36.893836      36.893836    
   7400000   0.48712125    -7.846531      -7.1158596      3.3997001      50218.233      36.893836      36.893836      36.893836    
   7500000   0.48624909    -7.8478077     -7.1184445      3.3956573      50218.233      36.893836      36.893836      36.893836    
   7600000   0.48548133    -7.8500941     -7.1218824      3.3775911      50218.233      36.893836      36.893836      36.893836    
   7700000   0.48664368    -7.8503019     -7.1203468      3.3820148      50218.233      36.893836      36.893836      36.893836    
   7800000   0.48392252    -7.8495653     -7.1236918      3.3733086      50218.233      36.893836      36.893836      36.893836    
   7900000   0.48565314    -7.8482382     -7.1197689      3.3910015      50218.233      36.893836      36.893836      36.893836    
   8000000   0.48432738    -7.8460749     -7.1195942      3.4003976      50218.233      36.893836      36.893836      36.893836    
   8100000   0.48613766    -7.8462871     -7.117091       3.4096209      50218.233      36.893836      36.893836      36.893836    
   8200000   0.48588212    -7.8481651     -7.1193523      3.3897467      50218.233      36.893836      36.893836      36.893836    
   8300000   0.4839996     -7.8478077     -7.1218186      3.399681       50218.233      36.893836      36.893836      36.893836    
   8400000   0.48670811    -7.8495492     -7.1194974      3.3882219      50218.233      36.893836      36.893836      36.893836    
   8500000   0.48476966    -7.8473337     -7.1201895      3.3871124      50218.233      36.893836      36.893836      36.893836    
   8600000   0.48663055    -7.8474752     -7.1175398      3.3884349      50218.233      36.893836      36.893836      36.893836    
   8700000   0.48640131    -7.8500933     -7.1205018      3.378225       50218.233      36.893836      36.893836      36.893836    
   8800000   0.48312487    -7.8482125     -7.1235354      3.3854792      50218.233      36.893836      36.893836      36.893836    
   8900000   0.48510669    -7.8495504     -7.1219007      3.3908407      50218.233      36.893836      36.893836      36.893836    
   9000000   0.48364245    -7.849259      -7.1238056      3.3749195      50218.233      36.893836      36.893836      36.893836    
   9100000   0.48547312    -7.8502454     -7.1220461      3.3651267      50218.233      36.893836      36.893836      36.893836    
   9200000   0.48504811    -7.8436084     -7.1160465      3.4244624      50218.233      36.893836      36.893836      36.893836    
   9300000   0.48416893    -7.8493747     -7.1231317      3.3987755      50218.233      36.893836      36.893836      36.893836    
   9400000   0.48568289    -7.8468191     -7.1183051      3.4099008      50218.233      36.893836      36.893836      36.893836    
   9500000   0.48627464    -7.8497751     -7.1203735      3.3813224      50218.233      36.893836      36.893836      36.893836    
   9600000   0.48499273    -7.8466647     -7.119186       3.4023865      50218.233      36.893836      36.893836      36.893836    
   9700000   0.48420059    -7.8498723     -7.1235817      3.3843238      50218.233      36.893836      36.893836      36.893836    
   9800000   0.48592469    -7.8502689     -7.1213923      3.3858678      50218.233      36.893836      36.893836      36.893836    
   9900000   0.48613875    -7.8444283     -7.1152305      3.4226484      50218.233      36.893836      36.893836      36.893836    
  10000000   0.48520106    -7.8512196     -7.1234283      3.3797594      50218.233      36.893836      36.893836      36.893836    
  10100000   0.48544851    -7.8481562     -7.1199938      3.3870224      50218.233      36.893836      36.893836      36.893836    
  10200000   0.48666633    -7.8467303     -7.1167412      3.3963578      50218.233      36.893836      36.893836      36.893836    
  10300000   0.48562573    -7.8514753     -7.123047       3.3731603      50218.233      36.893836      36.893836      36.893836    
  10400000   0.48604694    -7.8475384     -7.1184783      3.4082967      50218.233      36.893836      36.893836      36.893836    
  10500000   0.48277341    -7.8476396     -7.1234898      3.3821252      50218.233      36.893836      36.893836      36.893836    
  10600000   0.48461598    -7.8465605     -7.1196469      3.389285       50218.233      36.893836      36.893836      36.893836    
  10700000   0.48713925    -7.8463757     -7.1156772      3.4010901      50218.233      36.893836      36.893836      36.893836    
  10800000   0.48439683    -7.8477701     -7.1211852      3.3829051      50218.233      36.893836      36.893836      36.893836    
  10900000   0.48180529    -7.8461332     -7.1234355      3.3969064      50218.233      36.893836      36.893836      36.893836    
  11000000   0.48446473    -7.8467781     -7.1200914      3.3952785      50218.233      36.893836      36.893836      36.893836    
  11100000   0.48258761    -7.8427487     -7.1188776      3.4352293      50218.233      36.893836      36.893836      36.893836    
  11200000   0.48403485    -7.846603      -7.1205611      3.3986596      50218.233      36.893836      36.893836      36.893836    
  11300000   0.48419033    -7.8452521     -7.118977       3.4070219      50218.233      36.893836      36.893836      36.893836    
  11400000   0.48317616    -7.8488988     -7.1241449      3.3802116      50218.233      36.893836      36.893836      36.893836    
  11500000   0.48644647    -7.846213      -7.1165537      3.3961682      50218.233      36.893836      36.893836      36.893836    
  11600000   0.48443998    -7.8448707     -7.1182211      3.4126821      50218.233      36.893836      36.893836      36.893836    
  11700000   0.4848894     -7.8482148     -7.120891       3.3855308      50218.233      36.893836      36.893836      36.893836    
  11800000   0.48710097    -7.8469081     -7.1162671      3.3968588      50218.233      36.893836      36.893836      36.893836    
  11900000   0.48331067    -7.8456687     -7.120713       3.4052551      50218.233      36.893836      36.893836      36.893836    
  12000000   0.48371025    -7.8451565     -7.1196014      3.4126418      50218.233      36.893836      36.893836      36.893836    
  12100000   0.48553288    -7.8460802     -7.1177913      3.413758       50218.233      36.893836      36.893836      36.893836    
  12200000   0.48476377    -7.849081      -7.1219457      3.3862255      50218.233      36.893836      36.893836      36.893836    
  12300000   0.4868921     -7.8483265     -7.1179988      3.3875966      50218.233      36.893836      36.893836      36.893836    
  12400000   0.48531703    -7.8510423     -7.1230771      3.3660448      50218.233      36.893836      36.893836      36.893836    
  12500000   0.48324966    -7.8473381     -7.1224739      3.3944165      50218.233      36.893836      36.893836      36.893836    
  12600000   0.48562289    -7.8471596     -7.1187357      3.4042993      50218.233      36.893836      36.893836      36.893836    
  12700000   0.48590107    -7.8474765     -7.1186352      3.3921661      50218.233      36.893836      36.893836      36.893836    
  12800000   0.48348584    -7.845128      -7.1199095      3.395          50218.233      36.893836      36.893836      36.893836    
  12900000   0.48583703    -7.8454342     -7.1166891      3.4157396      50218.233      36.893836      36.893836      36.893836    
  13000000   0.48412382    -7.8496996     -7.1235242      3.3827282      50218.233      36.893836      36.893836      36.893836    
  13100000   0.48622971    -7.8451798     -7.1158456      3.4184376      50218.233      36.893836      36.893836      36.893836    
  13200000   0.48369963    -7.8478617     -7.1223226      3.3901386      50218.233      36.893836      36.893836      36.893836    
  13300000   0.48332895    -7.8482758     -7.1232926      3.392821       50218.233      36.893836      36.893836      36.893836    
  13400000   0.48650153    -7.8464813     -7.1167394      3.3951568      50218.233      36.893836      36.893836      36.893836    
  13500000   0.4832489     -7.844461      -7.1195979      3.4235754      50218.233      36.893836      36.893836      36.893836    
  13600000   0.4848568     -7.8491256     -7.1218507      3.3882207      50218.233      36.893836      36.893836      36.893836    
  13700000   0.48687674    -7.8476563     -7.1173515      3.3896205      50218.233      36.893836      36.893836      36.893836    
  13800000   0.48296713    -7.8435435     -7.1191031      3.4255141      50218.233      36.893836      36.893836      36.893836    
  13900000   0.48854543    -7.8479079     -7.1151002      3.3997867      50218.233      36.893836      36.893836      36.893836    
  14000000   0.48704447    -7.8474605     -7.1169042      3.3902944      50218.233      36.893836      36.893836      36.893836    
  14100000   0.48454049    -7.8497973     -7.1229969      3.3799149      50218.233      36.893836      36.893836      36.893836    
  14200000   0.48724627    -7.8496826     -7.1188235      3.3871621      50218.233      36.893836      36.893836      36.893836    
  14300000   0.48451318    -7.845112      -7.1183525      3.410135       50218.233      36.893836      36.893836      36.893836    
  14400000   0.48530137    -7.8461264     -7.1181847      3.4125851      50218.233      36.893836      36.893836      36.893836    
  14500000   0.48597951    -7.8461758     -7.1172169      3.4061876      50218.233      36.893836      36.893836      36.893836    
  14600000   0.48283907    -7.8452431     -7.1209948      3.4065345      50218.233      36.893836      36.893836      36.893836    
  14700000   0.48512551    -7.842992      -7.115314       3.4215593      50218.233      36.893836      36.893836      36.893836    
  14800000   0.48575408    -7.8497985     -7.1211777      3.3807003      50218.233      36.893836      36.893836      36.893836    
  14900000   0.48632408    -7.8488263     -7.1193506      3.3807357      50218.233      36.893836      36.893836      36.893836    
  15000000   0.4831612     -7.847109      -7.1223775      3.3985626      50218.233      36.893836      36.893836      36.893836    
  15100000   0.48688556    -7.8463656     -7.1160477      3.4031081      50218.233      36.893836      36.893836      36.893836    
  15200000   0.48367156    -7.8454215     -7.1199245      3.4045857      50218.233      36.893836      36.893836      36.893836    
  15300000   0.48451206    -7.8485048     -7.121747       3.3964252      50218.233      36.893836      36.893836      36.893836    
  15400000   0.48532547    -7.847617      -7.1196392      3.3945194      50218.233      36.893836      36.893836      36.893836    
  15500000   0.4859815     -7.845844      -7.1168822      3.407176       50218.233      36.893836      36.893836      36.893836    
  15600000   0.48671353    -7.8482091     -7.1181492      3.3807986      50218.233      36.893836      36.893836      36.893836    
  15700000   0.48539042    -7.8448819     -7.1168066      3.4183395      50218.233      36.893836      36.893836      36.893836    
  15800000   0.48505028    -7.8488857     -7.1213207      3.3881637      50218.233      36.893836      36.893836      36.893836    
  15900000   0.48738763    -7.8470459     -7.1159749      3.3959597      50218.233      36.893836      36.893836      36.893836    
  16000000   0.48713831    -7.8476041     -7.116907       3.3919525      50218.233      36.893836      36.893836      36.893836    
  16100000   0.48604258    -7.8467434     -7.1176899      3.3994189      50218.233      36.893836      36.893836      36.893836    
  16200000   0.48453422    -7.8456814     -7.1188904      3.4162072      50218.233      36.893836      36.893836      36.893836    
  16300000   0.48574188    -7.847095      -7.1184926      3.4125503      50218.233      36.893836      36.893836      36.893836    
  16400000   0.48330243    -7.8468079     -7.1218646      3.4038355      50218.233      36.893836      36.893836      36.893836    
  16500000   0.48373933    -7.8457701     -7.1201714      3.4174094      50218.233      36.893836      36.893836      36.893836    
  16600000   0.48371997    -7.8467102     -7.1211406      3.4009238      50218.233      36.893836      36.893836      36.893836    
  16700000   0.48629838    -7.8405889     -7.1111517      3.4459087      50218.233      36.893836      36.893836      36.893836    
  16800000   0.48697382    -7.8425832     -7.1121328      3.4335747      50218.233      36.893836      36.893836      36.893836    
  16900000   0.48367907    -7.8473219     -7.1218136      3.3851149      50218.233      36.893836      36.893836      36.893836    
  17000000   0.48436072    -7.851154      -7.1246233      3.3634842      50218.233      36.893836      36.893836      36.893836    
  17100000   0.48297918    -7.8434983     -7.1190398      3.4149954      50218.233      36.893836      36.893836      36.893836    
  17200000   0.48343819    -7.84688       -7.121733       3.3831647      50218.233      36.893836      36.893836      36.893836    
  17300000   0.48354531    -7.8455233     -7.1202157      3.4093246      50218.233      36.893836      36.893836      36.893836    
  17400000   0.4828616     -7.8463751     -7.122093       3.3987051      50218.233      36.893836      36.893836      36.893836    
  17500000   0.48479248    -7.8476991     -7.1205207      3.4003566      50218.233      36.893836      36.893836      36.893836    
  17600000   0.48675759    -7.8475076     -7.1173816      3.3959439      50218.233      36.893836      36.893836      36.893836    
  17700000   0.48873545    -7.8432246     -7.1101319      3.4264403      50218.233      36.893836      36.893836      36.893836    
  17800000   0.48471062    -7.8463876     -7.119332       3.4089243      50218.233      36.893836      36.893836      36.893836    
  17900000   0.48666479    -7.8421029     -7.1121161      3.4328574      50218.233      36.893836      36.893836      36.893836    
  18000000   0.48403694    -7.8432626     -7.1172175      3.4226437      50218.233      36.893836      36.893836      36.893836    
  18100000   0.48364339    -7.848592      -7.1231373      3.3781027      50218.233      36.893836      36.893836      36.893836    
  18200000   0.48484078    -7.845794      -7.1185432      3.3992153      50218.233      36.893836      36.893836      36.893836    
  18300000   0.48585535    -7.847353      -7.1185804      3.398306       50218.233      36.893836      36.893836      36.893836    
  18400000   0.48425604    -7.8475691     -7.1211954      3.3876847      50218.233      36.893836      36.893836      36.893836    
  18500000   0.48376799    -7.8444027     -7.118761       3.4110162      50218.233      36.893836      36.893836      36.893836    
  18600000   0.48427677    -7.8466939     -7.1202891      3.4040122      50218.233      36.893836      36.893836      36.893836    
  18700000   0.48396678    -7.8467712     -7.1208313      3.3923468      50218.233      36.893836      36.893836      36.893836    
  18800000   0.48543178    -7.8410424     -7.1129051      3.4483222      50218.233      36.893836      36.893836      36.893836    
  18900000   0.48300657    -7.8443704     -7.1198709      3.4113448      50218.233      36.893836      36.893836      36.893836    
  19000000   0.48506298    -7.8443616     -7.1167775      3.4227039      50218.233      36.893836      36.893836      36.893836    
  19100000   0.48369835    -7.8449873     -7.1194501      3.4058304      50218.233      36.893836      36.893836      36.893836    
  19200000   0.48395809    -7.8440042     -7.1180774      3.4166671      50218.233      36.893836      36.893836      36.893836    
  19300000   0.48483963    -7.84393       -7.1166809      3.4162714      50218.233      36.893836      36.893836      36.893836    
  19400000   0.48497076    -7.8451534     -7.1177076      3.4151503      50218.233      36.893836      36.893836      36.893836    
  19500000   0.48377004    -7.846223      -7.1205783      3.4037364      50218.233      36.893836      36.893836      36.893836    
  19600000   0.4854018     -7.8473823     -7.11929        3.3972382      50218.233      36.893836      36.893836      36.893836    
  19700000   0.486508      -7.8439308     -7.1141792      3.4280727      50218.233      36.893836      36.893836      36.893836    
  19800000   0.48606527    -7.8424197     -7.1133321      3.4347817      50218.233      36.893836      36.893836      36.893836    
  19900000   0.48445116    -7.8448255     -7.1181591      3.4053349      50218.233      36.893836      36.893836      36.893836    
  20000000   0.48335057    -7.8483918     -7.1233763      3.3860559      50218.233      36.893836      36.893836      36.893836    
  20100000   0.48394603    -7.8439579     -7.1180491      3.4179125      50218.233      36.893836      36.893836      36.893836    
  20200000   0.48444453    -7.8451329     -7.1184764      3.4094195      50218.233      36.893836      36.893836      36.893836    
  20300000   0.48433764    -7.8431479     -7.1166518      3.4256247      50218.233      36.893836      36.893836      36.893836    
  20400000   0.48321957    -7.8472816     -7.1224625      3.3912565      50218.233      36.893836      36.893836      36.893836    
  20500000   0.48255756    -7.8441753     -7.1203492      3.4061053      50218.233      36.893836      36.893836      36.893836    
  20600000   0.48603394    -7.8447738     -7.1157332      3.4113258      50218.233      36.893836      36.893836      36.893836    
  20700000   0.48335422    -7.8482993     -7.1232782      3.3862978      50218.233      36.893836      36.893836      36.893836    
  20800000   0.48517026    -7.8411829     -7.1134378      3.447          50218.233      36.893836      36.893836      36.893836    
  20900000   0.48159717    -7.8506237     -7.1282383      3.3552318      50218.233      36.893836      36.893836      36.893836    
  21000000   0.48616609    -7.8433857     -7.1141469      3.4270329      50218.233      36.893836      36.893836      36.893836    
  21100000   0.48782487    -7.8482886     -7.1165617      3.3839236      50218.233      36.893836      36.893836      36.893836    
  21200000   0.4845928     -7.8452624     -7.1183835      3.4063112      50218.233      36.893836      36.893836      36.893836    
  21300000   0.4856415     -7.8418983     -7.1134464      3.4461508      50218.233      36.893836      36.893836      36.893836    
  21400000   0.48323938    -7.844488      -7.1196393      3.4077282      50218.233      36.893836      36.893836      36.893836    
  21500000   0.48513027    -7.8422638     -7.1145787      3.4188268      50218.233      36.893836      36.893836      36.893836    
  21600000   0.48617486    -7.8439421     -7.1146902      3.4181275      50218.233      36.893836      36.893836      36.893836    
  21700000   0.48591929    -7.8452605     -7.1163919      3.4169295      50218.233      36.893836      36.893836      36.893836    
  21800000   0.48524332    -7.8473119     -7.1194573      3.4034027      50218.233      36.893836      36.893836      36.893836    
  21900000   0.48500083    -7.8503607     -7.1228698      3.3715902      50218.233      36.893836      36.893836      36.893836    
  22000000   0.48232659    -7.8457343     -7.1222547      3.4042044      50218.233      36.893836      36.893836      36.893836    
  22100000   0.48672766    -7.8499286     -7.1198475      3.3837348      50218.233      36.893836      36.893836      36.893836    
  22200000   0.48636667    -7.8443482     -7.1148085      3.4179964      50218.233      36.893836      36.893836      36.893836    
  22300000   0.48584254    -7.8437597     -7.1150062      3.4184247      50218.233      36.893836      36.893836      36.893836    
  22400000   0.48476584    -7.8463601     -7.1192217      3.3902777      50218.233      36.893836      36.893836      36.893836    
  22500000   0.48272787    -7.845645      -7.1215635      3.4025194      50218.233      36.893836      36.893836      36.893836    
  22600000   0.48339571    -7.8453246     -7.1202414      3.4102729      50218.233      36.893836      36.893836      36.893836    
  22700000   0.48457686    -7.8467257     -7.1198707      3.3955909      50218.233      36.893836      36.893836      36.893836    
  22800000   0.48537631    -7.8451992     -7.1171451      3.4090294      50218.233      36.893836      36.893836      36.893836    
  22900000   0.48264914    -7.8480342     -7.1240708      3.3830516      50218.233      36.893836      36.893836      36.893836    
  23000000   0.4850136     -7.8424835     -7.1149734      3.4294558      50218.233      36.893836      36.893836      36.893836    
  23100000   0.48476182    -7.8486978     -7.1215654      3.3694004      50218.233      36.893836      36.893836      36.893836    
  23200000   0.48629975    -7.8487918     -7.1193525      3.3819168      50218.233      36.893836      36.893836      36.893836    
  23300000   0.483708      -7.8458224     -7.1202707      3.3951186      50218.233      36.893836      36.893836      36.893836    
  23400000   0.48434318    -7.8477979     -7.1212935      3.3772553      50218.233      36.893836      36.893836      36.893836    
  23500000   0.48647662    -7.844978      -7.1152735      3.409915       50218.233      36.893836      36.893836      36.893836    
  23600000   0.48435639    -7.848389      -7.1218648      3.3759574      50218.233      36.893836      36.893836      36.893836    
  23700000   0.48605139    -7.8466548     -7.1175881      3.387819       50218.233      36.893836      36.893836      36.893836    
  23800000   0.48640891    -7.8483532     -7.1187502      3.380472       50218.233      36.893836      36.893836      36.893836    
  23900000   0.48675848    -7.8465755     -7.1164482      3.4128968      50218.233      36.893836      36.893836      36.893836    
  24000000   0.48551383    -7.8517477     -7.1234873      3.3605276      50218.233      36.893836      36.893836      36.893836    
  24100000   0.48185577    -7.8467404     -7.123967       3.3856074      50218.233      36.893836      36.893836      36.893836    
  24200000   0.48497277    -7.8428109     -7.115362       3.4308558      50218.233      36.893836      36.893836      36.893836    
  24300000   0.48493078    -7.8423434     -7.1149576      3.429106       50218.233      36.893836      36.893836      36.893836    
  24400000   0.48189515    -7.8470072     -7.1241747      3.3990055      50218.233      36.893836      36.893836      36.893836    
  24500000   0.48631896    -7.8478464     -7.1183784      3.3854746      50218.233      36.893836      36.893836      36.893836    
  24600000   0.48303982    -7.8522237     -7.1276743      3.3567347      50218.233      36.893836      36.893836      36.893836    
  24700000   0.48280782    -7.8526156     -7.1284141      3.3487549      50218.233      36.893836      36.893836      36.893836    
  24800000   0.48323772    -7.8463717     -7.1215254      3.4028179      50218.233      36.893836      36.893836      36.893836    
  24900000   0.48600467    -7.8451461     -7.1161495      3.4045779      50218.233      36.893836      36.893836      36.893836    
  25000000   0.48681076    -7.8476916     -7.1174858      3.3983908      50218.233      36.893836      36.893836      36.893836    
  25100000   0.48533443    -7.8493556     -7.1213643      3.3798972      50218.233      36.893836      36.893836      36.893836    
  25200000   0.4852212     -7.8504564     -7.122635       3.3877634      50218.233      36.893836      36.893836      36.893836    
  25300000   0.48715627    -7.8493786     -7.1186546      3.3774448      50218.233      36.893836      36.893836      36.893836    
  25400000   0.48519132    -7.8488366     -7.12106        3.3823721      50218.233      36.893836      36.893836      36.893836    
  25500000   0.48309772    -7.8522999     -7.1276636      3.3493203      50218.233      36.893836      36.893836      36.893836    
  25600000   0.48673419    -7.8478494     -7.1177585      3.3973523      50218.233      36.893836      36.893836      36.893836    
  25700000   0.48479302    -7.8511654     -7.1239862      3.3675039      50218.233      36.893836      36.893836      36.893836    
  25800000   0.48416443    -7.8479392     -7.1217029      3.387254       50218.233      36.893836      36.893836      36.893836    
  25900000   0.48494468    -7.8510683     -7.1236616      3.3664351      50218.233      36.893836      36.893836      36.893836    
  26000000   0.48382815    -7.8462856     -7.1205537      3.4114248      50218.233      36.893836      36.893836      36.893836    
  26100000   0.48483153    -7.848846      -7.1216091      3.3818837      50218.233      36.893836      36.893836      36.893836    
  26200000   0.48648133    -7.8476138     -7.1179022      3.4001965      50218.233      36.893836      36.893836      36.893836    
  26300000   0.48593451    -7.8495557     -7.1206643      3.3771375      50218.233      36.893836      36.893836      36.893836    
  26400000   0.48547938    -7.8494396     -7.1212308      3.3792982      50218.233      36.893836      36.893836      36.893836    
  26500000   0.48731957    -7.8490066     -7.1180377      3.3846438      50218.233      36.893836      36.893836      36.893836    
  26600000   0.48488008    -7.8489588     -7.121649       3.3823086      50218.233      36.893836      36.893836      36.893836    
  26700000   0.48440973    -7.8479149     -7.1213106      3.3993154      50218.233      36.893836      36.893836      36.893836    
  26800000   0.48263552    -7.8436472     -7.1197042      3.4247946      50218.233      36.893836      36.893836      36.893836    
  26900000   0.48616203    -7.8482261     -7.1189934      3.3930162      50218.233      36.893836      36.893836      36.893836    
  27000000   0.48413465    -7.8464281     -7.1202364      3.4063727      50218.233      36.893836      36.893836      36.893836    
  27100000   0.48815093    -7.8448745     -7.1126585      3.4118778      50218.233      36.893836      36.893836      36.893836    
  27200000   0.48720439    -7.8475592     -7.116763       3.3981182      50218.233      36.893836      36.893836      36.893836    
  27300000   0.48360108    -7.8482238     -7.1228325      3.3890736      50218.233      36.893836      36.893836      36.893836    
  27400000   0.48468109    -7.8430735     -7.1160622      3.4225882      50218.233      36.893836      36.893836      36.893836    
  27500000   0.48468644    -7.8491774     -7.1221581      3.377403       50218.233      36.893836      36.893836      36.893836    
  27600000   0.48598296    -7.8440825     -7.1151185      3.4199666      50218.233      36.893836      36.893836      36.893836    
  27700000   0.48629224    -7.8487898     -7.1193618      3.385419       50218.233      36.893836      36.893836      36.893836    
  27800000   0.48836994    -7.8496106     -7.1170661      3.3873713      50218.233      36.893836      36.893836      36.893836    
  27900000   0.48402546    -7.8502787     -7.1242509      3.3796043      50218.233      36.893836      36.893836      36.893836    
  28000000   0.48509476    -7.8505588     -7.122927       3.3732934      50218.233      36.893836      36.893836      36.893836    
  28100000   0.48716467    -7.848064      -7.1173274      3.394078       50218.233      36.893836      36.893836      36.893836    
  28200000   0.4862896     -7.8460595     -7.1166354      3.4123841      50218.233      36.893836      36.893836      36.893836    
  28300000   0.48560791    -7.8512003     -7.1227988      3.3662661      50218.233      36.893836      36.893836      36.893836    
  28400000   0.48588334    -7.8480749     -7.1192603      3.4032058      50218.233      36.893836      36.893836      36.893836    
  28500000   0.48603163    -7.8450379     -7.1160008      3.4237617      50218.233      36.893836      36.893836      36.893836    
  28600000   0.48325194    -7.8460663     -7.1211987      3.404429       50218.233      36.893836      36.893836      36.893836    
  28700000   0.48538602    -7.8501307     -7.122062       3.3726294      50218.233      36.893836      36.893836      36.893836    
  28800000   0.4883141     -7.8500107     -7.1175499      3.3827003      50218.233      36.893836      36.893836      36.893836    
  28900000   0.48185879    -7.8500738     -7.1272959      3.3788286      50218.233      36.893836      36.893836      36.893836    
  29000000   0.48540905    -7.8460012     -7.1178979      3.3996361      50218.233      36.893836      36.893836      36.893836    
  29100000   0.48432182    -7.8518463     -7.125374       3.355617       50218.233      36.893836      36.893836      36.893836    
  29200000   0.48331913    -7.8484188     -7.1234504      3.38158        50218.233      36.893836      36.893836      36.893836    
  29300000   0.48577434    -7.8508361     -7.122185       3.3586558      50218.233      36.893836      36.893836      36.893836    
  29400000   0.48568955    -7.8487958     -7.1202718      3.3864802      50218.233      36.893836      36.893836      36.893836    
  29500000   0.48631962    -7.8495406     -7.1200716      3.3894625      50218.233      36.893836      36.893836      36.893836    
  29600000   0.48587074    -7.8505046     -7.1217089      3.369356       50218.233      36.893836      36.893836      36.893836    
  29700000   0.48586416    -7.8488599     -7.1200741      3.3740582      50218.233      36.893836      36.893836      36.893836    
  29800000   0.485246      -7.8510212     -7.1231625      3.370853       50218.233      36.893836      36.893836      36.893836    
  29900000   0.48097131    -7.8478539     -7.1264072      3.3886374      50218.233      36.893836      36.893836      36.893836    
  30000000   0.48368005    -7.8451674     -7.1196576      3.4148314      50218.233      36.893836      36.893836      36.893836    
  30100000   0.48668032    -7.8509871     -7.120977       3.3765085      50218.233      36.893836      36.893836      36.893836    
  30200000   0.48683943    -7.8463749     -7.1161261      3.4088839      50218.233      36.893836      36.893836      36.893836    
  30300000   0.48559229    -7.8524627     -7.1240846      3.367844       50218.233      36.893836      36.893836      36.893836    
  30400000   0.48408816    -7.8522374     -7.1261155      3.3669114      50218.233      36.893836      36.893836      36.893836    
  30500000   0.48278339    -7.8480444     -7.1238797      3.3925431      50218.233      36.893836      36.893836      36.893836    
  30600000   0.48443232    -7.8489063     -7.1222682      3.3875524      50218.233      36.893836      36.893836      36.893836    
  30700000   0.48364568    -7.849013      -7.1235548      3.3893418      50218.233      36.893836      36.893836      36.893836    
  30800000   0.48493806    -7.8494761     -7.1220794      3.388322       50218.233      36.893836      36.893836      36.893836    
  30900000   0.48358098    -7.8482963     -7.1229351      3.4029036      50218.233      36.893836      36.893836      36.893836    
  31000000   0.48417649    -7.8522671     -7.1260127      3.3709532      50218.233      36.893836      36.893836      36.893836    
  31100000   0.48334431    -7.849271      -7.1242648      3.3899291      50218.233      36.893836      36.893836      36.893836    
  31200000   0.48586992    -7.8511237     -7.1223292      3.3703056      50218.233      36.893836      36.893836      36.893836    
  31300000   0.4858409     -7.8529218     -7.1241708      3.3585516      50218.233      36.893836      36.893836      36.893836    
  31400000   0.48512535    -7.8502922     -7.1226146      3.3689266      50218.233      36.893836      36.893836      36.893836    
  31500000   0.48750592    -7.8490878     -7.1178393      3.3906927      50218.233      36.893836      36.893836      36.893836    
  31600000   0.48533869    -7.8494568     -7.1214591      3.3754756      50218.233      36.893836      36.893836      36.893836    
  31700000   0.48424984    -7.8519185     -7.1255541      3.3601854      50218.233      36.893836      36.893836      36.893836    
  31800000   0.48162116    -7.8486305     -7.126209       3.3818894      50218.233      36.893836      36.893836      36.893836    
  31900000   0.48463208    -7.8522192     -7.1252814      3.3445419      50218.233      36.893836      36.893836      36.893836    
  32000000   0.48479936    -7.8503876     -7.1231989      3.3754667      50218.233      36.893836      36.893836      36.893836    
  32100000   0.48363837    -7.8525205     -7.1270733      3.3494827      50218.233      36.893836      36.893836      36.893836    
  32200000   0.48496652    -7.8489539     -7.1215145      3.3890173      50218.233      36.893836      36.893836      36.893836    
  32300000   0.48443521    -7.851649      -7.1250065      3.3567393      50218.233      36.893836      36.893836      36.893836    
  32400000   0.48609272    -7.8519586     -7.1228299      3.366142       50218.233      36.893836      36.893836      36.893836    
  32500000   0.4833572     -7.8524184     -7.1273929      3.3545011      50218.233      36.893836      36.893836      36.893836    
  32600000   0.48824177    -7.8514158     -7.1190636      3.3734343      50218.233      36.893836      36.893836      36.893836    
  32700000   0.48449382    -7.8500404     -7.12331        3.3908625      50218.233      36.893836      36.893836      36.893836    
  32800000   0.48765904    -7.8491975     -7.1177193      3.3876437      50218.233      36.893836      36.893836      36.893836    
  32900000   0.48296081    -7.8496163     -7.1251854      3.3622727      50218.233      36.893836      36.893836      36.893836    
  33000000   0.48580189    -7.8486192     -7.1199268      3.3905502      50218.233      36.893836      36.893836      36.893836    
  33100000   0.48555662    -7.8494128     -7.1210882      3.3849892      50218.233      36.893836      36.893836      36.893836    
  33200000   0.48535332    -7.847655      -7.1196354      3.390486       50218.233      36.893836      36.893836      36.893836    
  33300000   0.48159913    -7.8534004     -7.131012       3.3515758      50218.233      36.893836      36.893836      36.893836    
  33400000   0.48175131    -7.8542494     -7.1316327      3.341548       50218.233      36.893836      36.893836      36.893836    
  33500000   0.48501189    -7.8485379     -7.1210304      3.3831926      50218.233      36.893836      36.893836      36.893836    
  33600000   0.48422353    -7.8484172     -7.1220922      3.3872127      50218.233      36.893836      36.893836      36.893836    
  33700000   0.48570913    -7.851257      -7.1227037      3.3680624      50218.233      36.893836      36.893836      36.893836    
  33800000   0.48348146    -7.8526871     -7.1274752      3.3479369      50218.233      36.893836      36.893836      36.893836    
  33900000   0.48591504    -7.8485666     -7.1197044      3.4004634      50218.233      36.893836      36.893836      36.893836    
  34000000   0.48705914    -7.8503904     -7.119812       3.3644262      50218.233      36.893836      36.893836      36.893836    
  34100000   0.48510174    -7.8513676     -7.1237254      3.3617724      50218.233      36.893836      36.893836      36.893836    
  34200000   0.48489251    -7.8552452     -7.1279168      3.3391532      50218.233      36.893836      36.893836      36.893836    
  34300000   0.48726091    -7.8521688     -7.1212878      3.3631906      50218.233      36.893836      36.893836      36.893836    
  34400000   0.48354184    -7.8517478     -7.1264454      3.3560459      50218.233      36.893836      36.893836      36.893836    
  34500000   0.48643681    -7.8523095     -7.1226647      3.360874       50218.233      36.893836      36.893836      36.893836    
  34600000   0.48259179    -7.8485239     -7.1246465      3.3851104      50218.233      36.893836      36.893836      36.893836    
  34700000   0.482662      -7.8516313     -7.1276486      3.3490435      50218.233      36.893836      36.893836      36.893836    
  34800000   0.48647631    -7.849781      -7.1200769      3.3727122      50218.233      36.893836      36.893836      36.893836    
  34900000   0.4837107     -7.8493233     -7.1237675      3.3840476      50218.233      36.893836      36.893836      36.893836    
  35000000   0.48533354    -7.8530635     -7.1250736      3.3500595      50218.233      36.893836      36.893836      36.893836    
  35100000   0.4875651     -7.8526911     -7.1213539      3.3583724      50218.233      36.893836      36.893836      36.893836    
  35200000   0.48585167    -7.8485743     -7.1198072      3.3857497      50218.233      36.893836      36.893836      36.893836    
  35300000   0.48700984    -7.8516336     -7.1211292      3.3703724      50218.233      36.893836      36.893836      36.893836    
  35400000   0.48650792    -7.8488627     -7.1191112      3.3909752      50218.233      36.893836      36.893836      36.893836    
  35500000   0.48448755    -7.848737      -7.1220161      3.3904268      50218.233      36.893836      36.893836      36.893836    
  35600000   0.48700631    -7.8507511     -7.120252       3.3820054      50218.233      36.893836      36.893836      36.893836    
  35700000   0.4828217     -7.8478558     -7.1236336      3.3879066      50218.233      36.893836      36.893836      36.893836    
  35800000   0.48605767    -7.8494495     -7.1203733      3.3858608      50218.233      36.893836      36.893836      36.893836    
  35900000   0.48524265    -7.8491586     -7.121305       3.379233       50218.233      36.893836      36.893836      36.893836    
  36000000   0.48537725    -7.8511875     -7.123132       3.3679058      50218.233      36.893836      36.893836      36.893836    
  36100000   0.48647779    -7.8525752     -7.1228689      3.3597305      50218.233      36.893836      36.893836      36.893836    
  36200000   0.48349802    -7.8543718     -7.129135       3.3396164      50218.233      36.893836      36.893836      36.893836    
  36300000   0.48387724    -7.8475958     -7.1217902      3.3819159      50218.233      36.893836      36.893836      36.893836    
  36400000   0.48429046    -7.8507121     -7.1242867      3.369951       50218.233      36.893836      36.893836      36.893836    
  36500000   0.48565924    -7.8497934     -7.1213149      3.3763436      50218.233      36.893836      36.893836      36.893836    
  36600000   0.4844623     -7.8490571     -7.1223739      3.3860857      50218.233      36.893836      36.893836      36.893836    
  36700000   0.48406087    -7.8504247     -7.1243438      3.3714427      50218.233      36.893836      36.893836      36.893836    
  36800000   0.48546484    -7.8466375     -7.1184506      3.3988545      50218.233      36.893836      36.893836      36.893836    
  36900000   0.48385743    -7.8510187     -7.1252429      3.3663015      50218.233      36.893836      36.893836      36.893836    
  37000000   0.48428568    -7.8463432     -7.119925       3.4135928      50218.233      36.893836      36.893836      36.893836    
  37100000   0.48470481    -7.8491177     -7.1220708      3.3881885      50218.233      36.893836      36.893836      36.893836    
  37200000   0.4852585     -7.8503211     -7.1224437      3.3823727      50218.233      36.893836      36.893836      36.893836    
  37300000   0.48431868    -7.8506543     -7.1241866      3.3754246      50218.233      36.893836      36.893836      36.893836    
  37400000   0.48516076    -7.85143       -7.1236992      3.3617673      50218.233      36.893836      36.893836      36.893836    
  37500000   0.48687631    -7.8442009     -7.1138969      3.4179727      50218.233      36.893836      36.893836      36.893836    
  37600000   0.48433508    -7.8489511     -7.1224588      3.3861368      50218.233      36.893836      36.893836      36.893836    
  37700000   0.48584141    -7.8494754     -7.1207237      3.3781937      50218.233      36.893836      36.893836      36.893836    
  37800000   0.48588104    -7.85414       -7.1253288      3.3412924      50218.233      36.893836      36.893836      36.893836    
  37900000   0.48071745    -7.8526361     -7.1315702      3.3494889      50218.233      36.893836      36.893836      36.893836    
  38000000   0.48267778    -7.8510949     -7.1270885      3.3532407      50218.233      36.893836      36.893836      36.893836    
  38100000   0.48693595    -7.8495687     -7.1191752      3.3808387      50218.233      36.893836      36.893836      36.893836    
  38200000   0.48568981    -7.8505511     -7.1220267      3.3722526      50218.233      36.893836      36.893836      36.893836    
  38300000   0.48487836    -7.8481848     -7.1208776      3.3873598      50218.233      36.893836      36.893836      36.893836    
  38400000   0.48215183    -7.8480786     -7.1248611      3.3788246      50218.233      36.893836      36.893836      36.893836    
  38500000   0.48381702    -7.8490171     -7.1233018      3.380359       50218.233      36.893836      36.893836      36.893836    
  38600000   0.48544307    -7.8492193     -7.1210651      3.382185       50218.233      36.893836      36.893836      36.893836    
  38700000   0.48917325    -7.8514058     -7.1176563      3.3723377      50218.233      36.893836      36.893836      36.893836    
  38800000   0.484493      -7.8490446     -7.1223155      3.3732147      50218.233      36.893836      36.893836      36.893836    
  38900000   0.48618969    -7.8492342     -7.11996        3.3790536      50218.233      36.893836      36.893836      36.893836    
  39000000   0.48590803    -7.8495916     -7.1207399      3.3809564      50218.233      36.893836      36.893836      36.893836    
  39100000   0.48418858    -7.8478984     -7.1216259      3.3877747      50218.233      36.893836      36.893836      36.893836    
  39200000   0.48593109    -7.8513814     -7.1224951      3.3655346      50218.233      36.893836      36.893836      36.893836    
  39300000   0.48640376    -7.8483298     -7.1187346      3.3950382      50218.233      36.893836      36.893836      36.893836    
  39400000   0.48097693    -7.8514125     -7.1299574      3.3621483      50218.233      36.893836      36.893836      36.893836    
  39500000   0.48368887    -7.8496652     -7.1241423      3.3729328      50218.233      36.893836      36.893836      36.893836    
  39600000   0.48585732    -7.846963      -7.1181874      3.3954176      50218.233      36.893836      36.893836      36.893836    
  39700000   0.48530051    -7.8476131     -7.1196727      3.3867461      50218.233      36.893836      36.893836      36.893836    
  39800000   0.48226241    -7.8484792     -7.1250959      3.3865727      50218.233      36.893836      36.893836      36.893836    
  39900000   0.48630717    -7.8503081     -7.1208577      3.378021       50218.233      36.893836      36.893836      36.893836    
  40000000   0.48460882    -7.8519968     -7.1250939      3.3535516      50218.233      36.893836      36.893836      36.893836    
  40100000   0.48459497    -7.847815      -7.1209329      3.3880754      50218.233      36.893836      36.893836      36.893836    
  40200000   0.48410203    -7.8499649     -7.1238222      3.3717388      50218.233      36.893836      36.893836      36.893836    
  40300000   0.4872746     -7.8467961     -7.1158946      3.4010013      50218.233      36.893836      36.893836      36.893836    
  40400000   0.48514368    -7.8475576     -7.1198525      3.3893891      50218.233      36.893836      36.893836      36.893836    
  40500000   0.48437038    -7.8453474     -7.1188022      3.4044335      50218.233      36.893836      36.893836      36.893836    
  40600000   0.48716687    -7.8455924     -7.1148525      3.40934        50218.233      36.893836      36.893836      36.893836    
  40700000   0.48538547    -7.8444194     -7.1163515      3.4147885      50218.233      36.893836      36.893836      36.893836    
  40800000   0.4846515     -7.8449253     -7.1179583      3.4089956      50218.233      36.893836      36.893836      36.893836    
  40900000   0.48550376    -7.8484339     -7.1201886      3.3848407      50218.233      36.893836      36.893836      36.893836    
  41000000   0.48285864    -7.846507      -7.1222293      3.3960264      50218.233      36.893836      36.893836      36.893836    
  41100000   0.48494212    -7.8493226     -7.1219197      3.3825187      50218.233      36.893836      36.893836      36.893836    
  41200000   0.48322564    -7.8521174     -7.1272892      3.3554384      50218.233      36.893836      36.893836      36.893836    
  41300000   0.48669695    -7.8522604     -7.1222253      3.3603372      50218.233      36.893836      36.893836      36.893836    
  41400000   0.48458521    -7.847644      -7.1207765      3.3960842      50218.233      36.893836      36.893836      36.893836    
  41500000   0.48297401    -7.8475469     -7.1230962      3.386949       50218.233      36.893836      36.893836      36.893836    
  41600000   0.48241994    -7.852046      -7.1284264      3.3561334      50218.233      36.893836      36.893836      36.893836    
  41700000   0.48599511    -7.8485196     -7.1195373      3.3872447      50218.233      36.893836      36.893836      36.893836    
  41800000   0.48297904    -7.8436454     -7.1191872      3.4068355      50218.233      36.893836      36.893836      36.893836    
  41900000   0.48456115    -7.8496117     -7.1227803      3.3742305      50218.233      36.893836      36.893836      36.893836    
  42000000   0.48462644    -7.8518006     -7.1248713      3.3687303      50218.233      36.893836      36.893836      36.893836    
  42100000   0.483629      -7.8469564     -7.1215232      3.3977863      50218.233      36.893836      36.893836      36.893836    
  42200000   0.485171      -7.8479801     -7.120234       3.3839198      50218.233      36.893836      36.893836      36.893836    
  42300000   0.48264088    -7.8486933     -7.1247423      3.3774273      50218.233      36.893836      36.893836      36.893836    
  42400000   0.48613457    -7.8516415     -7.12245        3.3636322      50218.233      36.893836      36.893836      36.893836    
  42500000   0.48401603    -7.8512936     -7.1252799      3.3654922      50218.233      36.893836      36.893836      36.893836    
  42600000   0.48321349    -7.8485138     -7.1237038      3.3797655      50218.233      36.893836      36.893836      36.893836    
  42700000   0.48366022    -7.8506898     -7.1252098      3.3719044      50218.233      36.893836      36.893836      36.893836    
  42800000   0.48299537    -7.8550562     -7.1305735      3.3219268      50218.233      36.893836      36.893836      36.893836    
  42900000   0.48592949    -7.853321      -7.1244371      3.3529996      50218.233      36.893836      36.893836      36.893836    
  43000000   0.48346771    -7.8508159     -7.1256247      3.3716613      50218.233      36.893836      36.893836      36.893836    
  43100000   0.48661213    -7.8504474     -7.1205396      3.3753373      50218.233      36.893836      36.893836      36.893836    
  43200000   0.48469215    -7.8482637     -7.1212358      3.3916094      50218.233      36.893836      36.893836      36.893836    
  43300000   0.48601513    -7.8500685     -7.1210562      3.3726465      50218.233      36.893836      36.893836      36.893836    
  43400000   0.48389889    -7.8497354     -7.1238974      3.3805163      50218.233      36.893836      36.893836      36.893836    
  43500000   0.4848549     -7.8519798     -7.1247078      3.3658379      50218.233      36.893836      36.893836      36.893836    
  43600000   0.48735141    -7.8490249     -7.1180082      3.3904752      50218.233      36.893836      36.893836      36.893836    
  43700000   0.48835847    -7.843565      -7.1110377      3.4468245      50218.233      36.893836      36.893836      36.893836    
  43800000   0.48583434    -7.8440703     -7.1153291      3.4215461      50218.233      36.893836      36.893836      36.893836    
  43900000   0.48807085    -7.8505283     -7.1184324      3.3788332      50218.233      36.893836      36.893836      36.893836    
  44000000   0.48584712    -7.8462533     -7.117493       3.4108818      50218.233      36.893836      36.893836      36.893836    
  44100000   0.48135543    -7.8488992     -7.1268763      3.3773216      50218.233      36.893836      36.893836      36.893836    
  44200000   0.48446892    -7.8461946     -7.1195016      3.403542       50218.233      36.893836      36.893836      36.893836    
  44300000   0.48483126    -7.8479847     -7.1207482      3.3907617      50218.233      36.893836      36.893836      36.893836    
  44400000   0.48651926    -7.8460101     -7.1162416      3.406293       50218.233      36.893836      36.893836      36.893836    
  44500000   0.48280865    -7.8520762     -7.1278735      3.3640253      50218.233      36.893836      36.893836      36.893836    
  44600000   0.48421851    -7.8497691     -7.1234516      3.3764849      50218.233      36.893836      36.893836      36.893836    
  44700000   0.48603066    -7.844969      -7.1159334      3.4188996      50218.233      36.893836      36.893836      36.893836    
  44800000   0.48294811    -7.8475914     -7.1231795      3.3934458      50218.233      36.893836      36.893836      36.893836    
  44900000   0.48576532    -7.8478926     -7.119255       3.3898959      50218.233      36.893836      36.893836      36.893836    
  45000000   0.48401761    -7.8442073     -7.1181912      3.4179784      50218.233      36.893836      36.893836      36.893836    
  45100000   0.48445807    -7.8483648     -7.121688       3.3806857      50218.233      36.893836      36.893836      36.893836    
  45200000   0.48613222    -7.8482223     -7.1190343      3.3968088      50218.233      36.893836      36.893836      36.893836    
  45300000   0.48261704    -7.8511637     -7.1272484      3.3653533      50218.233      36.893836      36.893836      36.893836    
  45400000   0.48500709    -7.8469602     -7.1194599      3.4017751      50218.233      36.893836      36.893836      36.893836    
  45500000   0.4841436     -7.8467212     -7.1205162      3.4006194      50218.233      36.893836      36.893836      36.893836    
  45600000   0.4868413     -7.8427745     -7.1125229      3.4344826      50218.233      36.893836      36.893836      36.893836    
  45700000   0.48335516    -7.8477229     -7.1227005      3.3945388      50218.233      36.893836      36.893836      36.893836    
  45800000   0.48685219    -7.8456236     -7.1153557      3.4149526      50218.233      36.893836      36.893836      36.893836    
  45900000   0.48239686    -7.8474694     -7.1238844      3.3932246      50218.233      36.893836      36.893836      36.893836    
  46000000   0.48349107    -7.8471684     -7.1219421      3.4116381      50218.233      36.893836      36.893836      36.893836    
  46100000   0.48630992    -7.8503935     -7.120939       3.3814425      50218.233      36.893836      36.893836      36.893836    
  46200000   0.48511663    -7.8482141     -7.1205495      3.3912776      50218.233      36.893836      36.893836      36.893836    
  46300000   0.48834312    -7.8482418     -7.1157375      3.3963242      50218.233      36.893836      36.893836      36.893836    
  46400000   0.48460216    -7.8455277     -7.1186348      3.4035371      50218.233      36.893836      36.893836      36.893836    
  46500000   0.48596254    -7.8479915     -7.1190581      3.3960561      50218.233      36.893836      36.893836      36.893836    
  46600000   0.48474099    -7.8462931     -7.119192       3.4068322      50218.233      36.893836      36.893836      36.893836    
  46700000   0.48632618    -7.8497437     -7.1202648      3.3818224      50218.233      36.893836      36.893836      36.893836    
  46800000   0.48509128    -7.8497412     -7.1221146      3.3910037      50218.233      36.893836      36.893836      36.893836    
  46900000   0.48332879    -7.8492225     -7.1242396      3.3797923      50218.233      36.893836      36.893836      36.893836    
  47000000   0.48455987    -7.8462718     -7.1194424      3.4122614      50218.233      36.893836      36.893836      36.893836    
  47100000   0.48329357    -7.8477262     -7.1227961      3.4067002      50218.233      36.893836      36.893836      36.893836    
  47200000   0.48311778    -7.8457747     -7.1211083      3.4058683      50218.233      36.893836      36.893836      36.893836    
  47300000   0.48486753    -7.8473429     -7.1200519      3.4062862      50218.233      36.893836      36.893836      36.893836    
  47400000   0.48445504    -7.848674      -7.1220018      3.3875601      50218.233      36.893836      36.893836      36.893836    
  47500000   0.48113653    -7.8502075     -7.1285129      3.378162       50218.233      36.893836      36.893836      36.893836    
  47600000   0.48403553    -7.8512363     -7.1251934      3.3687577      50218.233      36.893836      36.893836      36.893836    
  47700000   0.48598413    -7.846138      -7.1171721      3.406366       50218.233      36.893836      36.893836      36.893836    
  47800000   0.4857795     -7.8499071     -7.1212482      3.3784678      50218.233      36.893836      36.893836      36.893836    
  47900000   0.48426147    -7.8476426     -7.1212608      3.3948892      50218.233      36.893836      36.893836      36.893836    
  48000000   0.48663614    -7.8487381     -7.1187942      3.3881275      50218.233      36.893836      36.893836      36.893836    
  48100000   0.48534459    -7.850199      -7.1221925      3.381974       50218.233      36.893836      36.893836      36.893836    
  48200000   0.48274153    -7.847598      -7.123496       3.394083       50218.233      36.893836      36.893836      36.893836    
  48300000   0.48566242    -7.8535343     -7.125051       3.3590612      50218.233      36.893836      36.893836      36.893836    
  48400000   0.48330193    -7.8485636     -7.123621       3.3848339      50218.233      36.893836      36.893836      36.893836    
  48500000   0.48294319    -7.854092      -7.1296875      3.3557635      50218.233      36.893836      36.893836      36.893836    
  48600000   0.48794999    -7.852717      -7.1208024      3.3779046      50218.233      36.893836      36.893836      36.893836    
  48700000   0.48633595    -7.8475663     -7.1180727      3.3935153      50218.233      36.893836      36.893836      36.893836    
  48800000   0.4844963     -7.8521747     -7.1254406      3.3562493      50218.233      36.893836      36.893836      36.893836    
  48900000   0.48651843    -7.8493442     -7.1195769      3.3863611      50218.233      36.893836      36.893836      36.893836    
  49000000   0.48353093    -7.848033      -7.1227469      3.3902047      50218.233      36.893836      36.893836      36.893836    
  49100000   0.48379049    -7.8475198     -7.1218444      3.3951716      50218.233      36.893836      36.893836      36.893836    
  49200000   0.48821351    -7.8505628     -7.118253       3.3826267      50218.233      36.893836      36.893836      36.893836    
  49300000   0.48401625    -7.8540058     -7.1279917      3.3380242      50218.233      36.893836      36.893836      36.893836    
  49400000   0.4883843     -7.8474723     -7.1149062      3.4050647      50218.233      36.893836      36.893836      36.893836    
  49500000   0.48296718    -7.8529439     -7.1285034      3.3511084      50218.233      36.893836      36.893836      36.893836    
  49600000   0.48631588    -7.8492116     -7.1197481      3.3855935      50218.233      36.893836      36.893836      36.893836    
  49700000   0.48765245    -7.8460461     -7.1145778      3.39616        50218.233      36.893836      36.893836      36.893836    
  49800000   0.4851096     -7.8512295     -7.1235754      3.365721       50218.233      36.893836      36.893836      36.893836    
  49900000   0.48652356    -7.8507488     -7.1209739      3.3699845      50218.233      36.893836      36.893836      36.893836    
  50000000   0.48613269    -7.8466476     -7.117459       3.3967467      50218.233      36.893836      36.893836      36.893836    
Loop time of 77997.4 on 5 procs for 50000000 steps with 70304 atoms

Performance: 553864.474 tau/day, 641.047 timesteps/s, 45.068 Matom-step/s
95.0% CPU use with 5 MPI tasks x 1 OpenMP threads

MPI task timing breakdown:
Section |  min time  |  avg time  |  max time  |%varavg| %total
---------------------------------------------------------------
Pair    | 27457      | 31504      | 35511      |1574.3 | 40.39
Neigh   | 238.07     | 251.78     | 268.8      |  70.4 |  0.32
Comm    | 11554      | 11654      | 11737      |  70.4 | 14.94
Output  | 0.090667   | 0.093826   | 0.099488   |   1.0 |  0.00
Modify  | 26683      | 30775      | 34922      |1619.5 | 39.46
Other   |            | 3813       |            |       |  4.89

Nlocal:        14060.8 ave       14077 max       14030 min
Histogram: 1 0 0 0 0 0 1 1 0 2
Nghost:        18745.2 ave       18782 max       18700 min
Histogram: 1 0 0 0 1 1 0 1 0 1
Neighs:              0 ave           0 max           0 min
Histogram: 5 0 0 0 0 0 0 0 0 0

Total # of neighbors = 0
Ave neighs/atom = 0
Neighbor list builds = 10152547
Dangerous builds = 0
Total wall time: 43:35:50
