variable TLJ equal (${T}/1000)
variable TLJ equal (450/1000)
variable NCyle equal 5
variable iStep equal (${f})
variable iStep equal (100000)
variable dumpStep equal (${f}*100)
variable dumpStep equal (100000*100)
variable runStep equal (${f}*100*${NCyle})
variable runStep equal (100000*100*${NCyle})
variable runStep equal (100000*100*5)

units       lj
atom_style  atomic
dimension 3
boundary     p p p
pair_style  lj/cut 2.5
read_data  ../data/T${T}.dat
read_data  ../data/T450.dat
Reading data file ...
  orthogonal box = (0.97250269 0.97250269 0.97250269) to (37.866338 37.866338 37.866338)
  1 by 1 by 5 MPI processor grid
  reading atoms ...
  70304 atoms
  reading velocities ...
  70304 velocities
  read_data CPU = 0.209 seconds
change_box all triclinic
Changing box ...
  triclinic box = (0.97250269 0.97250269 0.97250269) to (37.866338 37.866338 37.866338) with tilt (0 0 0)
mass 1 1
mass 2 1
pair_modify shift yes
pair_coeff  1 1 1 1
pair_coeff  1 2 1.5 0.8
pair_coeff  2 2 0.5 0.88


timestep 0.01
thermo ${iStep}
thermo 100000
reset_timestep 0
thermo_style custom step temp pe etotal press vol lx ly lz
fix             1 all nvt temp ${TLJ}  ${TLJ}  0.1
fix             1 all nvt temp 0.45  ${TLJ}  0.1
fix             1 all nvt temp 0.45  0.45  0.1
thermo_modify flush yes

fix dsf all deform 1 xy  wiggle 0.5  ${f}   units box
fix dsf all deform 1 xy  wiggle 0.5  100000   units box
fix ps1 all ave/time 1 1 ${iStep} c_thermo_press[1] c_thermo_press[2]  c_thermo_press[3] c_thermo_press[4]  c_thermo_press[5] c_thermo_press[6]  file  stress.${T}
fix ps1 all ave/time 1 1 100000 c_thermo_press[1] c_thermo_press[2]  c_thermo_press[3] c_thermo_press[4]  c_thermo_press[5] c_thermo_press[6]  file  stress.${T}
fix ps1 all ave/time 1 1 100000 c_thermo_press[1] c_thermo_press[2]  c_thermo_press[3] c_thermo_press[4]  c_thermo_press[5] c_thermo_press[6]  file  stress.450
dump            1 all custom ${dumpStep} dump.${T} id type x y z
dump            1 all custom 10000000 dump.${T} id type x y z
dump            1 all custom 10000000 dump.450 id type x y z
dump_modify 1 sort id
fix nodrift all momentum 1  linear 1 1 1
fix com_seed all recenter INIT INIT INIT shift all
run ${runStep}
run 50000000
Generated 0 of 1 mixed pair_coeff terms from geometric mixing rule
Per MPI rank memory allocation (min/avg/max) = 8.916 | 8.919 | 8.923 Mbytes
   Step          Temp          PotEng         TotEng         Press          Volume           Lx             Ly             Lz      
         0   0.44832476    -7.915889      -7.2434115      2.8432628      50218.233      36.893836      36.893836      36.893836    
    100000   0.44912926    -7.9071578     -7.2334735      2.8964308      50218.233      36.893836      36.893836      36.893836    
    200000   0.45147707    -7.9067432     -7.2295372      2.9141152      50218.233      36.893836      36.893836      36.893836    
    300000   0.4496638     -7.9091338     -7.2346477      2.8906936      50218.233      36.893836      36.893836      36.893836    
    400000   0.44691711    -7.9120274     -7.2416613      2.8757273      50218.233      36.893836      36.893836      36.893836    
    500000   0.44865561    -7.9101325     -7.2371586      2.8892468      50218.233      36.893836      36.893836      36.893836    
    600000   0.44857187    -7.9068127     -7.2339645      2.9139636      50218.233      36.893836      36.893836      36.893836    
    700000   0.45214629    -7.9066546     -7.2284449      2.9161807      50218.233      36.893836      36.893836      36.893836    
    800000   0.4511929     -7.9088994     -7.2321197      2.8920198      50218.233      36.893836      36.893836      36.893836    
    900000   0.45036222    -7.9077098     -7.2321761      2.8999922      50218.233      36.893836      36.893836      36.893836    
   1000000   0.44973604    -7.9105805     -7.235986       2.8824606      50218.233      36.893836      36.893836      36.893836    
   1100000   0.45104202    -7.9041613     -7.2276079      2.922775       50218.233      36.893836      36.893836      36.893836    
   1200000   0.44929943    -7.9044454     -7.2305058      2.9267923      50218.233      36.893836      36.893836      36.893836    
   1300000   0.45313658    -7.9071786     -7.2274834      2.9000599      50218.233      36.893836      36.893836      36.893836    
   1400000   0.44871658    -7.9073051     -7.2342398      2.9124447      50218.233      36.893836      36.893836      36.893836    
   1500000   0.44955747    -7.9092737     -7.234947       2.893721       50218.233      36.893836      36.893836      36.893836    
   1600000   0.4515238     -7.9079822     -7.2307061      2.9063351      50218.233      36.893836      36.893836      36.893836    
   1700000   0.4514215     -7.9091846     -7.2320619      2.8926116      50218.233      36.893836      36.893836      36.893836    
   1800000   0.45135951    -7.9127812     -7.2357516      2.8677061      50218.233      36.893836      36.893836      36.893836    
   1900000   0.44999252    -7.9102458     -7.2352666      2.8841445      50218.233      36.893836      36.893836      36.893836    
   2000000   0.44947419    -7.9137594     -7.2395577      2.8526167      50218.233      36.893836      36.893836      36.893836    
   2100000   0.44801262    -7.9104924     -7.238483       2.8851352      50218.233      36.893836      36.893836      36.893836    
   2200000   0.4474684     -7.9058138     -7.2346207      2.9069501      50218.233      36.893836      36.893836      36.893836    
   2300000   0.45190095    -7.9099136     -7.2320718      2.8918703      50218.233      36.893836      36.893836      36.893836    
   2400000   0.44880852    -7.9085548     -7.2353516      2.8873523      50218.233      36.893836      36.893836      36.893836    
   2500000   0.44946368    -7.9075867     -7.2334007      2.8945127      50218.233      36.893836      36.893836      36.893836    
   2600000   0.45206115    -7.909568      -7.2314859      2.8922919      50218.233      36.893836      36.893836      36.893836    
   2700000   0.45096362    -7.9106964     -7.2342605      2.8831155      50218.233      36.893836      36.893836      36.893836    
   2800000   0.44880968    -7.9094484     -7.2362435      2.8919687      50218.233      36.893836      36.893836      36.893836    
   2900000   0.45053031    -7.9102166     -7.2344307      2.8898924      50218.233      36.893836      36.893836      36.893836    
   3000000   0.44954002    -7.9100909     -7.2357904      2.8881644      50218.233      36.893836      36.893836      36.893836    
   3100000   0.4492348     -7.9107515     -7.2369089      2.8656128      50218.233      36.893836      36.893836      36.893836    
   3200000   0.45147151    -7.9099485     -7.2327509      2.8910403      50218.233      36.893836      36.893836      36.893836    
   3300000   0.4531124     -7.9076972     -7.2280383      2.9149186      50218.233      36.893836      36.893836      36.893836    
   3400000   0.44919753    -7.9078296     -7.2340428      2.9029332      50218.233      36.893836      36.893836      36.893836    
   3500000   0.44815295    -7.9101006     -7.2378807      2.8772343      50218.233      36.893836      36.893836      36.893836    
   3600000   0.44952026    -7.9116883     -7.2374175      2.8773511      50218.233      36.893836      36.893836      36.893836    
   3700000   0.44966907    -7.9103533     -7.2358593      2.8846403      50218.233      36.893836      36.893836      36.893836    
   3800000   0.45118512    -7.9128833     -7.2361152      2.8657921      50218.233      36.893836      36.893836      36.893836    
   3900000   0.4500329     -7.9119785     -7.2369387      2.8660729      50218.233      36.893836      36.893836      36.893836    
   4000000   0.44856469    -7.9146714     -7.2418339      2.8500504      50218.233      36.893836      36.893836      36.893836    
   4100000   0.45120451    -7.912409      -7.2356118      2.8772699      50218.233      36.893836      36.893836      36.893836    
   4200000   0.45057073    -7.9112782     -7.2354317      2.867136       50218.233      36.893836      36.893836      36.893836    
   4300000   0.45100026    -7.9138074     -7.2373166      2.8668319      50218.233      36.893836      36.893836      36.893836    
   4400000   0.45101463    -7.9125681     -7.2360558      2.8661689      50218.233      36.893836      36.893836      36.893836    
   4500000   0.44996166    -7.9101504     -7.2352176      2.8876996      50218.233      36.893836      36.893836      36.893836    
   4600000   0.44770931    -7.9101887     -7.2386343      2.8845659      50218.233      36.893836      36.893836      36.893836    
   4700000   0.45031903    -7.9122343     -7.2367653      2.8726489      50218.233      36.893836      36.893836      36.893836    
   4800000   0.44996608    -7.9110873     -7.2361478      2.8744727      50218.233      36.893836      36.893836      36.893836    
   4900000   0.44778263    -7.9114474     -7.239783       2.8747206      50218.233      36.893836      36.893836      36.893836    
   5000000   0.44958715    -7.9110181     -7.236647       2.8804481      50218.233      36.893836      36.893836      36.893836    
   5100000   0.45131363    -7.9086789     -7.2317181      2.888568       50218.233      36.893836      36.893836      36.893836    
   5200000   0.44775437    -7.9098118     -7.2381898      2.8836057      50218.233      36.893836      36.893836      36.893836    
   5300000   0.4510047     -7.9103967     -7.2338993      2.8808113      50218.233      36.893836      36.893836      36.893836    
   5400000   0.45255792    -7.9046651     -7.2258378      2.9300353      50218.233      36.893836      36.893836      36.893836    
   5500000   0.45128004    -7.910602      -7.2336916      2.8849112      50218.233      36.893836      36.893836      36.893836    
   5600000   0.44978857    -7.9091501     -7.2344769      2.881228       50218.233      36.893836      36.893836      36.893836    
   5700000   0.44931405    -7.9127206     -7.2387591      2.8641371      50218.233      36.893836      36.893836      36.893836    
   5800000   0.44971502    -7.9089773     -7.2344143      2.8940843      50218.233      36.893836      36.893836      36.893836    
   5900000   0.45223181    -7.9100735     -7.2317355      2.8898511      50218.233      36.893836      36.893836      36.893836    
   6000000   0.44954105    -7.9111458     -7.2368438      2.8785418      50218.233      36.893836      36.893836      36.893836    
   6100000   0.45148228    -7.91143       -7.2342162      2.8836375      50218.233      36.893836      36.893836      36.893836    
   6200000   0.45108652    -7.9100564     -7.2334362      2.8812574      50218.233      36.893836      36.893836      36.893836    
   6300000   0.44948917    -7.9066279     -7.2324038      2.9198896      50218.233      36.893836      36.893836      36.893836    
   6400000   0.45123451    -7.9103907     -7.2335486      2.8841419      50218.233      36.893836      36.893836      36.893836    
   6500000   0.44996377    -7.9110683     -7.2361323      2.8764417      50218.233      36.893836      36.893836      36.893836    
   6600000   0.44919265    -7.9121198     -7.2383404      2.8788424      50218.233      36.893836      36.893836      36.893836    
   6700000   0.45239027    -7.9094205     -7.2308447      2.8950886      50218.233      36.893836      36.893836      36.893836    
   6800000   0.44833966    -7.9138024     -7.2413024      2.8507904      50218.233      36.893836      36.893836      36.893836    
   6900000   0.44933221    -7.9106305     -7.2366417      2.8738003      50218.233      36.893836      36.893836      36.893836    
   7000000   0.44897899    -7.9098978     -7.2364389      2.8779812      50218.233      36.893836      36.893836      36.893836    
   7100000   0.45015654    -7.912977      -7.2377518      2.8679136      50218.233      36.893836      36.893836      36.893836    
   7200000   0.45078194    -7.9079865     -7.2318232      2.9053173      50218.233      36.893836      36.893836      36.893836    
   7300000   0.44938056    -7.9110498     -7.2369885      2.8699329      50218.233      36.893836      36.893836      36.893836    
   7400000   0.45160762    -7.9087412     -7.2313394      2.8936214      50218.233      36.893836      36.893836      36.893836    
   7500000   0.45005734    -7.907896      -7.2328196      2.8918572      50218.233      36.893836      36.893836      36.893836    
   7600000   0.44652056    -7.9095514     -7.2397801      2.8818246      50218.233      36.893836      36.893836      36.893836    
   7700000   0.44899187    -7.9061981     -7.2327199      2.9178613      50218.233      36.893836      36.893836      36.893836    
   7800000   0.44959582    -7.9093214     -7.2349373      2.8862757      50218.233      36.893836      36.893836      36.893836    
   7900000   0.4507046     -7.9081135     -7.2320662      2.9013168      50218.233      36.893836      36.893836      36.893836    
   8000000   0.44819477    -7.9081594     -7.2358768      2.8944655      50218.233      36.893836      36.893836      36.893836    
   8100000   0.45058519    -7.9099167     -7.2340485      2.8934725      50218.233      36.893836      36.893836      36.893836    
   8200000   0.44967056    -7.9066643     -7.2321681      2.9090381      50218.233      36.893836      36.893836      36.893836    
   8300000   0.44788394    -7.9089625     -7.2371462      2.8963284      50218.233      36.893836      36.893836      36.893836    
   8400000   0.45087255    -7.9111129     -7.2348137      2.8784504      50218.233      36.893836      36.893836      36.893836    
   8500000   0.44959709    -7.9077722     -7.2333861      2.8963055      50218.233      36.893836      36.893836      36.893836    
   8600000   0.4496345     -7.9119903     -7.2375482      2.8740945      50218.233      36.893836      36.893836      36.893836    
   8700000   0.45073316    -7.9081131     -7.232023       2.899442       50218.233      36.893836      36.893836      36.893836    
   8800000   0.44878016    -7.9057734     -7.2326127      2.9134922      50218.233      36.893836      36.893836      36.893836    
   8900000   0.4498277     -7.9129778     -7.2382458      2.8660066      50218.233      36.893836      36.893836      36.893836    
   9000000   0.44922904    -7.9138953     -7.2400614      2.8514453      50218.233      36.893836      36.893836      36.893836    
   9100000   0.44956763    -7.9124773     -7.2381355      2.8619922      50218.233      36.893836      36.893836      36.893836    
   9200000   0.4508657     -7.9121406     -7.2358516      2.8662479      50218.233      36.893836      36.893836      36.893836    
   9300000   0.45111789    -7.913112      -7.2364448      2.8548093      50218.233      36.893836      36.893836      36.893836    
   9400000   0.45083606    -7.9099757     -7.2337313      2.888199       50218.233      36.893836      36.893836      36.893836    
   9500000   0.44839584    -7.9071537     -7.2345695      2.9056602      50218.233      36.893836      36.893836      36.893836    
   9600000   0.4482365     -7.9101584     -7.2378132      2.8816832      50218.233      36.893836      36.893836      36.893836    
   9700000   0.45364709    -7.9086561     -7.2281952      2.8923184      50218.233      36.893836      36.893836      36.893836    
   9800000   0.44955703    -7.9135625     -7.2392365      2.8647488      50218.233      36.893836      36.893836      36.893836    
   9900000   0.45125447    -7.9091017     -7.2322296      2.8910923      50218.233      36.893836      36.893836      36.893836    
  10000000   0.45125012    -7.9064193     -7.2295538      2.910075       50218.233      36.893836      36.893836      36.893836    
  10100000   0.45037037    -7.9097222     -7.2341763      2.8894388      50218.233      36.893836      36.893836      36.893836    
  10200000   0.44973884    -7.9048832     -7.2302846      2.9201575      50218.233      36.893836      36.893836      36.893836    
  10300000   0.45058161    -7.9078761     -7.2320133      2.9033259      50218.233      36.893836      36.893836      36.893836    
  10400000   0.4499099     -7.9081629     -7.2333076      2.891711       50218.233      36.893836      36.893836      36.893836    
  10500000   0.4515905     -7.9120563     -7.2346802      2.877327       50218.233      36.893836      36.893836      36.893836    
  10600000   0.45043926    -7.9088368     -7.2331875      2.9028116      50218.233      36.893836      36.893836      36.893836    
  10700000   0.45104118    -7.9089205     -7.2323684      2.908121       50218.233      36.893836      36.893836      36.893836    
  10800000   0.45065892    -7.9083106     -7.2323318      2.8969003      50218.233      36.893836      36.893836      36.893836    
  10900000   0.44937595    -7.9106604     -7.2366061      2.8793497      50218.233      36.893836      36.893836      36.893836    
  11000000   0.44966714    -7.9082472     -7.2337561      2.8951408      50218.233      36.893836      36.893836      36.893836    
  11100000   0.45023184    -7.9079258     -7.2325876      2.9083957      50218.233      36.893836      36.893836      36.893836    
  11200000   0.45105615    -7.9074208     -7.2308462      2.9013083      50218.233      36.893836      36.893836      36.893836    
  11300000   0.45071377    -7.909197      -7.2331359      2.8899279      50218.233      36.893836      36.893836      36.893836    
  11400000   0.44901112    -7.908564      -7.2350569      2.8983633      50218.233      36.893836      36.893836      36.893836    
  11500000   0.45233797    -7.910257      -7.2317597      2.8814269      50218.233      36.893836      36.893836      36.893836    
  11600000   0.45165777    -7.903555      -7.226078       2.9273458      50218.233      36.893836      36.893836      36.893836    
  11700000   0.45272434    -7.9092436     -7.2301668      2.8963767      50218.233      36.893836      36.893836      36.893836    
  11800000   0.44962908    -7.9071316     -7.2326976      2.9017556      50218.233      36.893836      36.893836      36.893836    
  11900000   0.45053994    -7.9073121     -7.2315118      2.9094728      50218.233      36.893836      36.893836      36.893836    
  12000000   0.44951175    -7.9117772     -7.2375192      2.8636684      50218.233      36.893836      36.893836      36.893836    
  12100000   0.44917163    -7.9077587     -7.2340108      2.9005368      50218.233      36.893836      36.893836      36.893836    
  12200000   0.4484507     -7.9096274     -7.2369609      2.8858653      50218.233      36.893836      36.893836      36.893836    
  12300000   0.44888332    -7.9099167     -7.2366013      2.8825582      50218.233      36.893836      36.893836      36.893836    
  12400000   0.44705357    -7.9077471     -7.2371763      2.8970187      50218.233      36.893836      36.893836      36.893836    
  12500000   0.45181033    -7.9088564     -7.2311506      2.9063364      50218.233      36.893836      36.893836      36.893836    
  12600000   0.44816985    -7.9052708     -7.2330256      2.9128187      50218.233      36.893836      36.893836      36.893836    
  12700000   0.44927042    -7.9054323     -7.2315363      2.9272972      50218.233      36.893836      36.893836      36.893836    
  12800000   0.45125356    -7.9066089     -7.2297382      2.9077781      50218.233      36.893836      36.893836      36.893836    
  12900000   0.44981138    -7.91333       -7.2386225      2.8645096      50218.233      36.893836      36.893836      36.893836    
  13000000   0.44838942    -7.9125566     -7.2399821      2.8699645      50218.233      36.893836      36.893836      36.893836    
  13100000   0.45168111    -7.9129959     -7.2354839      2.8491978      50218.233      36.893836      36.893836      36.893836    
  13200000   0.45186053    -7.9077806     -7.2299994      2.9000617      50218.233      36.893836      36.893836      36.893836    
  13300000   0.44927323    -7.9071893     -7.233289       2.9042705      50218.233      36.893836      36.893836      36.893836    
  13400000   0.44933924    -7.9114446     -7.2374453      2.8746578      50218.233      36.893836      36.893836      36.893836    
  13500000   0.45196627    -7.9131123     -7.2351725      2.8558368      50218.233      36.893836      36.893836      36.893836    
  13600000   0.44912817    -7.9135536     -7.2398709      2.8457271      50218.233      36.893836      36.893836      36.893836    
  13700000   0.45066038    -7.9128551     -7.2368742      2.8536128      50218.233      36.893836      36.893836      36.893836    
  13800000   0.45140663    -7.9127195     -7.2356192      2.8652675      50218.233      36.893836      36.893836      36.893836    
  13900000   0.45138116    -7.9085247     -7.2314625      2.8924956      50218.233      36.893836      36.893836      36.893836    
  14000000   0.45374196    -7.9116848     -7.2310816      2.8636505      50218.233      36.893836      36.893836      36.893836    
  14100000   0.449823      -7.9077731     -7.2330482      2.8963823      50218.233      36.893836      36.893836      36.893836    
  14200000   0.4493588     -7.9108381     -7.2368095      2.8801064      50218.233      36.893836      36.893836      36.893836    
  14300000   0.45044809    -7.9100768     -7.2344143      2.8831876      50218.233      36.893836      36.893836      36.893836    
  14400000   0.44914332    -7.9084877     -7.2347823      2.8874108      50218.233      36.893836      36.893836      36.893836    
  14500000   0.45017481    -7.9121265     -7.2368739      2.8773151      50218.233      36.893836      36.893836      36.893836    
  14600000   0.45005035    -7.91218       -7.2371141      2.8711663      50218.233      36.893836      36.893836      36.893836    
  14700000   0.4502676     -7.9114522     -7.2360604      2.871714       50218.233      36.893836      36.893836      36.893836    
  14800000   0.45065353    -7.9135743     -7.2376036      2.8563467      50218.233      36.893836      36.893836      36.893836    
  14900000   0.44887256    -7.9130792     -7.2397799      2.8641713      50218.233      36.893836      36.893836      36.893836    
  15000000   0.45076654    -7.9093151     -7.2331749      2.8951641      50218.233      36.893836      36.893836      36.893836    
  15100000   0.44970013    -7.9095922     -7.2350516      2.8835532      50218.233      36.893836      36.893836      36.893836    
  15200000   0.45002805    -7.9123262     -7.2372938      2.8607071      50218.233      36.893836      36.893836      36.893836    
  15300000   0.45124604    -7.9108657     -7.2340063      2.8773119      50218.233      36.893836      36.893836      36.893836    
  15400000   0.44978569    -7.9109446     -7.2362757      2.8616911      50218.233      36.893836      36.893836      36.893836    
  15500000   0.45317983    -7.9104237     -7.2306637      2.8810795      50218.233      36.893836      36.893836      36.893836    
  15600000   0.4502614     -7.9082016     -7.2328191      2.8938159      50218.233      36.893836      36.893836      36.893836    
  15700000   0.44998616    -7.912889      -7.2379193      2.8553258      50218.233      36.893836      36.893836      36.893836    
  15800000   0.44722008    -7.9100003     -7.2391797      2.8747819      50218.233      36.893836      36.893836      36.893836    
  15900000   0.44986231    -7.9095682     -7.2347843      2.8883093      50218.233      36.893836      36.893836      36.893836    
  16000000   0.44767404    -7.909163      -7.2376615      2.8851976      50218.233      36.893836      36.893836      36.893836    
  16100000   0.45025716    -7.9085004     -7.2331242      2.8831447      50218.233      36.893836      36.893836      36.893836    
  16200000   0.44939209    -7.9122173     -7.2381387      2.8564823      50218.233      36.893836      36.893836      36.893836    
  16300000   0.44775254    -7.9096297     -7.2380105      2.8765404      50218.233      36.893836      36.893836      36.893836    
  16400000   0.44848476    -7.9088133     -7.2360957      2.8899881      50218.233      36.893836      36.893836      36.893836    
  16500000   0.4472786     -7.907868      -7.2369596      2.8821097      50218.233      36.893836      36.893836      36.893836    
  16600000   0.45117309    -7.913804      -7.237054       2.8576405      50218.233      36.893836      36.893836      36.893836    
  16700000   0.44787677    -7.9061606     -7.234355       2.9012094      50218.233      36.893836      36.893836      36.893836    
  16800000   0.44765061    -7.9068493     -7.2353829      2.8948786      50218.233      36.893836      36.893836      36.893836    
  16900000   0.45000868    -7.9064641     -7.2314606      2.8877398      50218.233      36.893836      36.893836      36.893836    
  17000000   0.44906411    -7.9080562     -7.2344696      2.8914297      50218.233      36.893836      36.893836      36.893836    
  17100000   0.45007009    -7.9080296     -7.2329341      2.8871464      50218.233      36.893836      36.893836      36.893836    
  17200000   0.44915736    -7.9067935     -7.233067       2.8942265      50218.233      36.893836      36.893836      36.893836    
  17300000   0.45129297    -7.9094831     -7.2325532      2.888577       50218.233      36.893836      36.893836      36.893836    
  17400000   0.44851645    -7.908727      -7.2359619      2.8893418      50218.233      36.893836      36.893836      36.893836    
  17500000   0.45037573    -7.9020201     -7.2264661      2.9401509      50218.233      36.893836      36.893836      36.893836    
  17600000   0.44925775    -7.9062092     -7.2323322      2.9068489      50218.233      36.893836      36.893836      36.893836    
  17700000   0.44970275    -7.9075838     -7.2330393      2.898327       50218.233      36.893836      36.893836      36.893836    
  17800000   0.44833254    -7.9082579     -7.2357687      2.8927748      50218.233      36.893836      36.893836      36.893836    
  17900000   0.45063732    -7.9142653     -7.238319       2.8578745      50218.233      36.893836      36.893836      36.893836    
  18000000   0.44973941    -7.910599      -7.2359994      2.885285       50218.233      36.893836      36.893836      36.893836    
  18100000   0.45095075    -7.9087055     -7.2322889      2.8926775      50218.233      36.893836      36.893836      36.893836    
  18200000   0.44963556    -7.9102379     -7.2357942      2.8751693      50218.233      36.893836      36.893836      36.893836    
  18300000   0.45143574    -7.9055029     -7.2283589      2.9048952      50218.233      36.893836      36.893836      36.893836    
  18400000   0.44619812    -7.9107667     -7.2414791      2.8720723      50218.233      36.893836      36.893836      36.893836    
  18500000   0.44864253    -7.9132661     -7.2403119      2.8610844      50218.233      36.893836      36.893836      36.893836    
  18600000   0.45041606    -7.9088041     -7.2331897      2.8907398      50218.233      36.893836      36.893836      36.893836    
  18700000   0.44961356    -7.908161      -7.2337503      2.8864461      50218.233      36.893836      36.893836      36.893836    
  18800000   0.45111955    -7.9093449     -7.2326752      2.8787158      50218.233      36.893836      36.893836      36.893836    
  18900000   0.4477783     -7.9100394     -7.2383815      2.8793934      50218.233      36.893836      36.893836      36.893836    
  19000000   0.4481137     -7.9125444     -7.2403835      2.8494422      50218.233      36.893836      36.893836      36.893836    
  19100000   0.45264934    -7.9113938     -7.2324295      2.8770593      50218.233      36.893836      36.893836      36.893836    
  19200000   0.45038142    -7.9087357     -7.2331732      2.8895031      50218.233      36.893836      36.893836      36.893836    
  19300000   0.44958375    -7.9115776     -7.2372116      2.8663715      50218.233      36.893836      36.893836      36.893836    
  19400000   0.44665929    -7.9088313     -7.2388519      2.8831068      50218.233      36.893836      36.893836      36.893836    
  19500000   0.45166649    -7.9087869     -7.2312967      2.8882438      50218.233      36.893836      36.893836      36.893836    
  19600000   0.45089057    -7.9125966     -7.2362703      2.8621397      50218.233      36.893836      36.893836      36.893836    
  19700000   0.44670176    -7.9116957     -7.2416526      2.8545114      50218.233      36.893836      36.893836      36.893836    
  19800000   0.44934145    -7.9107983     -7.2367957      2.8636968      50218.233      36.893836      36.893836      36.893836    
  19900000   0.45170271    -7.9083363     -7.2307919      2.886911       50218.233      36.893836      36.893836      36.893836    
  20000000   0.45013861    -7.9099262     -7.2347278      2.8744616      50218.233      36.893836      36.893836      36.893836    
  20100000   0.45043754    -7.9126329     -7.2369862      2.8515642      50218.233      36.893836      36.893836      36.893836    
  20200000   0.4492591     -7.9141371     -7.240258       2.8454396      50218.233      36.893836      36.893836      36.893836    
  20300000   0.45181035    -7.9106211     -7.2329152      2.8671852      50218.233      36.893836      36.893836      36.893836    
  20400000   0.44987701    -7.9119117     -7.2371058      2.8558368      50218.233      36.893836      36.893836      36.893836    
  20500000   0.449867      -7.9081123     -7.2333214      2.8934817      50218.233      36.893836      36.893836      36.893836    
  20600000   0.4495504     -7.9148037     -7.2404877      2.8441359      50218.233      36.893836      36.893836      36.893836    
  20700000   0.44890541    -7.9095453     -7.2361968      2.8783528      50218.233      36.893836      36.893836      36.893836    
  20800000   0.44905999    -7.9070761     -7.2334957      2.8956945      50218.233      36.893836      36.893836      36.893836    
  20900000   0.45086052    -7.9075852     -7.231304       2.895797       50218.233      36.893836      36.893836      36.893836    
  21000000   0.44936831    -7.9100619     -7.236019       2.8702011      50218.233      36.893836      36.893836      36.893836    
  21100000   0.44949025    -7.9050984     -7.2308726      2.916067       50218.233      36.893836      36.893836      36.893836    
  21200000   0.44905291    -7.9077703     -7.2342005      2.897528       50218.233      36.893836      36.893836      36.893836    
  21300000   0.45098572    -7.9105758     -7.2341068      2.8687705      50218.233      36.893836      36.893836      36.893836    
  21400000   0.45015593    -7.9074108     -7.2321866      2.9035987      50218.233      36.893836      36.893836      36.893836    
  21500000   0.45083368    -7.9111226     -7.2348817      2.8731213      50218.233      36.893836      36.893836      36.893836    
  21600000   0.45057908    -7.9084896     -7.2326306      2.8880565      50218.233      36.893836      36.893836      36.893836    
  21700000   0.45054548    -7.9085936     -7.232785       2.9012611      50218.233      36.893836      36.893836      36.893836    
  21800000   0.4512458     -7.9050378     -7.2281787      2.9187267      50218.233      36.893836      36.893836      36.893836    
  21900000   0.45137747    -7.9086627     -7.2316061      2.8876458      50218.233      36.893836      36.893836      36.893836    
  22000000   0.45197074    -7.9128841     -7.2349376      2.8546537      50218.233      36.893836      36.893836      36.893836    
  22100000   0.44841206    -7.9072023     -7.2345938      2.9006215      50218.233      36.893836      36.893836      36.893836    
  22200000   0.45025863    -7.9098483     -7.2344699      2.876177       50218.233      36.893836      36.893836      36.893836    
  22300000   0.44867609    -7.9073218     -7.2343173      2.8991013      50218.233      36.893836      36.893836      36.893836    
  22400000   0.45079099    -7.908937      -7.2327601      2.8930207      50218.233      36.893836      36.893836      36.893836    
  22500000   0.45218309    -7.911413      -7.2331481      2.8779753      50218.233      36.893836      36.893836      36.893836    
  22600000   0.45227014    -7.9109175     -7.2325219      2.876489       50218.233      36.893836      36.893836      36.893836    
  22700000   0.45034217    -7.9091496     -7.233646       2.8828828      50218.233      36.893836      36.893836      36.893836    
  22800000   0.45031532    -7.906848      -7.2313846      2.9055542      50218.233      36.893836      36.893836      36.893836    
  22900000   0.45144985    -7.9108577     -7.2336926      2.8747414      50218.233      36.893836      36.893836      36.893836    
  23000000   0.45025026    -7.9132702     -7.2379045      2.8602822      50218.233      36.893836      36.893836      36.893836    
  23100000   0.45017838    -7.9130072     -7.2377492      2.8583702      50218.233      36.893836      36.893836      36.893836    
  23200000   0.45001359    -7.9115012     -7.2364905      2.8706567      50218.233      36.893836      36.893836      36.893836    
  23300000   0.44989048    -7.9128607     -7.2380346      2.8602318      50218.233      36.893836      36.893836      36.893836    
  23400000   0.44962733    -7.911106      -7.2366746      2.8725767      50218.233      36.893836      36.893836      36.893836    
  23500000   0.44877802    -7.9090095     -7.2358521      2.8905579      50218.233      36.893836      36.893836      36.893836    
  23600000   0.44907603    -7.90948       -7.2358756      2.8863322      50218.233      36.893836      36.893836      36.893836    
  23700000   0.44831125    -7.9089319     -7.2364746      2.8840502      50218.233      36.893836      36.893836      36.893836    
  23800000   0.448757      -7.9075254     -7.2343994      2.8984143      50218.233      36.893836      36.893836      36.893836    
  23900000   0.44937528    -7.9118715     -7.2378181      2.8621851      50218.233      36.893836      36.893836      36.893836    
  24000000   0.44861341    -7.9089363     -7.2360258      2.8877498      50218.233      36.893836      36.893836      36.893836    
  24100000   0.45144906    -7.9126991     -7.2355351      2.8630674      50218.233      36.893836      36.893836      36.893836    
  24200000   0.44993741    -7.9092578     -7.2343613      2.884768       50218.233      36.893836      36.893836      36.893836    
  24300000   0.44844791    -7.9142222     -7.2415599      2.84996        50218.233      36.893836      36.893836      36.893836    
  24400000   0.44975521    -7.9096676     -7.2350443      2.8856298      50218.233      36.893836      36.893836      36.893836    
  24500000   0.45048455    -7.9126292     -7.236912       2.856754       50218.233      36.893836      36.893836      36.893836    
  24600000   0.45026723    -7.9108886     -7.2354973      2.8790227      50218.233      36.893836      36.893836      36.893836    
  24700000   0.45120845    -7.9100714     -7.2332683      2.8823522      50218.233      36.893836      36.893836      36.893836    
  24800000   0.44948815    -7.9100655     -7.2358429      2.8756049      50218.233      36.893836      36.893836      36.893836    
  24900000   0.44952282    -7.9127845     -7.2385099      2.848708       50218.233      36.893836      36.893836      36.893836    
  25000000   0.45177529    -7.9132909     -7.2356376      2.8459213      50218.233      36.893836      36.893836      36.893836    
  25100000   0.4477164     -7.9090512     -7.2374862      2.8823491      50218.233      36.893836      36.893836      36.893836    
  25200000   0.44866164    -7.9113597     -7.2383768      2.8763504      50218.233      36.893836      36.893836      36.893836    
  25300000   0.44849305    -7.9106995     -7.2379695      2.8718832      50218.233      36.893836      36.893836      36.893836    
  25400000   0.45084409    -7.9091329     -7.2328764      2.8927874      50218.233      36.893836      36.893836      36.893836    
  25500000   0.44988396    -7.9112954     -7.2364791      2.8703736      50218.233      36.893836      36.893836      36.893836    
  25600000   0.44965127    -7.910481      -7.2360137      2.8724901      50218.233      36.893836      36.893836      36.893836    
  25700000   0.44918035    -7.9101007     -7.2363398      2.8768867      50218.233      36.893836      36.893836      36.893836    
  25800000   0.44944521    -7.9120187     -7.2378605      2.8648307      50218.233      36.893836      36.893836      36.893836    
  25900000   0.45031661    -7.915393      -7.2399277      2.8420557      50218.233      36.893836      36.893836      36.893836    
  26000000   0.45004744    -7.9138623     -7.2388007      2.8576902      50218.233      36.893836      36.893836      36.893836    
  26100000   0.4493797     -7.9098055     -7.2357455      2.893173       50218.233      36.893836      36.893836      36.893836    
  26200000   0.44984138    -7.9122346     -7.2374821      2.8638622      50218.233      36.893836      36.893836      36.893836    
  26300000   0.4502941     -7.9141398     -7.2387082      2.8553124      50218.233      36.893836      36.893836      36.893836    
  26400000   0.44856379    -7.9125092     -7.239673       2.8609291      50218.233      36.893836      36.893836      36.893836    
  26500000   0.4499085     -7.9080521     -7.2331989      2.8926139      50218.233      36.893836      36.893836      36.893836    
  26600000   0.44966559    -7.9154138     -7.240925       2.849073       50218.233      36.893836      36.893836      36.893836    
  26700000   0.44891033    -7.9113784     -7.2380225      2.8687995      50218.233      36.893836      36.893836      36.893836    
  26800000   0.44999073    -7.9113518     -7.2363753      2.8821165      50218.233      36.893836      36.893836      36.893836    
  26900000   0.44937481    -7.9109971     -7.2369445      2.8591706      50218.233      36.893836      36.893836      36.893836    
  27000000   0.44972267    -7.9142143     -7.2396399      2.8513086      50218.233      36.893836      36.893836      36.893836    
  27100000   0.44999527    -7.9090468     -7.2340635      2.8854037      50218.233      36.893836      36.893836      36.893836    
  27200000   0.44885319    -7.9136879     -7.2404177      2.8485384      50218.233      36.893836      36.893836      36.893836    
  27300000   0.44891191    -7.9109981     -7.2376398      2.8677551      50218.233      36.893836      36.893836      36.893836    
  27400000   0.45070497    -7.911217      -7.2351692      2.8863751      50218.233      36.893836      36.893836      36.893836    
  27500000   0.45021792    -7.9122963     -7.236979       2.8661206      50218.233      36.893836      36.893836      36.893836    
  27600000   0.44833185    -7.9137817     -7.2412934      2.855295       50218.233      36.893836      36.893836      36.893836    
  27700000   0.45098282    -7.9107581     -7.2342935      2.8867419      50218.233      36.893836      36.893836      36.893836    
  27800000   0.4496793     -7.9117718     -7.2372624      2.868817       50218.233      36.893836      36.893836      36.893836    
  27900000   0.45262019    -7.9078904     -7.2289697      2.8990599      50218.233      36.893836      36.893836      36.893836    
  28000000   0.44908411    -7.9119296     -7.238313       2.8614486      50218.233      36.893836      36.893836      36.893836    
  28100000   0.44771549    -7.912063      -7.2404993      2.8722914      50218.233      36.893836      36.893836      36.893836    
  28200000   0.44834335    -7.9129803     -7.2404748      2.8501579      50218.233      36.893836      36.893836      36.893836    
  28300000   0.4492513     -7.9135323     -7.2396649      2.8538654      50218.233      36.893836      36.893836      36.893836    
  28400000   0.45281271    -7.9153805     -7.2361711      2.8414678      50218.233      36.893836      36.893836      36.893836    
  28500000   0.45058573    -7.9123426     -7.2364736      2.8669684      50218.233      36.893836      36.893836      36.893836    
  28600000   0.44943347    -7.9141608     -7.2400202      2.848281       50218.233      36.893836      36.893836      36.893836    
  28700000   0.44848573    -7.9145696     -7.2418505      2.8444145      50218.233      36.893836      36.893836      36.893836    
  28800000   0.44805059    -7.9159886     -7.2439223      2.8341977      50218.233      36.893836      36.893836      36.893836    
  28900000   0.45197166    -7.9132337     -7.2352858      2.8636672      50218.233      36.893836      36.893836      36.893836    
  29000000   0.45043528    -7.9155093     -7.239866       2.8345827      50218.233      36.893836      36.893836      36.893836    
  29100000   0.45181688    -7.9087537     -7.231038       2.8952533      50218.233      36.893836      36.893836      36.893836    
  29200000   0.4516691     -7.91588       -7.238386       2.8512776      50218.233      36.893836      36.893836      36.893836    
  29300000   0.44903911    -7.9149325     -7.2413834      2.8427195      50218.233      36.893836      36.893836      36.893836    
  29400000   0.44883437    -7.913657      -7.240415       2.8520823      50218.233      36.893836      36.893836      36.893836    
  29500000   0.44941533    -7.9148311     -7.2407177      2.8433051      50218.233      36.893836      36.893836      36.893836    
  29600000   0.44963115    -7.9184592     -7.2440221      2.8141785      50218.233      36.893836      36.893836      36.893836    
  29700000   0.44871489    -7.9175747     -7.244512       2.8302542      50218.233      36.893836      36.893836      36.893836    
  29800000   0.45019327    -7.9139638     -7.2386835      2.8488373      50218.233      36.893836      36.893836      36.893836    
  29900000   0.44778029    -7.912251      -7.2405901      2.8545079      50218.233      36.893836      36.893836      36.893836    
  30000000   0.44789183    -7.9138822     -7.242054       2.8579176      50218.233      36.893836      36.893836      36.893836    
  30100000   0.44995425    -7.9118672     -7.2369455      2.870623       50218.233      36.893836      36.893836      36.893836    
  30200000   0.45023717    -7.9144975     -7.2391514      2.8580123      50218.233      36.893836      36.893836      36.893836    
  30300000   0.45020706    -7.9132468     -7.2379458      2.8596985      50218.233      36.893836      36.893836      36.893836    
  30400000   0.45035424    -7.9133994     -7.2378776      2.8678076      50218.233      36.893836      36.893836      36.893836    
  30500000   0.44887144    -7.9126301     -7.2393326      2.8641215      50218.233      36.893836      36.893836      36.893836    
  30600000   0.44980383    -7.9137912     -7.239095       2.8569641      50218.233      36.893836      36.893836      36.893836    
  30700000   0.45027536    -7.9167768     -7.2413734      2.8226305      50218.233      36.893836      36.893836      36.893836    
  30800000   0.44971122    -7.917011      -7.2424538      2.8261137      50218.233      36.893836      36.893836      36.893836    
  30900000   0.45037171    -7.9112797     -7.2357318      2.8802737      50218.233      36.893836      36.893836      36.893836    
  31000000   0.44999992    -7.9124418     -7.2374516      2.8724458      50218.233      36.893836      36.893836      36.893836    
  31100000   0.45054009    -7.9149817     -7.2391812      2.8466608      50218.233      36.893836      36.893836      36.893836    
  31200000   0.44977968    -7.9127227     -7.2380628      2.8540021      50218.233      36.893836      36.893836      36.893836    
  31300000   0.4496045     -7.9139525     -7.2395554      2.8556011      50218.233      36.893836      36.893836      36.893836    
  31400000   0.45198816    -7.9129533     -7.2349807      2.8642449      50218.233      36.893836      36.893836      36.893836    
  31500000   0.45063656    -7.9129746     -7.2370294      2.8627641      50218.233      36.893836      36.893836      36.893836    
  31600000   0.4515314     -7.9118248     -7.2345374      2.8775334      50218.233      36.893836      36.893836      36.893836    
  31700000   0.45071194    -7.9143722     -7.2383139      2.8528238      50218.233      36.893836      36.893836      36.893836    
  31800000   0.44989111    -7.9112365     -7.2364094      2.8828087      50218.233      36.893836      36.893836      36.893836    
  31900000   0.4500547     -7.9135372     -7.2384647      2.862567       50218.233      36.893836      36.893836      36.893836    
  32000000   0.4492065     -7.9166734     -7.2428732      2.8307111      50218.233      36.893836      36.893836      36.893836    
  32100000   0.44947173    -7.9145284     -7.2403303      2.8520765      50218.233      36.893836      36.893836      36.893836    
  32200000   0.44973046    -7.9162666     -7.2416805      2.8353852      50218.233      36.893836      36.893836      36.893836    
  32300000   0.45150223    -7.9160233     -7.2387796      2.8413776      50218.233      36.893836      36.893836      36.893836    
  32400000   0.45129538    -7.9117209     -7.2347875      2.8799243      50218.233      36.893836      36.893836      36.893836    
  32500000   0.45079387    -7.9158693     -7.2396881      2.8438321      50218.233      36.893836      36.893836      36.893836    
  32600000   0.45011458    -7.9110889     -7.2359267      2.8782124      50218.233      36.893836      36.893836      36.893836    
  32700000   0.45191748    -7.9153339     -7.2374673      2.8481746      50218.233      36.893836      36.893836      36.893836    
  32800000   0.45172942    -7.9086249     -7.2310404      2.8936778      50218.233      36.893836      36.893836      36.893836    
  32900000   0.44870857    -7.9097577     -7.2367044      2.8794012      50218.233      36.893836      36.893836      36.893836    
  33000000   0.45039373    -7.9104346     -7.2348536      2.8865575      50218.233      36.893836      36.893836      36.893836    
  33100000   0.44588804    -7.9172565     -7.248434       2.8277974      50218.233      36.893836      36.893836      36.893836    
  33200000   0.44908962    -7.9132711     -7.2396463      2.8631938      50218.233      36.893836      36.893836      36.893836    
  33300000   0.45066569    -7.9156889     -7.2397         2.840617       50218.233      36.893836      36.893836      36.893836    
  33400000   0.44935577    -7.9162286     -7.2422045      2.8459926      50218.233      36.893836      36.893836      36.893836    
  33500000   0.45235717    -7.9177539     -7.2392278      2.830138       50218.233      36.893836      36.893836      36.893836    
  33600000   0.45121877    -7.9134515     -7.236633       2.8454636      50218.233      36.893836      36.893836      36.893836    
  33700000   0.44906202    -7.9145818     -7.2409983      2.8283323      50218.233      36.893836      36.893836      36.893836    
  33800000   0.4509062     -7.9161598     -7.2398101      2.851008       50218.233      36.893836      36.893836      36.893836    
  33900000   0.45016582    -7.9151151     -7.239876       2.8401941      50218.233      36.893836      36.893836      36.893836    
  34000000   0.45151913    -7.9151825     -7.2379135      2.8428439      50218.233      36.893836      36.893836      36.893836    
  34100000   0.44826669    -7.9146398     -7.2422493      2.8452618      50218.233      36.893836      36.893836      36.893836    
  34200000   0.44773617    -7.914223      -7.2426283      2.8498749      50218.233      36.893836      36.893836      36.893836    
  34300000   0.4493205     -7.9135276     -7.2395565      2.8520007      50218.233      36.893836      36.893836      36.893836    
  34400000   0.45021971    -7.9163822     -7.2410623      2.8280932      50218.233      36.893836      36.893836      36.893836    
  34500000   0.4509081     -7.916492      -7.2401394      2.8319281      50218.233      36.893836      36.893836      36.893836    
  34600000   0.45002497    -7.9142888     -7.2392609      2.8441227      50218.233      36.893836      36.893836      36.893836    
  34700000   0.45087303    -7.9136782     -7.2373782      2.8516506      50218.233      36.893836      36.893836      36.893836    
  34800000   0.45011585    -7.913057      -7.2378928      2.8500783      50218.233      36.893836      36.893836      36.893836    
  34900000   0.449754      -7.9134717     -7.2388503      2.8562696      50218.233      36.893836      36.893836      36.893836    
  35000000   0.44978339    -7.91487       -7.2402045      2.8517199      50218.233      36.893836      36.893836      36.893836    
  35100000   0.44930228    -7.9163511     -7.2424073      2.8419622      50218.233      36.893836      36.893836      36.893836    
  35200000   0.45004126    -7.9118974     -7.2368451      2.8745122      50218.233      36.893836      36.893836      36.893836    
  35300000   0.44809769    -7.9161296     -7.2439927      2.838792       50218.233      36.893836      36.893836      36.893836    
  35400000   0.4495142     -7.9149416     -7.2406799      2.8340996      50218.233      36.893836      36.893836      36.893836    
  35500000   0.4513309     -7.9154438     -7.2384571      2.8396935      50218.233      36.893836      36.893836      36.893836    
  35600000   0.45002885    -7.9142939     -7.2392602      2.8608264      50218.233      36.893836      36.893836      36.893836    
  35700000   0.45179108    -7.9155847     -7.2379078      2.8416457      50218.233      36.893836      36.893836      36.893836    
  35800000   0.44970386    -7.9149986     -7.2404524      2.8398393      50218.233      36.893836      36.893836      36.893836    
  35900000   0.44930821    -7.9131772     -7.2392244      2.8519152      50218.233      36.893836      36.893836      36.893836    
  36000000   0.45247701    -7.9173696     -7.2386638      2.8361487      50218.233      36.893836      36.893836      36.893836    
  36100000   0.44949502    -7.9127453     -7.2385124      2.8728719      50218.233      36.893836      36.893836      36.893836    
  36200000   0.45076065    -7.9120346     -7.2359032      2.8704071      50218.233      36.893836      36.893836      36.893836    
  36300000   0.44930389    -7.9138314     -7.2398851      2.851888       50218.233      36.893836      36.893836      36.893836    
  36400000   0.44890939    -7.9172183     -7.2438637      2.8274614      50218.233      36.893836      36.893836      36.893836    
  36500000   0.45186565    -7.913838      -7.2360491      2.8534541      50218.233      36.893836      36.893836      36.893836    
  36600000   0.45008633    -7.9154793     -7.2403594      2.8504389      50218.233      36.893836      36.893836      36.893836    
  36700000   0.44889771    -7.9126846     -7.2393476      2.8584555      50218.233      36.893836      36.893836      36.893836    
  36800000   0.44998176    -7.9123134     -7.2373504      2.8601532      50218.233      36.893836      36.893836      36.893836    
  36900000   0.45002006    -7.9148571     -7.2398367      2.8396638      50218.233      36.893836      36.893836      36.893836    
  37000000   0.45114708    -7.9118002     -7.2350892      2.8686643      50218.233      36.893836      36.893836      36.893836    
  37100000   0.44892901    -7.9080951     -7.2347111      2.8991291      50218.233      36.893836      36.893836      36.893836    
  37200000   0.45023637    -7.9113746     -7.2360297      2.8731874      50218.233      36.893836      36.893836      36.893836    
  37300000   0.44882742    -7.910945      -7.2377135      2.8784338      50218.233      36.893836      36.893836      36.893836    
  37400000   0.4513859     -7.9123537     -7.2352845      2.8709129      50218.233      36.893836      36.893836      36.893836    
  37500000   0.45037951    -7.9122742     -7.2367145      2.8629253      50218.233      36.893836      36.893836      36.893836    
  37600000   0.44968965    -7.9095067     -7.2349819      2.8856395      50218.233      36.893836      36.893836      36.893836    
  37700000   0.44865632    -7.9143724     -7.2413975      2.8545415      50218.233      36.893836      36.893836      36.893836    
  37800000   0.44815879    -7.9130615     -7.2408329      2.8519193      50218.233      36.893836      36.893836      36.893836    
  37900000   0.45080288    -7.9129717     -7.236777       2.8642329      50218.233      36.893836      36.893836      36.893836    
  38000000   0.44966751    -7.9158583     -7.2413666      2.8429511      50218.233      36.893836      36.893836      36.893836    
  38100000   0.45131614    -7.9144735     -7.2375089      2.8544365      50218.233      36.893836      36.893836      36.893836    
  38200000   0.44832575    -7.9161385     -7.2436594      2.8316362      50218.233      36.893836      36.893836      36.893836    
  38300000   0.44956955    -7.9126095     -7.2382648      2.8641863      50218.233      36.893836      36.893836      36.893836    
  38400000   0.4482497     -7.9169501     -7.2445851      2.8316077      50218.233      36.893836      36.893836      36.893836    
  38500000   0.45068001    -7.9130307     -7.2370203      2.8637588      50218.233      36.893836      36.893836      36.893836    
  38600000   0.44951574    -7.9119395     -7.2376755      2.8710985      50218.233      36.893836      36.893836      36.893836    
  38700000   0.44897782    -7.9157908     -7.2423337      2.8334038      50218.233      36.893836      36.893836      36.893836    
  38800000   0.45096866    -7.9144257     -7.2379823      2.8596434      50218.233      36.893836      36.893836      36.893836    
  38900000   0.44827956    -7.9155987     -7.2431889      2.8459217      50218.233      36.893836      36.893836      36.893836    
  39000000   0.45023868    -7.9144799     -7.2391315      2.8487033      50218.233      36.893836      36.893836      36.893836    
  39100000   0.4490756     -7.9167188     -7.243115       2.8358567      50218.233      36.893836      36.893836      36.893836    
  39200000   0.45248547    -7.9184292     -7.2397107      2.8299791      50218.233      36.893836      36.893836      36.893836    
  39300000   0.45069957    -7.9136644     -7.2376247      2.8545913      50218.233      36.893836      36.893836      36.893836    
  39400000   0.45079506    -7.9205026     -7.2443196      2.8128954      50218.233      36.893836      36.893836      36.893836    
  39500000   0.44914274    -7.9164199     -7.2427153      2.8350204      50218.233      36.893836      36.893836      36.893836    
  39600000   0.45083101    -7.917077      -7.2408401      2.8383742      50218.233      36.893836      36.893836      36.893836    
  39700000   0.44996826    -7.9123816     -7.2374388      2.8703964      50218.233      36.893836      36.893836      36.893836    
  39800000   0.45099857    -7.9118866     -7.2353983      2.8724455      50218.233      36.893836      36.893836      36.893836    
  39900000   0.4499401     -7.9143826     -7.239482       2.8514363      50218.233      36.893836      36.893836      36.893836    
  40000000   0.45056708    -7.9124165     -7.2365755      2.8644996      50218.233      36.893836      36.893836      36.893836    
  40100000   0.45206939    -7.9175573     -7.2394629      2.8211881      50218.233      36.893836      36.893836      36.893836    
  40200000   0.45333974    -7.9134064     -7.2334065      2.8611762      50218.233      36.893836      36.893836      36.893836    
  40300000   0.44913425    -7.9144368     -7.240745       2.8424924      50218.233      36.893836      36.893836      36.893836    
  40400000   0.45053024    -7.9146679     -7.2388821      2.8406347      50218.233      36.893836      36.893836      36.893836    
  40500000   0.44895771    -7.9148738     -7.2414468      2.850763       50218.233      36.893836      36.893836      36.893836    
  40600000   0.44902677    -7.9140435     -7.2405129      2.8552545      50218.233      36.893836      36.893836      36.893836    
  40700000   0.44887612    -7.9132765     -7.2399719      2.8469455      50218.233      36.893836      36.893836      36.893836    
  40800000   0.45041256    -7.9110475     -7.2354383      2.8880856      50218.233      36.893836      36.893836      36.893836    
  40900000   0.45097894    -7.9193125     -7.2428537      2.8127453      50218.233      36.893836      36.893836      36.893836    
  41000000   0.44833854    -7.9137295     -7.2412312      2.8617483      50218.233      36.893836      36.893836      36.893836    
  41100000   0.45097937    -7.9144599     -7.2380005      2.8465909      50218.233      36.893836      36.893836      36.893836    
  41200000   0.44895121    -7.9123844     -7.2389672      2.8638592      50218.233      36.893836      36.893836      36.893836    
  41300000   0.44878256    -7.9162481     -7.2430839      2.8244984      50218.233      36.893836      36.893836      36.893836    
  41400000   0.45059281    -7.915847      -7.2399674      2.8327996      50218.233      36.893836      36.893836      36.893836    
  41500000   0.44914503    -7.9122213     -7.2385133      2.867414       50218.233      36.893836      36.893836      36.893836    
  41600000   0.44970568    -7.9155246     -7.2409757      2.8374014      50218.233      36.893836      36.893836      36.893836    
  41700000   0.44871909    -7.9137032     -7.2406341      2.853551       50218.233      36.893836      36.893836      36.893836    
  41800000   0.44802398    -7.9108022     -7.2387758      2.8723155      50218.233      36.893836      36.893836      36.893836    
  41900000   0.44935339    -7.9155787     -7.2415582      2.833402       50218.233      36.893836      36.893836      36.893836    
  42000000   0.44933012    -7.9116764     -7.2376908      2.8623755      50218.233      36.893836      36.893836      36.893836    
  42100000   0.45131151    -7.9142788     -7.2373212      2.8552378      50218.233      36.893836      36.893836      36.893836    
  42200000   0.44819436    -7.910897      -7.238615       2.8700443      50218.233      36.893836      36.893836      36.893836    
  42300000   0.44933839    -7.9194865     -7.2454885      2.8083478      50218.233      36.893836      36.893836      36.893836    
  42400000   0.44893274    -7.9119645     -7.238575       2.873616       50218.233      36.893836      36.893836      36.893836    
  42500000   0.4514253     -7.9155314     -7.2384031      2.840575       50218.233      36.893836      36.893836      36.893836    
  42600000   0.44956169    -7.9163739     -7.242041       2.8341716      50218.233      36.893836      36.893836      36.893836    
  42700000   0.45012309    -7.9143149     -7.2391399      2.8530854      50218.233      36.893836      36.893836      36.893836    
  42800000   0.44890479    -7.9149204     -7.2415728      2.8355422      50218.233      36.893836      36.893836      36.893836    
  42900000   0.45118355    -7.913565      -7.2367992      2.8475514      50218.233      36.893836      36.893836      36.893836    
  43000000   0.44952009    -7.910998      -7.2367274      2.8731353      50218.233      36.893836      36.893836      36.893836    
  43100000   0.45215339    -7.9150951     -7.2368746      2.8485779      50218.233      36.893836      36.893836      36.893836    
  43200000   0.45035307    -7.9117151     -7.2361951      2.8684217      50218.233      36.893836      36.893836      36.893836    
  43300000   0.45068913    -7.9137074     -7.2376834      2.8608043      50218.233      36.893836      36.893836      36.893836    
  43400000   0.45172283    -7.9124429     -7.2348683      2.866245       50218.233      36.893836      36.893836      36.893836    
  43500000   0.45054343    -7.9123292     -7.2365237      2.8594202      50218.233      36.893836      36.893836      36.893836    
  43600000   0.44906135    -7.9130738     -7.2394913      2.8545359      50218.233      36.893836      36.893836      36.893836    
  43700000   0.45236467    -7.9135089     -7.2349715      2.8619059      50218.233      36.893836      36.893836      36.893836    
  43800000   0.44904444    -7.9158303     -7.2422732      2.8317188      50218.233      36.893836      36.893836      36.893836    
  43900000   0.44997216    -7.9127524     -7.2378038      2.8632793      50218.233      36.893836      36.893836      36.893836    
  44000000   0.4503873     -7.9147901     -7.2392188      2.8491503      50218.233      36.893836      36.893836      36.893836    
  44100000   0.45189344    -7.9119939     -7.2341634      2.8664496      50218.233      36.893836      36.893836      36.893836    
  44200000   0.45016458    -7.9148394     -7.2396022      2.8417863      50218.233      36.893836      36.893836      36.893836    
  44300000   0.44988185    -7.9120382     -7.237225       2.8676222      50218.233      36.893836      36.893836      36.893836    
  44400000   0.45056385    -7.9134396     -7.2376034      2.8581803      50218.233      36.893836      36.893836      36.893836    
  44500000   0.44868126    -7.9150466     -7.2420343      2.8339731      50218.233      36.893836      36.893836      36.893836    
  44600000   0.44868815    -7.9148149     -7.2417922      2.846619       50218.233      36.893836      36.893836      36.893836    
  44700000   0.45063252    -7.9127592     -7.2368201      2.8668187      50218.233      36.893836      36.893836      36.893836    
  44800000   0.44863271    -7.9097342     -7.2367948      2.8792318      50218.233      36.893836      36.893836      36.893836    
  44900000   0.45030648    -7.9128502     -7.2374001      2.8620388      50218.233      36.893836      36.893836      36.893836    
  45000000   0.44946208    -7.9095024     -7.2353189      2.878815       50218.233      36.893836      36.893836      36.893836    
  45100000   0.45066751    -7.9141679     -7.2381762      2.8450744      50218.233      36.893836      36.893836      36.893836    
  45200000   0.45136027    -7.9135645     -7.2365337      2.8532032      50218.233      36.893836      36.893836      36.893836    
  45300000   0.45219942    -7.9129672     -7.2346778      2.8609229      50218.233      36.893836      36.893836      36.893836    
  45400000   0.45070338    -7.9132121     -7.2371667      2.8596152      50218.233      36.893836      36.893836      36.893836    
  45500000   0.45033632    -7.9156383     -7.2401434      2.8444373      50218.233      36.893836      36.893836      36.893836    
  45600000   0.44984769    -7.9167342     -7.2419722      2.8281228      50218.233      36.893836      36.893836      36.893836    
  45700000   0.45232644    -7.9167687     -7.2382886      2.8481215      50218.233      36.893836      36.893836      36.893836    
  45800000   0.44889538    -7.9120892     -7.2387557      2.8584822      50218.233      36.893836      36.893836      36.893836    
  45900000   0.45065004    -7.9141303     -7.2381648      2.8452266      50218.233      36.893836      36.893836      36.893836    
  46000000   0.45122141    -7.9126436     -7.2358212      2.869682       50218.233      36.893836      36.893836      36.893836    
  46100000   0.44980292    -7.9163671     -7.2416723      2.844173       50218.233      36.893836      36.893836      36.893836    
  46200000   0.44966986    -7.9131271     -7.2386319      2.8536656      50218.233      36.893836      36.893836      36.893836    
  46300000   0.45023225    -7.9176583     -7.2423195      2.8202613      50218.233      36.893836      36.893836      36.893836    
  46400000   0.4506045     -7.915409      -7.2395119      2.8417553      50218.233      36.893836      36.893836      36.893836    
  46500000   0.45016149    -7.9147369     -7.2395043      2.8535803      50218.233      36.893836      36.893836      36.893836    
  46600000   0.44914908    -7.914057      -7.2403429      2.8537722      50218.233      36.893836      36.893836      36.893836    
  46700000   0.44881609    -7.9137599     -7.2405453      2.8597079      50218.233      36.893836      36.893836      36.893836    
  46800000   0.44913992    -7.9136637     -7.2399634      2.8541868      50218.233      36.893836      36.893836      36.893836    
  46900000   0.449841      -7.914153      -7.2394011      2.8556197      50218.233      36.893836      36.893836      36.893836    
  47000000   0.44920881    -7.9133814     -7.2395777      2.8550155      50218.233      36.893836      36.893836      36.893836    
  47100000   0.44931504    -7.9115753     -7.2376123      2.8652052      50218.233      36.893836      36.893836      36.893836    
  47200000   0.44697768    -7.9174124     -7.2469554      2.8271476      50218.233      36.893836      36.893836      36.893836    
  47300000   0.45154519    -7.9127971     -7.235489       2.8664083      50218.233      36.893836      36.893836      36.893836    
  47400000   0.45204922    -7.9101902     -7.232126       2.8990573      50218.233      36.893836      36.893836      36.893836    
  47500000   0.45145085    -7.9134437     -7.236277       2.8709994      50218.233      36.893836      36.893836      36.893836    
  47600000   0.45079286    -7.9130868     -7.2369072      2.8591041      50218.233      36.893836      36.893836      36.893836    
  47700000   0.44973687    -7.9128771     -7.2382814      2.8578741      50218.233      36.893836      36.893836      36.893836    
  47800000   0.45065962    -7.9159296     -7.2399498      2.8292917      50218.233      36.893836      36.893836      36.893836    
  47900000   0.45074565    -7.9148375     -7.2387287      2.8531318      50218.233      36.893836      36.893836      36.893836    
  48000000   0.44864173    -7.9157457     -7.2427927      2.8425071      50218.233      36.893836      36.893836      36.893836    
  48100000   0.45110837    -7.9159393     -7.2392863      2.8352106      50218.233      36.893836      36.893836      36.893836    
  48200000   0.45027333    -7.9106497     -7.2352494      2.8726122      50218.233      36.893836      36.893836      36.893836    
  48300000   0.45103229    -7.9144986     -7.2379597      2.8584604      50218.233      36.893836      36.893836      36.893836    
  48400000   0.45095946    -7.9145577     -7.2381281      2.854261       50218.233      36.893836      36.893836      36.893836    
  48500000   0.45026661    -7.9112281     -7.2358378      2.875717       50218.233      36.893836      36.893836      36.893836    
  48600000   0.44921069    -7.9106753     -7.2368688      2.874564       50218.233      36.893836      36.893836      36.893836    
  48700000   0.45111945    -7.9137192     -7.2370496      2.8520068      50218.233      36.893836      36.893836      36.893836    
  48800000   0.44880374    -7.9125264     -7.2393304      2.8648708      50218.233      36.893836      36.893836      36.893836    
  48900000   0.45106253    -7.9180136     -7.2414295      2.8120121      50218.233      36.893836      36.893836      36.893836    
  49000000   0.45193778    -7.9164324     -7.2385354      2.8343751      50218.233      36.893836      36.893836      36.893836    
  49100000   0.44729022    -7.9134299     -7.2425041      2.8492715      50218.233      36.893836      36.893836      36.893836    
  49200000   0.45175388    -7.9156432     -7.238022       2.8391225      50218.233      36.893836      36.893836      36.893836    
  49300000   0.45231741    -7.9144392     -7.2359727      2.8552302      50218.233      36.893836      36.893836      36.893836    
  49400000   0.4495427     -7.9135545     -7.23925        2.8577716      50218.233      36.893836      36.893836      36.893836    
  49500000   0.44905649    -7.9121636     -7.2385884      2.8561998      50218.233      36.893836      36.893836      36.893836    
  49600000   0.44938499    -7.9175384     -7.2434705      2.8286967      50218.233      36.893836      36.893836      36.893836    
  49700000   0.45159045    -7.9136174     -7.2362414      2.8525761      50218.233      36.893836      36.893836      36.893836    
  49800000   0.44927535    -7.9140612     -7.2401578      2.8632259      50218.233      36.893836      36.893836      36.893836    
  49900000   0.44864389    -7.9136536     -7.2406973      2.8444246      50218.233      36.893836      36.893836      36.893836    
  50000000   0.45159529    -7.9144447     -7.2370615      2.8459424      50218.233      36.893836      36.893836      36.893836    
Loop time of 77364.3 on 5 procs for 50000000 steps with 70304 atoms

Performance: 558397.058 tau/day, 646.293 timesteps/s, 45.437 Matom-step/s
94.9% CPU use with 5 MPI tasks x 1 OpenMP threads

MPI task timing breakdown:
Section |  min time  |  avg time  |  max time  |%varavg| %total
---------------------------------------------------------------
Pair    | 26822      | 30066      | 34447      |1625.3 | 38.86
Neigh   | 255.26     | 281.73     | 320.04     | 131.8 |  0.36
Comm    | 11831      | 11935      | 12065      |  69.1 | 15.43
Output  | 0.091732   | 0.09496    | 0.10099    |   1.0 |  0.00
Modify  | 26563      | 31104      | 34339      |1622.0 | 40.20
Other   |            | 3978       |            |       |  5.14

Nlocal:        14060.8 ave       14083 max       14028 min
Histogram: 1 0 0 1 0 0 1 0 0 2
Nghost:          18769 ave       18810 max       18715 min
Histogram: 1 0 0 0 1 1 0 0 1 1
Neighs:              0 ave           0 max           0 min
Histogram: 5 0 0 0 0 0 0 0 0 0

Total # of neighbors = 0
Ave neighs/atom = 0
Neighbor list builds = 10037241
Dangerous builds = 0
clear
OMP_NUM_THREADS environment is not set. Defaulting to 1 thread. (src/comm.cpp:98)
  using 1 OpenMP thread(s) per MPI task
package gpu 0
jump dms430.lmp

variable T equal 430
# T = 1000* (temp in LJ unit)
variable f equal 100000
log log.${T}
log log.430
