variable TLJ equal (${T}/1000)
variable TLJ equal (320/1000)
variable NCyle equal 5
variable iStep equal (${f})
variable iStep equal (100000)
variable dumpStep equal (${f}*100)
variable dumpStep equal (100000*100)
variable runStep equal (${f}*100*${NCyle})
variable runStep equal (100000*100*${NCyle})
variable runStep equal (100000*100*5)

units       lj
atom_style  atomic
dimension 3
boundary     p p p
pair_style  lj/cut 2.5
read_data  ../data/T${T}.dat
read_data  ../data/T320.dat
Reading data file ...
  orthogonal box = (0.97250269 0.97250269 0.97250269) to (37.866338 37.866338 37.866338)
  1 by 1 by 5 MPI processor grid
  reading atoms ...
  70304 atoms
  reading velocities ...
  70304 velocities
  read_data CPU = 0.209 seconds
change_box all triclinic
Changing box ...
  triclinic box = (0.97250269 0.97250269 0.97250269) to (37.866338 37.866338 37.866338) with tilt (0 0 0)
mass 1 1
mass 2 1
pair_modify shift yes
pair_coeff  1 1 1 1
pair_coeff  1 2 1.5 0.8
pair_coeff  2 2 0.5 0.88


timestep 0.01
thermo ${iStep}
thermo 100000
reset_timestep 0
thermo_style custom step temp pe etotal press vol lx ly lz
fix             1 all nvt temp ${TLJ}  ${TLJ}  0.1
fix             1 all nvt temp 0.32  ${TLJ}  0.1
fix             1 all nvt temp 0.32  0.32  0.1
thermo_modify flush yes

fix dsf all deform 1 xy  wiggle 0.5  ${f}   units box
fix dsf all deform 1 xy  wiggle 0.5  100000   units box
fix ps1 all ave/time 1 1 ${iStep} c_thermo_press[1] c_thermo_press[2]  c_thermo_press[3] c_thermo_press[4]  c_thermo_press[5] c_thermo_press[6]  file  stress.${T}
fix ps1 all ave/time 1 1 100000 c_thermo_press[1] c_thermo_press[2]  c_thermo_press[3] c_thermo_press[4]  c_thermo_press[5] c_thermo_press[6]  file  stress.${T}
fix ps1 all ave/time 1 1 100000 c_thermo_press[1] c_thermo_press[2]  c_thermo_press[3] c_thermo_press[4]  c_thermo_press[5] c_thermo_press[6]  file  stress.320
dump            1 all custom ${dumpStep} dump.${T} id type x y z
dump            1 all custom 10000000 dump.${T} id type x y z
dump            1 all custom 10000000 dump.320 id type x y z
dump_modify 1 sort id
fix nodrift all momentum 1  linear 1 1 1
fix com_seed all recenter INIT INIT INIT shift all
run ${runStep}
run 50000000
Generated 0 of 1 mixed pair_coeff terms from geometric mixing rule
Per MPI rank memory allocation (min/avg/max) = 6.663 | 8.017 | 8.92 Mbytes
   Step          Temp          PotEng         TotEng         Press          Volume           Lx             Ly             Lz      
         0   0.32020808    -8.1136423     -7.633337       1.1960806      50218.233      36.893836      36.893836      36.893836    
    100000   0.32038638    -8.1066968     -7.626124       1.2468169      50218.233      36.893836      36.893836      36.893836    
    200000   0.32048805    -8.1070051     -7.6262799      1.2411831      50218.233      36.893836      36.893836      36.893836    
    300000   0.32117695    -8.1052045     -7.6234459      1.2537221      50218.233      36.893836      36.893836      36.893836    
    400000   0.31926241    -8.1052384     -7.6263516      1.2608046      50218.233      36.893836      36.893836      36.893836    
    500000   0.31931649    -8.1075079     -7.62854        1.2378336      50218.233      36.893836      36.893836      36.893836    
    600000   0.31904611    -8.1093234     -7.630761       1.2254984      50218.233      36.893836      36.893836      36.893836    
    700000   0.31854339    -8.1070815     -7.6292732      1.239182       50218.233      36.893836      36.893836      36.893836    
    800000   0.32012759    -8.1088711     -7.6286865      1.2347045      50218.233      36.893836      36.893836      36.893836    
    900000   0.32141334    -8.1073021     -7.6251889      1.2477497      50218.233      36.893836      36.893836      36.893836    
   1000000   0.31907213    -8.1043666     -7.6257652      1.2629045      50218.233      36.893836      36.893836      36.893836    
   1100000   0.32000396    -8.1047076     -7.6247085      1.2662974      50218.233      36.893836      36.893836      36.893836    
   1200000   0.32006289    -8.1054007     -7.6253132      1.2544355      50218.233      36.893836      36.893836      36.893836    
   1300000   0.3190022     -8.1093993     -7.6309028      1.2364507      50218.233      36.893836      36.893836      36.893836    
   1400000   0.32175365    -8.1031747     -7.6205511      1.2758251      50218.233      36.893836      36.893836      36.893836    
   1500000   0.31881407    -8.1067181     -7.6285038      1.2473606      50218.233      36.893836      36.893836      36.893836    
   1600000   0.31989633    -8.1089367     -7.629099       1.2310619      50218.233      36.893836      36.893836      36.893836    
   1700000   0.32070235    -8.1072661     -7.6262194      1.2401449      50218.233      36.893836      36.893836      36.893836    
   1800000   0.31915092    -8.1027258     -7.6240062      1.2653866      50218.233      36.893836      36.893836      36.893836    
   1900000   0.32028933    -8.1071302     -7.626703       1.2398148      50218.233      36.893836      36.893836      36.893836    
   2000000   0.31922931    -8.1055157     -7.6266785      1.2522206      50218.233      36.893836      36.893836      36.893836    
   2100000   0.32002177    -8.1058149     -7.6257891      1.2523955      50218.233      36.893836      36.893836      36.893836    
   2200000   0.32028191    -8.1047561     -7.6243401      1.263389       50218.233      36.893836      36.893836      36.893836    
   2300000   0.31866716    -8.1105578     -7.6325638      1.2120709      50218.233      36.893836      36.893836      36.893836    
   2400000   0.32076459    -8.1038338     -7.6226937      1.2657592      50218.233      36.893836      36.893836      36.893836    
   2500000   0.32052277    -8.1079024     -7.6271251      1.2308551      50218.233      36.893836      36.893836      36.893836    
   2600000   0.32045399    -8.1044087     -7.6237345      1.2693366      50218.233      36.893836      36.893836      36.893836    
   2700000   0.32172685    -8.1093271     -7.6267437      1.2263435      50218.233      36.893836      36.893836      36.893836    
   2800000   0.32002277    -8.1070913     -7.627064       1.238793       50218.233      36.893836      36.893836      36.893836    
   2900000   0.32006945    -8.1031323     -7.6230349      1.2739963      50218.233      36.893836      36.893836      36.893836    
   3000000   0.31933264    -8.1059384     -7.6269463      1.2578301      50218.233      36.893836      36.893836      36.893836    
   3100000   0.32010849    -8.1086691     -7.6285132      1.2316146      50218.233      36.893836      36.893836      36.893836    
   3200000   0.31833398    -8.106124      -7.6286298      1.2551067      50218.233      36.893836      36.893836      36.893836    
   3300000   0.31823431    -8.107091      -7.6297463      1.2378072      50218.233      36.893836      36.893836      36.893836    
   3400000   0.32206417    -8.1058061     -7.6227168      1.2551119      50218.233      36.893836      36.893836      36.893836    
   3500000   0.32034563    -8.1072091     -7.6266974      1.2389017      50218.233      36.893836      36.893836      36.893836    
   3600000   0.31946289    -8.1082244     -7.6290369      1.2371912      50218.233      36.893836      36.893836      36.893836    
   3700000   0.3204105     -8.1058701     -7.6252611      1.2600838      50218.233      36.893836      36.893836      36.893836    
   3800000   0.31983121    -8.1088304     -7.6290904      1.2317255      50218.233      36.893836      36.893836      36.893836    
   3900000   0.32127986    -8.1034891     -7.6215762      1.2641872      50218.233      36.893836      36.893836      36.893836    
   4000000   0.32157019    -8.1063295     -7.6239811      1.2513386      50218.233      36.893836      36.893836      36.893836    
   4100000   0.31723209    -8.1080122     -7.6321708      1.2381299      50218.233      36.893836      36.893836      36.893836    
   4200000   0.3200882     -8.1059138     -7.6257883      1.2563788      50218.233      36.893836      36.893836      36.893836    
   4300000   0.32129511    -8.1066668     -7.624731       1.2470615      50218.233      36.893836      36.893836      36.893836    
   4400000   0.31992565    -8.1069027     -7.6270211      1.2555082      50218.233      36.893836      36.893836      36.893836    
   4500000   0.31993024    -8.1095355     -7.629647       1.2309488      50218.233      36.893836      36.893836      36.893836    
   4600000   0.31967493    -8.1052076     -7.625702       1.2510639      50218.233      36.893836      36.893836      36.893836    
   4700000   0.32098785    -8.1069492     -7.6254743      1.2451791      50218.233      36.893836      36.893836      36.893836    
   4800000   0.31950261    -8.1087768     -7.6295297      1.2396021      50218.233      36.893836      36.893836      36.893836    
   4900000   0.32087073    -8.1075973     -7.6262981      1.2496796      50218.233      36.893836      36.893836      36.893836    
   5000000   0.32309361    -8.1072215     -7.6225879      1.2548344      50218.233      36.893836      36.893836      36.893836    
   5100000   0.31959645    -8.1096491     -7.6302612      1.2199118      50218.233      36.893836      36.893836      36.893836    
   5200000   0.32060908    -8.1087366     -7.6278298      1.2362624      50218.233      36.893836      36.893836      36.893836    
   5300000   0.32065364    -8.1070886     -7.626115       1.2463189      50218.233      36.893836      36.893836      36.893836    
   5400000   0.32068282    -8.106629      -7.6256116      1.2454787      50218.233      36.893836      36.893836      36.893836    
   5500000   0.32134349    -8.1078625     -7.6258541      1.2434743      50218.233      36.893836      36.893836      36.893836    
   5600000   0.31948942    -8.1086029     -7.6293756      1.2309368      50218.233      36.893836      36.893836      36.893836    
   5700000   0.31888805    -8.1046637     -7.6263385      1.2557502      50218.233      36.893836      36.893836      36.893836    
   5800000   0.31932203    -8.108019      -7.6290427      1.243378       50218.233      36.893836      36.893836      36.893836    
   5900000   0.32135114    -8.1104987     -7.6284789      1.2243913      50218.233      36.893836      36.893836      36.893836    
   6000000   0.32056075    -8.1077455     -7.6269112      1.2435471      50218.233      36.893836      36.893836      36.893836    
   6100000   0.32367144    -8.1079308     -7.6224306      1.2372532      50218.233      36.893836      36.893836      36.893836    
   6200000   0.31884086    -8.1039893     -7.6257348      1.2654085      50218.233      36.893836      36.893836      36.893836    
   6300000   0.32167177    -8.1069834     -7.6244826      1.246765       50218.233      36.893836      36.893836      36.893836    
   6400000   0.32046911    -8.10863       -7.6279332      1.2420475      50218.233      36.893836      36.893836      36.893836    
   6500000   0.32197581    -8.1053187     -7.6223618      1.265072       50218.233      36.893836      36.893836      36.893836    
   6600000   0.32134383    -8.1095639     -7.627555       1.2246845      50218.233      36.893836      36.893836      36.893836    
   6700000   0.32117538    -8.1099501     -7.6281939      1.222313       50218.233      36.893836      36.893836      36.893836    
   6800000   0.31912471    -8.1082071     -7.6295269      1.2316643      50218.233      36.893836      36.893836      36.893836    
   6900000   0.31949394    -8.1061846     -7.6269505      1.2603363      50218.233      36.893836      36.893836      36.893836    
   7000000   0.32189887    -8.108083      -7.6252416      1.2398905      50218.233      36.893836      36.893836      36.893836    
   7100000   0.31873919    -8.1078807     -7.6297787      1.2393848      50218.233      36.893836      36.893836      36.893836    
   7200000   0.31906921    -8.1084947     -7.6298977      1.2230017      50218.233      36.893836      36.893836      36.893836    
   7300000   0.32024027    -8.1064759     -7.6261223      1.2416537      50218.233      36.893836      36.893836      36.893836    
   7400000   0.31908242    -8.1041159     -7.6254991      1.259596       50218.233      36.893836      36.893836      36.893836    
   7500000   0.32095669    -8.1047813     -7.6233532      1.268912       50218.233      36.893836      36.893836      36.893836    
   7600000   0.32060452    -8.1043388     -7.6234389      1.2728875      50218.233      36.893836      36.893836      36.893836    
   7700000   0.31940865    -8.1047839     -7.6256777      1.2592298      50218.233      36.893836      36.893836      36.893836    
   7800000   0.31965707    -8.1039539     -7.6244752      1.2668672      50218.233      36.893836      36.893836      36.893836    
   7900000   0.32016418    -8.106774      -7.6265346      1.2479635      50218.233      36.893836      36.893836      36.893836    
   8000000   0.32163977    -8.1051459     -7.6226931      1.2569848      50218.233      36.893836      36.893836      36.893836    
   8100000   0.31849951    -8.1064889     -7.6287464      1.2360184      50218.233      36.893836      36.893836      36.893836    
   8200000   0.3201417     -8.1041562     -7.6239505      1.2685639      50218.233      36.893836      36.893836      36.893836    
   8300000   0.31909186    -8.1057603     -7.6271293      1.2468808      50218.233      36.893836      36.893836      36.893836    
   8400000   0.3198493     -8.1060423     -7.6262752      1.2498884      50218.233      36.893836      36.893836      36.893836    
   8500000   0.32100669    -8.1067644     -7.6252612      1.2436916      50218.233      36.893836      36.893836      36.893836    
   8600000   0.3198554     -8.1058695     -7.6260933      1.2536587      50218.233      36.893836      36.893836      36.893836    
   8700000   0.3185243     -8.1074065     -7.6296268      1.245959       50218.233      36.893836      36.893836      36.893836    
   8800000   0.32118419    -8.1075087     -7.6257393      1.2433739      50218.233      36.893836      36.893836      36.893836    
   8900000   0.3209022     -8.104401      -7.6230546      1.2630246      50218.233      36.893836      36.893836      36.893836    
   9000000   0.32057215    -8.1066504     -7.625799       1.2515965      50218.233      36.893836      36.893836      36.893836    
   9100000   0.32109251    -8.1092118     -7.6275799      1.2290785      50218.233      36.893836      36.893836      36.893836    
   9200000   0.31816017    -8.1062231     -7.6289896      1.2565111      50218.233      36.893836      36.893836      36.893836    
   9300000   0.32205012    -8.1071529     -7.6240846      1.2442598      50218.233      36.893836      36.893836      36.893836    
   9400000   0.32050088    -8.1097135     -7.628969       1.2291206      50218.233      36.893836      36.893836      36.893836    
   9500000   0.31808321    -8.1087662     -7.6316481      1.2270842      50218.233      36.893836      36.893836      36.893836    
   9600000   0.32006895    -8.1083656     -7.628269       1.2360262      50218.233      36.893836      36.893836      36.893836    
   9700000   0.3199611     -8.1070356     -7.6271008      1.2491677      50218.233      36.893836      36.893836      36.893836    
   9800000   0.32026343    -8.1080081     -7.6276198      1.232337       50218.233      36.893836      36.893836      36.893836    
   9900000   0.32140928    -8.1063627     -7.6242557      1.2531487      50218.233      36.893836      36.893836      36.893836    
  10000000   0.31998782    -8.1072536     -7.6272787      1.2444178      50218.233      36.893836      36.893836      36.893836    
  10100000   0.31888117    -8.1061101     -7.6277951      1.2502587      50218.233      36.893836      36.893836      36.893836    
  10200000   0.32168568    -8.109051      -7.6265293      1.2303518      50218.233      36.893836      36.893836      36.893836    
  10300000   0.32089873    -8.1081963     -7.626855       1.2430361      50218.233      36.893836      36.893836      36.893836    
  10400000   0.32057374    -8.103467      -7.6226132      1.272626       50218.233      36.893836      36.893836      36.893836    
  10500000   0.3206132     -8.1103616     -7.6294487      1.2232185      50218.233      36.893836      36.893836      36.893836    
  10600000   0.31995303    -8.106894      -7.6269713      1.2471415      50218.233      36.893836      36.893836      36.893836    
  10700000   0.31911042    -8.1078567     -7.6291979      1.2384287      50218.233      36.893836      36.893836      36.893836    
  10800000   0.31891165    -8.1067713     -7.6284106      1.239917       50218.233      36.893836      36.893836      36.893836    
  10900000   0.32048423    -8.1063623     -7.6256428      1.2554894      50218.233      36.893836      36.893836      36.893836    
  11000000   0.32143811    -8.1062521     -7.6241018      1.2580054      50218.233      36.893836      36.893836      36.893836    
  11100000   0.31953718    -8.107448      -7.628149       1.2403846      50218.233      36.893836      36.893836      36.893836    
  11200000   0.31946349    -8.1088907     -7.6297023      1.2286133      50218.233      36.893836      36.893836      36.893836    
  11300000   0.32160796    -8.1079523     -7.6255473      1.2404879      50218.233      36.893836      36.893836      36.893836    
  11400000   0.31996247    -8.1060422     -7.6261053      1.248569       50218.233      36.893836      36.893836      36.893836    
  11500000   0.3192253     -8.1037987     -7.6249675      1.2712766      50218.233      36.893836      36.893836      36.893836    
  11600000   0.32111203    -8.1088862     -7.627225       1.2331487      50218.233      36.893836      36.893836      36.893836    
  11700000   0.32019187    -8.1042905     -7.6240095      1.2713908      50218.233      36.893836      36.893836      36.893836    
  11800000   0.31781714    -8.1063419     -7.629623       1.2433786      50218.233      36.893836      36.893836      36.893836    
  11900000   0.31912629    -8.1051428     -7.6264602      1.2566923      50218.233      36.893836      36.893836      36.893836    
  12000000   0.32010257    -8.1046225     -7.6244754      1.2581272      50218.233      36.893836      36.893836      36.893836    
  12100000   0.31966373    -8.1036701     -7.6241814      1.2669318      50218.233      36.893836      36.893836      36.893836    
  12200000   0.32030821    -8.1040019     -7.6235464      1.2622737      50218.233      36.893836      36.893836      36.893836    
  12300000   0.31969921    -8.1047712     -7.6252292      1.2622685      50218.233      36.893836      36.893836      36.893836    
  12400000   0.31796923    -8.1049088     -7.6279617      1.2583116      50218.233      36.893836      36.893836      36.893836    
  12500000   0.31835118    -8.1091546     -7.6316346      1.2219086      50218.233      36.893836      36.893836      36.893836    
  12600000   0.31873535    -8.1029782     -7.624882       1.274271       50218.233      36.893836      36.893836      36.893836    
  12700000   0.32085044    -8.1087567     -7.6274879      1.2355156      50218.233      36.893836      36.893836      36.893836    
  12800000   0.32037553    -8.1046743     -7.6241179      1.2614158      50218.233      36.893836      36.893836      36.893836    
  12900000   0.32085001    -8.1041381     -7.6228699      1.2710536      50218.233      36.893836      36.893836      36.893836    
  13000000   0.3216989     -8.1077433     -7.6252018      1.2411149      50218.233      36.893836      36.893836      36.893836    
  13100000   0.32022233    -8.1078099     -7.6274832      1.2445596      50218.233      36.893836      36.893836      36.893836    
  13200000   0.31912804    -8.1083895     -7.6297043      1.2309417      50218.233      36.893836      36.893836      36.893836    
  13300000   0.31980857    -8.1089433     -7.6292373      1.2404669      50218.233      36.893836      36.893836      36.893836    
  13400000   0.31943449    -8.1053882     -7.6262433      1.2594285      50218.233      36.893836      36.893836      36.893836    
  13500000   0.32001309    -8.1058896     -7.6258768      1.2497148      50218.233      36.893836      36.893836      36.893836    
  13600000   0.31838097    -8.1082782     -7.6307135      1.2226822      50218.233      36.893836      36.893836      36.893836    
  13700000   0.31996425    -8.1073967     -7.6274572      1.2437682      50218.233      36.893836      36.893836      36.893836    
  13800000   0.31935028    -8.1057721     -7.6267535      1.2486788      50218.233      36.893836      36.893836      36.893836    
  13900000   0.3201007     -8.1058824     -7.6257382      1.2575504      50218.233      36.893836      36.893836      36.893836    
  14000000   0.32041843    -8.1061919     -7.6255711      1.2502368      50218.233      36.893836      36.893836      36.893836    
  14100000   0.31972979    -8.1073862     -7.6277983      1.2462911      50218.233      36.893836      36.893836      36.893836    
  14200000   0.32019354    -8.1056567     -7.6253732      1.25304        50218.233      36.893836      36.893836      36.893836    
  14300000   0.31958477    -8.106899      -7.6275287      1.23912        50218.233      36.893836      36.893836      36.893836    
  14400000   0.31965458    -8.108428      -7.6289529      1.2371953      50218.233      36.893836      36.893836      36.893836    
  14500000   0.32087825    -8.1088743     -7.6275638      1.224791       50218.233      36.893836      36.893836      36.893836    
  14600000   0.31889581    -8.1078316     -7.6294947      1.2407936      50218.233      36.893836      36.893836      36.893836    
  14700000   0.31936845    -8.1067358     -7.6276899      1.2467214      50218.233      36.893836      36.893836      36.893836    
  14800000   0.31942653    -8.1068309     -7.6276979      1.2434346      50218.233      36.893836      36.893836      36.893836    
  14900000   0.32012739    -8.1060631     -7.6258789      1.2583052      50218.233      36.893836      36.893836      36.893836    
  15000000   0.32035875    -8.1104446     -7.6299133      1.2216704      50218.233      36.893836      36.893836      36.893836    
  15100000   0.32041267    -8.1081296     -7.6275175      1.2300739      50218.233      36.893836      36.893836      36.893836    
  15200000   0.32026276    -8.106424      -7.6260367      1.2598682      50218.233      36.893836      36.893836      36.893836    
  15300000   0.32006578    -8.1063271     -7.6262353      1.2477558      50218.233      36.893836      36.893836      36.893836    
  15400000   0.32038837    -8.106733      -7.6261573      1.2489651      50218.233      36.893836      36.893836      36.893836    
  15500000   0.3208995     -8.1057289     -7.6243865      1.2599992      50218.233      36.893836      36.893836      36.893836    
  15600000   0.31991793    -8.1073398     -7.6274697      1.249264       50218.233      36.893836      36.893836      36.893836    
  15700000   0.31829927    -8.1082653     -7.6308232      1.2393802      50218.233      36.893836      36.893836      36.893836    
  15800000   0.32033619    -8.1084769     -7.6279795      1.2290917      50218.233      36.893836      36.893836      36.893836    
  15900000   0.32211237    -8.1075272     -7.6243655      1.2355657      50218.233      36.893836      36.893836      36.893836    
  16000000   0.3215076     -8.1067431     -7.6244885      1.2402869      50218.233      36.893836      36.893836      36.893836    
  16100000   0.31825896    -8.1073715     -7.6299899      1.2472636      50218.233      36.893836      36.893836      36.893836    
  16200000   0.32137032    -8.1082675     -7.6262189      1.2301562      50218.233      36.893836      36.893836      36.893836    
  16300000   0.31989708    -8.106078      -7.6262392      1.2546192      50218.233      36.893836      36.893836      36.893836    
  16400000   0.31782435    -8.1072292     -7.6304995      1.2369058      50218.233      36.893836      36.893836      36.893836    
  16500000   0.32046615    -8.1048775     -7.6241851      1.2643151      50218.233      36.893836      36.893836      36.893836    
  16600000   0.31957067    -8.1061825     -7.6268333      1.2495471      50218.233      36.893836      36.893836      36.893836    
  16700000   0.32033354    -8.1075716     -7.6270781      1.2447171      50218.233      36.893836      36.893836      36.893836    
  16800000   0.32091758    -8.1048173     -7.6234478      1.2597672      50218.233      36.893836      36.893836      36.893836    
  16900000   0.32081773    -8.1059217     -7.624702       1.2483666      50218.233      36.893836      36.893836      36.893836    
  17000000   0.3210107     -8.1062398     -7.6247306      1.2533868      50218.233      36.893836      36.893836      36.893836    
  17100000   0.31960415    -8.1071596     -7.6277602      1.2442688      50218.233      36.893836      36.893836      36.893836    
  17200000   0.32071918    -8.1101754     -7.6291035      1.2194703      50218.233      36.893836      36.893836      36.893836    
  17300000   0.32077076    -8.1044345     -7.6232852      1.2684711      50218.233      36.893836      36.893836      36.893836    
  17400000   0.32145742    -8.1048106     -7.6226313      1.2626508      50218.233      36.893836      36.893836      36.893836    
  17500000   0.31904569    -8.1069573     -7.6283956      1.2449674      50218.233      36.893836      36.893836      36.893836    
  17600000   0.31862973    -8.1045956     -7.6266578      1.262199       50218.233      36.893836      36.893836      36.893836    
  17700000   0.31899955    -8.1060312     -7.6275387      1.2517384      50218.233      36.893836      36.893836      36.893836    
  17800000   0.31965739    -8.1078311     -7.6283518      1.2428824      50218.233      36.893836      36.893836      36.893836    
  17900000   0.32047597    -8.1058377     -7.6251306      1.254115       50218.233      36.893836      36.893836      36.893836    
  18000000   0.32104203    -8.106099      -7.6245429      1.258697       50218.233      36.893836      36.893836      36.893836    
  18100000   0.32084592    -8.1085589     -7.6272969      1.2431975      50218.233      36.893836      36.893836      36.893836    
  18200000   0.32215966    -8.1066067     -7.6233741      1.2511037      50218.233      36.893836      36.893836      36.893836    
  18300000   0.31939192    -8.1061397     -7.6270587      1.25511        50218.233      36.893836      36.893836      36.893836    
  18400000   0.31928684    -8.1073498     -7.6284263      1.2388638      50218.233      36.893836      36.893836      36.893836    
  18500000   0.31939233    -8.1066531     -7.6275715      1.248412       50218.233      36.893836      36.893836      36.893836    
  18600000   0.32094042    -8.1059011     -7.6244973      1.2548804      50218.233      36.893836      36.893836      36.893836    
  18700000   0.31936825    -8.1074381     -7.6283925      1.2347832      50218.233      36.893836      36.893836      36.893836    
  18800000   0.32009756    -8.1080849     -7.6279454      1.2333677      50218.233      36.893836      36.893836      36.893836    
  18900000   0.32111878    -8.1077985     -7.6261272      1.2377223      50218.233      36.893836      36.893836      36.893836    
  19000000   0.32080665    -8.1080991     -7.6268959      1.2392931      50218.233      36.893836      36.893836      36.893836    
  19100000   0.31949737    -8.1071211     -7.6278818      1.250995       50218.233      36.893836      36.893836      36.893836    
  19200000   0.3201853     -8.105977      -7.6257059      1.2542279      50218.233      36.893836      36.893836      36.893836    
  19300000   0.32059752    -8.1084192     -7.6275298      1.2447707      50218.233      36.893836      36.893836      36.893836    
  19400000   0.32053578    -8.1096655     -7.6288686      1.2285142      50218.233      36.893836      36.893836      36.893836    
  19500000   0.32104398    -8.1062762     -7.6247171      1.2524547      50218.233      36.893836      36.893836      36.893836    
  19600000   0.32124633    -8.1058759     -7.6240133      1.2593712      50218.233      36.893836      36.893836      36.893836    
  19700000   0.32075762    -8.1077402     -7.6266106      1.2402989      50218.233      36.893836      36.893836      36.893836    
  19800000   0.31892442    -8.1081043     -7.6297245      1.2380864      50218.233      36.893836      36.893836      36.893836    
  19900000   0.31887406    -8.1071036     -7.6287993      1.2419675      50218.233      36.893836      36.893836      36.893836    
  20000000   0.31987069    -8.1077969     -7.6279977      1.2400521      50218.233      36.893836      36.893836      36.893836    
  20100000   0.31897065    -8.108896      -7.6304468      1.2311486      50218.233      36.893836      36.893836      36.893836    
  20200000   0.31924604    -8.1083748     -7.6295126      1.2326049      50218.233      36.893836      36.893836      36.893836    
  20300000   0.31992131    -8.1076879     -7.6278127      1.2437447      50218.233      36.893836      36.893836      36.893836    
  20400000   0.32117695    -8.1048018     -7.6230432      1.2661078      50218.233      36.893836      36.893836      36.893836    
  20500000   0.32151018    -8.1115405     -7.6292821      1.2154041      50218.233      36.893836      36.893836      36.893836    
  20600000   0.31889836    -8.1065144     -7.6281737      1.2468906      50218.233      36.893836      36.893836      36.893836    
  20700000   0.32045933    -8.1093077     -7.6286255      1.2331607      50218.233      36.893836      36.893836      36.893836    
  20800000   0.31810656    -8.1081957     -7.6310426      1.2457119      50218.233      36.893836      36.893836      36.893836    
  20900000   0.32013686    -8.1079111     -7.6277127      1.2381975      50218.233      36.893836      36.893836      36.893836    
  21000000   0.32041258    -8.1090696     -7.6284576      1.2276417      50218.233      36.893836      36.893836      36.893836    
  21100000   0.31795238    -8.1063389     -7.6294171      1.2485263      50218.233      36.893836      36.893836      36.893836    
  21200000   0.3202607     -8.1072918     -7.6269076      1.2430591      50218.233      36.893836      36.893836      36.893836    
  21300000   0.32052124    -8.1065038     -7.6257288      1.2483575      50218.233      36.893836      36.893836      36.893836    
  21400000   0.31959596    -8.1054168     -7.6260297      1.260906       50218.233      36.893836      36.893836      36.893836    
  21500000   0.31962337    -8.1067016     -7.6272734      1.2457497      50218.233      36.893836      36.893836      36.893836    
  21600000   0.32011874    -8.1046039     -7.6244326      1.2648487      50218.233      36.893836      36.893836      36.893836    
  21700000   0.32045947    -8.1081922     -7.6275099      1.2368198      50218.233      36.893836      36.893836      36.893836    
  21800000   0.32168545    -8.1059685     -7.6234472      1.2562501      50218.233      36.893836      36.893836      36.893836    
  21900000   0.31822593    -8.1081375     -7.6308054      1.23288        50218.233      36.893836      36.893836      36.893836    
  22000000   0.32133451    -8.1087317     -7.6267368      1.2376444      50218.233      36.893836      36.893836      36.893836    
  22100000   0.32019035    -8.109825      -7.6295463      1.2255352      50218.233      36.893836      36.893836      36.893836    
  22200000   0.3198299     -8.1067026     -7.6269645      1.2548046      50218.233      36.893836      36.893836      36.893836    
  22300000   0.32014328    -8.1076062     -7.6273981      1.2480416      50218.233      36.893836      36.893836      36.893836    
  22400000   0.32050774    -8.1066972     -7.6259424      1.2339011      50218.233      36.893836      36.893836      36.893836    
  22500000   0.31931616    -8.1045641     -7.6255966      1.2632919      50218.233      36.893836      36.893836      36.893836    
  22600000   0.3196479     -8.1041503     -7.6246853      1.2646023      50218.233      36.893836      36.893836      36.893836    
  22700000   0.31985786    -8.1102817     -7.6305017      1.2098344      50218.233      36.893836      36.893836      36.893836    
  22800000   0.31976602    -8.1073334     -7.6276912      1.2390225      50218.233      36.893836      36.893836      36.893836    
  22900000   0.32032644    -8.1069125     -7.6264297      1.233918       50218.233      36.893836      36.893836      36.893836    
  23000000   0.32122727    -8.1088668     -7.6270328      1.2302556      50218.233      36.893836      36.893836      36.893836    
  23100000   0.31924839    -8.1055406     -7.6266748      1.2500681      50218.233      36.893836      36.893836      36.893836    
  23200000   0.31944596    -8.1075295     -7.6283673      1.2390751      50218.233      36.893836      36.893836      36.893836    
  23300000   0.32069566    -8.1059742     -7.6249375      1.2454735      50218.233      36.893836      36.893836      36.893836    
  23400000   0.32083073    -8.1081226     -7.6268833      1.23389        50218.233      36.893836      36.893836      36.893836    
  23500000   0.31895331    -8.108266      -7.6298429      1.231081       50218.233      36.893836      36.893836      36.893836    
  23600000   0.31999036    -8.1081979     -7.6282192      1.2340082      50218.233      36.893836      36.893836      36.893836    
  23700000   0.32084399    -8.1072744     -7.6260153      1.2411992      50218.233      36.893836      36.893836      36.893836    
  23800000   0.31923551    -8.1084993     -7.6296528      1.2311463      50218.233      36.893836      36.893836      36.893836    
  23900000   0.32056999    -8.1089068     -7.6280586      1.2289711      50218.233      36.893836      36.893836      36.893836    
  24000000   0.32156176    -8.1069487     -7.6246129      1.2452317      50218.233      36.893836      36.893836      36.893836    
  24100000   0.3205727     -8.1068954     -7.6260432      1.2447988      50218.233      36.893836      36.893836      36.893836    
  24200000   0.32095276    -8.1087732     -7.6273509      1.2323623      50218.233      36.893836      36.893836      36.893836    
  24300000   0.31931273    -8.1080411     -7.6290788      1.2337261      50218.233      36.893836      36.893836      36.893836    
  24400000   0.31927924    -8.1064367     -7.6275246      1.2486704      50218.233      36.893836      36.893836      36.893836    
  24500000   0.31912246    -8.1083038     -7.6296269      1.2331271      50218.233      36.893836      36.893836      36.893836    
  24600000   0.32044047    -8.1091555     -7.6285017      1.2252781      50218.233      36.893836      36.893836      36.893836    
  24700000   0.32173513    -8.1098341     -7.6272383      1.2298255      50218.233      36.893836      36.893836      36.893836    
  24800000   0.31994027    -8.1089667     -7.6290631      1.2272703      50218.233      36.893836      36.893836      36.893836    
  24900000   0.3202589     -8.1062784     -7.6258969      1.2461524      50218.233      36.893836      36.893836      36.893836    
  25000000   0.31877036    -8.1067438     -7.6285951      1.241522       50218.233      36.893836      36.893836      36.893836    
  25100000   0.31800063    -8.1082865     -7.6312923      1.2287448      50218.233      36.893836      36.893836      36.893836    
  25200000   0.32016617    -8.1085982     -7.6283558      1.2325791      50218.233      36.893836      36.893836      36.893836    
  25300000   0.31937324    -8.1087111     -7.6296581      1.2328365      50218.233      36.893836      36.893836      36.893836    
  25400000   0.32053217    -8.1080745     -7.6272831      1.2366691      50218.233      36.893836      36.893836      36.893836    
  25500000   0.31916838    -8.1082962     -7.6295504      1.2308837      50218.233      36.893836      36.893836      36.893836    
  25600000   0.31982883    -8.1100624     -7.6303259      1.2217939      50218.233      36.893836      36.893836      36.893836    
  25700000   0.32099201    -8.1078696     -7.6263884      1.2380298      50218.233      36.893836      36.893836      36.893836    
  25800000   0.31982872    -8.1093076     -7.6295714      1.230628       50218.233      36.893836      36.893836      36.893836    
  25900000   0.31805563    -8.1094608     -7.6323841      1.2229684      50218.233      36.893836      36.893836      36.893836    
  26000000   0.32025113    -8.1046939     -7.624324       1.259748       50218.233      36.893836      36.893836      36.893836    
  26100000   0.32036042    -8.10765       -7.6271162      1.2372202      50218.233      36.893836      36.893836      36.893836    
  26200000   0.32154768    -8.1085455     -7.6262308      1.2420884      50218.233      36.893836      36.893836      36.893836    
  26300000   0.31923455    -8.1086995     -7.6298545      1.2369875      50218.233      36.893836      36.893836      36.893836    
  26400000   0.31913645    -8.1066725     -7.6279747      1.2447152      50218.233      36.893836      36.893836      36.893836    
  26500000   0.32060437    -8.1029248     -7.622025       1.2750063      50218.233      36.893836      36.893836      36.893836    
  26600000   0.32193973    -8.1041122     -7.6212095      1.2651214      50218.233      36.893836      36.893836      36.893836    
  26700000   0.31819387    -8.1086674     -7.6313834      1.2310704      50218.233      36.893836      36.893836      36.893836    
  26800000   0.31972406    -8.1068323     -7.627253       1.2424377      50218.233      36.893836      36.893836      36.893836    
  26900000   0.31863918    -8.1072603     -7.6293084      1.2368517      50218.233      36.893836      36.893836      36.893836    
  27000000   0.31988894    -8.1077599     -7.6279333      1.2395585      50218.233      36.893836      36.893836      36.893836    
  27100000   0.32205141    -8.1082366     -7.6251663      1.2362928      50218.233      36.893836      36.893836      36.893836    
  27200000   0.32084537    -8.1077353     -7.6264741      1.237194       50218.233      36.893836      36.893836      36.893836    
  27300000   0.32000469    -8.1064241     -7.6264239      1.2429622      50218.233      36.893836      36.893836      36.893836    
  27400000   0.32019162    -8.1047546     -7.624474       1.2602619      50218.233      36.893836      36.893836      36.893836    
  27500000   0.31990705    -8.1060802     -7.6262265      1.2528376      50218.233      36.893836      36.893836      36.893836    
  27600000   0.32009366    -8.1059206     -7.625787       1.2458762      50218.233      36.893836      36.893836      36.893836    
  27700000   0.31963404    -8.1043096     -7.6248654      1.2629735      50218.233      36.893836      36.893836      36.893836    
  27800000   0.31966917    -8.1089199     -7.629423       1.2265607      50218.233      36.893836      36.893836      36.893836    
  27900000   0.31875927    -8.1056468     -7.6275147      1.2551688      50218.233      36.893836      36.893836      36.893836    
  28000000   0.31998398    -8.1091674     -7.6291982      1.2310234      50218.233      36.893836      36.893836      36.893836    
  28100000   0.32095067    -8.1054736     -7.6240545      1.2602115      50218.233      36.893836      36.893836      36.893836    
  28200000   0.32012321    -8.1076476     -7.6274696      1.2400909      50218.233      36.893836      36.893836      36.893836    
  28300000   0.31975579    -8.1094286     -7.6298017      1.225675       50218.233      36.893836      36.893836      36.893836    
  28400000   0.32105226    -8.1046897     -7.6231182      1.2679343      50218.233      36.893836      36.893836      36.893836    
  28500000   0.32077069    -8.1050324     -7.6238832      1.2615257      50218.233      36.893836      36.893836      36.893836    
  28600000   0.31780647    -8.1059429     -7.6292399      1.2514402      50218.233      36.893836      36.893836      36.893836    
  28700000   0.32062691    -8.1058269     -7.6248934      1.2461116      50218.233      36.893836      36.893836      36.893836    
  28800000   0.31958266    -8.1102042     -7.630837       1.2190447      50218.233      36.893836      36.893836      36.893836    
  28900000   0.32079126    -8.1066333     -7.6254533      1.2486321      50218.233      36.893836      36.893836      36.893836    
  29000000   0.32080284    -8.1053097     -7.6241122      1.2485482      50218.233      36.893836      36.893836      36.893836    
  29100000   0.31959       -8.1078005     -7.6284223      1.2378587      50218.233      36.893836      36.893836      36.893836    
  29200000   0.31974726    -8.1070383     -7.6274243      1.2541114      50218.233      36.893836      36.893836      36.893836    
  29300000   0.31854916    -8.1090613     -7.6312444      1.2334113      50218.233      36.893836      36.893836      36.893836    
  29400000   0.3204334     -8.1090923     -7.6284491      1.2229994      50218.233      36.893836      36.893836      36.893836    
  29500000   0.31936504    -8.1103139     -7.6312731      1.2204682      50218.233      36.893836      36.893836      36.893836    
  29600000   0.31975469    -8.1096713     -7.6300461      1.2255236      50218.233      36.893836      36.893836      36.893836    
  29700000   0.32017503    -8.1075047     -7.6272489      1.2455595      50218.233      36.893836      36.893836      36.893836    
  29800000   0.31843221    -8.1093504     -7.6317089      1.2257689      50218.233      36.893836      36.893836      36.893836    
  29900000   0.31881365    -8.1096477     -7.631434       1.2157041      50218.233      36.893836      36.893836      36.893836    
  30000000   0.32010645    -8.104652      -7.6244991      1.2589246      50218.233      36.893836      36.893836      36.893836    
  30100000   0.31929974    -8.1071509     -7.6282081      1.2427921      50218.233      36.893836      36.893836      36.893836    
  30200000   0.32000562    -8.1088488     -7.6288472      1.2316099      50218.233      36.893836      36.893836      36.893836    
  30300000   0.31950386    -8.1072666     -7.6280177      1.240358       50218.233      36.893836      36.893836      36.893836    
  30400000   0.32026112    -8.1070492     -7.6266643      1.2439144      50218.233      36.893836      36.893836      36.893836    
  30500000   0.31934151    -8.1071986     -7.6281931      1.2480356      50218.233      36.893836      36.893836      36.893836    
  30600000   0.32101057    -8.109331      -7.627822       1.237484       50218.233      36.893836      36.893836      36.893836    
  30700000   0.31930221    -8.1060342     -7.6270877      1.2490339      50218.233      36.893836      36.893836      36.893836    
  30800000   0.32209587    -8.1076901     -7.6245532      1.2437492      50218.233      36.893836      36.893836      36.893836    
  30900000   0.31808204    -8.1070851     -7.6299688      1.2303384      50218.233      36.893836      36.893836      36.893836    
  31000000   0.32034678    -8.10683       -7.6263167      1.2551655      50218.233      36.893836      36.893836      36.893836    
  31100000   0.32068285    -8.1089073     -7.6278899      1.2338435      50218.233      36.893836      36.893836      36.893836    
  31200000   0.32137498    -8.1070497     -7.6249941      1.2486921      50218.233      36.893836      36.893836      36.893836    
  31300000   0.32014494    -8.1077323     -7.6275217      1.2337188      50218.233      36.893836      36.893836      36.893836    
  31400000   0.31991539    -8.1077954     -7.6279292      1.2324804      50218.233      36.893836      36.893836      36.893836    
  31500000   0.3199166     -8.1085584     -7.6286903      1.2295108      50218.233      36.893836      36.893836      36.893836    
  31600000   0.31955083    -8.105892      -7.6265726      1.2491888      50218.233      36.893836      36.893836      36.893836    
  31700000   0.3198151     -8.1082533     -7.6285375      1.2366486      50218.233      36.893836      36.893836      36.893836    
  31800000   0.32086941    -8.1075317     -7.6262344      1.2398577      50218.233      36.893836      36.893836      36.893836    
  31900000   0.31895076    -8.1074466     -7.6290272      1.2347405      50218.233      36.893836      36.893836      36.893836    
  32000000   0.31994644    -8.1075341     -7.6276212      1.2416009      50218.233      36.893836      36.893836      36.893836    
  32100000   0.32061483    -8.1077429     -7.6268275      1.2397654      50218.233      36.893836      36.893836      36.893836    
  32200000   0.32001205    -8.1081014     -7.6280901      1.2387035      50218.233      36.893836      36.893836      36.893836    
  32300000   0.32071047    -8.1085264     -7.6274675      1.2299889      50218.233      36.893836      36.893836      36.893836    
  32400000   0.32057344    -8.1052726     -7.6244193      1.2651822      50218.233      36.893836      36.893836      36.893836    
  32500000   0.32142687    -8.1071338     -7.6250003      1.2460027      50218.233      36.893836      36.893836      36.893836    
  32600000   0.31916236    -8.1071479     -7.6284112      1.2424785      50218.233      36.893836      36.893836      36.893836    
  32700000   0.31928512    -8.1061893     -7.6272685      1.2543201      50218.233      36.893836      36.893836      36.893836    
  32800000   0.319152      -8.1089801     -7.6302589      1.2216077      50218.233      36.893836      36.893836      36.893836    
  32900000   0.31891314    -8.1080258     -7.6296629      1.2369543      50218.233      36.893836      36.893836      36.893836    
  33000000   0.31974191    -8.1047564     -7.6251504      1.265238       50218.233      36.893836      36.893836      36.893836    
  33100000   0.31855414    -8.1072421     -7.6294177      1.2329859      50218.233      36.893836      36.893836      36.893836    
  33200000   0.31935518    -8.1077004     -7.6286744      1.2404069      50218.233      36.893836      36.893836      36.893836    
  33300000   0.31918006    -8.105817      -7.6270537      1.2538474      50218.233      36.893836      36.893836      36.893836    
  33400000   0.31787148    -8.109864      -7.6330635      1.2183151      50218.233      36.893836      36.893836      36.893836    
  33500000   0.32107187    -8.1058949     -7.6242939      1.2511496      50218.233      36.893836      36.893836      36.893836    
  33600000   0.3220659     -8.1064453     -7.6233533      1.2512363      50218.233      36.893836      36.893836      36.893836    
  33700000   0.31988275    -8.1092186     -7.6294013      1.2306855      50218.233      36.893836      36.893836      36.893836    
  33800000   0.32021359    -8.1085728     -7.6282592      1.2239136      50218.233      36.893836      36.893836      36.893836    
  33900000   0.31988304    -8.1101242     -7.6303065      1.21861        50218.233      36.893836      36.893836      36.893836    
  34000000   0.32127167    -8.1090812     -7.6271806      1.2358699      50218.233      36.893836      36.893836      36.893836    
  34100000   0.31968549    -8.1077083     -7.6281868      1.2437451      50218.233      36.893836      36.893836      36.893836    
  34200000   0.32008733    -8.1086534     -7.6285293      1.2296901      50218.233      36.893836      36.893836      36.893836    
  34300000   0.32067533    -8.1068607     -7.6258545      1.2475224      50218.233      36.893836      36.893836      36.893836    
  34400000   0.32054057    -8.1073183     -7.6265143      1.2431637      50218.233      36.893836      36.893836      36.893836    
  34500000   0.32064803    -8.1081659     -7.6272007      1.2283442      50218.233      36.893836      36.893836      36.893836    
  34600000   0.32120023    -8.109447      -7.6276535      1.2278942      50218.233      36.893836      36.893836      36.893836    
  34700000   0.31949238    -8.1064741     -7.6272423      1.2460895      50218.233      36.893836      36.893836      36.893836    
  34800000   0.31977969    -8.1091277     -7.629465       1.2304804      50218.233      36.893836      36.893836      36.893836    
  34900000   0.31944507    -8.1101958     -7.631035       1.2173661      50218.233      36.893836      36.893836      36.893836    
  35000000   0.32051732    -8.1091509     -7.6283818      1.2208917      50218.233      36.893836      36.893836      36.893836    
  35100000   0.31989447    -8.1091051     -7.6292702      1.2283169      50218.233      36.893836      36.893836      36.893836    
  35200000   0.31887461    -8.1055322     -7.6272271      1.2529465      50218.233      36.893836      36.893836      36.893836    
  35300000   0.32006356    -8.1103942     -7.6303057      1.2215854      50218.233      36.893836      36.893836      36.893836    
  35400000   0.31811239    -8.1068421     -7.6296803      1.2345397      50218.233      36.893836      36.893836      36.893836    
  35500000   0.32038391    -8.1063422     -7.6257732      1.2527301      50218.233      36.893836      36.893836      36.893836    
  35600000   0.32044741    -8.1092099     -7.6285456      1.241521       50218.233      36.893836      36.893836      36.893836    
  35700000   0.31883487    -8.1091075     -7.630862       1.2361798      50218.233      36.893836      36.893836      36.893836    
  35800000   0.32088894    -8.1088365     -7.62751        1.2278989      50218.233      36.893836      36.893836      36.893836    
  35900000   0.31956513    -8.1055155     -7.6261746      1.244765       50218.233      36.893836      36.893836      36.893836    
  36000000   0.31977358    -8.1089799     -7.6293264      1.2343232      50218.233      36.893836      36.893836      36.893836    
  36100000   0.31923063    -8.1074907     -7.6286515      1.2380409      50218.233      36.893836      36.893836      36.893836    
  36200000   0.32039771    -8.1077378     -7.627148       1.2538725      50218.233      36.893836      36.893836      36.893836    
  36300000   0.32118137    -8.1118347     -7.6300695      1.2170055      50218.233      36.893836      36.893836      36.893836    
  36400000   0.31835324    -8.107343      -7.6298199      1.2378587      50218.233      36.893836      36.893836      36.893836    
  36500000   0.31986049    -8.1047396     -7.6249557      1.2614079      50218.233      36.893836      36.893836      36.893836    
  36600000   0.3205834     -8.1076034     -7.6267352      1.2347065      50218.233      36.893836      36.893836      36.893836    
  36700000   0.32051573    -8.107735      -7.6269683      1.2398894      50218.233      36.893836      36.893836      36.893836    
  36800000   0.31875164    -8.1053813     -7.6272606      1.2557474      50218.233      36.893836      36.893836      36.893836    
  36900000   0.32042592    -8.1089727     -7.6283406      1.2345894      50218.233      36.893836      36.893836      36.893836    
  37000000   0.31870921    -8.1070061     -7.628949       1.2341354      50218.233      36.893836      36.893836      36.893836    
  37100000   0.31757081    -8.1077302     -7.6313808      1.2334721      50218.233      36.893836      36.893836      36.893836    
  37200000   0.32012062    -8.1081293     -7.6279552      1.238932       50218.233      36.893836      36.893836      36.893836    
  37300000   0.32016281    -8.1076638     -7.6274264      1.2402504      50218.233      36.893836      36.893836      36.893836    
  37400000   0.32190134    -8.104636      -7.6217909      1.2635339      50218.233      36.893836      36.893836      36.893836    
  37500000   0.31825302    -8.1097288     -7.632356       1.2180153      50218.233      36.893836      36.893836      36.893836    
  37600000   0.3196264     -8.1089048     -7.629472       1.2382516      50218.233      36.893836      36.893836      36.893836    
  37700000   0.32023572    -8.1065775     -7.6262307      1.2412771      50218.233      36.893836      36.893836      36.893836    
  37800000   0.31939867    -8.1082122     -7.629121       1.2196772      50218.233      36.893836      36.893836      36.893836    
  37900000   0.32123426    -8.1049529     -7.6231083      1.26695        50218.233      36.893836      36.893836      36.893836    
  38000000   0.3221884     -8.1075368     -7.624261       1.2407655      50218.233      36.893836      36.893836      36.893836    
  38100000   0.32110996    -8.1087139     -7.6270558      1.2327676      50218.233      36.893836      36.893836      36.893836    
  38200000   0.32066549    -8.1107482     -7.6297568      1.2105651      50218.233      36.893836      36.893836      36.893836    
  38300000   0.32103133    -8.1074054     -7.6258653      1.2456312      50218.233      36.893836      36.893836      36.893836    
  38400000   0.31805567    -8.1084241     -7.6313474      1.2309378      50218.233      36.893836      36.893836      36.893836    
  38500000   0.32206786    -8.1041689     -7.621074       1.2622105      50218.233      36.893836      36.893836      36.893836    
  38600000   0.32113071    -8.1065939     -7.6249047      1.24831        50218.233      36.893836      36.893836      36.893836    
  38700000   0.32082726    -8.1076702     -7.6264362      1.2349736      50218.233      36.893836      36.893836      36.893836    
  38800000   0.32013156    -8.1070892     -7.6268987      1.2443312      50218.233      36.893836      36.893836      36.893836    
  38900000   0.31980536    -8.1085643     -7.6288631      1.2311841      50218.233      36.893836      36.893836      36.893836    
  39000000   0.31988529    -8.1099463     -7.6301252      1.2292023      50218.233      36.893836      36.893836      36.893836    
  39100000   0.31885758    -8.1085774     -7.6302978      1.2384603      50218.233      36.893836      36.893836      36.893836    
  39200000   0.31950769    -8.1081462     -7.6288915      1.2296153      50218.233      36.893836      36.893836      36.893836    
  39300000   0.32039613    -8.1088253     -7.628238       1.2327445      50218.233      36.893836      36.893836      36.893836    
  39400000   0.31958589    -8.1060701     -7.6266981      1.2537596      50218.233      36.893836      36.893836      36.893836    
  39500000   0.32033172    -8.1099481     -7.6294573      1.2213662      50218.233      36.893836      36.893836      36.893836    
  39600000   0.32054544    -8.1103746     -7.6295633      1.2158132      50218.233      36.893836      36.893836      36.893836    
  39700000   0.32030611    -8.1062251     -7.6257728      1.2519704      50218.233      36.893836      36.893836      36.893836    
  39800000   0.32114225    -8.1070846     -7.6253781      1.2507941      50218.233      36.893836      36.893836      36.893836    
  39900000   0.3187994     -8.1090313     -7.630839       1.2314425      50218.233      36.893836      36.893836      36.893836    
  40000000   0.31990407    -8.1077049     -7.6278556      1.2405844      50218.233      36.893836      36.893836      36.893836    
  40100000   0.31905374    -8.1038064     -7.6252326      1.2646644      50218.233      36.893836      36.893836      36.893836    
  40200000   0.32003536    -8.1069732     -7.626927       1.2416238      50218.233      36.893836      36.893836      36.893836    
  40300000   0.31854201    -8.1108001     -7.6329939      1.2073737      50218.233      36.893836      36.893836      36.893836    
  40400000   0.31897407    -8.1089185     -7.6304642      1.2288938      50218.233      36.893836      36.893836      36.893836    
  40500000   0.32017409    -8.1060339     -7.6257796      1.2511933      50218.233      36.893836      36.893836      36.893836    
  40600000   0.3202151     -8.1067794     -7.6264636      1.2416674      50218.233      36.893836      36.893836      36.893836    
  40700000   0.32020815    -8.1072211     -7.6269157      1.2513899      50218.233      36.893836      36.893836      36.893836    
  40800000   0.31890922    -8.1099513     -7.6315943      1.2251374      50218.233      36.893836      36.893836      36.893836    
  40900000   0.31994196    -8.1089548     -7.6290487      1.2246877      50218.233      36.893836      36.893836      36.893836    
  41000000   0.32169119    -8.1072495     -7.6247196      1.2439133      50218.233      36.893836      36.893836      36.893836    
  41100000   0.32018657    -8.1101511     -7.6298781      1.230392       50218.233      36.893836      36.893836      36.893836    
  41200000   0.32056238    -8.108076      -7.6272393      1.243744       50218.233      36.893836      36.893836      36.893836    
  41300000   0.32014833    -8.1072394     -7.6270238      1.2487122      50218.233      36.893836      36.893836      36.893836    
  41400000   0.31911894    -8.106924      -7.6282524      1.2397848      50218.233      36.893836      36.893836      36.893836    
  41500000   0.31935025    -8.1075888     -7.6285702      1.2303055      50218.233      36.893836      36.893836      36.893836    
  41600000   0.31978834    -8.1073992     -7.6277235      1.2397264      50218.233      36.893836      36.893836      36.893836    
  41700000   0.31961862    -8.1099022     -7.6304811      1.2225262      50218.233      36.893836      36.893836      36.893836    
  41800000   0.31889171    -8.1094368     -7.631106       1.2220424      50218.233      36.893836      36.893836      36.893836    
  41900000   0.31950825    -8.1098409     -7.6305854      1.2202634      50218.233      36.893836      36.893836      36.893836    
  42000000   0.32163335    -8.107735      -7.6252918      1.245572       50218.233      36.893836      36.893836      36.893836    
  42100000   0.32106275    -8.1087391     -7.6271519      1.2344431      50218.233      36.893836      36.893836      36.893836    
  42200000   0.3204788     -8.1061894     -7.625478       1.2463473      50218.233      36.893836      36.893836      36.893836    
  42300000   0.31993573    -8.1062549     -7.6263582      1.2544408      50218.233      36.893836      36.893836      36.893836    
  42400000   0.31985239    -8.108805      -7.6290333      1.2307134      50218.233      36.893836      36.893836      36.893836    
  42500000   0.32164461    -8.104655      -7.6221949      1.2633038      50218.233      36.893836      36.893836      36.893836    
  42600000   0.31968139    -8.1090127     -7.6294974      1.2279582      50218.233      36.893836      36.893836      36.893836    
  42700000   0.3204217     -8.1081043     -7.6274786      1.2408644      50218.233      36.893836      36.893836      36.893836    
  42800000   0.31870081    -8.1074947     -7.6294503      1.2414118      50218.233      36.893836      36.893836      36.893836    
  42900000   0.3189751     -8.104016      -7.6255602      1.2767267      50218.233      36.893836      36.893836      36.893836    
  43000000   0.32028311    -8.1065615     -7.6261437      1.2415585      50218.233      36.893836      36.893836      36.893836    
  43100000   0.31918898    -8.1075366     -7.62876        1.2372703      50218.233      36.893836      36.893836      36.893836    
  43200000   0.31967601    -8.1070367     -7.6275296      1.2385886      50218.233      36.893836      36.893836      36.893836    
  43300000   0.31836388    -8.1067807     -7.6292416      1.2343572      50218.233      36.893836      36.893836      36.893836    
  43400000   0.32138879    -8.1081606     -7.6260843      1.234976       50218.233      36.893836      36.893836      36.893836    
  43500000   0.32090935    -8.1070161     -7.6256589      1.2386272      50218.233      36.893836      36.893836      36.893836    
  43600000   0.32053029    -8.1093967     -7.6286081      1.2262276      50218.233      36.893836      36.893836      36.893836    
  43700000   0.31807932    -8.1082351     -7.6311229      1.2365827      50218.233      36.893836      36.893836      36.893836    
  43800000   0.32091629    -8.1085316     -7.627164       1.237191       50218.233      36.893836      36.893836      36.893836    
  43900000   0.31948488    -8.1094458     -7.6302253      1.2261998      50218.233      36.893836      36.893836      36.893836    
  44000000   0.31948752    -8.1057587     -7.6265343      1.2519679      50218.233      36.893836      36.893836      36.893836    
  44100000   0.31924587    -8.109532      -7.6306701      1.2197615      50218.233      36.893836      36.893836      36.893836    
  44200000   0.32070703    -8.1071922     -7.6261385      1.242589       50218.233      36.893836      36.893836      36.893836    
  44300000   0.3206462     -8.1078506     -7.6268881      1.2386532      50218.233      36.893836      36.893836      36.893836    
  44400000   0.3198503     -8.1097358     -7.6299671      1.223691       50218.233      36.893836      36.893836      36.893836    
  44500000   0.31970709    -8.1077187     -7.6281649      1.2375995      50218.233      36.893836      36.893836      36.893836    
  44600000   0.31998628    -8.1075488     -7.6275762      1.2405333      50218.233      36.893836      36.893836      36.893836    
  44700000   0.32011588    -8.1065072     -7.6263402      1.243481       50218.233      36.893836      36.893836      36.893836    
  44800000   0.31968011    -8.109133      -7.6296197      1.2252364      50218.233      36.893836      36.893836      36.893836    
  44900000   0.32059137    -8.1081451     -7.6272649      1.2300036      50218.233      36.893836      36.893836      36.893836    
  45000000   0.31963518    -8.1082263     -7.6287803      1.2344869      50218.233      36.893836      36.893836      36.893836    
  45100000   0.32088049    -8.1097337     -7.6284198      1.2216108      50218.233      36.893836      36.893836      36.893836    
  45200000   0.32197165    -8.1096934     -7.6267428      1.2261677      50218.233      36.893836      36.893836      36.893836    
  45300000   0.32029083    -8.1091305     -7.6287011      1.2270593      50218.233      36.893836      36.893836      36.893836    
  45400000   0.31875016    -8.1088101     -7.6306917      1.2228417      50218.233      36.893836      36.893836      36.893836    
  45500000   0.32189813    -8.1093857     -7.6265454      1.2301588      50218.233      36.893836      36.893836      36.893836    
  45600000   0.32049992    -8.1099642     -7.6292211      1.2265414      50218.233      36.893836      36.893836      36.893836    
  45700000   0.31971792    -8.1086424     -7.6290724      1.2395207      50218.233      36.893836      36.893836      36.893836    
  45800000   0.32024272    -8.1094891     -7.6291319      1.221821       50218.233      36.893836      36.893836      36.893836    
  45900000   0.31852718    -8.1075611     -7.6297772      1.2368638      50218.233      36.893836      36.893836      36.893836    
  46000000   0.32035111    -8.1098755     -7.6293556      1.2183927      50218.233      36.893836      36.893836      36.893836    
  46100000   0.32140976    -8.1076353     -7.6255275      1.2402942      50218.233      36.893836      36.893836      36.893836    
  46200000   0.32053877    -8.105989      -7.6251877      1.2505525      50218.233      36.893836      36.893836      36.893836    
  46300000   0.32114909    -8.1085915     -7.6268748      1.2386937      50218.233      36.893836      36.893836      36.893836    
  46400000   0.31917581    -8.1059627     -7.6272058      1.2516527      50218.233      36.893836      36.893836      36.893836    
  46500000   0.31988668    -8.1075725     -7.6277493      1.2359173      50218.233      36.893836      36.893836      36.893836    
  46600000   0.32088502    -8.1093838     -7.6280631      1.2238577      50218.233      36.893836      36.893836      36.893836    
  46700000   0.31951459    -8.1061995     -7.6269345      1.2455138      50218.233      36.893836      36.893836      36.893836    
  46800000   0.32003559    -8.109414      -7.6293675      1.2341991      50218.233      36.893836      36.893836      36.893836    
  46900000   0.31949836    -8.1090102     -7.6297695      1.2223863      50218.233      36.893836      36.893836      36.893836    
  47000000   0.31962994    -8.1074548     -7.6280167      1.2416614      50218.233      36.893836      36.893836      36.893836    
  47100000   0.3211546     -8.1096511     -7.627926       1.2243353      50218.233      36.893836      36.893836      36.893836    
  47200000   0.31963642    -8.1073247     -7.6278769      1.2373821      50218.233      36.893836      36.893836      36.893836    
  47300000   0.31969018    -8.1082816     -7.6287532      1.2372293      50218.233      36.893836      36.893836      36.893836    
  47400000   0.31883257    -8.1048198     -7.6265778      1.2509649      50218.233      36.893836      36.893836      36.893836    
  47500000   0.31988674    -8.1064864     -7.6266632      1.2413867      50218.233      36.893836      36.893836      36.893836    
  47600000   0.31864219    -8.1077902     -7.6298337      1.2449353      50218.233      36.893836      36.893836      36.893836    
  47700000   0.31959188    -8.1065479     -7.6271669      1.250091       50218.233      36.893836      36.893836      36.893836    
  47800000   0.32010778    -8.1087125     -7.6285577      1.2272035      50218.233      36.893836      36.893836      36.893836    
  47900000   0.32023178    -8.1077326     -7.6273918      1.2362661      50218.233      36.893836      36.893836      36.893836    
  48000000   0.32158048    -8.1069599     -7.624596       1.2366605      50218.233      36.893836      36.893836      36.893836    
  48100000   0.32007202    -8.1093402     -7.629239       1.2155412      50218.233      36.893836      36.893836      36.893836    
  48200000   0.32115808    -8.1068381     -7.6251078      1.2435773      50218.233      36.893836      36.893836      36.893836    
  48300000   0.32185403    -8.1056651     -7.622891       1.2570525      50218.233      36.893836      36.893836      36.893836    
  48400000   0.31869284    -8.1076204     -7.6295879      1.2369532      50218.233      36.893836      36.893836      36.893836    
  48500000   0.3213889     -8.1074305     -7.625354       1.2427533      50218.233      36.893836      36.893836      36.893836    
  48600000   0.31878697    -8.1068439     -7.6286703      1.2408639      50218.233      36.893836      36.893836      36.893836    
  48700000   0.32000218    -8.106217      -7.6262206      1.2558983      50218.233      36.893836      36.893836      36.893836    
  48800000   0.31963398    -8.1082331     -7.628789       1.2364056      50218.233      36.893836      36.893836      36.893836    
  48900000   0.32028061    -8.1068444     -7.6264303      1.2404481      50218.233      36.893836      36.893836      36.893836    
  49000000   0.31981158    -8.1097371     -7.6300266      1.2167793      50218.233      36.893836      36.893836      36.893836    
  49100000   0.32025241    -8.1117687     -7.6313969      1.2116215      50218.233      36.893836      36.893836      36.893836    
  49200000   0.31991684    -8.1071993     -7.6273309      1.2441556      50218.233      36.893836      36.893836      36.893836    
  49300000   0.31859831    -8.1088007     -7.63091        1.2238875      50218.233      36.893836      36.893836      36.893836    
  49400000   0.32118226    -8.1089139     -7.6271474      1.2309808      50218.233      36.893836      36.893836      36.893836    
  49500000   0.31955642    -8.1082057     -7.6288779      1.2266691      50218.233      36.893836      36.893836      36.893836    
  49600000   0.31987809    -8.1065766     -7.6267663      1.2396128      50218.233      36.893836      36.893836      36.893836    
  49700000   0.32054229    -8.1076914     -7.6268848      1.2364673      50218.233      36.893836      36.893836      36.893836    
  49800000   0.31897962    -8.1091697     -7.6307071      1.2203499      50218.233      36.893836      36.893836      36.893836    
  49900000   0.31841898    -8.1078918     -7.6302701      1.2347873      50218.233      36.893836      36.893836      36.893836    
  50000000   0.32005664    -8.1073744     -7.6272963      1.2451917      50218.233      36.893836      36.893836      36.893836    
Loop time of 76611.8 on 5 procs for 50000000 steps with 70304 atoms

Performance: 563881.910 tau/day, 652.641 timesteps/s, 45.883 Matom-step/s
94.3% CPU use with 5 MPI tasks x 1 OpenMP threads

MPI task timing breakdown:
Section |  min time  |  avg time  |  max time  |%varavg| %total
---------------------------------------------------------------
Pair    | 27504      | 29421      | 30385      | 616.7 | 38.40
Neigh   | 201.07     | 211.66     | 219.94     |  52.0 |  0.28
Comm    | 10815      | 10916      | 11038      |  77.0 | 14.25
Output  | 0.090582   | 0.093639   | 0.099105   |   1.0 |  0.00
Modify  | 31290      | 32321      | 34365      | 635.6 | 42.19
Other   |            | 3743       |            |       |  4.89

Nlocal:        14060.8 ave       14123 max       14023 min
Histogram: 1 1 1 0 0 1 0 0 0 1
Nghost:        18757.4 ave       18824 max       18700 min
Histogram: 1 0 1 1 0 0 0 1 0 1
Neighs:              0 ave           0 max           0 min
Histogram: 5 0 0 0 0 0 0 0 0 0

Total # of neighbors = 0
Ave neighs/atom = 0
Neighbor list builds = 8426016
Dangerous builds = 0
clear
OMP_NUM_THREADS environment is not set. Defaulting to 1 thread. (src/comm.cpp:98)
  using 1 OpenMP thread(s) per MPI task
package gpu 0
jump dms300.lmp

variable T equal 300
# T = 1000* (temp in LJ unit)
variable f equal 100000
log log.${T}
log log.300
