variable TLJ equal (${T}/1000)
variable TLJ equal (470/1000)
variable NCyle equal 5
variable iStep equal (${f})
variable iStep equal (100000)
variable dumpStep equal (${f}*100)
variable dumpStep equal (100000*100)
variable runStep equal (${f}*100*${NCyle})
variable runStep equal (100000*100*${NCyle})
variable runStep equal (100000*100*5)

units       lj
atom_style  atomic
dimension 3
boundary     p p p
pair_style  lj/cut 2.5
read_data  ../data/T${T}.dat
read_data  ../data/T470.dat
Reading data file ...
  orthogonal box = (0.97250269 0.97250269 0.97250269) to (37.866338 37.866338 37.866338)
  1 by 1 by 5 MPI processor grid
  reading atoms ...
  70304 atoms
  reading velocities ...
  70304 velocities
  read_data CPU = 0.209 seconds
change_box all triclinic
Changing box ...
  triclinic box = (0.97250269 0.97250269 0.97250269) to (37.866338 37.866338 37.866338) with tilt (0 0 0)
mass 1 1
mass 2 1
pair_modify shift yes
pair_coeff  1 1 1 1
pair_coeff  1 2 1.5 0.8
pair_coeff  2 2 0.5 0.88


timestep 0.01
thermo ${iStep}
thermo 100000
reset_timestep 0
thermo_style custom step temp pe etotal press vol lx ly lz
fix             1 all nvt temp ${TLJ}  ${TLJ}  0.1
fix             1 all nvt temp 0.47  ${TLJ}  0.1
fix             1 all nvt temp 0.47  0.47  0.1
thermo_modify flush yes

fix dsf all deform 1 xy  wiggle 0.5  ${f}   units box
fix dsf all deform 1 xy  wiggle 0.5  100000   units box
fix ps1 all ave/time 1 1 ${iStep} c_thermo_press[1] c_thermo_press[2]  c_thermo_press[3] c_thermo_press[4]  c_thermo_press[5] c_thermo_press[6]  file  stress.${T}
fix ps1 all ave/time 1 1 100000 c_thermo_press[1] c_thermo_press[2]  c_thermo_press[3] c_thermo_press[4]  c_thermo_press[5] c_thermo_press[6]  file  stress.${T}
fix ps1 all ave/time 1 1 100000 c_thermo_press[1] c_thermo_press[2]  c_thermo_press[3] c_thermo_press[4]  c_thermo_press[5] c_thermo_press[6]  file  stress.470
dump            1 all custom ${dumpStep} dump.${T} id type x y z
dump            1 all custom 10000000 dump.${T} id type x y z
dump            1 all custom 10000000 dump.470 id type x y z
dump_modify 1 sort id
fix nodrift all momentum 1  linear 1 1 1
fix com_seed all recenter INIT INIT INIT shift all
run ${runStep}
run 50000000
Generated 0 of 1 mixed pair_coeff terms from geometric mixing rule
Per MPI rank memory allocation (min/avg/max) = 8.913 | 8.917 | 8.923 Mbytes
   Step          Temp          PotEng         TotEng         Press          Volume           Lx             Ly             Lz      
         0   0.47200326    -7.8811514     -7.1731565      3.1370592      50218.233      36.893836      36.893836      36.893836    
    100000   0.47074478    -7.8710107     -7.1649036      3.2050119      50218.233      36.893836      36.893836      36.893836    
    200000   0.46943952    -7.8738483     -7.169699       3.1742128      50218.233      36.893836      36.893836      36.893836    
    300000   0.47312339    -7.8733696     -7.1636947      3.1982046      50218.233      36.893836      36.893836      36.893836    
    400000   0.46991792    -7.8733044     -7.1684375      3.1799575      50218.233      36.893836      36.893836      36.893836    
    500000   0.4716056     -7.8719615     -7.1645632      3.1841061      50218.233      36.893836      36.893836      36.893836    
    600000   0.46971023    -7.873002      -7.1684466      3.1776589      50218.233      36.893836      36.893836      36.893836    
    700000   0.47212075    -7.8716639     -7.1634929      3.1995679      50218.233      36.893836      36.893836      36.893836    
    800000   0.47074975    -7.8747731     -7.1686585      3.1782449      50218.233      36.893836      36.893836      36.893836    
    900000   0.46958602    -7.8686393     -7.1642703      3.222533       50218.233      36.893836      36.893836      36.893836    
   1000000   0.47075541    -7.8741486     -7.1680255      3.1867826      50218.233      36.893836      36.893836      36.893836    
   1100000   0.46668842    -7.8697188     -7.1696962      3.206637       50218.233      36.893836      36.893836      36.893836    
   1200000   0.47198017    -7.8730081     -7.1650479      3.1868931      50218.233      36.893836      36.893836      36.893836    
   1300000   0.47015703    -7.8735043     -7.1682787      3.1950413      50218.233      36.893836      36.893836      36.893836    
   1400000   0.46842498    -7.8713367     -7.1687092      3.2066425      50218.233      36.893836      36.893836      36.893836    
   1500000   0.47175848    -7.8732705     -7.1656428      3.2030294      50218.233      36.893836      36.893836      36.893836    
   1600000   0.4701727     -7.8694336     -7.1641846      3.2240346      50218.233      36.893836      36.893836      36.893836    
   1700000   0.46955452    -7.8736396     -7.1693178      3.1861468      50218.233      36.893836      36.893836      36.893836    
   1800000   0.46928737    -7.8676938     -7.1637727      3.2305621      50218.233      36.893836      36.893836      36.893836    
   1900000   0.46755432    -7.8706347     -7.1693132      3.207339       50218.233      36.893836      36.893836      36.893836    
   2000000   0.46915303    -7.8704114     -7.1666919      3.2086442      50218.233      36.893836      36.893836      36.893836    
   2100000   0.46996387    -7.8704026     -7.1654668      3.2099068      50218.233      36.893836      36.893836      36.893836    
   2200000   0.47016708    -7.8739999     -7.1687594      3.1808678      50218.233      36.893836      36.893836      36.893836    
   2300000   0.47096443    -7.8717018     -7.1652652      3.2117266      50218.233      36.893836      36.893836      36.893836    
   2400000   0.46910689    -7.8728231     -7.1691728      3.1903543      50218.233      36.893836      36.893836      36.893836    
   2500000   0.46910779    -7.8733586     -7.1697069      3.1893645      50218.233      36.893836      36.893836      36.893836    
   2600000   0.47181511    -7.8706937     -7.1629811      3.2095092      50218.233      36.893836      36.893836      36.893836    
   2700000   0.47043588    -7.8748001     -7.1691563      3.174486       50218.233      36.893836      36.893836      36.893836    
   2800000   0.47047183    -7.8754159     -7.1697182      3.1651511      50218.233      36.893836      36.893836      36.893836    
   2900000   0.47050725    -7.8708062     -7.1650554      3.2002117      50218.233      36.893836      36.893836      36.893836    
   3000000   0.4690651     -7.8716042     -7.1680165      3.1905108      50218.233      36.893836      36.893836      36.893836    
   3100000   0.47020152    -7.8767895     -7.1714973      3.1638056      50218.233      36.893836      36.893836      36.893836    
   3200000   0.4712073     -7.8762487     -7.1694478      3.1778368      50218.233      36.893836      36.893836      36.893836    
   3300000   0.46968858    -7.8721859     -7.167663       3.1884862      50218.233      36.893836      36.893836      36.893836    
   3400000   0.46979863    -7.8730177     -7.1683298      3.1902296      50218.233      36.893836      36.893836      36.893836    
   3500000   0.47126092    -7.8740275     -7.1671462      3.1795367      50218.233      36.893836      36.893836      36.893836    
   3600000   0.47249879    -7.8724178     -7.1636797      3.1929309      50218.233      36.893836      36.893836      36.893836    
   3700000   0.46908188    -7.8742351     -7.1706223      3.1734564      50218.233      36.893836      36.893836      36.893836    
   3800000   0.47088695    -7.8775964     -7.1712761      3.1670635      50218.233      36.893836      36.893836      36.893836    
   3900000   0.47213531    -7.8701194     -7.1619265      3.2188274      50218.233      36.893836      36.893836      36.893836    
   4000000   0.47004729    -7.8736378     -7.1685769      3.1893922      50218.233      36.893836      36.893836      36.893836    
   4100000   0.46948874    -7.87303       -7.1688069      3.1951945      50218.233      36.893836      36.893836      36.893836    
   4200000   0.46836231    -7.8733067     -7.1707732      3.18585        50218.233      36.893836      36.893836      36.893836    
   4300000   0.46909805    -7.8719804     -7.1683433      3.1894891      50218.233      36.893836      36.893836      36.893836    
   4400000   0.47121283    -7.8737329     -7.1669237      3.1922367      50218.233      36.893836      36.893836      36.893836    
   4500000   0.46886621    -7.8742441     -7.1709548      3.1791689      50218.233      36.893836      36.893836      36.893836    
   4600000   0.47177884    -7.8754659     -7.1678077      3.1724197      50218.233      36.893836      36.893836      36.893836    
   4700000   0.47200398    -7.8750222     -7.1670263      3.1830021      50218.233      36.893836      36.893836      36.893836    
   4800000   0.46981943    -7.8739425     -7.1692233      3.1832935      50218.233      36.893836      36.893836      36.893836    
   4900000   0.47019752    -7.876759      -7.1714727      3.1629188      50218.233      36.893836      36.893836      36.893836    
   5000000   0.46926979    -7.875438      -7.1715434      3.1716755      50218.233      36.893836      36.893836      36.893836    
   5100000   0.46948166    -7.8748695     -7.1706571      3.1769387      50218.233      36.893836      36.893836      36.893836    
   5200000   0.4706991     -7.8738611     -7.1678225      3.1878333      50218.233      36.893836      36.893836      36.893836    
   5300000   0.47040432    -7.8764012     -7.1708048      3.1646583      50218.233      36.893836      36.893836      36.893836    
   5400000   0.47204714    -7.8756193     -7.1675587      3.1760376      50218.233      36.893836      36.893836      36.893836    
   5500000   0.47245819    -7.8748432     -7.166166       3.1848706      50218.233      36.893836      36.893836      36.893836    
   5600000   0.4713714     -7.8749291     -7.1678821      3.1743966      50218.233      36.893836      36.893836      36.893836    
   5700000   0.46979479    -7.8749479     -7.1702657      3.178561       50218.233      36.893836      36.893836      36.893836    
   5800000   0.4681777     -7.8740036     -7.1717471      3.1822248      50218.233      36.893836      36.893836      36.893836    
   5900000   0.46942831    -7.8751908     -7.1710583      3.185499       50218.233      36.893836      36.893836      36.893836    
   6000000   0.46838757    -7.8749156     -7.1723443      3.17049        50218.233      36.893836      36.893836      36.893836    
   6100000   0.46789226    -7.8756053     -7.1737769      3.1735222      50218.233      36.893836      36.893836      36.893836    
   6200000   0.4689226     -7.8758332     -7.1724593      3.1835082      50218.233      36.893836      36.893836      36.893836    
   6300000   0.47045952    -7.8734854     -7.1678062      3.2005721      50218.233      36.893836      36.893836      36.893836    
   6400000   0.47360262    -7.8765108     -7.166117       3.1751451      50218.233      36.893836      36.893836      36.893836    
   6500000   0.46570518    -7.8758518     -7.1773039      3.1575415      50218.233      36.893836      36.893836      36.893836    
   6600000   0.46977613    -7.8760274     -7.1713732      3.1714966      50218.233      36.893836      36.893836      36.893836    
   6700000   0.46914371    -7.874408      -7.1707025      3.1818547      50218.233      36.893836      36.893836      36.893836    
   6800000   0.47036257    -7.8725522     -7.1670184      3.1891013      50218.233      36.893836      36.893836      36.893836    
   6900000   0.46993475    -7.8745854     -7.1696933      3.1879511      50218.233      36.893836      36.893836      36.893836    
   7000000   0.47276002    -7.8739384     -7.1648085      3.1928872      50218.233      36.893836      36.893836      36.893836    
   7100000   0.4676455     -7.8778426     -7.1763844      3.1412856      50218.233      36.893836      36.893836      36.893836    
   7200000   0.46991083    -7.8746181     -7.1697619      3.1713207      50218.233      36.893836      36.893836      36.893836    
   7300000   0.47119947    -7.8755698     -7.1687806      3.173172       50218.233      36.893836      36.893836      36.893836    
   7400000   0.46790926    -7.8731392     -7.1712853      3.1884776      50218.233      36.893836      36.893836      36.893836    
   7500000   0.47001647    -7.8710003     -7.1659856      3.2007913      50218.233      36.893836      36.893836      36.893836    
   7600000   0.47077065    -7.8729308     -7.1667848      3.1983347      50218.233      36.893836      36.893836      36.893836    
   7700000   0.47384244    -7.870607      -7.1598535      3.2092326      50218.233      36.893836      36.893836      36.893836    
   7800000   0.46793157    -7.87839       -7.1765027      3.1502802      50218.233      36.893836      36.893836      36.893836    
   7900000   0.46942392    -7.8749728     -7.170847       3.1685337      50218.233      36.893836      36.893836      36.893836    
   8000000   0.47218582    -7.8791383     -7.1708696      3.1458166      50218.233      36.893836      36.893836      36.893836    
   8100000   0.4691107     -7.8751416     -7.1714855      3.1716115      50218.233      36.893836      36.893836      36.893836    
   8200000   0.47130279    -7.8762747     -7.1693306      3.1586588      50218.233      36.893836      36.893836      36.893836    
   8300000   0.46794346    -7.8764051     -7.1744999      3.1636937      50218.233      36.893836      36.893836      36.893836    
   8400000   0.47020428    -7.8745247     -7.1692283      3.1786663      50218.233      36.893836      36.893836      36.893836    
   8500000   0.46870272    -7.8750182     -7.1719742      3.173286       50218.233      36.893836      36.893836      36.893836    
   8600000   0.46927051    -7.8731437     -7.169248       3.1889072      50218.233      36.893836      36.893836      36.893836    
   8700000   0.47077123    -7.8701305     -7.1639837      3.2149173      50218.233      36.893836      36.893836      36.893836    
   8800000   0.47009647    -7.8767542     -7.1716195      3.1511259      50218.233      36.893836      36.893836      36.893836    
   8900000   0.4682349     -7.874671      -7.1723286      3.1864552      50218.233      36.893836      36.893836      36.893836    
   9000000   0.47000716    -7.8776846     -7.1726839      3.1562811      50218.233      36.893836      36.893836      36.893836    
   9100000   0.47177065    -7.8773065     -7.1696606      3.1412768      50218.233      36.893836      36.893836      36.893836    
   9200000   0.47037404    -7.8771834     -7.1716324      3.1464074      50218.233      36.893836      36.893836      36.893836    
   9300000   0.467401      -7.8791821     -7.1780906      3.1439298      50218.233      36.893836      36.893836      36.893836    
   9400000   0.4690961     -7.8732288     -7.1695946      3.1801336      50218.233      36.893836      36.893836      36.893836    
   9500000   0.46956891    -7.8736907     -7.1693474      3.1963509      50218.233      36.893836      36.893836      36.893836    
   9600000   0.46966422    -7.8769499     -7.1724636      3.1674923      50218.233      36.893836      36.893836      36.893836    
   9700000   0.4704373     -7.8737255     -7.1680796      3.1781436      50218.233      36.893836      36.893836      36.893836    
   9800000   0.47059722    -7.8739007     -7.1680149      3.1813122      50218.233      36.893836      36.893836      36.893836    
   9900000   0.46890224    -7.8750483     -7.1717049      3.1657071      50218.233      36.893836      36.893836      36.893836    
  10000000   0.4712105     -7.875211      -7.1684053      3.1645106      50218.233      36.893836      36.893836      36.893836    
  10100000   0.47069457    -7.8767986     -7.1707668      3.1548112      50218.233      36.893836      36.893836      36.893836    
  10200000   0.4710538     -7.8745593     -7.1679887      3.1764861      50218.233      36.893836      36.893836      36.893836    
  10300000   0.47019954    -7.8767155     -7.1714262      3.1681892      50218.233      36.893836      36.893836      36.893836    
  10400000   0.46841025    -7.8706386     -7.1680332      3.2065434      50218.233      36.893836      36.893836      36.893836    
  10500000   0.47023214    -7.8778687     -7.1725305      3.1599889      50218.233      36.893836      36.893836      36.893836    
  10600000   0.47001347    -7.8767877     -7.1717775      3.1721424      50218.233      36.893836      36.893836      36.893836    
  10700000   0.46935361    -7.8735379     -7.1695175      3.1847219      50218.233      36.893836      36.893836      36.893836    
  10800000   0.47089317    -7.87209       -7.1657603      3.1898775      50218.233      36.893836      36.893836      36.893836    
  10900000   0.46870064    -7.8750181     -7.1719772      3.1715856      50218.233      36.893836      36.893836      36.893836    
  11000000   0.46924068    -7.8702247     -7.1663737      3.2138822      50218.233      36.893836      36.893836      36.893836    
  11100000   0.46824883    -7.874662      -7.1722987      3.1770319      50218.233      36.893836      36.893836      36.893836    
  11200000   0.47045504    -7.8726182     -7.1669456      3.1897302      50218.233      36.893836      36.893836      36.893836    
  11300000   0.47013879    -7.8737935     -7.1685953      3.1823021      50218.233      36.893836      36.893836      36.893836    
  11400000   0.46824202    -7.8727175     -7.1703645      3.1872158      50218.233      36.893836      36.893836      36.893836    
  11500000   0.47101852    -7.875221      -7.1687033      3.1709373      50218.233      36.893836      36.893836      36.893836    
  11600000   0.47004558    -7.8727233     -7.167665       3.1880491      50218.233      36.893836      36.893836      36.893836    
  11700000   0.47113345    -7.8775799     -7.1708898      3.155976       50218.233      36.893836      36.893836      36.893836    
  11800000   0.47030237    -7.8756447     -7.1702012      3.1758635      50218.233      36.893836      36.893836      36.893836    
  11900000   0.46992488    -7.877312      -7.1724347      3.1528294      50218.233      36.893836      36.893836      36.893836    
  12000000   0.46858824    -7.8770367     -7.1741644      3.1464249      50218.233      36.893836      36.893836      36.893836    
  12100000   0.47043565    -7.8777648     -7.1721213      3.1478232      50218.233      36.893836      36.893836      36.893836    
  12200000   0.46984006    -7.8776246     -7.1728746      3.1450195      50218.233      36.893836      36.893836      36.893836    
  12300000   0.47227934    -7.8783883     -7.1699794      3.1396471      50218.233      36.893836      36.893836      36.893836    
  12400000   0.46905722    -7.8782029     -7.174627       3.1569063      50218.233      36.893836      36.893836      36.893836    
  12500000   0.46980958    -7.8765936     -7.1718892      3.1652605      50218.233      36.893836      36.893836      36.893836    
  12600000   0.47198706    -7.8751394     -7.1671688      3.1700924      50218.233      36.893836      36.893836      36.893836    
  12700000   0.46945563    -7.8765782     -7.1724048      3.1572372      50218.233      36.893836      36.893836      36.893836    
  12800000   0.4727667     -7.8755923     -7.1664523      3.1733488      50218.233      36.893836      36.893836      36.893836    
  12900000   0.46880288    -7.8742208     -7.1710265      3.1850786      50218.233      36.893836      36.893836      36.893836    
  13000000   0.46896524    -7.8792536     -7.1758158      3.1452842      50218.233      36.893836      36.893836      36.893836    
  13100000   0.46940188    -7.8768801     -7.1727873      3.1610098      50218.233      36.893836      36.893836      36.893836    
  13200000   0.4690579     -7.8771568     -7.1735799      3.1460491      50218.233      36.893836      36.893836      36.893836    
  13300000   0.46764155    -7.8773491     -7.1758968      3.1441078      50218.233      36.893836      36.893836      36.893836    
  13400000   0.46914052    -7.8787857     -7.175085       3.1446658      50218.233      36.893836      36.893836      36.893836    
  13500000   0.46925407    -7.8780396     -7.1741685      3.1450631      50218.233      36.893836      36.893836      36.893836    
  13600000   0.46736353    -7.8764017     -7.1753664      3.1570808      50218.233      36.893836      36.893836      36.893836    
  13700000   0.46780945    -7.8789133     -7.1772091      3.1312273      50218.233      36.893836      36.893836      36.893836    
  13800000   0.46982856    -7.8759678     -7.171235       3.1727477      50218.233      36.893836      36.893836      36.893836    
  13900000   0.47067371    -7.8764867     -7.1704862      3.1601685      50218.233      36.893836      36.893836      36.893836    
  14000000   0.46797816    -7.8750066     -7.1730493      3.1555749      50218.233      36.893836      36.893836      36.893836    
  14100000   0.46911404    -7.87679       -7.173129       3.1524999      50218.233      36.893836      36.893836      36.893836    
  14200000   0.47145038    -7.8750601     -7.1678946      3.1755072      50218.233      36.893836      36.893836      36.893836    
  14300000   0.46970394    -7.8782144     -7.1736685      3.1501468      50218.233      36.893836      36.893836      36.893836    
  14400000   0.46999031    -7.8763281     -7.1713526      3.1651361      50218.233      36.893836      36.893836      36.893836    
  14500000   0.46809984    -7.8791346     -7.1769948      3.1249568      50218.233      36.893836      36.893836      36.893836    
  14600000   0.46903778    -7.8771202     -7.1735736      3.1525307      50218.233      36.893836      36.893836      36.893836    
  14700000   0.47000608    -7.8758492     -7.1708501      3.1636658      50218.233      36.893836      36.893836      36.893836    
  14800000   0.47193495    -7.8828745     -7.1749822      3.1047914      50218.233      36.893836      36.893836      36.893836    
  14900000   0.47088657    -7.8822956     -7.1759758      3.1068668      50218.233      36.893836      36.893836      36.893836    
  15000000   0.46902545    -7.8799128     -7.1763846      3.1239956      50218.233      36.893836      36.893836      36.893836    
  15100000   0.47026059    -7.8801374     -7.1747565      3.1315011      50218.233      36.893836      36.893836      36.893836    
  15200000   0.46895655    -7.8824547     -7.1790299      3.1118056      50218.233      36.893836      36.893836      36.893836    
  15300000   0.47026779    -7.8765396     -7.171148       3.1478925      50218.233      36.893836      36.893836      36.893836    
  15400000   0.4706547     -7.8779648     -7.1719928      3.1547131      50218.233      36.893836      36.893836      36.893836    
  15500000   0.47008892    -7.8792159     -7.1740926      3.1375532      50218.233      36.893836      36.893836      36.893836    
  15600000   0.46937438    -7.8798184     -7.1757668      3.1412556      50218.233      36.893836      36.893836      36.893836    
  15700000   0.47144331    -7.8764802     -7.1693253      3.1642449      50218.233      36.893836      36.893836      36.893836    
  15800000   0.46587507    -7.8809431     -7.1821404      3.1184204      50218.233      36.893836      36.893836      36.893836    
  15900000   0.46958899    -7.8797991     -7.1754256      3.1396102      50218.233      36.893836      36.893836      36.893836    
  16000000   0.46862336    -7.8756794     -7.1727544      3.1500395      50218.233      36.893836      36.893836      36.893836    
  16100000   0.46783667    -7.8832261     -7.1814811      3.1098095      50218.233      36.893836      36.893836      36.893836    
  16200000   0.47123905    -7.8768196     -7.1699711      3.1575452      50218.233      36.893836      36.893836      36.893836    
  16300000   0.46800952    -7.8796234     -7.1776191      3.148698       50218.233      36.893836      36.893836      36.893836    
  16400000   0.46951022    -7.8751938     -7.1709385      3.1680289      50218.233      36.893836      36.893836      36.893836    
  16500000   0.47004315    -7.8742853     -7.1692307      3.1805393      50218.233      36.893836      36.893836      36.893836    
  16600000   0.46958935    -7.8756299     -7.1712559      3.1642234      50218.233      36.893836      36.893836      36.893836    
  16700000   0.46951945    -7.8768021     -7.1725329      3.1549639      50218.233      36.893836      36.893836      36.893836    
  16800000   0.467739      -7.8771266     -7.1755281      3.1525452      50218.233      36.893836      36.893836      36.893836    
  16900000   0.47442098    -7.8794752     -7.1678539      3.1451819      50218.233      36.893836      36.893836      36.893836    
  17000000   0.47050767    -7.8713866     -7.1656351      3.1803927      50218.233      36.893836      36.893836      36.893836    
  17100000   0.46687045    -7.8794903     -7.1791946      3.1364532      50218.233      36.893836      36.893836      36.893836    
  17200000   0.46984496    -7.8762237     -7.1714663      3.1572154      50218.233      36.893836      36.893836      36.893836    
  17300000   0.46944017    -7.8759079     -7.1717577      3.1581061      50218.233      36.893836      36.893836      36.893836    
  17400000   0.47055892    -7.8744136     -7.1685852      3.174455       50218.233      36.893836      36.893836      36.893836    
  17500000   0.46762228    -7.8754234     -7.174          3.1620632      50218.233      36.893836      36.893836      36.893836    
  17600000   0.47097768    -7.8750078     -7.1685513      3.1662509      50218.233      36.893836      36.893836      36.893836    
  17700000   0.47055864    -7.8756904     -7.1698624      3.159156       50218.233      36.893836      36.893836      36.893836    
  17800000   0.47096843    -7.8773021     -7.1708595      3.1489093      50218.233      36.893836      36.893836      36.893836    
  17900000   0.46845717    -7.8778689     -7.1751931      3.1367021      50218.233      36.893836      36.893836      36.893836    
  18000000   0.46715383    -7.8746114     -7.1738906      3.1652212      50218.233      36.893836      36.893836      36.893836    
  18100000   0.47139805    -7.8776124     -7.1705254      3.1465507      50218.233      36.893836      36.893836      36.893836    
  18200000   0.46723672    -7.8788933     -7.1780482      3.1336556      50218.233      36.893836      36.893836      36.893836    
  18300000   0.47021607    -7.8751973     -7.1698832      3.1701614      50218.233      36.893836      36.893836      36.893836    
  18400000   0.47109952    -7.8813418     -7.1747025      3.1164031      50218.233      36.893836      36.893836      36.893836    
  18500000   0.47411116    -7.8779545     -7.1667979      3.1476929      50218.233      36.893836      36.893836      36.893836    
  18600000   0.46975362    -7.8784064     -7.173786       3.1447123      50218.233      36.893836      36.893836      36.893836    
  18700000   0.47040528    -7.8772502     -7.1716523      3.1522934      50218.233      36.893836      36.893836      36.893836    
  18800000   0.47080949    -7.8792663     -7.1730621      3.1391064      50218.233      36.893836      36.893836      36.893836    
  18900000   0.47075739    -7.8745609     -7.1684349      3.1816954      50218.233      36.893836      36.893836      36.893836    
  19000000   0.47042741    -7.8777992     -7.1721681      3.1398433      50218.233      36.893836      36.893836      36.893836    
  19100000   0.46729653    -7.8797147     -7.1787799      3.1368486      50218.233      36.893836      36.893836      36.893836    
  19200000   0.47168669    -7.8797583     -7.1722383      3.143121       50218.233      36.893836      36.893836      36.893836    
  19300000   0.46987919    -7.8781534     -7.1733447      3.1530538      50218.233      36.893836      36.893836      36.893836    
  19400000   0.46745399    -7.8791258     -7.1779548      3.1428663      50218.233      36.893836      36.893836      36.893836    
  19500000   0.47037523    -7.8771177     -7.1715649      3.1554616      50218.233      36.893836      36.893836      36.893836    
  19600000   0.47157429    -7.8757871     -7.1684358      3.159045       50218.233      36.893836      36.893836      36.893836    
  19700000   0.46965035    -7.8776599     -7.1731944      3.1506746      50218.233      36.893836      36.893836      36.893836    
  19800000   0.46724558    -7.8760451     -7.1751867      3.1648738      50218.233      36.893836      36.893836      36.893836    
  19900000   0.46927883    -7.8733676     -7.1694594      3.1860484      50218.233      36.893836      36.893836      36.893836    
  20000000   0.46983777    -7.8795161     -7.1747695      3.1348506      50218.233      36.893836      36.893836      36.893836    
  20100000   0.46902406    -7.88005       -7.176524       3.1234357      50218.233      36.893836      36.893836      36.893836    
  20200000   0.4688644     -7.874576      -7.1712894      3.1714361      50218.233      36.893836      36.893836      36.893836    
  20300000   0.46941449    -7.8748866     -7.1707748      3.1657178      50218.233      36.893836      36.893836      36.893836    
  20400000   0.46859522    -7.8807667     -7.1778838      3.1222576      50218.233      36.893836      36.893836      36.893836    
  20500000   0.47304457    -7.8777564     -7.1681997      3.1627595      50218.233      36.893836      36.893836      36.893836    
  20600000   0.47154865    -7.8852578     -7.1779449      3.1021782      50218.233      36.893836      36.893836      36.893836    
  20700000   0.46818608    -7.8765422     -7.1742731      3.155017       50218.233      36.893836      36.893836      36.893836    
  20800000   0.47053067    -7.8759395     -7.1701536      3.1745134      50218.233      36.893836      36.893836      36.893836    
  20900000   0.46957484    -7.8763988     -7.1720466      3.1558302      50218.233      36.893836      36.893836      36.893836    
  21000000   0.46985098    -7.8767891     -7.1720226      3.1533404      50218.233      36.893836      36.893836      36.893836    
  21100000   0.4706722     -7.8774274     -7.1714292      3.154082       50218.233      36.893836      36.893836      36.893836    
  21200000   0.4711907     -7.8792695     -7.1724935      3.1436087      50218.233      36.893836      36.893836      36.893836    
  21300000   0.47088684    -7.8764599     -7.1701397      3.1514582      50218.233      36.893836      36.893836      36.893836    
  21400000   0.47160431    -7.8792914     -7.1718949      3.1474776      50218.233      36.893836      36.893836      36.893836    
  21500000   0.4700358     -7.8761194     -7.1710757      3.1670631      50218.233      36.893836      36.893836      36.893836    
  21600000   0.47203917    -7.8782754     -7.1702267      3.1440561      50218.233      36.893836      36.893836      36.893836    
  21700000   0.46874149    -7.8740443     -7.170942       3.1846346      50218.233      36.893836      36.893836      36.893836    
  21800000   0.47161139    -7.8766675     -7.1692604      3.1693632      50218.233      36.893836      36.893836      36.893836    
  21900000   0.47134127    -7.8776244     -7.1706225      3.1615512      50218.233      36.893836      36.893836      36.893836    
  22000000   0.47044659    -7.8760632     -7.1704034      3.1698299      50218.233      36.893836      36.893836      36.893836    
  22100000   0.46981265    -7.8802883     -7.1755793      3.1394319      50218.233      36.893836      36.893836      36.893836    
  22200000   0.47084373    -7.8768732     -7.1706176      3.1611722      50218.233      36.893836      36.893836      36.893836    
  22300000   0.46821246    -7.8780577     -7.175749       3.1481564      50218.233      36.893836      36.893836      36.893836    
  22400000   0.46907082    -7.875612      -7.1720158      3.1661912      50218.233      36.893836      36.893836      36.893836    
  22500000   0.4698611     -7.878657      -7.1738754      3.1457849      50218.233      36.893836      36.893836      36.893836    
  22600000   0.47128078    -7.8752612     -7.1683501      3.1720518      50218.233      36.893836      36.893836      36.893836    
  22700000   0.47015697    -7.8751587     -7.1699333      3.1769524      50218.233      36.893836      36.893836      36.893836    
  22800000   0.47118398    -7.8774635     -7.1706976      3.1641165      50218.233      36.893836      36.893836      36.893836    
  22900000   0.46845309    -7.8788336     -7.176164       3.1433657      50218.233      36.893836      36.893836      36.893836    
  23000000   0.47272459    -7.8783539     -7.1692771      3.137495       50218.233      36.893836      36.893836      36.893836    
  23100000   0.47072823    -7.8774752     -7.1713929      3.1456574      50218.233      36.893836      36.893836      36.893836    
  23200000   0.47085337    -7.8763378     -7.1700678      3.1599025      50218.233      36.893836      36.893836      36.893836    
  23300000   0.46920432    -7.8783709     -7.1745744      3.1424024      50218.233      36.893836      36.893836      36.893836    
  23400000   0.46838493    -7.8828902     -7.1803228      3.1048109      50218.233      36.893836      36.893836      36.893836    
  23500000   0.46879999    -7.8774712     -7.1742812      3.156244       50218.233      36.893836      36.893836      36.893836    
  23600000   0.46931995    -7.8770352     -7.1730653      3.1568105      50218.233      36.893836      36.893836      36.893836    
  23700000   0.4707608     -7.8769614     -7.1708302      3.1561625      50218.233      36.893836      36.893836      36.893836    
  23800000   0.46922231    -7.8798199     -7.1759964      3.1232853      50218.233      36.893836      36.893836      36.893836    
  23900000   0.46985756    -7.8839535     -7.1791772      3.1090649      50218.233      36.893836      36.893836      36.893836    
  24000000   0.46979473    -7.8804421     -7.17576        3.1254947      50218.233      36.893836      36.893836      36.893836    
  24100000   0.46937024    -7.8806686     -7.1766232      3.1264887      50218.233      36.893836      36.893836      36.893836    
  24200000   0.46870737    -7.8805431     -7.177492       3.1303425      50218.233      36.893836      36.893836      36.893836    
  24300000   0.46931376    -7.8798296     -7.1758689      3.1333008      50218.233      36.893836      36.893836      36.893836    
  24400000   0.47287741    -7.8787273     -7.1694213      3.1453493      50218.233      36.893836      36.893836      36.893836    
  24500000   0.47104273    -7.8777711     -7.171217       3.1452691      50218.233      36.893836      36.893836      36.893836    
  24600000   0.47182572    -7.8757588     -7.1680303      3.1663609      50218.233      36.893836      36.893836      36.893836    
  24700000   0.47297394    -7.8775239     -7.1680731      3.1649037      50218.233      36.893836      36.893836      36.893836    
  24800000   0.46974587    -7.8753797     -7.1707709      3.1764641      50218.233      36.893836      36.893836      36.893836    
  24900000   0.46916803    -7.8754992     -7.1717572      3.1623191      50218.233      36.893836      36.893836      36.893836    
  25000000   0.47014777    -7.874771      -7.1695593      3.1696212      50218.233      36.893836      36.893836      36.893836    
  25100000   0.47454917    -7.8783397     -7.1665261      3.1536014      50218.233      36.893836      36.893836      36.893836    
  25200000   0.46896744    -7.8750985     -7.1716573      3.1631034      50218.233      36.893836      36.893836      36.893836    
  25300000   0.47083565    -7.8750088     -7.1687653      3.1648873      50218.233      36.893836      36.893836      36.893836    
  25400000   0.47052516    -7.8731746     -7.1673969      3.1848         50218.233      36.893836      36.893836      36.893836    
  25500000   0.47105979    -7.8780779     -7.1714982      3.1444333      50218.233      36.893836      36.893836      36.893836    
  25600000   0.47016996    -7.8786001     -7.1733552      3.1250726      50218.233      36.893836      36.893836      36.893836    
  25700000   0.47185391    -7.8795597     -7.1717889      3.1229621      50218.233      36.893836      36.893836      36.893836    
  25800000   0.46868547    -7.8728181     -7.1697999      3.1745569      50218.233      36.893836      36.893836      36.893836    
  25900000   0.46801579    -7.877671      -7.1756573      3.1488592      50218.233      36.893836      36.893836      36.893836    
  26000000   0.47218114    -7.8816969     -7.1734353      3.1326629      50218.233      36.893836      36.893836      36.893836    
  26100000   0.46951244    -7.8769824     -7.1727237      3.1522221      50218.233      36.893836      36.893836      36.893836    
  26200000   0.47225563    -7.87439       -7.1660166      3.1803054      50218.233      36.893836      36.893836      36.893836    
  26300000   0.4719866     -7.8767668     -7.1687969      3.1402467      50218.233      36.893836      36.893836      36.893836    
  26400000   0.46958426    -7.8798234     -7.175457       3.1359238      50218.233      36.893836      36.893836      36.893836    
  26500000   0.46986948    -7.878395      -7.1736008      3.1417875      50218.233      36.893836      36.893836      36.893836    
  26600000   0.46955442    -7.8799038     -7.1755822      3.1312862      50218.233      36.893836      36.893836      36.893836    
  26700000   0.47012458    -7.8783492     -7.1731723      3.1371027      50218.233      36.893836      36.893836      36.893836    
  26800000   0.47218648    -7.8825817     -7.1743121      3.1135399      50218.233      36.893836      36.893836      36.893836    
  26900000   0.46797506    -7.879184      -7.1772314      3.1458491      50218.233      36.893836      36.893836      36.893836    
  27000000   0.46928956    -7.8737877     -7.1698633      3.1949958      50218.233      36.893836      36.893836      36.893836    
  27100000   0.46850106    -7.8791154     -7.1763738      3.1354702      50218.233      36.893836      36.893836      36.893836    
  27200000   0.46974025    -7.8788763     -7.174276       3.1434219      50218.233      36.893836      36.893836      36.893836    
  27300000   0.46846981    -7.8779988     -7.1753041      3.1473349      50218.233      36.893836      36.893836      36.893836    
  27400000   0.46968362    -7.8770502     -7.1725348      3.1582338      50218.233      36.893836      36.893836      36.893836    
  27500000   0.46954071    -7.8723038     -7.1680027      3.1920045      50218.233      36.893836      36.893836      36.893836    
  27600000   0.47160041    -7.8757909     -7.1684004      3.1594856      50218.233      36.893836      36.893836      36.893836    
  27700000   0.47119186    -7.8802816     -7.1735039      3.1326025      50218.233      36.893836      36.893836      36.893836    
  27800000   0.46760755    -7.8764833     -7.175082       3.14565        50218.233      36.893836      36.893836      36.893836    
  27900000   0.4696454     -7.8786971     -7.174239       3.1352943      50218.233      36.893836      36.893836      36.893836    
  28000000   0.47013923    -7.8808098     -7.175611       3.1352699      50218.233      36.893836      36.893836      36.893836    
  28100000   0.46795815    -7.8744849     -7.1725576      3.1736795      50218.233      36.893836      36.893836      36.893836    
  28200000   0.47101025    -7.879259      -7.1727537      3.1445418      50218.233      36.893836      36.893836      36.893836    
  28300000   0.4657652     -7.8743862     -7.1757483      3.1763245      50218.233      36.893836      36.893836      36.893836    
  28400000   0.46947244    -7.8777972     -7.1735986      3.1459783      50218.233      36.893836      36.893836      36.893836    
  28500000   0.46849954    -7.8770779     -7.1743386      3.1581847      50218.233      36.893836      36.893836      36.893836    
  28600000   0.4695151     -7.8716618     -7.1673991      3.1833849      50218.233      36.893836      36.893836      36.893836    
  28700000   0.47150924    -7.8767643     -7.1695105      3.1518173      50218.233      36.893836      36.893836      36.893836    
  28800000   0.47101091    -7.8768371     -7.1703308      3.1451698      50218.233      36.893836      36.893836      36.893836    
  28900000   0.46868757    -7.8782087     -7.1751874      3.1414768      50218.233      36.893836      36.893836      36.893836    
  29000000   0.47220067    -7.8773778     -7.1690869      3.1599807      50218.233      36.893836      36.893836      36.893836    
  29100000   0.46804285    -7.8804777     -7.1784234      3.1166505      50218.233      36.893836      36.893836      36.893836    
  29200000   0.47062427    -7.8793031     -7.1733767      3.1363536      50218.233      36.893836      36.893836      36.893836    
  29300000   0.46879067    -7.877593      -7.174417       3.1454189      50218.233      36.893836      36.893836      36.893836    
  29400000   0.46827272    -7.8778526     -7.1754535      3.1457735      50218.233      36.893836      36.893836      36.893836    
  29500000   0.4716529     -7.8776622     -7.1701929      3.1495566      50218.233      36.893836      36.893836      36.893836    
  29600000   0.47120137    -7.8824138     -7.1756218      3.1150059      50218.233      36.893836      36.893836      36.893836    
  29700000   0.47123707    -7.8819614     -7.1751159      3.1212645      50218.233      36.893836      36.893836      36.893836    
  29800000   0.47186477    -7.8769837     -7.1691966      3.1534292      50218.233      36.893836      36.893836      36.893836    
  29900000   0.46942563    -7.8821962     -7.1780678      3.1214945      50218.233      36.893836      36.893836      36.893836    
  30000000   0.47082563    -7.8775353     -7.1713069      3.1561118      50218.233      36.893836      36.893836      36.893836    
  30100000   0.46885344    -7.8790327     -7.1757626      3.1468778      50218.233      36.893836      36.893836      36.893836    
  30200000   0.46826445    -7.8784071     -7.1760204      3.1358353      50218.233      36.893836      36.893836      36.893836    
  30300000   0.46980888    -7.8759521     -7.1712489      3.1656395      50218.233      36.893836      36.893836      36.893836    
  30400000   0.47202529    -7.8823737     -7.1743459      3.1250069      50218.233      36.893836      36.893836      36.893836    
  30500000   0.46971337    -7.8770429     -7.1724829      3.1580915      50218.233      36.893836      36.893836      36.893836    
  30600000   0.46947135    -7.8770488     -7.1728518      3.1551182      50218.233      36.893836      36.893836      36.893836    
  30700000   0.46700674    -7.8798842     -7.1793841      3.1333309      50218.233      36.893836      36.893836      36.893836    
  30800000   0.46919432    -7.8814168     -7.1776353      3.1279586      50218.233      36.893836      36.893836      36.893836    
  30900000   0.46978357    -7.8790238     -7.1743585      3.1389633      50218.233      36.893836      36.893836      36.893836    
  31000000   0.46820408    -7.8825512     -7.1802551      3.1087822      50218.233      36.893836      36.893836      36.893836    
  31100000   0.47011406    -7.8813461     -7.176185       3.1235449      50218.233      36.893836      36.893836      36.893836    
  31200000   0.47241141    -7.8811866     -7.1725796      3.1192645      50218.233      36.893836      36.893836      36.893836    
  31300000   0.47031026    -7.881694      -7.1762386      3.1124417      50218.233      36.893836      36.893836      36.893836    
  31400000   0.46783533    -7.8789877     -7.1772447      3.1359207      50218.233      36.893836      36.893836      36.893836    
  31500000   0.4708636     -7.8797586     -7.1734732      3.1295136      50218.233      36.893836      36.893836      36.893836    
  31600000   0.46854301    -7.8837005     -7.180896       3.1090887      50218.233      36.893836      36.893836      36.893836    
  31700000   0.47045151    -7.8760166     -7.1703494      3.163351       50218.233      36.893836      36.893836      36.893836    
  31800000   0.47027253    -7.8813877     -7.175989       3.1262145      50218.233      36.893836      36.893836      36.893836    
  31900000   0.47062245    -7.8756678     -7.1697441      3.1672664      50218.233      36.893836      36.893836      36.893836    
  32000000   0.47082366    -7.8799815     -7.1737561      3.1277582      50218.233      36.893836      36.893836      36.893836    
  32100000   0.46962796    -7.8786671     -7.1742352      3.1344643      50218.233      36.893836      36.893836      36.893836    
  32200000   0.47250717    -7.8798675     -7.1711168      3.1374078      50218.233      36.893836      36.893836      36.893836    
  32300000   0.46964215    -7.8774256     -7.1729724      3.1625626      50218.233      36.893836      36.893836      36.893836    
  32400000   0.47106514    -7.8790592     -7.1724716      3.1370028      50218.233      36.893836      36.893836      36.893836    
  32500000   0.46948693    -7.8831145     -7.1788941      3.1072363      50218.233      36.893836      36.893836      36.893836    
  32600000   0.46911708    -7.8777369     -7.1740713      3.1492718      50218.233      36.893836      36.893836      36.893836    
  32700000   0.47140261    -7.8810126     -7.1739188      3.1218775      50218.233      36.893836      36.893836      36.893836    
  32800000   0.46903396    -7.8799414     -7.1764005      3.1289139      50218.233      36.893836      36.893836      36.893836    
  32900000   0.46881993    -7.8828977     -7.1796779      3.0979218      50218.233      36.893836      36.893836      36.893836    
  33000000   0.47158707    -7.8820068     -7.1746363      3.1161023      50218.233      36.893836      36.893836      36.893836    
  33100000   0.46943191    -7.8817058     -7.177568       3.1210377      50218.233      36.893836      36.893836      36.893836    
  33200000   0.47001882    -7.877539      -7.1725208      3.1480182      50218.233      36.893836      36.893836      36.893836    
  33300000   0.47285698    -7.8786586     -7.1693832      3.1423063      50218.233      36.893836      36.893836      36.893836    
  33400000   0.46711239    -7.8771583     -7.1764997      3.1451266      50218.233      36.893836      36.893836      36.893836    
  33500000   0.46818215    -7.8786853     -7.176422       3.1417944      50218.233      36.893836      36.893836      36.893836    
  33600000   0.47013083    -7.8832553     -7.1780691      3.0970835      50218.233      36.893836      36.893836      36.893836    
  33700000   0.47091505    -7.8857675     -7.179405       3.0886697      50218.233      36.893836      36.893836      36.893836    
  33800000   0.4704416     -7.87685       -7.1711976      3.1553652      50218.233      36.893836      36.893836      36.893836    
  33900000   0.46906626    -7.8816855     -7.1780961      3.1189475      50218.233      36.893836      36.893836      36.893836    
  34000000   0.47038992    -7.8825464     -7.1769715      3.1113265      50218.233      36.893836      36.893836      36.893836    
  34100000   0.46862252    -7.8813753     -7.1784515      3.1230134      50218.233      36.893836      36.893836      36.893836    
  34200000   0.4700547     -7.8817838     -7.1767118      3.1114916      50218.233      36.893836      36.893836      36.893836    
  34300000   0.46886252    -7.881773      -7.1784892      3.1215509      50218.233      36.893836      36.893836      36.893836    
  34400000   0.4692145     -7.8821708     -7.1783591      3.1118912      50218.233      36.893836      36.893836      36.893836    
  34500000   0.46702892    -7.8768001     -7.1762667      3.1455209      50218.233      36.893836      36.893836      36.893836    
  34600000   0.46965511    -7.8792197     -7.1747471      3.1363843      50218.233      36.893836      36.893836      36.893836    
  34700000   0.47165934    -7.8838959     -7.1764169      3.1002082      50218.233      36.893836      36.893836      36.893836    
  34800000   0.46848055    -7.8826115     -7.1799007      3.1072805      50218.233      36.893836      36.893836      36.893836    
  34900000   0.46899204    -7.8811365     -7.1776584      3.1194993      50218.233      36.893836      36.893836      36.893836    
  35000000   0.46956534    -7.885697      -7.181359       3.092454       50218.233      36.893836      36.893836      36.893836    
  35100000   0.46784922    -7.8809303     -7.1791664      3.1245959      50218.233      36.893836      36.893836      36.893836    
  35200000   0.47079286    -7.8845577     -7.1783784      3.0966544      50218.233      36.893836      36.893836      36.893836    
  35300000   0.46768024    -7.8860578     -7.1845475      3.0846173      50218.233      36.893836      36.893836      36.893836    
  35400000   0.47178234    -7.8770397     -7.1693762      3.1596168      50218.233      36.893836      36.893836      36.893836    
  35500000   0.46679654    -7.8815179     -7.181333       3.1192094      50218.233      36.893836      36.893836      36.893836    
  35600000   0.46946961    -7.8800607     -7.1758663      3.1369977      50218.233      36.893836      36.893836      36.893836    
  35700000   0.47215184    -7.8827156     -7.174498       3.1191075      50218.233      36.893836      36.893836      36.893836    
  35800000   0.46957636    -7.8816067     -7.1772521      3.1166871      50218.233      36.893836      36.893836      36.893836    
  35900000   0.47068526    -7.8819211     -7.1759032      3.1173735      50218.233      36.893836      36.893836      36.893836    
  36000000   0.47194883    -7.8801472     -7.172234       3.1379955      50218.233      36.893836      36.893836      36.893836    
  36100000   0.46973648    -7.8823411     -7.1777464      3.1194629      50218.233      36.893836      36.893836      36.893836    
  36200000   0.46909582    -7.88027       -7.1766363      3.1264401      50218.233      36.893836      36.893836      36.893836    
  36300000   0.46975936    -7.8830463     -7.1784173      3.1193933      50218.233      36.893836      36.893836      36.893836    
  36400000   0.47013214    -7.8848464     -7.1796582      3.1010202      50218.233      36.893836      36.893836      36.893836    
  36500000   0.47194674    -7.8813341     -7.1734241      3.1312263      50218.233      36.893836      36.893836      36.893836    
  36600000   0.46960887    -7.8775105     -7.1731072      3.14703        50218.233      36.893836      36.893836      36.893836    
  36700000   0.4696846     -7.8817008     -7.177184       3.1230905      50218.233      36.893836      36.893836      36.893836    
  36800000   0.46769625    -7.8830988     -7.1815644      3.1074862      50218.233      36.893836      36.893836      36.893836    
  36900000   0.47087606    -7.8788574     -7.1725534      3.1431031      50218.233      36.893836      36.893836      36.893836    
  37000000   0.47077077    -7.8804584     -7.1743123      3.1360239      50218.233      36.893836      36.893836      36.893836    
  37100000   0.46996877    -7.8839421     -7.1789989      3.111099       50218.233      36.893836      36.893836      36.893836    
  37200000   0.4686717     -7.8860461     -7.1830485      3.0957206      50218.233      36.893836      36.893836      36.893836    
  37300000   0.47192363    -7.8811794     -7.173304       3.1324727      50218.233      36.893836      36.893836      36.893836    
  37400000   0.47052337    -7.8828168     -7.1770418      3.1222466      50218.233      36.893836      36.893836      36.893836    
  37500000   0.47231321    -7.8797063     -7.1712465      3.1422839      50218.233      36.893836      36.893836      36.893836    
  37600000   0.46911864    -7.8801725     -7.1765046      3.1317072      50218.233      36.893836      36.893836      36.893836    
  37700000   0.46909139    -7.8800133     -7.1763863      3.1333628      50218.233      36.893836      36.893836      36.893836    
  37800000   0.46899982    -7.8792676     -7.1757779      3.1410614      50218.233      36.893836      36.893836      36.893836    
  37900000   0.46969231    -7.8797013     -7.1751729      3.1370562      50218.233      36.893836      36.893836      36.893836    
  38000000   0.46837527    -7.8828766     -7.1803237      3.1151503      50218.233      36.893836      36.893836      36.893836    
  38100000   0.46917143    -7.8805752     -7.1768281      3.132711       50218.233      36.893836      36.893836      36.893836    
  38200000   0.47160071    -7.8849792     -7.1775882      3.0989466      50218.233      36.893836      36.893836      36.893836    
  38300000   0.46948652    -7.8822537     -7.178034       3.1149428      50218.233      36.893836      36.893836      36.893836    
  38400000   0.470256      -7.8806099     -7.1752359      3.1258261      50218.233      36.893836      36.893836      36.893836    
  38500000   0.47158112    -7.88474       -7.1773784      3.0943576      50218.233      36.893836      36.893836      36.893836    
  38600000   0.47318419    -7.8803363     -7.1705701      3.130509       50218.233      36.893836      36.893836      36.893836    
  38700000   0.47052736    -7.8830555     -7.1772745      3.121826       50218.233      36.893836      36.893836      36.893836    
  38800000   0.47149843    -7.8800578     -7.1728202      3.1347586      50218.233      36.893836      36.893836      36.893836    
  38900000   0.47069859    -7.8800686     -7.1740307      3.137295       50218.233      36.893836      36.893836      36.893836    
  39000000   0.47033526    -7.8865262     -7.1810333      3.0855259      50218.233      36.893836      36.893836      36.893836    
  39100000   0.46886807    -7.882324      -7.1790319      3.1082664      50218.233      36.893836      36.893836      36.893836    
  39200000   0.46957701    -7.882667      -7.1783115      3.110208       50218.233      36.893836      36.893836      36.893836    
  39300000   0.46942803    -7.8818064     -7.1776743      3.1124203      50218.233      36.893836      36.893836      36.893836    
  39400000   0.47042292    -7.8831281     -7.1775038      3.110975       50218.233      36.893836      36.893836      36.893836    
  39500000   0.46890591    -7.8801977     -7.1768488      3.1258318      50218.233      36.893836      36.893836      36.893836    
  39600000   0.46744542    -7.876228      -7.1750698      3.1640571      50218.233      36.893836      36.893836      36.893836    
  39700000   0.46815913    -7.8770161     -7.1747874      3.1509412      50218.233      36.893836      36.893836      36.893836    
  39800000   0.47079945    -7.8804301     -7.174241       3.1317682      50218.233      36.893836      36.893836      36.893836    
  39900000   0.46955799    -7.8774069     -7.1730799      3.1538901      50218.233      36.893836      36.893836      36.893836    
  40000000   0.46988       -7.8750858     -7.1702759      3.1722309      50218.233      36.893836      36.893836      36.893836    
  40100000   0.47282157    -7.8793599     -7.1701377      3.1469764      50218.233      36.893836      36.893836      36.893836    
  40200000   0.47086866    -7.8839905     -7.1776975      3.1007165      50218.233      36.893836      36.893836      36.893836    
  40300000   0.46941228    -7.8786821     -7.1745737      3.1359027      50218.233      36.893836      36.893836      36.893836    
  40400000   0.46844223    -7.8810561     -7.1784027      3.1315043      50218.233      36.893836      36.893836      36.893836    
  40500000   0.46989628    -7.8777994     -7.172965       3.1443576      50218.233      36.893836      36.893836      36.893836    
  40600000   0.46992573    -7.8774179     -7.1725393      3.1507905      50218.233      36.893836      36.893836      36.893836    
  40700000   0.47092708    -7.8777325     -7.1713519      3.1471871      50218.233      36.893836      36.893836      36.893836    
  40800000   0.46885068    -7.8839656     -7.1806995      3.0945748      50218.233      36.893836      36.893836      36.893836    
  40900000   0.4705427     -7.8813827     -7.1755787      3.1197285      50218.233      36.893836      36.893836      36.893836    
  41000000   0.47075688    -7.8849904     -7.1788652      3.0992351      50218.233      36.893836      36.893836      36.893836    
  41100000   0.46956925    -7.88281       -7.1784662      3.1073073      50218.233      36.893836      36.893836      36.893836    
  41200000   0.47091629    -7.8784616     -7.1720972      3.1374525      50218.233      36.893836      36.893836      36.893836    
  41300000   0.46843732    -7.8782083     -7.1755624      3.1443986      50218.233      36.893836      36.893836      36.893836    
  41400000   0.47164523    -7.8829622     -7.1755045      3.1049274      50218.233      36.893836      36.893836      36.893836    
  41500000   0.46885079    -7.8825605     -7.1792943      3.1004563      50218.233      36.893836      36.893836      36.893836    
  41600000   0.4708199     -7.8806508     -7.174431       3.1218132      50218.233      36.893836      36.893836      36.893836    
  41700000   0.47141962    -7.8816981     -7.1745787      3.1139804      50218.233      36.893836      36.893836      36.893836    
  41800000   0.4705041     -7.8745681     -7.168822       3.1608623      50218.233      36.893836      36.893836      36.893836    
  41900000   0.46971618    -7.8819226     -7.1773583      3.1121844      50218.233      36.893836      36.893836      36.893836    
  42000000   0.46755454    -7.881387      -7.1800652      3.1240133      50218.233      36.893836      36.893836      36.893836    
  42100000   0.46932343    -7.8790987     -7.1751235      3.1417754      50218.233      36.893836      36.893836      36.893836    
  42200000   0.46894746    -7.878728      -7.1753168      3.1405009      50218.233      36.893836      36.893836      36.893836    
  42300000   0.46902149    -7.8791708     -7.1756486      3.1399053      50218.233      36.893836      36.893836      36.893836    
  42400000   0.47028372    -7.8794458     -7.1740302      3.141563       50218.233      36.893836      36.893836      36.893836    
  42500000   0.47137018    -7.8734298     -7.1663845      3.1841061      50218.233      36.893836      36.893836      36.893836    
  42600000   0.47017298    -7.8784783     -7.1732289      3.1515394      50218.233      36.893836      36.893836      36.893836    
  42700000   0.47046114    -7.8795236     -7.1738419      3.1339569      50218.233      36.893836      36.893836      36.893836    
  42800000   0.470236      -7.8749864     -7.1696424      3.1718428      50218.233      36.893836      36.893836      36.893836    
  42900000   0.47085943    -7.878801      -7.1725219      3.145532       50218.233      36.893836      36.893836      36.893836    
  43000000   0.47022541    -7.8797498     -7.1744218      3.1434423      50218.233      36.893836      36.893836      36.893836    
  43100000   0.47072037    -7.8818511     -7.1757806      3.1256978      50218.233      36.893836      36.893836      36.893836    
  43200000   0.47256119    -7.8783511     -7.1695194      3.1519049      50218.233      36.893836      36.893836      36.893836    
  43300000   0.47019004    -7.8822282     -7.1769532      3.1046018      50218.233      36.893836      36.893836      36.893836    
  43400000   0.47073898    -7.8766377     -7.1705393      3.1531226      50218.233      36.893836      36.893836      36.893836    
  43500000   0.47056889    -7.8801307     -7.1742874      3.1395876      50218.233      36.893836      36.893836      36.893836    
  43600000   0.46838567    -7.8796465     -7.177078       3.1321675      50218.233      36.893836      36.893836      36.893836    
  43700000   0.46961217    -7.8789597     -7.1745515      3.1479565      50218.233      36.893836      36.893836      36.893836    
  43800000   0.46978365    -7.8803397     -7.1756742      3.1278907      50218.233      36.893836      36.893836      36.893836    
  43900000   0.46672561    -7.8793505     -7.179272       3.1376002      50218.233      36.893836      36.893836      36.893836    
  44000000   0.47106539    -7.8798656     -7.1732776      3.1348778      50218.233      36.893836      36.893836      36.893836    
  44100000   0.47042799    -7.8769051     -7.1712731      3.1583272      50218.233      36.893836      36.893836      36.893836    
  44200000   0.46795045    -7.8783086     -7.1763929      3.1393335      50218.233      36.893836      36.893836      36.893836    
  44300000   0.47026436    -7.8782397     -7.1728532      3.1510865      50218.233      36.893836      36.893836      36.893836    
  44400000   0.47002916    -7.8815633     -7.1765296      3.1205199      50218.233      36.893836      36.893836      36.893836    
  44500000   0.47076444    -7.8817462     -7.1756096      3.1263508      50218.233      36.893836      36.893836      36.893836    
  44600000   0.46892714    -7.8821495     -7.1787688      3.1235633      50218.233      36.893836      36.893836      36.893836    
  44700000   0.47120386    -7.8795703     -7.1727746      3.1287649      50218.233      36.893836      36.893836      36.893836    
  44800000   0.46942756    -7.8764937     -7.1723624      3.149647       50218.233      36.893836      36.893836      36.893836    
  44900000   0.47220245    -7.8815953     -7.1733017      3.1286288      50218.233      36.893836      36.893836      36.893836    
  45000000   0.46925313    -7.8826218     -7.1787521      3.1182262      50218.233      36.893836      36.893836      36.893836    
  45100000   0.46937224    -7.8808985     -7.1768501      3.1289543      50218.233      36.893836      36.893836      36.893836    
  45200000   0.47102323    -7.8781751     -7.1716503      3.143138       50218.233      36.893836      36.893836      36.893836    
  45300000   0.4696769     -7.878615      -7.1741096      3.1449487      50218.233      36.893836      36.893836      36.893836    
  45400000   0.4702736     -7.8741799     -7.1687795      3.1785055      50218.233      36.893836      36.893836      36.893836    
  45500000   0.4693594     -7.878076      -7.1740469      3.1473154      50218.233      36.893836      36.893836      36.893836    
  45600000   0.47269652    -7.8755641     -7.1665294      3.1604048      50218.233      36.893836      36.893836      36.893836    
  45700000   0.46911624    -7.877838      -7.1741736      3.1430541      50218.233      36.893836      36.893836      36.893836    
  45800000   0.47175045    -7.8790137     -7.1713981      3.1404161      50218.233      36.893836      36.893836      36.893836    
  45900000   0.46930763    -7.875694      -7.1717426      3.1641198      50218.233      36.893836      36.893836      36.893836    
  46000000   0.47101867    -7.8767903     -7.1702723      3.1567142      50218.233      36.893836      36.893836      36.893836    
  46100000   0.47018927    -7.8764976     -7.1712237      3.1671037      50218.233      36.893836      36.893836      36.893836    
  46200000   0.46968298    -7.8803916     -7.1758772      3.1416134      50218.233      36.893836      36.893836      36.893836    
  46300000   0.4724798     -7.8758066     -7.1670969      3.1681611      50218.233      36.893836      36.893836      36.893836    
  46400000   0.47028322    -7.8821021     -7.1766873      3.1198316      50218.233      36.893836      36.893836      36.893836    
  46500000   0.46774925    -7.879254      -7.1776401      3.1360023      50218.233      36.893836      36.893836      36.893836    
  46600000   0.4696168     -7.880377      -7.1759619      3.1367179      50218.233      36.893836      36.893836      36.893836    
  46700000   0.46965862    -7.8763077     -7.1718298      3.1549695      50218.233      36.893836      36.893836      36.893836    
  46800000   0.47173115    -7.8808601     -7.1732735      3.1423535      50218.233      36.893836      36.893836      36.893836    
  46900000   0.46946848    -7.8800142     -7.1758215      3.1367291      50218.233      36.893836      36.893836      36.893836    
  47000000   0.4702122     -7.8780745     -7.1727663      3.1476627      50218.233      36.893836      36.893836      36.893836    
  47100000   0.47256683    -7.8770297     -7.1681895      3.1717161      50218.233      36.893836      36.893836      36.893836    
  47200000   0.47057512    -7.8783348     -7.1724822      3.1498282      50218.233      36.893836      36.893836      36.893836    
  47300000   0.47029484    -7.8789837     -7.1735515      3.1518209      50218.233      36.893836      36.893836      36.893836    
  47400000   0.4693383     -7.881198      -7.1772005      3.125513       50218.233      36.893836      36.893836      36.893836    
  47500000   0.46938184    -7.8761669     -7.1721042      3.1622554      50218.233      36.893836      36.893836      36.893836    
  47600000   0.46885074    -7.8805625     -7.1772964      3.1443408      50218.233      36.893836      36.893836      36.893836    
  47700000   0.46797567    -7.8805499     -7.1785964      3.129297       50218.233      36.893836      36.893836      36.893836    
  47800000   0.46698468    -7.8800426     -7.1795756      3.1443836      50218.233      36.893836      36.893836      36.893836    
  47900000   0.47074114    -7.8782741     -7.1721725      3.1673245      50218.233      36.893836      36.893836      36.893836    
  48000000   0.46935014    -7.8796384     -7.1756232      3.1481009      50218.233      36.893836      36.893836      36.893836    
  48100000   0.4673588     -7.882329      -7.1813008      3.1184746      50218.233      36.893836      36.893836      36.893836    
  48200000   0.4719816     -7.8809586     -7.1729963      3.1421         50218.233      36.893836      36.893836      36.893836    
  48300000   0.47235646    -7.8788706     -7.170346       3.1588461      50218.233      36.893836      36.893836      36.893836    
  48400000   0.46967563    -7.8800856     -7.1755822      3.1433075      50218.233      36.893836      36.893836      36.893836    
  48500000   0.47145711    -7.8816632     -7.1744876      3.1325001      50218.233      36.893836      36.893836      36.893836    
  48600000   0.4688758     -7.8792694     -7.1759657      3.1490826      50218.233      36.893836      36.893836      36.893836    
  48700000   0.46838467    -7.8786712     -7.1761041      3.146452       50218.233      36.893836      36.893836      36.893836    
  48800000   0.47100479    -7.8821761     -7.175679       3.120473       50218.233      36.893836      36.893836      36.893836    
  48900000   0.47146396    -7.8793518     -7.1721659      3.1451883      50218.233      36.893836      36.893836      36.893836    
  49000000   0.46989231    -7.8810438     -7.1762154      3.1273438      50218.233      36.893836      36.893836      36.893836    
  49100000   0.4714306     -7.8818591     -7.1747233      3.122584       50218.233      36.893836      36.893836      36.893836    
  49200000   0.47297907    -7.8807484     -7.1712899      3.1408213      50218.233      36.893836      36.893836      36.893836    
  49300000   0.46916884    -7.8807771     -7.1770339      3.1254249      50218.233      36.893836      36.893836      36.893836    
  49400000   0.47183415    -7.8806931     -7.1729519      3.1406447      50218.233      36.893836      36.893836      36.893836    
  49500000   0.47090633    -7.8775823     -7.1712328      3.1551716      50218.233      36.893836      36.893836      36.893836    
  49600000   0.47034317    -7.8779638     -7.1724591      3.1532112      50218.233      36.893836      36.893836      36.893836    
  49700000   0.46850393    -7.8768242     -7.1740783      3.1492964      50218.233      36.893836      36.893836      36.893836    
  49800000   0.4716978     -7.8769157     -7.169379       3.1468686      50218.233      36.893836      36.893836      36.893836    
  49900000   0.47037287    -7.880381      -7.1748318      3.1263672      50218.233      36.893836      36.893836      36.893836    
  50000000   0.46910167    -7.8807069     -7.1770644      3.1321303      50218.233      36.893836      36.893836      36.893836    
Loop time of 78066.1 on 5 procs for 50000000 steps with 70304 atoms

Performance: 553377.081 tau/day, 640.483 timesteps/s, 45.028 Matom-step/s
94.8% CPU use with 5 MPI tasks x 1 OpenMP threads

MPI task timing breakdown:
Section |  min time  |  avg time  |  max time  |%varavg| %total
---------------------------------------------------------------
Pair    | 27994      | 30426      | 31902      | 809.0 | 38.98
Neigh   | 252.33     | 287.18     | 315.25     | 125.3 |  0.37
Comm    | 11774      | 11910      | 12066      |  96.3 | 15.26
Output  | 0.090733   | 0.094222   | 0.10043    |   1.1 |  0.00
Modify  | 29851      | 31416      | 33846      | 813.2 | 40.24
Other   |            | 4026       |            |       |  5.16

Nlocal:        14060.8 ave       14088 max       14030 min
Histogram: 1 0 0 0 2 0 0 0 1 1
Nghost:          18731 ave       18778 max       18714 min
Histogram: 2 2 0 0 0 0 0 0 0 1
Neighs:              0 ave           0 max           0 min
Histogram: 5 0 0 0 0 0 0 0 0 0

Total # of neighbors = 0
Ave neighs/atom = 0
Neighbor list builds = 10095809
Dangerous builds = 0
clear
OMP_NUM_THREADS environment is not set. Defaulting to 1 thread. (src/comm.cpp:98)
  using 1 OpenMP thread(s) per MPI task
package gpu 0
jump dms450.lmp

variable T equal 450
# T = 1000* (temp in LJ unit)
variable f equal 100000
log log.${T}
log log.450
