variable TLJ equal (${T}/1000)
variable TLJ equal (510/1000)
variable NCyle equal 5
variable iStep equal (${f})
variable iStep equal (100000)
variable dumpStep equal (${f}*100)
variable dumpStep equal (100000*100)
variable runStep equal (${f}*100*${NCyle})
variable runStep equal (100000*100*${NCyle})
variable runStep equal (100000*100*5)

units       lj
atom_style  atomic
dimension 3
boundary     p p p
pair_style  lj/cut 2.5
read_data  ../data/T${T}.dat
read_data  ../data/T510.dat
Reading data file ...
  orthogonal box = (0.97250269 0.97250269 0.97250269) to (37.866338 37.866338 37.866338)
  1 by 1 by 5 MPI processor grid
  reading atoms ...
  70304 atoms
  reading velocities ...
  70304 velocities
  read_data CPU = 0.210 seconds
change_box all triclinic
Changing box ...
  triclinic box = (0.97250269 0.97250269 0.97250269) to (37.866338 37.866338 37.866338) with tilt (0 0 0)
mass 1 1
mass 2 1
pair_modify shift yes
pair_coeff  1 1 1 1
pair_coeff  1 2 1.5 0.8
pair_coeff  2 2 0.5 0.88


timestep 0.01
thermo ${iStep}
thermo 100000
reset_timestep 0
thermo_style custom step temp pe etotal press vol lx ly lz
fix             1 all nvt temp ${TLJ}  ${TLJ}  0.1
fix             1 all nvt temp 0.51  ${TLJ}  0.1
fix             1 all nvt temp 0.51  0.51  0.1
thermo_modify flush yes

fix dsf all deform 1 xy  wiggle 0.5  ${f}   units box
fix dsf all deform 1 xy  wiggle 0.5  100000   units box
fix ps1 all ave/time 1 1 ${iStep} c_thermo_press[1] c_thermo_press[2]  c_thermo_press[3] c_thermo_press[4]  c_thermo_press[5] c_thermo_press[6]  file  stress.${T}
fix ps1 all ave/time 1 1 100000 c_thermo_press[1] c_thermo_press[2]  c_thermo_press[3] c_thermo_press[4]  c_thermo_press[5] c_thermo_press[6]  file  stress.${T}
fix ps1 all ave/time 1 1 100000 c_thermo_press[1] c_thermo_press[2]  c_thermo_press[3] c_thermo_press[4]  c_thermo_press[5] c_thermo_press[6]  file  stress.510
dump            1 all custom ${dumpStep} dump.${T} id type x y z
dump            1 all custom 10000000 dump.${T} id type x y z
dump            1 all custom 10000000 dump.510 id type x y z
dump_modify 1 sort id
fix nodrift all momentum 1  linear 1 1 1
fix com_seed all recenter INIT INIT INIT shift all
run ${runStep}
run 50000000
Generated 0 of 1 mixed pair_coeff terms from geometric mixing rule
Per MPI rank memory allocation (min/avg/max) = 8.923 | 8.924 | 8.926 Mbytes
   Step          Temp          PotEng         TotEng         Press          Volume           Lx             Ly             Lz      
         0   0.50928907    -7.8012268     -7.037304       3.7707789      50218.233      36.893836      36.893836      36.893836    
    100000   0.50807834    -7.7946496     -7.0325429      3.8098597      50218.233      36.893836      36.893836      36.893836    
    200000   0.51173567    -7.7982781     -7.0306855      3.7927202      50218.233      36.893836      36.893836      36.893836    
    300000   0.51044715    -7.7957801     -7.0301203      3.8116826      50218.233      36.893836      36.893836      36.893836    
    400000   0.51007277    -7.7934019     -7.0283036      3.8267821      50218.233      36.893836      36.893836      36.893836    
    500000   0.50893982    -7.7938995     -7.0305006      3.8267101      50218.233      36.893836      36.893836      36.893836    
    600000   0.51059899    -7.7907772     -7.0248896      3.8428322      50218.233      36.893836      36.893836      36.893836    
    700000   0.50793007    -7.7905411     -7.0286569      3.8503332      50218.233      36.893836      36.893836      36.893836    
    800000   0.50704188    -7.7922802     -7.0317282      3.836606       50218.233      36.893836      36.893836      36.893836    
    900000   0.51085807    -7.7946558     -7.0283796      3.830159       50218.233      36.893836      36.893836      36.893836    
   1000000   0.50939819    -7.7945319     -7.0304455      3.8162498      50218.233      36.893836      36.893836      36.893836    
   1100000   0.50719127    -7.7922216     -7.0314455      3.8385529      50218.233      36.893836      36.893836      36.893836    
   1200000   0.51173238    -7.7952616     -7.027674       3.8159776      50218.233      36.893836      36.893836      36.893836    
   1300000   0.51069361    -7.7978063     -7.0317768      3.7964305      50218.233      36.893836      36.893836      36.893836    
   1400000   0.51124788    -7.7984167     -7.0315558      3.7896734      50218.233      36.893836      36.893836      36.893836    
   1500000   0.50916256    -7.7991365     -7.0354035      3.7745316      50218.233      36.893836      36.893836      36.893836    
   1600000   0.51095121    -7.7957791     -7.0293632      3.8184266      50218.233      36.893836      36.893836      36.893836    
   1700000   0.50837239    -7.7968147     -7.034267       3.8055242      50218.233      36.893836      36.893836      36.893836    
   1800000   0.51122246    -7.7946165     -7.0277938      3.8171714      50218.233      36.893836      36.893836      36.893836    
   1900000   0.51220528    -7.7960027     -7.0277057      3.8093215      50218.233      36.893836      36.893836      36.893836    
   2000000   0.5106765     -7.7981763     -7.0321724      3.7986479      50218.233      36.893836      36.893836      36.893836    
   2100000   0.50993776    -7.7963678     -7.0314721      3.8093074      50218.233      36.893836      36.893836      36.893836    
   2200000   0.50990358    -7.7952603     -7.0304158      3.8115183      50218.233      36.893836      36.893836      36.893836    
   2300000   0.50830751    -7.7933413     -7.0308908      3.8288218      50218.233      36.893836      36.893836      36.893836    
   2400000   0.50861502    -7.7952927     -7.032381       3.8127268      50218.233      36.893836      36.893836      36.893836    
   2500000   0.50969719    -7.7942392     -7.0297043      3.8026164      50218.233      36.893836      36.893836      36.893836    
   2600000   0.50647794    -7.7977778     -7.0380717      3.7832878      50218.233      36.893836      36.893836      36.893836    
   2700000   0.50899413    -7.7941977     -7.0307174      3.8140364      50218.233      36.893836      36.893836      36.893836    
   2800000   0.51038738    -7.7923127     -7.0267425      3.8364301      50218.233      36.893836      36.893836      36.893836    
   2900000   0.507777      -7.7917929     -7.0301382      3.8305179      50218.233      36.893836      36.893836      36.893836    
   3000000   0.51106808    -7.7978683     -7.0312771      3.7905325      50218.233      36.893836      36.893836      36.893836    
   3100000   0.50921895    -7.7942999     -7.0304823      3.8202754      50218.233      36.893836      36.893836      36.893836    
   3200000   0.51097266    -7.7936868     -7.0272387      3.8261251      50218.233      36.893836      36.893836      36.893836    
   3300000   0.51043132    -7.7922772     -7.0266411      3.8421134      50218.233      36.893836      36.893836      36.893836    
   3400000   0.51522554    -7.7938707     -7.0210434      3.835394       50218.233      36.893836      36.893836      36.893836    
   3500000   0.5097082     -7.795847      -7.0312956      3.8198651      50218.233      36.893836      36.893836      36.893836    
   3600000   0.50941014    -7.7937362     -7.0296318      3.8253554      50218.233      36.893836      36.893836      36.893836    
   3700000   0.50951666    -7.7879231     -7.023659       3.8667432      50218.233      36.893836      36.893836      36.893836    
   3800000   0.51173471    -7.7873075     -7.0197164      3.879215       50218.233      36.893836      36.893836      36.893836    
   3900000   0.51245401    -7.7929784     -7.0243083      3.8406244      50218.233      36.893836      36.893836      36.893836    
   4000000   0.50751781    -7.7955204     -7.0342545      3.8052541      50218.233      36.893836      36.893836      36.893836    
   4100000   0.50949364    -7.7984317     -7.0342021      3.7956335      50218.233      36.893836      36.893836      36.893836    
   4200000   0.50892276    -7.7975665     -7.0341932      3.7804917      50218.233      36.893836      36.893836      36.893836    
   4300000   0.50992476    -7.7949169     -7.0300407      3.8223343      50218.233      36.893836      36.893836      36.893836    
   4400000   0.5086035     -7.7945393     -7.0316449      3.8338302      50218.233      36.893836      36.893836      36.893836    
   4500000   0.50990508    -7.7904949     -7.0256481      3.8507601      50218.233      36.893836      36.893836      36.893836    
   4600000   0.510555      -7.7930225     -7.0272009      3.8217362      50218.233      36.893836      36.893836      36.893836    
   4700000   0.51115317    -7.7922895     -7.0255707      3.8496578      50218.233      36.893836      36.893836      36.893836    
   4800000   0.51093328    -7.7926738     -7.0262848      3.8278121      50218.233      36.893836      36.893836      36.893836    
   4900000   0.51392675    -7.7940766     -7.0231974      3.8349002      50218.233      36.893836      36.893836      36.893836    
   5000000   0.51093816    -7.7916624     -7.0252661      3.8355494      50218.233      36.893836      36.893836      36.893836    
   5100000   0.51132734    -7.7951636     -7.0281835      3.8103372      50218.233      36.893836      36.893836      36.893836    
   5200000   0.50913077    -7.7941943     -7.030509       3.8192447      50218.233      36.893836      36.893836      36.893836    
   5300000   0.50995709    -7.7929321     -7.0280073      3.8366436      50218.233      36.893836      36.893836      36.893836    
   5400000   0.51017196    -7.7944621     -7.0292151      3.8176183      50218.233      36.893836      36.893836      36.893836    
   5500000   0.51067676    -7.7921238     -7.0261195      3.8399623      50218.233      36.893836      36.893836      36.893836    
   5600000   0.50906657    -7.7925045     -7.0289155      3.8314085      50218.233      36.893836      36.893836      36.893836    
   5700000   0.51129451    -7.7944345     -7.0275037      3.8290822      50218.233      36.893836      36.893836      36.893836    
   5800000   0.51008588    -7.7973898     -7.0322719      3.8082098      50218.233      36.893836      36.893836      36.893836    
   5900000   0.51102975    -7.7942881     -7.0277544      3.8310871      50218.233      36.893836      36.893836      36.893836    
   6000000   0.50904906    -7.7937096     -7.0301469      3.8225803      50218.233      36.893836      36.893836      36.893836    
   6100000   0.50765882    -7.7952024     -7.033725       3.8109157      50218.233      36.893836      36.893836      36.893836    
   6200000   0.51119589    -7.7910668     -7.0242839      3.8478875      50218.233      36.893836      36.893836      36.893836    
   6300000   0.50753079    -7.791585      -7.0302997      3.845104       50218.233      36.893836      36.893836      36.893836    
   6400000   0.50828001    -7.7912526     -7.0288434      3.8340209      50218.233      36.893836      36.893836      36.893836    
   6500000   0.51113682    -7.7942493     -7.027555       3.8325841      50218.233      36.893836      36.893836      36.893836    
   6600000   0.50954206    -7.7960547     -7.0317524      3.8033514      50218.233      36.893836      36.893836      36.893836    
   6700000   0.50914804    -7.7919456     -7.0282344      3.8489499      50218.233      36.893836      36.893836      36.893836    
   6800000   0.51208281    -7.7923044     -7.0241911      3.8343847      50218.233      36.893836      36.893836      36.893836    
   6900000   0.51217561    -7.7936847     -7.0254322      3.8284851      50218.233      36.893836      36.893836      36.893836    
   7000000   0.50868017    -7.7957258     -7.0327164      3.8049425      50218.233      36.893836      36.893836      36.893836    
   7100000   0.51179024    -7.7907784     -7.023104       3.854654       50218.233      36.893836      36.893836      36.893836    
   7200000   0.50972704    -7.7959953     -7.0314156      3.803958       50218.233      36.893836      36.893836      36.893836    
   7300000   0.51249317    -7.7984956     -7.0297667      3.803114       50218.233      36.893836      36.893836      36.893836    
   7400000   0.50789959    -7.7978008     -7.0359622      3.7954115      50218.233      36.893836      36.893836      36.893836    
   7500000   0.50984947    -7.7941019     -7.0293386      3.8214821      50218.233      36.893836      36.893836      36.893836    
   7600000   0.50886805    -7.801973      -7.0386818      3.7697977      50218.233      36.893836      36.893836      36.893836    
   7700000   0.51368469    -7.7991911     -7.028675       3.7887465      50218.233      36.893836      36.893836      36.893836    
   7800000   0.51101214    -7.7912603     -7.024753       3.8479881      50218.233      36.893836      36.893836      36.893836    
   7900000   0.51365565    -7.7957192     -7.0252467      3.8192168      50218.233      36.893836      36.893836      36.893836    
   8000000   0.51156711    -7.7969377     -7.0295979      3.8066275      50218.233      36.893836      36.893836      36.893836    
   8100000   0.5112734     -7.7932709     -7.0263717      3.837808       50218.233      36.893836      36.893836      36.893836    
   8200000   0.50925289    -7.7930475     -7.029179       3.8292013      50218.233      36.893836      36.893836      36.893836    
   8300000   0.50920448    -7.7962024     -7.0324065      3.8050984      50218.233      36.893836      36.893836      36.893836    
   8400000   0.51052503    -7.7920667     -7.02629        3.83708        50218.233      36.893836      36.893836      36.893836    
   8500000   0.50957557    -7.7971207     -7.0327683      3.8121108      50218.233      36.893836      36.893836      36.893836    
   8600000   0.50981281    -7.796035      -7.0313267      3.8128525      50218.233      36.893836      36.893836      36.893836    
   8700000   0.50880959    -7.7929614     -7.0297579      3.8295749      50218.233      36.893836      36.893836      36.893836    
   8800000   0.50942848    -7.7960219     -7.0318901      3.7975876      50218.233      36.893836      36.893836      36.893836    
   8900000   0.51117516    -7.7916338     -7.0248819      3.8412159      50218.233      36.893836      36.893836      36.893836    
   9000000   0.50946976    -7.7950289     -7.0308351      3.8312676      50218.233      36.893836      36.893836      36.893836    
   9100000   0.50813436    -7.7967096     -7.0345189      3.8069275      50218.233      36.893836      36.893836      36.893836    
   9200000   0.50785073    -7.7973715     -7.0356062      3.7908015      50218.233      36.893836      36.893836      36.893836    
   9300000   0.50982912    -7.8020985     -7.0373657      3.7665445      50218.233      36.893836      36.893836      36.893836    
   9400000   0.51064915    -7.7972227     -7.0312599      3.8068055      50218.233      36.893836      36.893836      36.893836    
   9500000   0.50914519    -7.801434      -7.0377271      3.7704921      50218.233      36.893836      36.893836      36.893836    
   9600000   0.50963364    -7.7976335     -7.0331939      3.8037321      50218.233      36.893836      36.893836      36.893836    
   9700000   0.50875448    -7.7962838     -7.033163       3.7958199      50218.233      36.893836      36.893836      36.893836    
   9800000   0.51027993    -7.7988607     -7.0334517      3.7881886      50218.233      36.893836      36.893836      36.893836    
   9900000   0.51165192    -7.794216      -7.026749       3.8285803      50218.233      36.893836      36.893836      36.893836    
  10000000   0.50832586    -7.7905288     -7.0280509      3.8496875      50218.233      36.893836      36.893836      36.893836    
  10100000   0.5088883     -7.7937614     -7.0304399      3.8321757      50218.233      36.893836      36.893836      36.893836    
  10200000   0.50976709    -7.794221      -7.0295812      3.8252943      50218.233      36.893836      36.893836      36.893836    
  10300000   0.50978832    -7.7964763     -7.0318047      3.8035376      50218.233      36.893836      36.893836      36.893836    
  10400000   0.51126985    -7.7976166     -7.0307228      3.8009764      50218.233      36.893836      36.893836      36.893836    
  10500000   0.50822553    -7.7944246     -7.0320971      3.8192064      50218.233      36.893836      36.893836      36.893836    
  10600000   0.50895323    -7.7930139     -7.0295949      3.83169        50218.233      36.893836      36.893836      36.893836    
  10700000   0.50825359    -7.8025129     -7.0401434      3.7541755      50218.233      36.893836      36.893836      36.893836    
  10800000   0.51158265    -7.7986841     -7.0313211      3.7913116      50218.233      36.893836      36.893836      36.893836    
  10900000   0.51129687    -7.7972116     -7.0302772      3.8024385      50218.233      36.893836      36.893836      36.893836    
  11000000   0.50793703    -7.7922386     -7.0303439      3.8230259      50218.233      36.893836      36.893836      36.893836    
  11100000   0.50916392    -7.7968285     -7.0330935      3.8056191      50218.233      36.893836      36.893836      36.893836    
  11200000   0.5090892     -7.7940249     -7.030402       3.8113861      50218.233      36.893836      36.893836      36.893836    
  11300000   0.50759475    -7.7934773     -7.032096       3.8184454      50218.233      36.893836      36.893836      36.893836    
  11400000   0.50821475    -7.791928      -7.0296167      3.8256298      50218.233      36.893836      36.893836      36.893836    
  11500000   0.50955278    -7.7981081     -7.0337898      3.7943324      50218.233      36.893836      36.893836      36.893836    
  11600000   0.51280196    -7.7972467     -7.0280547      3.7993259      50218.233      36.893836      36.893836      36.893836    
  11700000   0.51176079    -7.7948607     -7.0272305      3.8251805      50218.233      36.893836      36.893836      36.893836    
  11800000   0.50967356    -7.7930273     -7.0285278      3.8382781      50218.233      36.893836      36.893836      36.893836    
  11900000   0.50844804    -7.7970263     -7.0343651      3.8054501      50218.233      36.893836      36.893836      36.893836    
  12000000   0.50832403    -7.8004169     -7.0379417      3.7847886      50218.233      36.893836      36.893836      36.893836    
  12100000   0.51195518    -7.7919493     -7.0240274      3.8323795      50218.233      36.893836      36.893836      36.893836    
  12200000   0.51174103    -7.7928262     -7.0252256      3.8358564      50218.233      36.893836      36.893836      36.893836    
  12300000   0.5119261     -7.791601      -7.0237228      3.8432345      50218.233      36.893836      36.893836      36.893836    
  12400000   0.51196492    -7.7976112     -7.0296747      3.7953985      50218.233      36.893836      36.893836      36.893836    
  12500000   0.50816853    -7.7953181     -7.0330762      3.8152763      50218.233      36.893836      36.893836      36.893836    
  12600000   0.51426409    -7.7931969     -7.0218117      3.8385608      50218.233      36.893836      36.893836      36.893836    
  12700000   0.5126296     -7.795097      -7.0261636      3.8057909      50218.233      36.893836      36.893836      36.893836    
  12800000   0.50924726    -7.7982451     -7.0343851      3.7975446      50218.233      36.893836      36.893836      36.893836    
  12900000   0.51039745    -7.7947647     -7.0291795      3.8223482      50218.233      36.893836      36.893836      36.893836    
  13000000   0.51049534    -7.7955284     -7.0297963      3.8093746      50218.233      36.893836      36.893836      36.893836    
  13100000   0.50970773    -7.7989334     -7.0343827      3.7880339      50218.233      36.893836      36.893836      36.893836    
  13200000   0.51161133    -7.7969528     -7.0295467      3.804619       50218.233      36.893836      36.893836      36.893836    
  13300000   0.50955353    -7.7980746     -7.0337552      3.788792       50218.233      36.893836      36.893836      36.893836    
  13400000   0.50939125    -7.793465      -7.0293889      3.832849       50218.233      36.893836      36.893836      36.893836    
  13500000   0.51161512    -7.7950148     -7.027603       3.8138605      50218.233      36.893836      36.893836      36.893836    
  13600000   0.51107973    -7.7944242     -7.0278155      3.8181478      50218.233      36.893836      36.893836      36.893836    
  13700000   0.50844264    -7.7958812     -7.0332281      3.8251819      50218.233      36.893836      36.893836      36.893836    
  13800000   0.50752722    -7.79423       -7.03295        3.8306358      50218.233      36.893836      36.893836      36.893836    
  13900000   0.51057068    -7.7973005     -7.0314554      3.8029666      50218.233      36.893836      36.893836      36.893836    
  14000000   0.51229371    -7.7911046     -7.022675       3.8723753      50218.233      36.893836      36.893836      36.893836    
  14100000   0.51165877    -7.7928915     -7.0254143      3.8386166      50218.233      36.893836      36.893836      36.893836    
  14200000   0.5094005     -7.7928205     -7.0287307      3.8418526      50218.233      36.893836      36.893836      36.893836    
  14300000   0.51087493    -7.7940834     -7.0277819      3.8310044      50218.233      36.893836      36.893836      36.893836    
  14400000   0.50915249    -7.7928143     -7.0290964      3.8421122      50218.233      36.893836      36.893836      36.893836    
  14500000   0.51066954    -7.7945651     -7.0285717      3.8236143      50218.233      36.893836      36.893836      36.893836    
  14600000   0.50927905    -7.7904647     -7.026557       3.8592842      50218.233      36.893836      36.893836      36.893836    
  14700000   0.50892512    -7.7890993     -7.0257225      3.8473435      50218.233      36.893836      36.893836      36.893836    
  14800000   0.50927712    -7.7957462     -7.0318414      3.8134044      50218.233      36.893836      36.893836      36.893836    
  14900000   0.50786764    -7.7968336     -7.0350429      3.8014825      50218.233      36.893836      36.893836      36.893836    
  15000000   0.50965969    -7.7941109     -7.0296322      3.8182319      50218.233      36.893836      36.893836      36.893836    
  15100000   0.5133811     -7.7930581     -7.0229974      3.837303       50218.233      36.893836      36.893836      36.893836    
  15200000   0.50907291    -7.792757      -7.0291585      3.8360076      50218.233      36.893836      36.893836      36.893836    
  15300000   0.50918542    -7.794438      -7.0306708      3.8204215      50218.233      36.893836      36.893836      36.893836    
  15400000   0.50655109    -7.786987      -7.0271711      3.8707615      50218.233      36.893836      36.893836      36.893836    
  15500000   0.51090642    -7.792604      -7.0262553      3.8396798      50218.233      36.893836      36.893836      36.893836    
  15600000   0.51115193    -7.7963534     -7.0296364      3.8068835      50218.233      36.893836      36.893836      36.893836    
  15700000   0.50983611    -7.7951246     -7.0303814      3.8210027      50218.233      36.893836      36.893836      36.893836    
  15800000   0.51005686    -7.7913656     -7.0262912      3.8427627      50218.233      36.893836      36.893836      36.893836    
  15900000   0.51185435    -7.8001884     -7.0324178      3.7739655      50218.233      36.893836      36.893836      36.893836    
  16000000   0.51060697    -7.7986957     -7.0327961      3.7902915      50218.233      36.893836      36.893836      36.893836    
  16100000   0.50788701    -7.79772       -7.0359003      3.785982       50218.233      36.893836      36.893836      36.893836    
  16200000   0.50754604    -7.7902538     -7.0289456      3.854465       50218.233      36.893836      36.893836      36.893836    
  16300000   0.50787537    -7.7976961     -7.0358939      3.7893277      50218.233      36.893836      36.893836      36.893836    
  16400000   0.51338318    -7.7949015     -7.0248377      3.8267302      50218.233      36.893836      36.893836      36.893836    
  16500000   0.50939459    -7.7970488     -7.0329677      3.7922875      50218.233      36.893836      36.893836      36.893836    
  16600000   0.51150359    -7.7956158     -7.0283713      3.8166983      50218.233      36.893836      36.893836      36.893836    
  16700000   0.50987994    -7.7907484     -7.0259393      3.8474394      50218.233      36.893836      36.893836      36.893836    
  16800000   0.51008178    -7.7918916     -7.0267798      3.8460203      50218.233      36.893836      36.893836      36.893836    
  16900000   0.51006616    -7.7950438     -7.0299555      3.8258062      50218.233      36.893836      36.893836      36.893836    
  17000000   0.51083852    -7.7951169     -7.0288701      3.8238084      50218.233      36.893836      36.893836      36.893836    
  17100000   0.5118984     -7.7948389     -7.0270023      3.8283995      50218.233      36.893836      36.893836      36.893836    
  17200000   0.51013673    -7.7941546     -7.0289604      3.8250774      50218.233      36.893836      36.893836      36.893836    
  17300000   0.50991459    -7.7990267     -7.0341656      3.7962168      50218.233      36.893836      36.893836      36.893836    
  17400000   0.50872619    -7.7945875     -7.0315091      3.8293093      50218.233      36.893836      36.893836      36.893836    
  17500000   0.51118503    -7.7982689     -7.0315023      3.798118       50218.233      36.893836      36.893836      36.893836    
  17600000   0.50924235    -7.7954212     -7.0315686      3.8216156      50218.233      36.893836      36.893836      36.893836    
  17700000   0.51214298    -7.7936503     -7.0254467      3.8330158      50218.233      36.893836      36.893836      36.893836    
  17800000   0.50882928    -7.7972021     -7.033969       3.8036079      50218.233      36.893836      36.893836      36.893836    
  17900000   0.51054304    -7.7907181     -7.0249144      3.8498071      50218.233      36.893836      36.893836      36.893836    
  18000000   0.5092044     -7.7966494     -7.0328537      3.8000567      50218.233      36.893836      36.893836      36.893836    
  18100000   0.51217679    -7.7970304     -7.0287761      3.8164605      50218.233      36.893836      36.893836      36.893836    
  18200000   0.51125619    -7.7954939     -7.0286205      3.8187737      50218.233      36.893836      36.893836      36.893836    
  18300000   0.50814302    -7.7962329     -7.0340292      3.8012376      50218.233      36.893836      36.893836      36.893836    
  18400000   0.51288965    -7.7952519     -7.0259283      3.8192056      50218.233      36.893836      36.893836      36.893836    
  18500000   0.50996998    -7.7951147     -7.0301707      3.8129009      50218.233      36.893836      36.893836      36.893836    
  18600000   0.5090121     -7.7907733     -7.027266       3.8409502      50218.233      36.893836      36.893836      36.893836    
  18700000   0.51240031    -7.7941753     -7.0255857      3.8273248      50218.233      36.893836      36.893836      36.893836    
  18800000   0.51001246    -7.7914363     -7.0264285      3.8492108      50218.233      36.893836      36.893836      36.893836    
  18900000   0.51084687    -7.7893559     -7.0230965      3.8669188      50218.233      36.893836      36.893836      36.893836    
  19000000   0.50816147    -7.7977227     -7.0354914      3.8026189      50218.233      36.893836      36.893836      36.893836    
  19100000   0.50989899    -7.7926305     -7.0277929      3.8352419      50218.233      36.893836      36.893836      36.893836    
  19200000   0.51034787    -7.7939902     -7.0284793      3.8327228      50218.233      36.893836      36.893836      36.893836    
  19300000   0.50665966    -7.7926499     -7.0326712      3.8320295      50218.233      36.893836      36.893836      36.893836    
  19400000   0.50931047    -7.7920887     -7.0281338      3.8533123      50218.233      36.893836      36.893836      36.893836    
  19500000   0.50974673    -7.7931088     -7.0284996      3.8304881      50218.233      36.893836      36.893836      36.893836    
  19600000   0.51030202    -7.7942394     -7.0287972      3.8212936      50218.233      36.893836      36.893836      36.893836    
  19700000   0.51141161    -7.7864166     -7.0193101      3.8723826      50218.233      36.893836      36.893836      36.893836    
  19800000   0.50948973    -7.7940771     -7.0298534      3.8264584      50218.233      36.893836      36.893836      36.893836    
  19900000   0.51126224    -7.7921664     -7.025284       3.8334034      50218.233      36.893836      36.893836      36.893836    
  20000000   0.50954876    -7.7955183     -7.0312061      3.8081403      50218.233      36.893836      36.893836      36.893836    
  20100000   0.50836034    -7.792887      -7.0303573      3.8258928      50218.233      36.893836      36.893836      36.893836    
  20200000   0.5093721     -7.7975601     -7.0335128      3.7909559      50218.233      36.893836      36.893836      36.893836    
  20300000   0.50768134    -7.7967298     -7.0352186      3.8008315      50218.233      36.893836      36.893836      36.893836    
  20400000   0.50765861    -7.7903382     -7.0288611      3.8370674      50218.233      36.893836      36.893836      36.893836    
  20500000   0.51183003    -7.79575       -7.0280159      3.8126625      50218.233      36.893836      36.893836      36.893836    
  20600000   0.51075737    -7.7926043     -7.0264792      3.8360431      50218.233      36.893836      36.893836      36.893836    
  20700000   0.51286725    -7.7914003     -7.0221103      3.8479166      50218.233      36.893836      36.893836      36.893836    
  20800000   0.51111383    -7.7918703     -7.0252105      3.842099       50218.233      36.893836      36.893836      36.893836    
  20900000   0.50999526    -7.7928711     -7.0278891      3.8370657      50218.233      36.893836      36.893836      36.893836    
  21000000   0.50696747    -7.7897505     -7.0293101      3.8498308      50218.233      36.893836      36.893836      36.893836    
  21100000   0.50908566    -7.7915798     -7.0279622      3.8456191      50218.233      36.893836      36.893836      36.893836    
  21200000   0.51048443    -7.791712      -7.0259963      3.8510496      50218.233      36.893836      36.893836      36.893836    
  21300000   0.51023116    -7.7938343     -7.0284985      3.8225085      50218.233      36.893836      36.893836      36.893836    
  21400000   0.50945081    -7.7878016     -7.0236363      3.8624978      50218.233      36.893836      36.893836      36.893836    
  21500000   0.50785172    -7.7975733     -7.0358065      3.8017445      50218.233      36.893836      36.893836      36.893836    
  21600000   0.51054384    -7.7999877     -7.0341828      3.7921694      50218.233      36.893836      36.893836      36.893836    
  21700000   0.5113587     -7.7956773     -7.0286502      3.8118862      50218.233      36.893836      36.893836      36.893836    
  21800000   0.51011347    -7.798021      -7.0328616      3.7911347      50218.233      36.893836      36.893836      36.893836    
  21900000   0.51170723    -7.7962403     -7.0286903      3.8048328      50218.233      36.893836      36.893836      36.893836    
  22000000   0.50826926    -7.7948075     -7.0324144      3.8050101      50218.233      36.893836      36.893836      36.893836    
  22100000   0.51174632    -7.7902646     -7.0226561      3.8553491      50218.233      36.893836      36.893836      36.893836    
  22200000   0.51180224    -7.7936609     -7.0259685      3.8433259      50218.233      36.893836      36.893836      36.893836    
  22300000   0.50904134    -7.7898698     -7.0263187      3.8576163      50218.233      36.893836      36.893836      36.893836    
  22400000   0.51095752    -7.7918284     -7.025403       3.8404145      50218.233      36.893836      36.893836      36.893836    
  22500000   0.51084415    -7.793625      -7.0273697      3.8210666      50218.233      36.893836      36.893836      36.893836    
  22600000   0.51386439    -7.7923484     -7.0215628      3.8414248      50218.233      36.893836      36.893836      36.893836    
  22700000   0.50978948    -7.7903482     -7.0256749      3.8483055      50218.233      36.893836      36.893836      36.893836    
  22800000   0.50716409    -7.7904585     -7.0297232      3.8363002      50218.233      36.893836      36.893836      36.893836    
  22900000   0.50870577    -7.7967125     -7.0336647      3.8077409      50218.233      36.893836      36.893836      36.893836    
  23000000   0.51261567    -7.786938      -7.0180254      3.889007       50218.233      36.893836      36.893836      36.893836    
  23100000   0.51159925    -7.7874649     -7.020077       3.8768743      50218.233      36.893836      36.893836      36.893836    
  23200000   0.50930567    -7.7952159     -7.0312683      3.825764       50218.233      36.893836      36.893836      36.893836    
  23300000   0.51054425    -7.7941658     -7.0283603      3.822678       50218.233      36.893836      36.893836      36.893836    
  23400000   0.51215452    -7.791124      -7.0229032      3.8544408      50218.233      36.893836      36.893836      36.893836    
  23500000   0.50890392    -7.7889884     -7.0256434      3.8742554      50218.233      36.893836      36.893836      36.893836    
  23600000   0.50975715    -7.7938806     -7.0292557      3.8190722      50218.233      36.893836      36.893836      36.893836    
  23700000   0.50748577    -7.7959832     -7.0347654      3.8129271      50218.233      36.893836      36.893836      36.893836    
  23800000   0.50892534    -7.7965498     -7.0331727      3.8021868      50218.233      36.893836      36.893836      36.893836    
  23900000   0.51177458    -7.794574      -7.026923       3.8243521      50218.233      36.893836      36.893836      36.893836    
  24000000   0.51291729    -7.7917185     -7.0223535      3.8479591      50218.233      36.893836      36.893836      36.893836    
  24100000   0.50644959    -7.7950163     -7.0353528      3.8124554      50218.233      36.893836      36.893836      36.893836    
  24200000   0.51153198    -7.7932764     -7.0259894      3.832822       50218.233      36.893836      36.893836      36.893836    
  24300000   0.51013127    -7.7945241     -7.0293381      3.8209836      50218.233      36.893836      36.893836      36.893836    
  24400000   0.5089653     -7.7927395     -7.0293024      3.8286039      50218.233      36.893836      36.893836      36.893836    
  24500000   0.50816708    -7.7920595     -7.0298197      3.8434845      50218.233      36.893836      36.893836      36.893836    
  24600000   0.50720337    -7.7927056     -7.0319114      3.8317076      50218.233      36.893836      36.893836      36.893836    
  24700000   0.50756224    -7.7915646     -7.0302321      3.8496164      50218.233      36.893836      36.893836      36.893836    
  24800000   0.51083279    -7.7935039     -7.0272656      3.830427       50218.233      36.893836      36.893836      36.893836    
  24900000   0.50873701    -7.7911454     -7.0280507      3.847468       50218.233      36.893836      36.893836      36.893836    
  25000000   0.50845639    -7.794706      -7.0320322      3.8055634      50218.233      36.893836      36.893836      36.893836    
  25100000   0.51168244    -7.7960596     -7.0285469      3.801203       50218.233      36.893836      36.893836      36.893836    
  25200000   0.50736167    -7.794508      -7.0334763      3.8196716      50218.233      36.893836      36.893836      36.893836    
  25300000   0.50836544    -7.7920731     -7.0295358      3.8430953      50218.233      36.893836      36.893836      36.893836    
  25400000   0.51191112    -7.7951388     -7.027283       3.8301335      50218.233      36.893836      36.893836      36.893836    
  25500000   0.51151226    -7.7901019     -7.0228444      3.8706343      50218.233      36.893836      36.893836      36.893836    
  25600000   0.50793453    -7.7938407     -7.0319498      3.8271628      50218.233      36.893836      36.893836      36.893836    
  25700000   0.51125961    -7.7941207     -7.0272421      3.827751       50218.233      36.893836      36.893836      36.893836    
  25800000   0.5118607     -7.7896486     -7.0218685      3.8507634      50218.233      36.893836      36.893836      36.893836    
  25900000   0.50905076    -7.7930269     -7.0294616      3.8190207      50218.233      36.893836      36.893836      36.893836    
  26000000   0.50984331    -7.7928742     -7.0281201      3.8246331      50218.233      36.893836      36.893836      36.893836    
  26100000   0.50811591    -7.7892664     -7.0271033      3.8533504      50218.233      36.893836      36.893836      36.893836    
  26200000   0.50930458    -7.8021428     -7.0381968      3.7589291      50218.233      36.893836      36.893836      36.893836    
  26300000   0.50846321    -7.7953289     -7.0326449      3.811317       50218.233      36.893836      36.893836      36.893836    
  26400000   0.51047242    -7.7927832     -7.0270854      3.8268279      50218.233      36.893836      36.893836      36.893836    
  26500000   0.50905512    -7.793327      -7.0297552      3.8344122      50218.233      36.893836      36.893836      36.893836    
  26600000   0.5099778     -7.7986122     -7.0336564      3.7904421      50218.233      36.893836      36.893836      36.893836    
  26700000   0.50581222    -7.7998445     -7.0411369      3.7675641      50218.233      36.893836      36.893836      36.893836    
  26800000   0.50739651    -7.7962629     -7.0351789      3.7892213      50218.233      36.893836      36.893836      36.893836    
  26900000   0.5101779     -7.7967684     -7.0315124      3.8087708      50218.233      36.893836      36.893836      36.893836    
  27000000   0.51121126    -7.7980824     -7.0312764      3.8018817      50218.233      36.893836      36.893836      36.893836    
  27100000   0.5109197     -7.8001649     -7.0337963      3.7762311      50218.233      36.893836      36.893836      36.893836    
  27200000   0.50816506    -7.79573       -7.0334932      3.8022191      50218.233      36.893836      36.893836      36.893836    
  27300000   0.50750425    -7.793592      -7.0323465      3.8218427      50218.233      36.893836      36.893836      36.893836    
  27400000   0.51153343    -7.7935        -7.0262108      3.8370376      50218.233      36.893836      36.893836      36.893836    
  27500000   0.51166817    -7.7958112     -7.0283198      3.8121013      50218.233      36.893836      36.893836      36.893836    
  27600000   0.50770075    -7.7952721     -7.0337319      3.8207916      50218.233      36.893836      36.893836      36.893836    
  27700000   0.50985878    -7.793693      -7.0289157      3.8307077      50218.233      36.893836      36.893836      36.893836    
  27800000   0.51197054    -7.7989545     -7.0310096      3.7945198      50218.233      36.893836      36.893836      36.893836    
  27900000   0.51009675    -7.7955561     -7.0304218      3.8154909      50218.233      36.893836      36.893836      36.893836    
  28000000   0.51203907    -7.7948903     -7.0268426      3.8202648      50218.233      36.893836      36.893836      36.893836    
  28100000   0.51079102    -7.797792      -7.0316163      3.7951649      50218.233      36.893836      36.893836      36.893836    
  28200000   0.50816726    -7.7943576     -7.0321175      3.8130958      50218.233      36.893836      36.893836      36.893836    
  28300000   0.51035813    -7.7943392     -7.0288129      3.8230274      50218.233      36.893836      36.893836      36.893836    
  28400000   0.50873315    -7.7992142     -7.0361253      3.7902097      50218.233      36.893836      36.893836      36.893836    
  28500000   0.5115335     -7.7909966     -7.0237073      3.8544535      50218.233      36.893836      36.893836      36.893836    
  28600000   0.51113547    -7.7949665     -7.0282742      3.8170893      50218.233      36.893836      36.893836      36.893836    
  28700000   0.50967674    -7.7942313     -7.029727       3.8282351      50218.233      36.893836      36.893836      36.893836    
  28800000   0.51195819    -7.7966612     -7.0287349      3.8154369      50218.233      36.893836      36.893836      36.893836    
  28900000   0.51091582    -7.7992289     -7.0328661      3.7766258      50218.233      36.893836      36.893836      36.893836    
  29000000   0.50832833    -7.7978507     -7.035369       3.7879659      50218.233      36.893836      36.893836      36.893836    
  29100000   0.51000753    -7.7971644     -7.0321639      3.8022139      50218.233      36.893836      36.893836      36.893836    
  29200000   0.50924161    -7.7921808     -7.0283293      3.8449415      50218.233      36.893836      36.893836      36.893836    
  29300000   0.5088624     -7.7991791     -7.0358963      3.7883984      50218.233      36.893836      36.893836      36.893836    
  29400000   0.5117018     -7.795486      -7.0279442      3.8228474      50218.233      36.893836      36.893836      36.893836    
  29500000   0.51171984    -7.7957584     -7.0281895      3.8204291      50218.233      36.893836      36.893836      36.893836    
  29600000   0.51001369    -7.7936908     -7.0286811      3.8270261      50218.233      36.893836      36.893836      36.893836    
  29700000   0.50973132    -7.7954086     -7.0308225      3.8167054      50218.233      36.893836      36.893836      36.893836    
  29800000   0.50982849    -7.7965079     -7.0317761      3.8133114      50218.233      36.893836      36.893836      36.893836    
  29900000   0.50794099    -7.7973261     -7.0354255      3.8062578      50218.233      36.893836      36.893836      36.893836    
  30000000   0.50832903    -7.7913573     -7.0288746      3.8448255      50218.233      36.893836      36.893836      36.893836    
  30100000   0.50796277    -7.7918432     -7.0299099      3.8419553      50218.233      36.893836      36.893836      36.893836    
  30200000   0.51063083    -7.7983543     -7.032419       3.8097955      50218.233      36.893836      36.893836      36.893836    
  30300000   0.50672224    -7.7963748     -7.0363022      3.8075156      50218.233      36.893836      36.893836      36.893836    
  30400000   0.51152417    -7.797372      -7.0300967      3.7980955      50218.233      36.893836      36.893836      36.893836    
  30500000   0.51028191    -7.7979371     -7.0325251      3.7959637      50218.233      36.893836      36.893836      36.893836    
  30600000   0.50958953    -7.7968045     -7.0324311      3.8065237      50218.233      36.893836      36.893836      36.893836    
  30700000   0.5099274     -7.7988367     -7.0339565      3.7846329      50218.233      36.893836      36.893836      36.893836    
  30800000   0.50988159    -7.7929542     -7.0281427      3.8307111      50218.233      36.893836      36.893836      36.893836    
  30900000   0.50765754    -7.7946394     -7.0331639      3.8230845      50218.233      36.893836      36.893836      36.893836    
  31000000   0.51487495    -7.7942027     -7.0219013      3.8306949      50218.233      36.893836      36.893836      36.893836    
  31100000   0.5082882     -7.7942815     -7.03186        3.8177457      50218.233      36.893836      36.893836      36.893836    
  31200000   0.51109837    -7.7946539     -7.0280172      3.8077416      50218.233      36.893836      36.893836      36.893836    
  31300000   0.51167249    -7.7975867     -7.0300889      3.8086001      50218.233      36.893836      36.893836      36.893836    
  31400000   0.51278953    -7.7948401     -7.0256668      3.8343903      50218.233      36.893836      36.893836      36.893836    
  31500000   0.51103646    -7.7945025     -7.0279587      3.8233055      50218.233      36.893836      36.893836      36.893836    
  31600000   0.50954771    -7.7949045     -7.0305938      3.8104187      50218.233      36.893836      36.893836      36.893836    
  31700000   0.50958122    -7.7928662     -7.0285052      3.8231588      50218.233      36.893836      36.893836      36.893836    
  31800000   0.51210875    -7.7929875     -7.0248353      3.8263087      50218.233      36.893836      36.893836      36.893836    
  31900000   0.50912418    -7.7982074     -7.034532       3.7919641      50218.233      36.893836      36.893836      36.893836    
  32000000   0.51006643    -7.7944405     -7.0293517      3.8178253      50218.233      36.893836      36.893836      36.893836    
  32100000   0.50929749    -7.7919927     -7.0280573      3.8306388      50218.233      36.893836      36.893836      36.893836    
  32200000   0.50906558    -7.7922304     -7.0286429      3.8293913      50218.233      36.893836      36.893836      36.893836    
  32300000   0.51120353    -7.7919259     -7.0251315      3.8378096      50218.233      36.893836      36.893836      36.893836    
  32400000   0.50937443    -7.7938228     -7.029772       3.831367       50218.233      36.893836      36.893836      36.893836    
  32500000   0.50772135    -7.7918661     -7.0302949      3.8364219      50218.233      36.893836      36.893836      36.893836    
  32600000   0.51092376    -7.7926899     -7.0263152      3.8285802      50218.233      36.893836      36.893836      36.893836    
  32700000   0.50739606    -7.7998866     -7.0388034      3.7804206      50218.233      36.893836      36.893836      36.893836    
  32800000   0.51150146    -7.7928204     -7.0255792      3.8390078      50218.233      36.893836      36.893836      36.893836    
  32900000   0.51103655    -7.7900461     -7.0235022      3.8514631      50218.233      36.893836      36.893836      36.893836    
  33000000   0.50969866    -7.7978175     -7.0332804      3.7875388      50218.233      36.893836      36.893836      36.893836    
  33100000   0.50750937    -7.7953958     -7.0341425      3.8114185      50218.233      36.893836      36.893836      36.893836    
  33200000   0.50869708    -7.7892087     -7.0261739      3.856463       50218.233      36.893836      36.893836      36.893836    
  33300000   0.51136322    -7.7963076     -7.0292737      3.8047062      50218.233      36.893836      36.893836      36.893836    
  33400000   0.51096945    -7.7948513     -7.028408       3.827505       50218.233      36.893836      36.893836      36.893836    
  33500000   0.50914323    -7.7937134     -7.0300094      3.8345069      50218.233      36.893836      36.893836      36.893836    
  33600000   0.50795937    -7.7980323     -7.0361041      3.7995827      50218.233      36.893836      36.893836      36.893836    
  33700000   0.5082624     -7.7941531     -7.0317703      3.8166525      50218.233      36.893836      36.893836      36.893836    
  33800000   0.51106012    -7.7975995     -7.0310202      3.7975559      50218.233      36.893836      36.893836      36.893836    
  33900000   0.50938454    -7.7950212     -7.0309553      3.8181105      50218.233      36.893836      36.893836      36.893836    
  34000000   0.509741      -7.7941373     -7.0295367      3.8299748      50218.233      36.893836      36.893836      36.893836    
  34100000   0.50763523    -7.7958302     -7.0343881      3.8021248      50218.233      36.893836      36.893836      36.893836    
  34200000   0.50647847    -7.7983167     -7.0386098      3.7850557      50218.233      36.893836      36.893836      36.893836    
  34300000   0.50668436    -7.7974859     -7.0374702      3.7864556      50218.233      36.893836      36.893836      36.893836    
  34400000   0.50849528    -7.7970868     -7.0343547      3.7993424      50218.233      36.893836      36.893836      36.893836    
  34500000   0.51155864    -7.7960274     -7.0287004      3.8181636      50218.233      36.893836      36.893836      36.893836    
  34600000   0.51188009    -7.797726      -7.0299168      3.8009382      50218.233      36.893836      36.893836      36.893836    
  34700000   0.50861536    -7.7988595     -7.0359474      3.7785014      50218.233      36.893836      36.893836      36.893836    
  34800000   0.50726941    -7.7953017     -7.0344084      3.8218171      50218.233      36.893836      36.893836      36.893836    
  34900000   0.51084374    -7.796419      -7.0301643      3.8116472      50218.233      36.893836      36.893836      36.893836    
  35000000   0.50970963    -7.7966082     -7.0320546      3.8085363      50218.233      36.893836      36.893836      36.893836    
  35100000   0.5081275     -7.7966179     -7.0344374      3.8102733      50218.233      36.893836      36.893836      36.893836    
  35200000   0.50975329    -7.7948122     -7.0301932      3.8315157      50218.233      36.893836      36.893836      36.893836    
  35300000   0.51031686    -7.7960914     -7.030627       3.8100766      50218.233      36.893836      36.893836      36.893836    
  35400000   0.50986945    -7.7962754     -7.0314821      3.8169608      50218.233      36.893836      36.893836      36.893836    
  35500000   0.51106404    -7.794877      -7.0282919      3.8286596      50218.233      36.893836      36.893836      36.893836    
  35600000   0.51088431    -7.797326      -7.0310104      3.81378        50218.233      36.893836      36.893836      36.893836    
  35700000   0.50739093    -7.7946731     -7.0335975      3.8276977      50218.233      36.893836      36.893836      36.893836    
  35800000   0.51089089    -7.797948      -7.0316225      3.7926968      50218.233      36.893836      36.893836      36.893836    
  35900000   0.50944254    -7.7945467     -7.0303937      3.8303242      50218.233      36.893836      36.893836      36.893836    
  36000000   0.51045881    -7.794968      -7.0292907      3.8190869      50218.233      36.893836      36.893836      36.893836    
  36100000   0.51210087    -7.7972573     -7.029117       3.8145037      50218.233      36.893836      36.893836      36.893836    
  36200000   0.50947147    -7.7936374     -7.029441       3.8453951      50218.233      36.893836      36.893836      36.893836    
  36300000   0.50965621    -7.7933062     -7.0288328      3.8435072      50218.233      36.893836      36.893836      36.893836    
  36400000   0.50897193    -7.7963251     -7.032878       3.8147383      50218.233      36.893836      36.893836      36.893836    
  36500000   0.51047216    -7.7925102     -7.0268129      3.8443268      50218.233      36.893836      36.893836      36.893836    
  36600000   0.51189267    -7.8017992     -7.0339711      3.7728062      50218.233      36.893836      36.893836      36.893836    
  36700000   0.50883505    -7.7944519     -7.0312102      3.8240157      50218.233      36.893836      36.893836      36.893836    
  36800000   0.50896911    -7.8007787     -7.0373359      3.7699699      50218.233      36.893836      36.893836      36.893836    
  36900000   0.51093942    -7.7947711     -7.0283729      3.8182281      50218.233      36.893836      36.893836      36.893836    
  37000000   0.50967361    -7.7969068     -7.0324073      3.8019255      50218.233      36.893836      36.893836      36.893836    
  37100000   0.51101265    -7.7990585     -7.0325504      3.7948917      50218.233      36.893836      36.893836      36.893836    
  37200000   0.51176406    -7.7915265     -7.0238913      3.8524968      50218.233      36.893836      36.893836      36.893836    
  37300000   0.50826908    -7.7959152     -7.0335224      3.8106759      50218.233      36.893836      36.893836      36.893836    
  37400000   0.51004171    -7.7952729     -7.0302212      3.8177704      50218.233      36.893836      36.893836      36.893836    
  37500000   0.51098463    -7.7977405     -7.0312745      3.7995842      50218.233      36.893836      36.893836      36.893836    
  37600000   0.51075479    -7.7915603     -7.025439       3.8488958      50218.233      36.893836      36.893836      36.893836    
  37700000   0.50949689    -7.7930898     -7.0288553      3.8281741      50218.233      36.893836      36.893836      36.893836    
  37800000   0.50854431    -7.7949958     -7.0321902      3.8037665      50218.233      36.893836      36.893836      36.893836    
  37900000   0.51067245    -7.7944308     -7.028433       3.826158       50218.233      36.893836      36.893836      36.893836    
  38000000   0.50977718    -7.7982782     -7.0336233      3.7926589      50218.233      36.893836      36.893836      36.893836    
  38100000   0.51004093    -7.7896513     -7.0246008      3.8606401      50218.233      36.893836      36.893836      36.893836    
  38200000   0.51069287    -7.7950053     -7.0289769      3.8189337      50218.233      36.893836      36.893836      36.893836    
  38300000   0.51080903    -7.7929517     -7.026749       3.8303901      50218.233      36.893836      36.893836      36.893836    
  38400000   0.51012483    -7.7935626     -7.0283862      3.8206947      50218.233      36.893836      36.893836      36.893836    
  38500000   0.51025965    -7.7977079     -7.0323294      3.7893954      50218.233      36.893836      36.893836      36.893836    
  38600000   0.50946107    -7.7974886     -7.0333079      3.8005329      50218.233      36.893836      36.893836      36.893836    
  38700000   0.50968859    -7.7953324     -7.0308104      3.819082       50218.233      36.893836      36.893836      36.893836    
  38800000   0.50979814    -7.7956521     -7.0309657      3.821205       50218.233      36.893836      36.893836      36.893836    
  38900000   0.50833574    -7.7941619     -7.0316692      3.8397709      50218.233      36.893836      36.893836      36.893836    
  39000000   0.50935983    -7.7959403     -7.0319114      3.8069998      50218.233      36.893836      36.893836      36.893836    
  39100000   0.51106848    -7.7932188     -7.026627       3.8483666      50218.233      36.893836      36.893836      36.893836    
  39200000   0.51022415    -7.7984507     -7.0331253      3.7901466      50218.233      36.893836      36.893836      36.893836    
  39300000   0.50882001    -7.7941343     -7.0309151      3.8201119      50218.233      36.893836      36.893836      36.893836    
  39400000   0.51110545    -7.7929922     -7.026345       3.8244372      50218.233      36.893836      36.893836      36.893836    
  39500000   0.50593354    -7.7998573     -7.0409678      3.7735427      50218.233      36.893836      36.893836      36.893836    
  39600000   0.50787462    -7.7933396     -7.0315385      3.8301552      50218.233      36.893836      36.893836      36.893836    
  39700000   0.50887727    -7.798299      -7.034994       3.8011471      50218.233      36.893836      36.893836      36.893836    
  39800000   0.5107295     -7.7979391     -7.0318557      3.8037574      50218.233      36.893836      36.893836      36.893836    
  39900000   0.5116144     -7.7959887     -7.028578       3.8191274      50218.233      36.893836      36.893836      36.893836    
  40000000   0.51364066    -7.793382      -7.0229319      3.8406267      50218.233      36.893836      36.893836      36.893836    
  40100000   0.50926613    -7.794336      -7.0304476      3.8153865      50218.233      36.893836      36.893836      36.893836    
  40200000   0.51102078    -7.7948862     -7.0283659      3.817306       50218.233      36.893836      36.893836      36.893836    
  40300000   0.50930421    -7.7933191     -7.0293737      3.8365554      50218.233      36.893836      36.893836      36.893836    
  40400000   0.50921621    -7.7927386     -7.0289251      3.8337718      50218.233      36.893836      36.893836      36.893836    
  40500000   0.50868637    -7.7945145     -7.0314958      3.8200933      50218.233      36.893836      36.893836      36.893836    
  40600000   0.50939325    -7.796221      -7.0321419      3.8065687      50218.233      36.893836      36.893836      36.893836    
  40700000   0.51073222    -7.7949827     -7.0288953      3.8175837      50218.233      36.893836      36.893836      36.893836    
  40800000   0.50946556    -7.7944101     -7.0302227      3.81637        50218.233      36.893836      36.893836      36.893836    
  40900000   0.50986889    -7.7908645     -7.026072       3.8501324      50218.233      36.893836      36.893836      36.893836    
  41000000   0.50863844    -7.7986053     -7.0356585      3.7916405      50218.233      36.893836      36.893836      36.893836    
  41100000   0.50943136    -7.7958575     -7.0317214      3.8063361      50218.233      36.893836      36.893836      36.893836    
  41200000   0.51009554    -7.7947594     -7.029627       3.8244506      50218.233      36.893836      36.893836      36.893836    
  41300000   0.51355188    -7.7911369     -7.02082        3.8440423      50218.233      36.893836      36.893836      36.893836    
  41400000   0.50932934    -7.7974296     -7.0334465      3.7945861      50218.233      36.893836      36.893836      36.893836    
  41500000   0.51084121    -7.7970624     -7.0308115      3.7919772      50218.233      36.893836      36.893836      36.893836    
  41600000   0.51240671    -7.7962099     -7.0276108      3.8080529      50218.233      36.893836      36.893836      36.893836    
  41700000   0.50969843    -7.794828      -7.0302912      3.8165472      50218.233      36.893836      36.893836      36.893836    
  41800000   0.50991088    -7.7923522     -7.0274968      3.8421696      50218.233      36.893836      36.893836      36.893836    
  41900000   0.50701984    -7.7948776     -7.0343587      3.8045729      50218.233      36.893836      36.893836      36.893836    
  42000000   0.51023249    -7.792074      -7.0267362      3.8440157      50218.233      36.893836      36.893836      36.893836    
  42100000   0.50936773    -7.7975318     -7.0334911      3.8005291      50218.233      36.893836      36.893836      36.893836    
  42200000   0.51005228    -7.7974437     -7.0323762      3.796791       50218.233      36.893836      36.893836      36.893836    
  42300000   0.50975223    -7.7947641     -7.0301466      3.8093405      50218.233      36.893836      36.893836      36.893836    
  42400000   0.51002445    -7.8004559     -7.0354301      3.7791791      50218.233      36.893836      36.893836      36.893836    
  42500000   0.50899258    -7.7915274     -7.0280494      3.8410075      50218.233      36.893836      36.893836      36.893836    
  42600000   0.51131394    -7.7948796     -7.0279196      3.8278486      50218.233      36.893836      36.893836      36.893836    
  42700000   0.50939822    -7.797134      -7.0330475      3.8048942      50218.233      36.893836      36.893836      36.893836    
  42800000   0.51121666    -7.7970404     -7.0302263      3.808528       50218.233      36.893836      36.893836      36.893836    
  42900000   0.50884722    -7.7960329     -7.032773       3.8001063      50218.233      36.893836      36.893836      36.893836    
  43000000   0.51150477    -7.7942444     -7.0269982      3.8272381      50218.233      36.893836      36.893836      36.893836    
  43100000   0.50776009    -7.7958654     -7.0342361      3.8089778      50218.233      36.893836      36.893836      36.893836    
  43200000   0.50898744    -7.7925172     -7.0290469      3.8285846      50218.233      36.893836      36.893836      36.893836    
  43300000   0.50866121    -7.7950879     -7.0321069      3.8080822      50218.233      36.893836      36.893836      36.893836    
  43400000   0.51162502    -7.7971715     -7.0297449      3.8195942      50218.233      36.893836      36.893836      36.893836    
  43500000   0.51095525    -7.7948214     -7.0283994      3.8359726      50218.233      36.893836      36.893836      36.893836    
  43600000   0.51038274    -7.7941084     -7.0285452      3.8218877      50218.233      36.893836      36.893836      36.893836    
  43700000   0.50872799    -7.7910984     -7.0280173      3.8576262      50218.233      36.893836      36.893836      36.893836    
  43800000   0.50811621    -7.7959864     -7.0338229      3.8099259      50218.233      36.893836      36.893836      36.893836    
  43900000   0.51160917    -7.7937753     -7.0263724      3.8231293      50218.233      36.893836      36.893836      36.893836    
  44000000   0.51021765    -7.7984943     -7.0331787      3.7814369      50218.233      36.893836      36.893836      36.893836    
  44100000   0.50544564    -7.7939615     -7.0358039      3.8203551      50218.233      36.893836      36.893836      36.893836    
  44200000   0.506891      -7.7986114     -7.0382857      3.784134       50218.233      36.893836      36.893836      36.893836    
  44300000   0.51078653    -7.7921122     -7.0259433      3.8451494      50218.233      36.893836      36.893836      36.893836    
  44400000   0.51068054    -7.7916053     -7.0255954      3.8550799      50218.233      36.893836      36.893836      36.893836    
  44500000   0.50971867    -7.7922206     -7.0276535      3.8280043      50218.233      36.893836      36.893836      36.893836    
  44600000   0.5119304     -7.7900252     -7.0221406      3.8654486      50218.233      36.893836      36.893836      36.893836    
  44700000   0.50568964    -7.7927147     -7.034191       3.8271639      50218.233      36.893836      36.893836      36.893836    
  44800000   0.50884196    -7.7890447     -7.0257926      3.8660333      50218.233      36.893836      36.893836      36.893836    
  44900000   0.51161142    -7.7949785     -7.0275723      3.8146189      50218.233      36.893836      36.893836      36.893836    
  45000000   0.51153896    -7.7912942     -7.0239967      3.8562639      50218.233      36.893836      36.893836      36.893836    
  45100000   0.51223259    -7.7958471     -7.0275092      3.8159359      50218.233      36.893836      36.893836      36.893836    
  45200000   0.50992766    -7.7916781     -7.0267975      3.8435055      50218.233      36.893836      36.893836      36.893836    
  45300000   0.50915643    -7.7901541     -7.0264303      3.8564216      50218.233      36.893836      36.893836      36.893836    
  45400000   0.51226487    -7.7940051     -7.0256188      3.8235949      50218.233      36.893836      36.893836      36.893836    
  45500000   0.50780429    -7.8018663     -7.0401707      3.7556932      50218.233      36.893836      36.893836      36.893836    
  45600000   0.50893771    -7.7974703     -7.0340746      3.7974093      50218.233      36.893836      36.893836      36.893836    
  45700000   0.51091983    -7.7941444     -7.0277755      3.8190038      50218.233      36.893836      36.893836      36.893836    
  45800000   0.51094981    -7.7929273     -7.0265135      3.8376295      50218.233      36.893836      36.893836      36.893836    
  45900000   0.5105211     -7.797224      -7.0314532      3.79163        50218.233      36.893836      36.893836      36.893836    
  46000000   0.50920265    -7.7976996     -7.0339065      3.7921563      50218.233      36.893836      36.893836      36.893836    
  46100000   0.50988383    -7.7938585     -7.0290436      3.8303558      50218.233      36.893836      36.893836      36.893836    
  46200000   0.5098169     -7.7975213     -7.0328069      3.8046044      50218.233      36.893836      36.893836      36.893836    
  46300000   0.50892955    -7.7926145     -7.029231       3.8363729      50218.233      36.893836      36.893836      36.893836    
  46400000   0.51095353    -7.7969451     -7.0305258      3.8018717      50218.233      36.893836      36.893836      36.893836    
  46500000   0.50962229    -7.7942034     -7.0297809      3.8227647      50218.233      36.893836      36.893836      36.893836    
  46600000   0.50998752    -7.8005218     -7.0355514      3.7739053      50218.233      36.893836      36.893836      36.893836    
  46700000   0.50614765    -7.7968216     -7.0376109      3.7983806      50218.233      36.893836      36.893836      36.893836    
  46800000   0.51352706    -7.7968598     -7.0265802      3.8093712      50218.233      36.893836      36.893836      36.893836    
  46900000   0.51147873    -7.7967728     -7.0295656      3.8105597      50218.233      36.893836      36.893836      36.893836    
  47000000   0.50702228    -7.7947533     -7.0342307      3.8197734      50218.233      36.893836      36.893836      36.893836    
  47100000   0.50980004    -7.7936423     -7.0289531      3.8271582      50218.233      36.893836      36.893836      36.893836    
  47200000   0.51158404    -7.7943377     -7.0269726      3.8292341      50218.233      36.893836      36.893836      36.893836    
  47300000   0.50873505    -7.7920034     -7.0289117      3.8383711      50218.233      36.893836      36.893836      36.893836    
  47400000   0.51020539    -7.8001546     -7.0348574      3.7712062      50218.233      36.893836      36.893836      36.893836    
  47500000   0.51025688    -7.7922935     -7.026919       3.8385164      50218.233      36.893836      36.893836      36.893836    
  47600000   0.50660886    -7.7958834     -7.0359809      3.8023498      50218.233      36.893836      36.893836      36.893836    
  47700000   0.50909453    -7.7974242     -7.0337933      3.7809231      50218.233      36.893836      36.893836      36.893836    
  47800000   0.5093834     -7.7947949     -7.0307306      3.82149        50218.233      36.893836      36.893836      36.893836    
  47900000   0.51089497    -7.8001573     -7.0338257      3.782082       50218.233      36.893836      36.893836      36.893836    
  48000000   0.51156861    -7.7994571     -7.0321151      3.7981597      50218.233      36.893836      36.893836      36.893836    
  48100000   0.51109065    -7.797696      -7.031071       3.7979621      50218.233      36.893836      36.893836      36.893836    
  48200000   0.51164001    -7.7963253     -7.0288762      3.8159706      50218.233      36.893836      36.893836      36.893836    
  48300000   0.50877053    -7.7949635     -7.0318185      3.8170553      50218.233      36.893836      36.893836      36.893836    
  48400000   0.50978527    -7.7947429     -7.0300759      3.8198813      50218.233      36.893836      36.893836      36.893836    
  48500000   0.51029002    -7.7976269     -7.0322028      3.810782       50218.233      36.893836      36.893836      36.893836    
  48600000   0.51133607    -7.7957121     -7.0287189      3.8206763      50218.233      36.893836      36.893836      36.893836    
  48700000   0.51213823    -7.7922578     -7.0240614      3.8458024      50218.233      36.893836      36.893836      36.893836    
  48800000   0.50838168    -7.792951      -7.0303894      3.8288119      50218.233      36.893836      36.893836      36.893836    
  48900000   0.50786405    -7.7923681     -7.0305828      3.8295707      50218.233      36.893836      36.893836      36.893836    
  49000000   0.51023492    -7.7870059     -7.0216644      3.8801848      50218.233      36.893836      36.893836      36.893836    
  49100000   0.51012882    -7.7970949     -7.0319126      3.8050784      50218.233      36.893836      36.893836      36.893836    
  49200000   0.50806254    -7.791383      -7.0293         3.8501158      50218.233      36.893836      36.893836      36.893836    
  49300000   0.51330994    -7.7940313     -7.0240773      3.8461171      50218.233      36.893836      36.893836      36.893836    
  49400000   0.50991982    -7.7922817     -7.0274129      3.8316902      50218.233      36.893836      36.893836      36.893836    
  49500000   0.50752997    -7.7897238     -7.0284396      3.8536769      50218.233      36.893836      36.893836      36.893836    
  49600000   0.5095702     -7.7949451     -7.0306006      3.8301697      50218.233      36.893836      36.893836      36.893836    
  49700000   0.50850311    -7.7931319     -7.0303881      3.837419       50218.233      36.893836      36.893836      36.893836    
  49800000   0.50918504    -7.7924261     -7.0286594      3.843137       50218.233      36.893836      36.893836      36.893836    
  49900000   0.50978073    -7.7899741     -7.0253139      3.8412349      50218.233      36.893836      36.893836      36.893836    
  50000000   0.51145611    -7.7915137     -7.0243404      3.827406       50218.233      36.893836      36.893836      36.893836    
Loop time of 78917.6 on 5 procs for 50000000 steps with 70304 atoms

Performance: 547406.175 tau/day, 633.572 timesteps/s, 44.543 Matom-step/s
94.8% CPU use with 5 MPI tasks x 1 OpenMP threads

MPI task timing breakdown:
Section |  min time  |  avg time  |  max time  |%varavg| %total
---------------------------------------------------------------
Pair    | 30198      | 31195      | 32495      | 433.4 | 39.53
Neigh   | 247.25     | 270        | 285.01     |  85.0 |  0.34
Comm    | 11807      | 11883      | 11955      |  51.8 | 15.06
Output  | 0.090775   | 0.094674   | 0.10115    |   1.2 |  0.00
Modify  | 30243      | 31671      | 32618      | 454.7 | 40.13
Other   |            | 3899       |            |       |  4.94

Nlocal:        14060.8 ave       14072 max       14038 min
Histogram: 1 0 0 0 0 0 1 1 1 1
Nghost:          18775 ave       18830 max       18706 min
Histogram: 1 0 0 0 0 2 1 0 0 1
Neighs:              0 ave           0 max           0 min
Histogram: 5 0 0 0 0 0 0 0 0 0

Total # of neighbors = 0
Ave neighs/atom = 0
Neighbor list builds = 10302811
Dangerous builds = 0
clear
OMP_NUM_THREADS environment is not set. Defaulting to 1 thread. (src/comm.cpp:98)
  using 1 OpenMP thread(s) per MPI task
package gpu 0
jump dms490.lmp

variable T equal 490
# T = 1000* (temp in LJ unit)
variable f equal 100000
log log.${T}
log log.490
