variable TLJ equal (${T}/1000)
variable TLJ equal (490/1000)
variable NCyle equal 5
variable iStep equal (${f})
variable iStep equal (100000)
variable dumpStep equal (${f}*100)
variable dumpStep equal (100000*100)
variable runStep equal (${f}*100*${NCyle})
variable runStep equal (100000*100*${NCyle})
variable runStep equal (100000*100*5)

units       lj
atom_style  atomic
dimension 3
boundary     p p p
pair_style  lj/cut 2.5
read_data  ../data/T${T}.dat
read_data  ../data/T490.dat
Reading data file ...
  orthogonal box = (0.97250269 0.97250269 0.97250269) to (37.866338 37.866338 37.866338)
  1 by 1 by 5 MPI processor grid
  reading atoms ...
  70304 atoms
  reading velocities ...
  70304 velocities
  read_data CPU = 0.209 seconds
change_box all triclinic
Changing box ...
  triclinic box = (0.97250269 0.97250269 0.97250269) to (37.866338 37.866338 37.866338) with tilt (0 0 0)
mass 1 1
mass 2 1
pair_modify shift yes
pair_coeff  1 1 1 1
pair_coeff  1 2 1.5 0.8
pair_coeff  2 2 0.5 0.88


timestep 0.01
thermo ${iStep}
thermo 100000
reset_timestep 0
thermo_style custom step temp pe etotal press vol lx ly lz
fix             1 all nvt temp ${TLJ}  ${TLJ}  0.1
fix             1 all nvt temp 0.49  ${TLJ}  0.1
fix             1 all nvt temp 0.49  0.49  0.1
thermo_modify flush yes

fix dsf all deform 1 xy  wiggle 0.5  ${f}   units box
fix dsf all deform 1 xy  wiggle 0.5  100000   units box
fix ps1 all ave/time 1 1 ${iStep} c_thermo_press[1] c_thermo_press[2]  c_thermo_press[3] c_thermo_press[4]  c_thermo_press[5] c_thermo_press[6]  file  stress.${T}
fix ps1 all ave/time 1 1 100000 c_thermo_press[1] c_thermo_press[2]  c_thermo_press[3] c_thermo_press[4]  c_thermo_press[5] c_thermo_press[6]  file  stress.${T}
fix ps1 all ave/time 1 1 100000 c_thermo_press[1] c_thermo_press[2]  c_thermo_press[3] c_thermo_press[4]  c_thermo_press[5] c_thermo_press[6]  file  stress.490
dump            1 all custom ${dumpStep} dump.${T} id type x y z
dump            1 all custom 10000000 dump.${T} id type x y z
dump            1 all custom 10000000 dump.490 id type x y z
dump_modify 1 sort id
fix nodrift all momentum 1  linear 1 1 1
fix com_seed all recenter INIT INIT INIT shift all
run ${runStep}
run 50000000
Generated 0 of 1 mixed pair_coeff terms from geometric mixing rule
Per MPI rank memory allocation (min/avg/max) = 8.916 | 8.919 | 8.922 Mbytes
   Step          Temp          PotEng         TotEng         Press          Volume           Lx             Ly             Lz      
         0   0.49107021    -7.8487892     -7.1121943      3.388917       50218.233      36.893836      36.893836      36.893836    
    100000   0.49192251    -7.8366086     -7.0987353      3.4924204      50218.233      36.893836      36.893836      36.893836    
    200000   0.4876887     -7.8393892     -7.1078666      3.4620189      50218.233      36.893836      36.893836      36.893836    
    300000   0.48981921    -7.8336622     -7.0989438      3.5009469      50218.233      36.893836      36.893836      36.893836    
    400000   0.49050873    -7.8370456     -7.1012929      3.4780355      50218.233      36.893836      36.893836      36.893836    
    500000   0.49171225    -7.8362429     -7.098685       3.4893379      50218.233      36.893836      36.893836      36.893836    
    600000   0.49226243    -7.8344432     -7.09606        3.4944987      50218.233      36.893836      36.893836      36.893836    
    700000   0.49142315    -7.8375473     -7.100423       3.4751726      50218.233      36.893836      36.893836      36.893836    
    800000   0.49215911    -7.8344773     -7.0962491      3.4953692      50218.233      36.893836      36.893836      36.893836    
    900000   0.48799608    -7.8330423     -7.1010586      3.4958668      50218.233      36.893836      36.893836      36.893836    
   1000000   0.48970622    -7.8311473     -7.0965984      3.5208387      50218.233      36.893836      36.893836      36.893836    
   1100000   0.4918542     -7.8312041     -7.0934333      3.5371217      50218.233      36.893836      36.893836      36.893836    
   1200000   0.48931953    -7.8331996     -7.0992308      3.5121699      50218.233      36.893836      36.893836      36.893836    
   1300000   0.48919922    -7.8346447     -7.1008563      3.5008856      50218.233      36.893836      36.893836      36.893836    
   1400000   0.4877409     -7.8376948     -7.1060938      3.4716288      50218.233      36.893836      36.893836      36.893836    
   1500000   0.49148321    -7.8366075     -7.0993932      3.4927531      50218.233      36.893836      36.893836      36.893836    
   1600000   0.49067761    -7.8330911     -7.0970851      3.5110752      50218.233      36.893836      36.893836      36.893836    
   1700000   0.49154135    -7.832617      -7.0953155      3.5116023      50218.233      36.893836      36.893836      36.893836    
   1800000   0.49151442    -7.833809      -7.0965478      3.5163856      50218.233      36.893836      36.893836      36.893836    
   1900000   0.49064789    -7.8359243     -7.0999629      3.4831004      50218.233      36.893836      36.893836      36.893836    
   2000000   0.48953135    -7.835483      -7.1011964      3.4822382      50218.233      36.893836      36.893836      36.893836    
   2100000   0.48951119    -7.8361702     -7.1019138      3.4860051      50218.233      36.893836      36.893836      36.893836    
   2200000   0.49064141    -7.8373034     -7.1013518      3.4731238      50218.233      36.893836      36.893836      36.893836    
   2300000   0.49053543    -7.842981      -7.1071883      3.4318384      50218.233      36.893836      36.893836      36.893836    
   2400000   0.48841593    -7.8376582     -7.1050447      3.4742169      50218.233      36.893836      36.893836      36.893836    
   2500000   0.49059902    -7.8386773     -7.1027892      3.4610334      50218.233      36.893836      36.893836      36.893836    
   2600000   0.4881314     -7.8374964     -7.1053097      3.474899       50218.233      36.893836      36.893836      36.893836    
   2700000   0.49054272    -7.8349939     -7.0991903      3.4947241      50218.233      36.893836      36.893836      36.893836    
   2800000   0.49117163    -7.8316011     -7.0948541      3.5081048      50218.233      36.893836      36.893836      36.893836    
   2900000   0.49031168    -7.8346602     -7.0992031      3.5070689      50218.233      36.893836      36.893836      36.893836    
   3000000   0.49194146    -7.8342157     -7.096314       3.5117424      50218.233      36.893836      36.893836      36.893836    
   3100000   0.49042255    -7.8402082     -7.1045848      3.4495399      50218.233      36.893836      36.893836      36.893836    
   3200000   0.48737307    -7.837717      -7.1066678      3.4755022      50218.233      36.893836      36.893836      36.893836    
   3300000   0.48659837    -7.8369203     -7.1070331      3.4796799      50218.233      36.893836      36.893836      36.893836    
   3400000   0.49120346    -7.8322418     -7.0954471      3.516645       50218.233      36.893836      36.893836      36.893836    
   3500000   0.4906585     -7.833151      -7.0971737      3.5058056      50218.233      36.893836      36.893836      36.893836    
   3600000   0.49053732    -7.8375402     -7.1017447      3.4836167      50218.233      36.893836      36.893836      36.893836    
   3700000   0.49082279    -7.8394616     -7.1032379      3.4624901      50218.233      36.893836      36.893836      36.893836    
   3800000   0.4896525     -7.8407912     -7.1063229      3.4667149      50218.233      36.893836      36.893836      36.893836    
   3900000   0.49215246    -7.8408351     -7.1026169      3.4464161      50218.233      36.893836      36.893836      36.893836    
   4000000   0.49044056    -7.8366201     -7.1009698      3.4808025      50218.233      36.893836      36.893836      36.893836    
   4100000   0.49101041    -7.8382476     -7.1017425      3.4726923      50218.233      36.893836      36.893836      36.893836    
   4200000   0.48907576    -7.8379735     -7.1043703      3.4835198      50218.233      36.893836      36.893836      36.893836    
   4300000   0.48869112    -7.8391569     -7.1061307      3.4560652      50218.233      36.893836      36.893836      36.893836    
   4400000   0.49068431    -7.8373588     -7.1013429      3.4742786      50218.233      36.893836      36.893836      36.893836    
   4500000   0.49006182    -7.8349126     -7.0998303      3.4902847      50218.233      36.893836      36.893836      36.893836    
   4600000   0.49128228    -7.8342946     -7.0973817      3.5002715      50218.233      36.893836      36.893836      36.893836    
   4700000   0.48876512    -7.8327424     -7.0996052      3.4969787      50218.233      36.893836      36.893836      36.893836    
   4800000   0.4902797     -7.8370043     -7.1015952      3.4834545      50218.233      36.893836      36.893836      36.893836    
   4900000   0.48977812    -7.8363116     -7.1016549      3.4837805      50218.233      36.893836      36.893836      36.893836    
   5000000   0.48869573    -7.8363265     -7.1032933      3.4807326      50218.233      36.893836      36.893836      36.893836    
   5100000   0.48928071    -7.8373027     -7.103392       3.4712386      50218.233      36.893836      36.893836      36.893836    
   5200000   0.491333      -7.8375067     -7.1005177      3.4684948      50218.233      36.893836      36.893836      36.893836    
   5300000   0.48801331    -7.8350664     -7.1030569      3.4920586      50218.233      36.893836      36.893836      36.893836    
   5400000   0.4911156     -7.8355809     -7.0989179      3.4934574      50218.233      36.893836      36.893836      36.893836    
   5500000   0.49062384    -7.832861      -7.0969357      3.509485       50218.233      36.893836      36.893836      36.893836    
   5600000   0.48870181    -7.8339462     -7.1009039      3.4977197      50218.233      36.893836      36.893836      36.893836    
   5700000   0.48974291    -7.8355111     -7.1009072      3.4965924      50218.233      36.893836      36.893836      36.893836    
   5800000   0.48780371    -7.8336021     -7.1019069      3.4996438      50218.233      36.893836      36.893836      36.893836    
   5900000   0.48902931    -7.8354318     -7.1018983      3.4945647      50218.233      36.893836      36.893836      36.893836    
   6000000   0.4903724     -7.8351895     -7.0996414      3.4888337      50218.233      36.893836      36.893836      36.893836    
   6100000   0.49075211    -7.8353912     -7.0992735      3.4840486      50218.233      36.893836      36.893836      36.893836    
   6200000   0.48931446    -7.8326999     -7.0987387      3.5066044      50218.233      36.893836      36.893836      36.893836    
   6300000   0.48895869    -7.8344916     -7.101064       3.4972094      50218.233      36.893836      36.893836      36.893836    
   6400000   0.49138643    -7.8387806     -7.1017114      3.4565239      50218.233      36.893836      36.893836      36.893836    
   6500000   0.49131534    -7.8392283     -7.1022657      3.4591908      50218.233      36.893836      36.893836      36.893836    
   6600000   0.48784856    -7.8312378     -7.0994754      3.5165697      50218.233      36.893836      36.893836      36.893836    
   6700000   0.48860463    -7.8365068     -7.1036102      3.4777569      50218.233      36.893836      36.893836      36.893836    
   6800000   0.4930412     -7.8395383     -7.099987       3.4669883      50218.233      36.893836      36.893836      36.893836    
   6900000   0.48850477    -7.8351034     -7.1023567      3.4907074      50218.233      36.893836      36.893836      36.893836    
   7000000   0.48883461    -7.8387484     -7.1055069      3.4730671      50218.233      36.893836      36.893836      36.893836    
   7100000   0.48893523    -7.8350599     -7.1016675      3.4777703      50218.233      36.893836      36.893836      36.893836    
   7200000   0.49012515    -7.8377652     -7.1025879      3.4751843      50218.233      36.893836      36.893836      36.893836    
   7300000   0.48664743    -7.840009      -7.1100483      3.453678       50218.233      36.893836      36.893836      36.893836    
   7400000   0.4921485     -7.8371069     -7.0988946      3.4848056      50218.233      36.893836      36.893836      36.893836    
   7500000   0.48865496    -7.8375743     -7.1046022      3.4806578      50218.233      36.893836      36.893836      36.893836    
   7600000   0.4893238     -7.8387556     -7.1047804      3.468124       50218.233      36.893836      36.893836      36.893836    
   7700000   0.48858239    -7.8359662     -7.1031031      3.4854634      50218.233      36.893836      36.893836      36.893836    
   7800000   0.48904276    -7.8383064     -7.1047527      3.4698608      50218.233      36.893836      36.893836      36.893836    
   7900000   0.48845025    -7.8390058     -7.1063409      3.4692992      50218.233      36.893836      36.893836      36.893836    
   8000000   0.48998912    -7.8385584     -7.1035852      3.473889       50218.233      36.893836      36.893836      36.893836    
   8100000   0.48860878    -7.8345836     -7.1016809      3.4997163      50218.233      36.893836      36.893836      36.893836    
   8200000   0.4911488     -7.8369593     -7.1002466      3.4862039      50218.233      36.893836      36.893836      36.893836    
   8300000   0.48944347    -7.8351588     -7.1010041      3.5009057      50218.233      36.893836      36.893836      36.893836    
   8400000   0.49302246    -7.8337374     -7.0942142      3.5022635      50218.233      36.893836      36.893836      36.893836    
   8500000   0.48852317    -7.8379289     -7.1051545      3.4702479      50218.233      36.893836      36.893836      36.893836    
   8600000   0.48941471    -7.8376653     -7.1035536      3.4708221      50218.233      36.893836      36.893836      36.893836    
   8700000   0.48976317    -7.8333883     -7.098754       3.4998644      50218.233      36.893836      36.893836      36.893836    
   8800000   0.48575491    -7.8331884     -7.1045664      3.5050984      50218.233      36.893836      36.893836      36.893836    
   8900000   0.49074713    -7.8352722     -7.099162       3.4927837      50218.233      36.893836      36.893836      36.893836    
   9000000   0.48983311    -7.8360933     -7.1013541      3.4862447      50218.233      36.893836      36.893836      36.893836    
   9100000   0.49208898    -7.834496      -7.0963731      3.5025467      50218.233      36.893836      36.893836      36.893836    
   9200000   0.48954363    -7.8364937     -7.1021887      3.4849773      50218.233      36.893836      36.893836      36.893836    
   9300000   0.49044381    -7.8340352     -7.09838        3.5059021      50218.233      36.893836      36.893836      36.893836    
   9400000   0.48990053    -7.8372307     -7.1023904      3.4953372      50218.233      36.893836      36.893836      36.893836    
   9500000   0.49296749    -7.8358763     -7.0964355      3.4941757      50218.233      36.893836      36.893836      36.893836    
   9600000   0.49123923    -7.835804      -7.0989556      3.4922884      50218.233      36.893836      36.893836      36.893836    
   9700000   0.49093089    -7.8373025     -7.1009166      3.4717657      50218.233      36.893836      36.893836      36.893836    
   9800000   0.48765168    -7.8322372     -7.1007701      3.5192176      50218.233      36.893836      36.893836      36.893836    
   9900000   0.49230022    -7.836355      -7.0979152      3.4825985      50218.233      36.893836      36.893836      36.893836    
  10000000   0.49078289    -7.834095      -7.0979312      3.5019187      50218.233      36.893836      36.893836      36.893836    
  10100000   0.48895645    -7.8354939     -7.1020696      3.4883857      50218.233      36.893836      36.893836      36.893836    
  10200000   0.48859189    -7.8401813     -7.1073039      3.4448946      50218.233      36.893836      36.893836      36.893836    
  10300000   0.49023447    -7.8389719     -7.1036306      3.4660342      50218.233      36.893836      36.893836      36.893836    
  10400000   0.49124248    -7.839614      -7.1027608      3.4768532      50218.233      36.893836      36.893836      36.893836    
  10500000   0.49132018    -7.8385068     -7.101537       3.46646        50218.233      36.893836      36.893836      36.893836    
  10600000   0.48661001    -7.8342309     -7.1043263      3.4881171      50218.233      36.893836      36.893836      36.893836    
  10700000   0.49151508    -7.8360663     -7.0988041      3.4759696      50218.233      36.893836      36.893836      36.893836    
  10800000   0.48881308    -7.8356953     -7.1024861      3.4877542      50218.233      36.893836      36.893836      36.893836    
  10900000   0.49110334    -7.8353932     -7.0987487      3.4898064      50218.233      36.893836      36.893836      36.893836    
  11000000   0.48903615    -7.8380244     -7.1044806      3.456622       50218.233      36.893836      36.893836      36.893836    
  11100000   0.4900376     -7.8380403     -7.1029943      3.464897       50218.233      36.893836      36.893836      36.893836    
  11200000   0.48824089    -7.8377646     -7.1054137      3.4765584      50218.233      36.893836      36.893836      36.893836    
  11300000   0.48984337    -7.8366872     -7.1019326      3.4837614      50218.233      36.893836      36.893836      36.893836    
  11400000   0.48914389    -7.8396662     -7.1059608      3.4575284      50218.233      36.893836      36.893836      36.893836    
  11500000   0.49290212    -7.8392538     -7.0999112      3.4701129      50218.233      36.893836      36.893836      36.893836    
  11600000   0.48578916    -7.8375475     -7.1088741      3.4704844      50218.233      36.893836      36.893836      36.893836    
  11700000   0.49003991    -7.8382203     -7.1031709      3.4732392      50218.233      36.893836      36.893836      36.893836    
  11800000   0.48928742    -7.8355864     -7.1016657      3.4804011      50218.233      36.893836      36.893836      36.893836    
  11900000   0.48726159    -7.8395659     -7.1086839      3.4559166      50218.233      36.893836      36.893836      36.893836    
  12000000   0.49173171    -7.8382774     -7.1006903      3.4703161      50218.233      36.893836      36.893836      36.893836    
  12100000   0.48844229    -7.8423065     -7.1096534      3.4270432      50218.233      36.893836      36.893836      36.893836    
  12200000   0.49119962    -7.8386746     -7.1018856      3.4581933      50218.233      36.893836      36.893836      36.893836    
  12300000   0.48998365    -7.8381348     -7.1031697      3.4705541      50218.233      36.893836      36.893836      36.893836    
  12400000   0.4910103     -7.8408234     -7.1043185      3.4530722      50218.233      36.893836      36.893836      36.893836    
  12500000   0.49309946    -7.8393865     -7.0997479      3.4620872      50218.233      36.893836      36.893836      36.893836    
  12600000   0.48891918    -7.8379746     -7.1046063      3.4726902      50218.233      36.893836      36.893836      36.893836    
  12700000   0.48823165    -7.8362416     -7.1039045      3.4814453      50218.233      36.893836      36.893836      36.893836    
  12800000   0.48799513    -7.8400742     -7.1080919      3.4468588      50218.233      36.893836      36.893836      36.893836    
  12900000   0.49046604    -7.834319      -7.0986304      3.4960015      50218.233      36.893836      36.893836      36.893836    
  13000000   0.4889287     -7.8340432     -7.1006606      3.4902947      50218.233      36.893836      36.893836      36.893836    
  13100000   0.49284231    -7.8394536     -7.1002007      3.4687025      50218.233      36.893836      36.893836      36.893836    
  13200000   0.49264344    -7.8330997     -7.094145       3.5034015      50218.233      36.893836      36.893836      36.893836    
  13300000   0.48866372    -7.8404793     -7.1074942      3.4466546      50218.233      36.893836      36.893836      36.893836    
  13400000   0.49046314    -7.8385123     -7.102828       3.4649044      50218.233      36.893836      36.893836      36.893836    
  13500000   0.49054446    -7.8435517     -7.1077455      3.4315879      50218.233      36.893836      36.893836      36.893836    
  13600000   0.48860626    -7.8378562     -7.1049573      3.4711377      50218.233      36.893836      36.893836      36.893836    
  13700000   0.48818662    -7.8337998     -7.1015303      3.5007094      50218.233      36.893836      36.893836      36.893836    
  13800000   0.49159328    -7.8370131     -7.0996336      3.4761076      50218.233      36.893836      36.893836      36.893836    
  13900000   0.48830903    -7.8369253     -7.1044722      3.4705954      50218.233      36.893836      36.893836      36.893836    
  14000000   0.48795249    -7.8390861     -7.1071677      3.4537656      50218.233      36.893836      36.893836      36.893836    
  14100000   0.48975558    -7.8336201     -7.0989971      3.5010488      50218.233      36.893836      36.893836      36.893836    
  14200000   0.4880282     -7.8374265     -7.1053947      3.4667942      50218.233      36.893836      36.893836      36.893836    
  14300000   0.49020357    -7.8429338     -7.1076389      3.4245328      50218.233      36.893836      36.893836      36.893836    
  14400000   0.49113945    -7.8382075     -7.1015088      3.4789347      50218.233      36.893836      36.893836      36.893836    
  14500000   0.49061982    -7.8417417     -7.1058224      3.4422039      50218.233      36.893836      36.893836      36.893836    
  14600000   0.489093      -7.8372185     -7.1035894      3.46941        50218.233      36.893836      36.893836      36.893836    
  14700000   0.48730961    -7.8361479     -7.1051939      3.4764673      50218.233      36.893836      36.893836      36.893836    
  14800000   0.48898386    -7.8367724     -7.103307       3.4721891      50218.233      36.893836      36.893836      36.893836    
  14900000   0.4892866     -7.8392795     -7.10536        3.4575077      50218.233      36.893836      36.893836      36.893836    
  15000000   0.49045456    -7.8354352     -7.0997639      3.4844062      50218.233      36.893836      36.893836      36.893836    
  15100000   0.48893952    -7.8346558     -7.101257       3.485787       50218.233      36.893836      36.893836      36.893836    
  15200000   0.49031158    -7.8396474     -7.1041905      3.4733314      50218.233      36.893836      36.893836      36.893836    
  15300000   0.49151328    -7.8361482     -7.0988888      3.5027222      50218.233      36.893836      36.893836      36.893836    
  15400000   0.49101306    -7.8371001     -7.100591       3.4821598      50218.233      36.893836      36.893836      36.893836    
  15500000   0.49341094    -7.8379336     -7.0978277      3.4845676      50218.233      36.893836      36.893836      36.893836    
  15600000   0.48910185    -7.8402558     -7.1066134      3.4502756      50218.233      36.893836      36.893836      36.893836    
  15700000   0.48913441    -7.8367652     -7.103074       3.4864883      50218.233      36.893836      36.893836      36.893836    
  15800000   0.49095983    -7.8345056     -7.0980764      3.4964835      50218.233      36.893836      36.893836      36.893836    
  15900000   0.49071066    -7.8390145     -7.102959       3.4751325      50218.233      36.893836      36.893836      36.893836    
  16000000   0.49099223    -7.8374925     -7.1010146      3.4794819      50218.233      36.893836      36.893836      36.893836    
  16100000   0.48895115    -7.8393051     -7.1058888      3.4612979      50218.233      36.893836      36.893836      36.893836    
  16200000   0.49159833    -7.8363878     -7.0990008      3.4795732      50218.233      36.893836      36.893836      36.893836    
  16300000   0.48994134    -7.838314      -7.1034124      3.4720135      50218.233      36.893836      36.893836      36.893836    
  16400000   0.49083011    -7.8346098     -7.0983751      3.5020891      50218.233      36.893836      36.893836      36.893836    
  16500000   0.49150053    -7.8398532     -7.1026129      3.4632767      50218.233      36.893836      36.893836      36.893836    
  16600000   0.48986064    -7.8392965     -7.104516       3.4635865      50218.233      36.893836      36.893836      36.893836    
  16700000   0.48870434    -7.8382947     -7.1052487      3.4620241      50218.233      36.893836      36.893836      36.893836    
  16800000   0.48831427    -7.8394485     -7.1069876      3.4609888      50218.233      36.893836      36.893836      36.893836    
  16900000   0.49061807    -7.8360047     -7.100088       3.4772174      50218.233      36.893836      36.893836      36.893836    
  17000000   0.49353721    -7.8401426     -7.0998473      3.4580325      50218.233      36.893836      36.893836      36.893836    
  17100000   0.48958489    -7.838297      -7.1039301      3.4639077      50218.233      36.893836      36.893836      36.893836    
  17200000   0.4907626     -7.8383924     -7.102259       3.4646113      50218.233      36.893836      36.893836      36.893836    
  17300000   0.48960261    -7.8398575     -7.105464       3.4484636      50218.233      36.893836      36.893836      36.893836    
  17400000   0.48791654    -7.8379614     -7.106097       3.4701208      50218.233      36.893836      36.893836      36.893836    
  17500000   0.48859013    -7.8405626     -7.1076879      3.4452368      50218.233      36.893836      36.893836      36.893836    
  17600000   0.49020147    -7.8381225     -7.1028307      3.4853837      50218.233      36.893836      36.893836      36.893836    
  17700000   0.48917328    -7.8405974     -7.1068479      3.4484373      50218.233      36.893836      36.893836      36.893836    
  17800000   0.49160454    -7.836669      -7.0992727      3.4769399      50218.233      36.893836      36.893836      36.893836    
  17900000   0.489643      -7.838488      -7.1040339      3.4706235      50218.233      36.893836      36.893836      36.893836    
  18000000   0.49085591    -7.8376183     -7.1013449      3.474064       50218.233      36.893836      36.893836      36.893836    
  18100000   0.48871356    -7.8356109     -7.102551       3.4852068      50218.233      36.893836      36.893836      36.893836    
  18200000   0.49075673    -7.8343598     -7.0982352      3.4943687      50218.233      36.893836      36.893836      36.893836    
  18300000   0.49070954    -7.8345143     -7.0984604      3.4917454      50218.233      36.893836      36.893836      36.893836    
  18400000   0.4909782     -7.8366145     -7.1001577      3.4795693      50218.233      36.893836      36.893836      36.893836    
  18500000   0.48818624    -7.8395241     -7.1072551      3.4528001      50218.233      36.893836      36.893836      36.893836    
  18600000   0.49078791    -7.8363054     -7.100134       3.4838348      50218.233      36.893836      36.893836      36.893836    
  18700000   0.49081556    -7.8426677     -7.1064549      3.4308057      50218.233      36.893836      36.893836      36.893836    
  18800000   0.48862279    -7.8411594     -7.1082356      3.4410385      50218.233      36.893836      36.893836      36.893836    
  18900000   0.49097736    -7.8376343     -7.1011787      3.4747645      50218.233      36.893836      36.893836      36.893836    
  19000000   0.4885162     -7.8367563     -7.1039924      3.4845432      50218.233      36.893836      36.893836      36.893836    
  19100000   0.49019693    -7.8403957     -7.1051108      3.4558942      50218.233      36.893836      36.893836      36.893836    
  19200000   0.48896644    -7.8348127     -7.1013735      3.4921971      50218.233      36.893836      36.893836      36.893836    
  19300000   0.48652491    -7.8345455     -7.1047685      3.488906       50218.233      36.893836      36.893836      36.893836    
  19400000   0.49285292    -7.8423115     -7.1030427      3.4480613      50218.233      36.893836      36.893836      36.893836    
  19500000   0.49202328    -7.835338      -7.0973136      3.489505       50218.233      36.893836      36.893836      36.893836    
  19600000   0.48914724    -7.8369701     -7.1032596      3.4768499      50218.233      36.893836      36.893836      36.893836    
  19700000   0.48838149    -7.8362481     -7.1036863      3.4749848      50218.233      36.893836      36.893836      36.893836    
  19800000   0.49052785    -7.8355238     -7.0997425      3.4965228      50218.233      36.893836      36.893836      36.893836    
  19900000   0.49096571    -7.8409685     -7.1045304      3.4387781      50218.233      36.893836      36.893836      36.893836    
  20000000   0.48904432    -7.8376965     -7.1041404      3.4758871      50218.233      36.893836      36.893836      36.893836    
  20100000   0.49329474    -7.8404111     -7.1004795      3.4494536      50218.233      36.893836      36.893836      36.893836    
  20200000   0.48944449    -7.8326728     -7.0985166      3.5091619      50218.233      36.893836      36.893836      36.893836    
  20300000   0.49158162    -7.8401642     -7.1028022      3.4596002      50218.233      36.893836      36.893836      36.893836    
  20400000   0.48912925    -7.840957      -7.1072736      3.4447118      50218.233      36.893836      36.893836      36.893836    
  20500000   0.49235141    -7.8343694     -7.0958528      3.5018449      50218.233      36.893836      36.893836      36.893836    
  20600000   0.49211931    -7.839871      -7.1017025      3.4528137      50218.233      36.893836      36.893836      36.893836    
  20700000   0.49057294    -7.8382248     -7.1023759      3.4606184      50218.233      36.893836      36.893836      36.893836    
  20800000   0.48974438    -7.8299267     -7.0953206      3.5230383      50218.233      36.893836      36.893836      36.893836    
  20900000   0.48839399    -7.8374208     -7.1048402      3.4638054      50218.233      36.893836      36.893836      36.893836    
  21000000   0.49031001    -7.8361888     -7.1007342      3.484174       50218.233      36.893836      36.893836      36.893836    
  21100000   0.49026568    -7.8339028     -7.0985147      3.5036251      50218.233      36.893836      36.893836      36.893836    
  21200000   0.48679563    -7.8354584     -7.1052753      3.4795797      50218.233      36.893836      36.893836      36.893836    
  21300000   0.48890873    -7.8356215     -7.1022688      3.4779768      50218.233      36.893836      36.893836      36.893836    
  21400000   0.4895546     -7.8410645     -7.106743       3.4450465      50218.233      36.893836      36.893836      36.893836    
  21500000   0.48847076    -7.8321453     -7.0994496      3.4969478      50218.233      36.893836      36.893836      36.893836    
  21600000   0.4897935     -7.8366536     -7.1019738      3.4760618      50218.233      36.893836      36.893836      36.893836    
  21700000   0.48877142    -7.8381386     -7.1049919      3.4676848      50218.233      36.893836      36.893836      36.893836    
  21800000   0.4885632     -7.8360535     -7.1032191      3.4882131      50218.233      36.893836      36.893836      36.893836    
  21900000   0.4907788     -7.8366125     -7.1004548      3.4874217      50218.233      36.893836      36.893836      36.893836    
  22000000   0.49424469    -7.8340199     -7.0926634      3.5045248      50218.233      36.893836      36.893836      36.893836    
  22100000   0.4940033     -7.8383897     -7.0973953      3.4762055      50218.233      36.893836      36.893836      36.893836    
  22200000   0.48847467    -7.8350591     -7.1023575      3.4867917      50218.233      36.893836      36.893836      36.893836    
  22300000   0.48842031    -7.8347394     -7.1021194      3.4882558      50218.233      36.893836      36.893836      36.893836    
  22400000   0.49029678    -7.8351204     -7.0996857      3.4941916      50218.233      36.893836      36.893836      36.893836    
  22500000   0.48776853    -7.8361068     -7.1044644      3.4799416      50218.233      36.893836      36.893836      36.893836    
  22600000   0.49047414    -7.8390889     -7.1033881      3.460449       50218.233      36.893836      36.893836      36.893836    
  22700000   0.48875155    -7.8376614     -7.1045445      3.4775259      50218.233      36.893836      36.893836      36.893836    
  22800000   0.48736422    -7.8393916     -7.1083557      3.4569249      50218.233      36.893836      36.893836      36.893836    
  22900000   0.48975636    -7.8382039     -7.1035798      3.4685789      50218.233      36.893836      36.893836      36.893836    
  23000000   0.48901528    -7.8363737     -7.1028612      3.4811233      50218.233      36.893836      36.893836      36.893836    
  23100000   0.48872863    -7.8413941     -7.1083116      3.442031       50218.233      36.893836      36.893836      36.893836    
  23200000   0.49128801    -7.8415987     -7.1046772      3.4419439      50218.233      36.893836      36.893836      36.893836    
  23300000   0.48930165    -7.8387865     -7.1048445      3.4630334      50218.233      36.893836      36.893836      36.893836    
  23400000   0.49231368    -7.8366942     -7.0982342      3.4869489      50218.233      36.893836      36.893836      36.893836    
  23500000   0.49181003    -7.8357364     -7.0980318      3.4930546      50218.233      36.893836      36.893836      36.893836    
  23600000   0.49253351    -7.840436      -7.1016463      3.4618589      50218.233      36.893836      36.893836      36.893836    
  23700000   0.49308804    -7.8396674     -7.1000459      3.4683776      50218.233      36.893836      36.893836      36.893836    
  23800000   0.48938414    -7.8397919     -7.1057261      3.4579357      50218.233      36.893836      36.893836      36.893836    
  23900000   0.4895961     -7.8345006     -7.1001169      3.5025614      50218.233      36.893836      36.893836      36.893836    
  24000000   0.49000169    -7.837351      -7.102359       3.4807648      50218.233      36.893836      36.893836      36.893836    
  24100000   0.4907614     -7.8407108     -7.1045792      3.444293       50218.233      36.893836      36.893836      36.893836    
  24200000   0.48828902    -7.8378546     -7.1054314      3.4788549      50218.233      36.893836      36.893836      36.893836    
  24300000   0.48963497    -7.835926      -7.101484       3.5009339      50218.233      36.893836      36.893836      36.893836    
  24400000   0.49107345    -7.8368225     -7.1002228      3.4859197      50218.233      36.893836      36.893836      36.893836    
  24500000   0.49205687    -7.8439404     -7.1058656      3.4279009      50218.233      36.893836      36.893836      36.893836    
  24600000   0.4910788     -7.8363797     -7.0997719      3.4939799      50218.233      36.893836      36.893836      36.893836    
  24700000   0.48920431    -7.8377991     -7.1040031      3.4682581      50218.233      36.893836      36.893836      36.893836    
  24800000   0.48836498    -7.8388938     -7.1063568      3.4608162      50218.233      36.893836      36.893836      36.893836    
  24900000   0.4881476     -7.8420108     -7.1097998      3.4346767      50218.233      36.893836      36.893836      36.893836    
  25000000   0.48881768    -7.8400206     -7.1068045      3.4522917      50218.233      36.893836      36.893836      36.893836    
  25100000   0.49095921    -7.8339736     -7.0975453      3.5148307      50218.233      36.893836      36.893836      36.893836    
  25200000   0.488276      -7.8399401     -7.1075365      3.4693421      50218.233      36.893836      36.893836      36.893836    
  25300000   0.4933992     -7.8368118     -7.0967235      3.4991785      50218.233      36.893836      36.893836      36.893836    
  25400000   0.49240224    -7.8369505     -7.0983577      3.4850762      50218.233      36.893836      36.893836      36.893836    
  25500000   0.49009347    -7.842725      -7.1075952      3.436079       50218.233      36.893836      36.893836      36.893836    
  25600000   0.48882226    -7.8375277     -7.1043047      3.4769208      50218.233      36.893836      36.893836      36.893836    
  25700000   0.49036271    -7.8350462     -7.0995126      3.5048009      50218.233      36.893836      36.893836      36.893836    
  25800000   0.49017413    -7.8360438     -7.100793       3.5032702      50218.233      36.893836      36.893836      36.893836    
  25900000   0.49207343    -7.8343464     -7.0962468      3.5150051      50218.233      36.893836      36.893836      36.893836    
  26000000   0.48701924    -7.8370225     -7.1065041      3.4727243      50218.233      36.893836      36.893836      36.893836    
  26100000   0.49049029    -7.834957      -7.0992321      3.5097583      50218.233      36.893836      36.893836      36.893836    
  26200000   0.48889712    -7.8395296     -7.1061944      3.4617598      50218.233      36.893836      36.893836      36.893836    
  26300000   0.48984426    -7.8369312     -7.1021753      3.4911257      50218.233      36.893836      36.893836      36.893836    
  26400000   0.49163896    -7.8390659     -7.1016179      3.4645131      50218.233      36.893836      36.893836      36.893836    
  26500000   0.48745658    -7.8377352     -7.1065607      3.457858       50218.233      36.893836      36.893836      36.893836    
  26600000   0.49036194    -7.8381321     -7.1025996      3.4770129      50218.233      36.893836      36.893836      36.893836    
  26700000   0.48991599    -7.8374475     -7.102584       3.473498       50218.233      36.893836      36.893836      36.893836    
  26800000   0.48844387    -7.8368149     -7.1041595      3.4789389      50218.233      36.893836      36.893836      36.893836    
  26900000   0.49502501    -7.8438928     -7.1013659      3.440976       50218.233      36.893836      36.893836      36.893836    
  27000000   0.48654008    -7.8376634     -7.1078636      3.4725112      50218.233      36.893836      36.893836      36.893836    
  27100000   0.49173534    -7.837277      -7.0996845      3.4893179      50218.233      36.893836      36.893836      36.893836    
  27200000   0.49175378    -7.8418734     -7.1042533      3.4469916      50218.233      36.893836      36.893836      36.893836    
  27300000   0.48760429    -7.8403424     -7.1089464      3.4542853      50218.233      36.893836      36.893836      36.893836    
  27400000   0.48906664    -7.8383464     -7.1047569      3.4647342      50218.233      36.893836      36.893836      36.893836    
  27500000   0.4882621     -7.8393764     -7.1069937      3.4578315      50218.233      36.893836      36.893836      36.893836    
  27600000   0.4888147     -7.8408447     -7.107633       3.4500768      50218.233      36.893836      36.893836      36.893836    
  27700000   0.4897543     -7.8382251     -7.1036041      3.4799595      50218.233      36.893836      36.893836      36.893836    
  27800000   0.48968318    -7.8405173     -7.106003       3.4647344      50218.233      36.893836      36.893836      36.893836    
  27900000   0.49139198    -7.8329171     -7.0958397      3.5110949      50218.233      36.893836      36.893836      36.893836    
  28000000   0.48912301    -7.8346809     -7.1010068      3.499761       50218.233      36.893836      36.893836      36.893836    
  28100000   0.48913741    -7.8373941     -7.1036984      3.4836616      50218.233      36.893836      36.893836      36.893836    
  28200000   0.49039468    -7.8388652     -7.1032836      3.4699318      50218.233      36.893836      36.893836      36.893836    
  28300000   0.48968475    -7.8415716     -7.1070549      3.4465516      50218.233      36.893836      36.893836      36.893836    
  28400000   0.491432      -7.8410577     -7.1039202      3.4518624      50218.233      36.893836      36.893836      36.893836    
  28500000   0.49046154    -7.8384341     -7.1027522      3.4778014      50218.233      36.893836      36.893836      36.893836    
  28600000   0.49182567    -7.8369231     -7.0991951      3.4902403      50218.233      36.893836      36.893836      36.893836    
  28700000   0.48947857    -7.8411261     -7.1069187      3.4531199      50218.233      36.893836      36.893836      36.893836    
  28800000   0.4899979     -7.8364598     -7.1014734      3.4964218      50218.233      36.893836      36.893836      36.893836    
  28900000   0.4885122     -7.8352164     -7.1024585      3.4971875      50218.233      36.893836      36.893836      36.893836    
  29000000   0.48889555    -7.8366978     -7.1033649      3.4872948      50218.233      36.893836      36.893836      36.893836    
  29100000   0.4886842     -7.8354963     -7.1024804      3.4866629      50218.233      36.893836      36.893836      36.893836    
  29200000   0.48893834    -7.8382272     -7.1048301      3.4723653      50218.233      36.893836      36.893836      36.893836    
  29300000   0.49184022    -7.8371404     -7.0993906      3.4900993      50218.233      36.893836      36.893836      36.893836    
  29400000   0.49095289    -7.8440129     -7.1075941      3.4323614      50218.233      36.893836      36.893836      36.893836    
  29500000   0.48945924    -7.840626      -7.1064476      3.4579946      50218.233      36.893836      36.893836      36.893836    
  29600000   0.49089382    -7.8395277     -7.1031975      3.4724131      50218.233      36.893836      36.893836      36.893836    
  29700000   0.48987242    -7.842979      -7.1081808      3.4451264      50218.233      36.893836      36.893836      36.893836    
  29800000   0.4922753     -7.8370945     -7.098692       3.4816139      50218.233      36.893836      36.893836      36.893836    
  29900000   0.49116768    -7.8425928     -7.1058518      3.4466948      50218.233      36.893836      36.893836      36.893836    
  30000000   0.48954779    -7.8422938     -7.1079825      3.4375899      50218.233      36.893836      36.893836      36.893836    
  30100000   0.49190796    -7.8395456     -7.1016941      3.4626023      50218.233      36.893836      36.893836      36.893836    
  30200000   0.49021517    -7.8410285     -7.1057162      3.4595992      50218.233      36.893836      36.893836      36.893836    
  30300000   0.49385627    -7.8359857     -7.0952118      3.4926524      50218.233      36.893836      36.893836      36.893836    
  30400000   0.49150409    -7.8432427     -7.1059971      3.4328678      50218.233      36.893836      36.893836      36.893836    
  30500000   0.48868549    -7.8430893     -7.1100715      3.4310175      50218.233      36.893836      36.893836      36.893836    
  30600000   0.49008123    -7.8395756     -7.1044642      3.4634522      50218.233      36.893836      36.893836      36.893836    
  30700000   0.48937248    -7.8374341     -7.1033858      3.4814712      50218.233      36.893836      36.893836      36.893836    
  30800000   0.49199318    -7.8389376     -7.1009583      3.4687639      50218.233      36.893836      36.893836      36.893836    
  30900000   0.49073211    -7.8365784     -7.1004907      3.4674363      50218.233      36.893836      36.893836      36.893836    
  31000000   0.48810286    -7.840107      -7.1079631      3.4636125      50218.233      36.893836      36.893836      36.893836    
  31100000   0.48970285    -7.8349515     -7.1004076      3.4830552      50218.233      36.893836      36.893836      36.893836    
  31200000   0.48862618    -7.842705      -7.1097761      3.4328688      50218.233      36.893836      36.893836      36.893836    
  31300000   0.49014627    -7.8376231     -7.1024141      3.480719       50218.233      36.893836      36.893836      36.893836    
  31400000   0.49117994    -7.8344371     -7.0976777      3.498047       50218.233      36.893836      36.893836      36.893836    
  31500000   0.49129111    -7.8377577     -7.1008316      3.4828522      50218.233      36.893836      36.893836      36.893836    
  31600000   0.49038632    -7.8365466     -7.1009776      3.4805739      50218.233      36.893836      36.893836      36.893836    
  31700000   0.48806775    -7.8384415     -7.1063502      3.4749094      50218.233      36.893836      36.893836      36.893836    
  31800000   0.48825516    -7.8353859     -7.1030136      3.4915008      50218.233      36.893836      36.893836      36.893836    
  31900000   0.49292135    -7.8394882     -7.1001167      3.4662204      50218.233      36.893836      36.893836      36.893836    
  32000000   0.49053903    -7.8401602     -7.1043621      3.4647119      50218.233      36.893836      36.893836      36.893836    
  32100000   0.49022884    -7.8381946     -7.1028618      3.4800766      50218.233      36.893836      36.893836      36.893836    
  32200000   0.49133873    -7.8361192     -7.0991216      3.4944502      50218.233      36.893836      36.893836      36.893836    
  32300000   0.48888696    -7.8351177     -7.1017977      3.4909658      50218.233      36.893836      36.893836      36.893836    
  32400000   0.49064301    -7.8383276     -7.1023736      3.4675964      50218.233      36.893836      36.893836      36.893836    
  32500000   0.49064913    -7.84057       -7.1046068      3.4607314      50218.233      36.893836      36.893836      36.893836    
  32600000   0.49140774    -7.8426627     -7.1055616      3.4337667      50218.233      36.893836      36.893836      36.893836    
  32700000   0.48978445    -7.8402977     -7.1056315      3.4556533      50218.233      36.893836      36.893836      36.893836    
  32800000   0.49252402    -7.8381702     -7.0993947      3.4709952      50218.233      36.893836      36.893836      36.893836    
  32900000   0.4900732     -7.8402967     -7.1051974      3.4511569      50218.233      36.893836      36.893836      36.893836    
  33000000   0.48930376    -7.8386392     -7.104694       3.4662871      50218.233      36.893836      36.893836      36.893836    
  33100000   0.49308321    -7.8396999     -7.1000856      3.473146       50218.233      36.893836      36.893836      36.893836    
  33200000   0.48600247    -7.8375144     -7.1085211      3.4589798      50218.233      36.893836      36.893836      36.893836    
  33300000   0.49159622    -7.8407686     -7.1033848      3.4578728      50218.233      36.893836      36.893836      36.893836    
  33400000   0.49241515    -7.842491      -7.1038788      3.4419035      50218.233      36.893836      36.893836      36.893836    
  33500000   0.49150708    -7.8411192     -7.1038691      3.4510712      50218.233      36.893836      36.893836      36.893836    
  33600000   0.49071724    -7.8426801     -7.1066147      3.435448       50218.233      36.893836      36.893836      36.893836    
  33700000   0.49071468    -7.842412      -7.1063505      3.4435165      50218.233      36.893836      36.893836      36.893836    
  33800000   0.48917083    -7.8388565     -7.1051107      3.468084       50218.233      36.893836      36.893836      36.893836    
  33900000   0.49146474    -7.8406141     -7.1034275      3.4593695      50218.233      36.893836      36.893836      36.893836    
  34000000   0.48767143    -7.8430058     -7.111509       3.4363453      50218.233      36.893836      36.893836      36.893836    
  34100000   0.48976689    -7.8374952     -7.1028554      3.4803428      50218.233      36.893836      36.893836      36.893836    
  34200000   0.48996877    -7.8369644     -7.1020217      3.497101       50218.233      36.893836      36.893836      36.893836    
  34300000   0.49232452    -7.8403707     -7.1018944      3.4564709      50218.233      36.893836      36.893836      36.893836    
  34400000   0.48973292    -7.8420382     -7.1074493      3.4418096      50218.233      36.893836      36.893836      36.893836    
  34500000   0.48841138    -7.8409044     -7.1082977      3.4432941      50218.233      36.893836      36.893836      36.893836    
  34600000   0.48976121    -7.8410551     -7.1064238      3.4554052      50218.233      36.893836      36.893836      36.893836    
  34700000   0.4880285     -7.8352263     -7.103194       3.5023782      50218.233      36.893836      36.893836      36.893836    
  34800000   0.48993678    -7.8424015     -7.1075068      3.445334       50218.233      36.893836      36.893836      36.893836    
  34900000   0.48996727    -7.8318286     -7.0968882      3.5222929      50218.233      36.893836      36.893836      36.893836    
  35000000   0.48957085    -7.8353427     -7.1009968      3.5007944      50218.233      36.893836      36.893836      36.893836    
  35100000   0.48972091    -7.8399274     -7.1053564      3.4653602      50218.233      36.893836      36.893836      36.893836    
  35200000   0.4917825     -7.8384389     -7.1007757      3.4772727      50218.233      36.893836      36.893836      36.893836    
  35300000   0.48908786    -7.8385005     -7.1048791      3.4721049      50218.233      36.893836      36.893836      36.893836    
  35400000   0.49128685    -7.8394628     -7.102543       3.4586186      50218.233      36.893836      36.893836      36.893836    
  35500000   0.48893361    -7.8416627     -7.1082727      3.4458169      50218.233      36.893836      36.893836      36.893836    
  35600000   0.49100434    -7.8394112     -7.1029151      3.4619801      50218.233      36.893836      36.893836      36.893836    
  35700000   0.48782168    -7.8398159     -7.1080937      3.454721       50218.233      36.893836      36.893836      36.893836    
  35800000   0.49009566    -7.8356872     -7.1005541      3.4939857      50218.233      36.893836      36.893836      36.893836    
  35900000   0.48930619    -7.8398084     -7.1058596      3.4626532      50218.233      36.893836      36.893836      36.893836    
  36000000   0.4907011     -7.8375314     -7.1014902      3.4892369      50218.233      36.893836      36.893836      36.893836    
  36100000   0.49068565    -7.8399043     -7.1038863      3.4629095      50218.233      36.893836      36.893836      36.893836    
  36200000   0.48999313    -7.8377755     -7.1027963      3.4813607      50218.233      36.893836      36.893836      36.893836    
  36300000   0.48816212    -7.8368753     -7.1046425      3.4800086      50218.233      36.893836      36.893836      36.893836    
  36400000   0.48778726    -7.8437699     -7.1120994      3.4264172      50218.233      36.893836      36.893836      36.893836    
  36500000   0.48814976    -7.8408228     -7.1086085      3.4455758      50218.233      36.893836      36.893836      36.893836    
  36600000   0.48818912    -7.8410386     -7.1087653      3.4566799      50218.233      36.893836      36.893836      36.893836    
  36700000   0.48841159    -7.8366055     -7.1039985      3.4769764      50218.233      36.893836      36.893836      36.893836    
  36800000   0.4882973     -7.839214      -7.1067785      3.4703568      50218.233      36.893836      36.893836      36.893836    
  36900000   0.49121567    -7.8392514     -7.1024384      3.4628397      50218.233      36.893836      36.893836      36.893836    
  37000000   0.49147456    -7.8382155     -7.1010142      3.4821288      50218.233      36.893836      36.893836      36.893836    
  37100000   0.49197852    -7.8343341     -7.0963768      3.506762       50218.233      36.893836      36.893836      36.893836    
  37200000   0.48978628    -7.8412186     -7.1065496      3.449374       50218.233      36.893836      36.893836      36.893836    
  37300000   0.4911044     -7.8413579     -7.1047117      3.4361362      50218.233      36.893836      36.893836      36.893836    
  37400000   0.49183751    -7.8363821     -7.0986364      3.4848391      50218.233      36.893836      36.893836      36.893836    
  37500000   0.49093514    -7.8392832     -7.1028909      3.4667584      50218.233      36.893836      36.893836      36.893836    
  37600000   0.49214817    -7.8436738     -7.105462       3.4373342      50218.233      36.893836      36.893836      36.893836    
  37700000   0.49247793    -7.8367225     -7.0980161      3.4808174      50218.233      36.893836      36.893836      36.893836    
  37800000   0.49152933    -7.8391922     -7.1019087      3.4695502      50218.233      36.893836      36.893836      36.893836    
  37900000   0.49001446    -7.8378475     -7.1028362      3.4678035      50218.233      36.893836      36.893836      36.893836    
  38000000   0.48935848    -7.8378371     -7.1038098      3.4796527      50218.233      36.893836      36.893836      36.893836    
  38100000   0.48921686    -7.8420781     -7.1082632      3.4407829      50218.233      36.893836      36.893836      36.893836    
  38200000   0.49132244    -7.8383463     -7.1013731      3.4734205      50218.233      36.893836      36.893836      36.893836    
  38300000   0.49191357    -7.8386463     -7.1007865      3.4606452      50218.233      36.893836      36.893836      36.893836    
  38400000   0.49094162    -7.8361825     -7.0997805      3.4921385      50218.233      36.893836      36.893836      36.893836    
  38500000   0.48918139    -7.8365228     -7.1027611      3.4880497      50218.233      36.893836      36.893836      36.893836    
  38600000   0.48945654    -7.8370193     -7.1028449      3.4787181      50218.233      36.893836      36.893836      36.893836    
  38700000   0.48595658    -7.8354228     -7.1064983      3.5013341      50218.233      36.893836      36.893836      36.893836    
  38800000   0.4886238     -7.83582       -7.1028947      3.4797759      50218.233      36.893836      36.893836      36.893836    
  38900000   0.48912527    -7.8407784     -7.1071009      3.45647        50218.233      36.893836      36.893836      36.893836    
  39000000   0.49042949    -7.8370227     -7.1013889      3.4865816      50218.233      36.893836      36.893836      36.893836    
  39100000   0.48818465    -7.8380846     -7.1058181      3.4754369      50218.233      36.893836      36.893836      36.893836    
  39200000   0.49097014    -7.8380944     -7.1016497      3.47718        50218.233      36.893836      36.893836      36.893836    
  39300000   0.4894952     -7.8369816     -7.1027493      3.4844209      50218.233      36.893836      36.893836      36.893836    
  39400000   0.4920615     -7.8378495     -7.0997677      3.4782976      50218.233      36.893836      36.893836      36.893836    
  39500000   0.49190835    -7.842386      -7.104534       3.448655       50218.233      36.893836      36.893836      36.893836    
  39600000   0.48739305    -7.8397215     -7.1086423      3.4689637      50218.233      36.893836      36.893836      36.893836    
  39700000   0.49088868    -7.8386502     -7.1023277      3.4662522      50218.233      36.893836      36.893836      36.893836    
  39800000   0.48980404    -7.8412147     -7.1065191      3.4542462      50218.233      36.893836      36.893836      36.893836    
  39900000   0.49015369    -7.8391059     -7.1038858      3.4683675      50218.233      36.893836      36.893836      36.893836    
  40000000   0.48825752    -7.8385448     -7.106169       3.470862       50218.233      36.893836      36.893836      36.893836    
  40100000   0.48876303    -7.8380546     -7.1049205      3.4703519      50218.233      36.893836      36.893836      36.893836    
  40200000   0.48727626    -7.837154      -7.10625        3.4826337      50218.233      36.893836      36.893836      36.893836    
  40300000   0.49097118    -7.8401886     -7.1037423      3.4561039      50218.233      36.893836      36.893836      36.893836    
  40400000   0.49123408    -7.8407379     -7.1038972      3.467162       50218.233      36.893836      36.893836      36.893836    
  40500000   0.49065857    -7.8344297     -7.0984523      3.4999125      50218.233      36.893836      36.893836      36.893836    
  40600000   0.49099758    -7.836329      -7.0998431      3.4858459      50218.233      36.893836      36.893836      36.893836    
  40700000   0.48987427    -7.8382868     -7.1034858      3.4725978      50218.233      36.893836      36.893836      36.893836    
  40800000   0.49034891    -7.8374271     -7.1019142      3.4742906      50218.233      36.893836      36.893836      36.893836    
  40900000   0.48977527    -7.8396368     -7.1049843      3.4597499      50218.233      36.893836      36.893836      36.893836    
  41000000   0.48974132    -7.8362428     -7.1016413      3.485134       50218.233      36.893836      36.893836      36.893836    
  41100000   0.49092805    -7.8334259     -7.0970443      3.5045728      50218.233      36.893836      36.893836      36.893836    
  41200000   0.48986077    -7.8380551     -7.1032744      3.4547505      50218.233      36.893836      36.893836      36.893836    
  41300000   0.48961802    -7.8382495     -7.103833       3.4623618      50218.233      36.893836      36.893836      36.893836    
  41400000   0.48665703    -7.8397172     -7.109742       3.455162       50218.233      36.893836      36.893836      36.893836    
  41500000   0.49039716    -7.8374037     -7.1018184      3.4640933      50218.233      36.893836      36.893836      36.893836    
  41600000   0.49066331    -7.8367952     -7.1008107      3.4765045      50218.233      36.893836      36.893836      36.893836    
  41700000   0.49141687    -7.8331239     -7.0960091      3.5083906      50218.233      36.893836      36.893836      36.893836    
  41800000   0.49219957    -7.8336456     -7.0953568      3.5016295      50218.233      36.893836      36.893836      36.893836    
  41900000   0.49093369    -7.8366551     -7.100265       3.4799094      50218.233      36.893836      36.893836      36.893836    
  42000000   0.49053955    -7.8308261     -7.0950273      3.532269       50218.233      36.893836      36.893836      36.893836    
  42100000   0.48836432    -7.8370719     -7.1045358      3.4714608      50218.233      36.893836      36.893836      36.893836    
  42200000   0.48906153    -7.8380804     -7.1044985      3.4613742      50218.233      36.893836      36.893836      36.893836    
  42300000   0.48514621    -7.8357277     -7.1080187      3.4724202      50218.233      36.893836      36.893836      36.893836    
  42400000   0.48829364    -7.8331561     -7.1007261      3.497935       50218.233      36.893836      36.893836      36.893836    
  42500000   0.49085273    -7.8393344     -7.1030658      3.464858       50218.233      36.893836      36.893836      36.893836    
  42600000   0.49234052    -7.8355656     -7.0970653      3.4905834      50218.233      36.893836      36.893836      36.893836    
  42700000   0.49112286    -7.8368684     -7.1001946      3.4774169      50218.233      36.893836      36.893836      36.893836    
  42800000   0.4900326     -7.837885      -7.1028466      3.4741595      50218.233      36.893836      36.893836      36.893836    
  42900000   0.48807207    -7.8394736     -7.1073759      3.4553641      50218.233      36.893836      36.893836      36.893836    
  43000000   0.49078892    -7.8334578     -7.0972849      3.5027274      50218.233      36.893836      36.893836      36.893836    
  43100000   0.49051564    -7.8341063     -7.0983433      3.4923724      50218.233      36.893836      36.893836      36.893836    
  43200000   0.49298727    -7.8347047     -7.0952343      3.4940355      50218.233      36.893836      36.893836      36.893836    
  43300000   0.49048673    -7.8382575     -7.1025379      3.4660143      50218.233      36.893836      36.893836      36.893836    
  43400000   0.49083215    -7.8372312     -7.1009935      3.481243       50218.233      36.893836      36.893836      36.893836    
  43500000   0.48785315    -7.8383071     -7.1065378      3.4648556      50218.233      36.893836      36.893836      36.893836    
  43600000   0.48849742    -7.8409925     -7.1082568      3.4477346      50218.233      36.893836      36.893836      36.893836    
  43700000   0.48999359    -7.8359105     -7.1009306      3.4810353      50218.233      36.893836      36.893836      36.893836    
  43800000   0.48951579    -7.8345268     -7.1002636      3.5016399      50218.233      36.893836      36.893836      36.893836    
  43900000   0.48887019    -7.8330878     -7.099793       3.5122389      50218.233      36.893836      36.893836      36.893836    
  44000000   0.49083055    -7.8374336     -7.1011983      3.4700868      50218.233      36.893836      36.893836      36.893836    
  44100000   0.49143617    -7.8417275     -7.1045837      3.4525035      50218.233      36.893836      36.893836      36.893836    
  44200000   0.49083189    -7.8378782     -7.1016408      3.4676829      50218.233      36.893836      36.893836      36.893836    
  44300000   0.48924476    -7.8400955     -7.1062388      3.4621598      50218.233      36.893836      36.893836      36.893836    
  44400000   0.48872723    -7.8362282     -7.1031478      3.480493       50218.233      36.893836      36.893836      36.893836    
  44500000   0.48883726    -7.8429889     -7.1097435      3.4307663      50218.233      36.893836      36.893836      36.893836    
  44600000   0.49198588    -7.8353953     -7.0974269      3.4916542      50218.233      36.893836      36.893836      36.893836    
  44700000   0.48895203    -7.8386512     -7.1052336      3.461188       50218.233      36.893836      36.893836      36.893836    
  44800000   0.48988179    -7.8370849     -7.1022727      3.4755891      50218.233      36.893836      36.893836      36.893836    
  44900000   0.49108419    -7.8378358     -7.10122        3.4626474      50218.233      36.893836      36.893836      36.893836    
  45000000   0.49063988    -7.8386477     -7.1026983      3.4612839      50218.233      36.893836      36.893836      36.893836    
  45100000   0.48905336    -7.8378941     -7.1043245      3.4653824      50218.233      36.893836      36.893836      36.893836    
  45200000   0.4893435     -7.8353288     -7.101324       3.4928517      50218.233      36.893836      36.893836      36.893836    
  45300000   0.48795597    -7.8324846     -7.100561       3.5106722      50218.233      36.893836      36.893836      36.893836    
  45400000   0.49211126    -7.8359876     -7.0978313      3.485494       50218.233      36.893836      36.893836      36.893836    
  45500000   0.48922484    -7.8354385     -7.1016117      3.4949468      50218.233      36.893836      36.893836      36.893836    
  45600000   0.49258343    -7.8361718     -7.0973072      3.5002485      50218.233      36.893836      36.893836      36.893836    
  45700000   0.49393926    -7.8360282     -7.0951298      3.5006634      50218.233      36.893836      36.893836      36.893836    
  45800000   0.49162376    -7.8382712     -7.1008461      3.4712427      50218.233      36.893836      36.893836      36.893836    
  45900000   0.48928876    -7.840129      -7.1062063      3.4554846      50218.233      36.893836      36.893836      36.893836    
  46000000   0.491109      -7.8369879     -7.1003349      3.4868381      50218.233      36.893836      36.893836      36.893836    
  46100000   0.48852544    -7.8360786     -7.1033008      3.4914603      50218.233      36.893836      36.893836      36.893836    
  46200000   0.48942634    -7.8418252     -7.1076961      3.450577       50218.233      36.893836      36.893836      36.893836    
  46300000   0.48855439    -7.8328189     -7.0999977      3.5032344      50218.233      36.893836      36.893836      36.893836    
  46400000   0.48936162    -7.8352121     -7.1011801      3.5005561      50218.233      36.893836      36.893836      36.893836    
  46500000   0.49008076    -7.836831      -7.1017203      3.4804913      50218.233      36.893836      36.893836      36.893836    
  46600000   0.49052914    -7.8394287     -7.1036454      3.4617653      50218.233      36.893836      36.893836      36.893836    
  46700000   0.48852642    -7.8405013     -7.1077221      3.4577716      50218.233      36.893836      36.893836      36.893836    
  46800000   0.4915954     -7.8378581     -7.1004755      3.4763965      50218.233      36.893836      36.893836      36.893836    
  46900000   0.48956758    -7.8393777     -7.1050367      3.4572591      50218.233      36.893836      36.893836      36.893836    
  47000000   0.49067477    -7.8409734     -7.1049717      3.4576525      50218.233      36.893836      36.893836      36.893836    
  47100000   0.48958874    -7.8408301     -7.1064575      3.4536118      50218.233      36.893836      36.893836      36.893836    
  47200000   0.49044939    -7.8383974     -7.1027338      3.4697178      50218.233      36.893836      36.893836      36.893836    
  47300000   0.49197226    -7.839525      -7.1015771      3.4594039      50218.233      36.893836      36.893836      36.893836    
  47400000   0.48939357    -7.8372578     -7.1031779      3.4890822      50218.233      36.893836      36.893836      36.893836    
  47500000   0.48985342    -7.8404494     -7.1056797      3.4551787      50218.233      36.893836      36.893836      36.893836    
  47600000   0.490051      -7.8390972     -7.1040312      3.4661626      50218.233      36.893836      36.893836      36.893836    
  47700000   0.49210302    -7.8358593     -7.0977153      3.4924568      50218.233      36.893836      36.893836      36.893836    
  47800000   0.48953969    -7.8366424     -7.1023433      3.4918113      50218.233      36.893836      36.893836      36.893836    
  47900000   0.48963864    -7.8403825     -7.105935       3.4604772      50218.233      36.893836      36.893836      36.893836    
  48000000   0.4905459     -7.8424866     -7.1066782      3.4484827      50218.233      36.893836      36.893836      36.893836    
  48100000   0.49074937    -7.8362339     -7.1001203      3.4893797      50218.233      36.893836      36.893836      36.893836    
  48200000   0.49078961    -7.8393901     -7.1032161      3.4717758      50218.233      36.893836      36.893836      36.893836    
  48300000   0.49213065    -7.8403386     -7.1021532      3.4484409      50218.233      36.893836      36.893836      36.893836    
  48400000   0.49005501    -7.8359325     -7.1008604      3.4979167      50218.233      36.893836      36.893836      36.893836    
  48500000   0.48997987    -7.8381854     -7.1032261      3.4815961      50218.233      36.893836      36.893836      36.893836    
  48600000   0.48899919    -7.8419966     -7.1085082      3.4456087      50218.233      36.893836      36.893836      36.893836    
  48700000   0.48674714    -7.8386746     -7.1085643      3.465232       50218.233      36.893836      36.893836      36.893836    
  48800000   0.49003473    -7.8404647     -7.1054231      3.4606414      50218.233      36.893836      36.893836      36.893836    
  48900000   0.4895784     -7.840467      -7.1061099      3.4546609      50218.233      36.893836      36.893836      36.893836    
  49000000   0.49193491    -7.8397089     -7.1018171      3.4635199      50218.233      36.893836      36.893836      36.893836    
  49100000   0.48947856    -7.8403693     -7.1061619      3.4545659      50218.233      36.893836      36.893836      36.893836    
  49200000   0.48748529    -7.8375127     -7.1062952      3.4759453      50218.233      36.893836      36.893836      36.893836    
  49300000   0.49163664    -7.836567      -7.0991226      3.4784123      50218.233      36.893836      36.893836      36.893836    
  49400000   0.49111041    -7.8360176     -7.0993624      3.5029039      50218.233      36.893836      36.893836      36.893836    
  49500000   0.49182789    -7.8395587     -7.1018273      3.4626522      50218.233      36.893836      36.893836      36.893836    
  49600000   0.48870144    -7.8386755     -7.1056337      3.4659744      50218.233      36.893836      36.893836      36.893836    
  49700000   0.49122184    -7.8378495     -7.1010272      3.4628737      50218.233      36.893836      36.893836      36.893836    
  49800000   0.48834861    -7.8361066     -7.1035941      3.4805928      50218.233      36.893836      36.893836      36.893836    
  49900000   0.48895952    -7.8399678     -7.1065389      3.4628227      50218.233      36.893836      36.893836      36.893836    
  50000000   0.49086769    -7.8411566     -7.1048655      3.4491435      50218.233      36.893836      36.893836      36.893836    
Loop time of 79083.6 on 5 procs for 50000000 steps with 70304 atoms

Performance: 546257.428 tau/day, 632.242 timesteps/s, 44.449 Matom-step/s
94.4% CPU use with 5 MPI tasks x 1 OpenMP threads

MPI task timing breakdown:
Section |  min time  |  avg time  |  max time  |%varavg| %total
---------------------------------------------------------------
Pair    | 27830      | 30029      | 32823      |1240.3 | 37.97
Neigh   | 255.16     | 291.73     | 334.2      | 181.6 |  0.37
Comm    | 11846      | 11990      | 12136      |  99.5 | 15.16
Output  | 0.091762   | 0.09529    | 0.10166    |   1.1 |  0.00
Modify  | 29867      | 32747      | 35036      |1240.3 | 41.41
Other   |            | 4026       |            |       |  5.09

Nlocal:        14060.8 ave       14114 max       14025 min
Histogram: 2 0 0 1 0 0 1 0 0 1
Nghost:        18743.8 ave       18781 max       18697 min
Histogram: 1 0 0 0 0 2 0 1 0 1
Neighs:              0 ave           0 max           0 min
Histogram: 5 0 0 0 0 0 0 0 0 0

Total # of neighbors = 0
Ave neighs/atom = 0
Neighbor list builds = 10176292
Dangerous builds = 0
clear
OMP_NUM_THREADS environment is not set. Defaulting to 1 thread. (src/comm.cpp:98)
  using 1 OpenMP thread(s) per MPI task
package gpu 0
jump dms470.lmp

variable T equal 470
# T = 1000* (temp in LJ unit)
variable f equal 100000
log log.${T}
log log.470
