variable TLJ equal (${T}/1000)
variable TLJ equal (340/1000)
variable NCyle equal 5
variable iStep equal (${f})
variable iStep equal (100000)
variable dumpStep equal (${f}*100)
variable dumpStep equal (100000*100)
variable runStep equal (${f}*100*${NCyle})
variable runStep equal (100000*100*${NCyle})
variable runStep equal (100000*100*5)

units       lj
atom_style  atomic
dimension 3
boundary     p p p
pair_style  lj/cut 2.5
read_data  ../data/T${T}.dat
read_data  ../data/T340.dat
Reading data file ...
  orthogonal box = (0.97250269 0.97250269 0.97250269) to (37.866338 37.866338 37.866338)
  1 by 1 by 5 MPI processor grid
  reading atoms ...
  70304 atoms
  reading velocities ...
  70304 velocities
  read_data CPU = 0.209 seconds
change_box all triclinic
Changing box ...
  triclinic box = (0.97250269 0.97250269 0.97250269) to (37.866338 37.866338 37.866338) with tilt (0 0 0)
mass 1 1
mass 2 1
pair_modify shift yes
pair_coeff  1 1 1 1
pair_coeff  1 2 1.5 0.8
pair_coeff  2 2 0.5 0.88


timestep 0.01
thermo ${iStep}
thermo 100000
reset_timestep 0
thermo_style custom step temp pe etotal press vol lx ly lz
fix             1 all nvt temp ${TLJ}  ${TLJ}  0.1
fix             1 all nvt temp 0.34  ${TLJ}  0.1
fix             1 all nvt temp 0.34  0.34  0.1
thermo_modify flush yes

fix dsf all deform 1 xy  wiggle 0.5  ${f}   units box
fix dsf all deform 1 xy  wiggle 0.5  100000   units box
fix ps1 all ave/time 1 1 ${iStep} c_thermo_press[1] c_thermo_press[2]  c_thermo_press[3] c_thermo_press[4]  c_thermo_press[5] c_thermo_press[6]  file  stress.${T}
fix ps1 all ave/time 1 1 100000 c_thermo_press[1] c_thermo_press[2]  c_thermo_press[3] c_thermo_press[4]  c_thermo_press[5] c_thermo_press[6]  file  stress.${T}
fix ps1 all ave/time 1 1 100000 c_thermo_press[1] c_thermo_press[2]  c_thermo_press[3] c_thermo_press[4]  c_thermo_press[5] c_thermo_press[6]  file  stress.340
dump            1 all custom ${dumpStep} dump.${T} id type x y z
dump            1 all custom 10000000 dump.${T} id type x y z
dump            1 all custom 10000000 dump.340 id type x y z
dump_modify 1 sort id
fix nodrift all momentum 1  linear 1 1 1
fix com_seed all recenter INIT INIT INIT shift all
run ${runStep}
run 50000000
Generated 0 of 1 mixed pair_coeff terms from geometric mixing rule
Per MPI rank memory allocation (min/avg/max) = 6.666 | 8.467 | 8.92 Mbytes
   Step          Temp          PotEng         TotEng         Press          Volume           Lx             Ly             Lz      
         0   0.33992576    -8.0851126     -7.5752312      1.4377135      50218.233      36.893836      36.893836      36.893836    
    100000   0.33917355    -8.0801056     -7.5713526      1.4712133      50218.233      36.893836      36.893836      36.893836    
    200000   0.33962404    -8.0813779     -7.5719491      1.4654229      50218.233      36.893836      36.893836      36.893836    
    300000   0.34077758    -8.077264      -7.5661049      1.4928839      50218.233      36.893836      36.893836      36.893836    
    400000   0.34002432    -8.0775512     -7.567522       1.4982115      50218.233      36.893836      36.893836      36.893836    
    500000   0.34084502    -8.0788399     -7.5675796      1.4900743      50218.233      36.893836      36.893836      36.893836    
    600000   0.33960778    -8.0767248     -7.5673204      1.5026365      50218.233      36.893836      36.893836      36.893836    
    700000   0.3403227     -8.0770019     -7.5665251      1.4913971      50218.233      36.893836      36.893836      36.893836    
    800000   0.33955278    -8.0766363     -7.5673143      1.5002936      50218.233      36.893836      36.893836      36.893836    
    900000   0.34014185    -8.0807815     -7.5705759      1.4625909      50218.233      36.893836      36.893836      36.893836    
   1000000   0.34098665    -8.0793462     -7.5678735      1.4758754      50218.233      36.893836      36.893836      36.893836    
   1100000   0.33815036    -8.0780567     -7.5708383      1.490469       50218.233      36.893836      36.893836      36.893836    
   1200000   0.34036112    -8.0763668     -7.5658324      1.4957586      50218.233      36.893836      36.893836      36.893836    
   1300000   0.33892621    -8.0747422     -7.5663601      1.5057952      50218.233      36.893836      36.893836      36.893836    
   1400000   0.33976509    -8.0778886     -7.5682482      1.4967686      50218.233      36.893836      36.893836      36.893836    
   1500000   0.34082222    -8.0761635     -7.5649375      1.5093684      50218.233      36.893836      36.893836      36.893836    
   1600000   0.33954803    -8.0764776     -7.5671628      1.5060513      50218.233      36.893836      36.893836      36.893836    
   1700000   0.34041278    -8.0760436     -7.5654317      1.5016153      50218.233      36.893836      36.893836      36.893836    
   1800000   0.3369454     -8.0812402     -7.5758293      1.4649522      50218.233      36.893836      36.893836      36.893836    
   1900000   0.3397392     -8.0792139     -7.5696124      1.4800525      50218.233      36.893836      36.893836      36.893836    
   2000000   0.33745534    -8.0785143     -7.5723385      1.4738933      50218.233      36.893836      36.893836      36.893836    
   2100000   0.34098681    -8.0796739     -7.5682009      1.4740997      50218.233      36.893836      36.893836      36.893836    
   2200000   0.33941955    -8.0753647     -7.5662426      1.5060592      50218.233      36.893836      36.893836      36.893836    
   2300000   0.33943608    -8.0754293     -7.5662824      1.5075874      50218.233      36.893836      36.893836      36.893836    
   2400000   0.34101849    -8.0778745     -7.5663541      1.4981244      50218.233      36.893836      36.893836      36.893836    
   2500000   0.33932123    -8.0758778     -7.5669032      1.4948824      50218.233      36.893836      36.893836      36.893836    
   2600000   0.34210541    -8.0778027     -7.5646518      1.4985869      50218.233      36.893836      36.893836      36.893836    
   2700000   0.34023006    -8.0773111     -7.5669733      1.4943216      50218.233      36.893836      36.893836      36.893836    
   2800000   0.34059493    -8.0784365     -7.5675514      1.4825761      50218.233      36.893836      36.893836      36.893836    
   2900000   0.34096793    -8.0761811     -7.5647365      1.5021052      50218.233      36.893836      36.893836      36.893836    
   3000000   0.34066746    -8.0782975     -7.5673036      1.4917748      50218.233      36.893836      36.893836      36.893836    
   3100000   0.34039333    -8.0783601     -7.5677773      1.4892702      50218.233      36.893836      36.893836      36.893836    
   3200000   0.33748483    -8.0765516     -7.5703316      1.5048085      50218.233      36.893836      36.893836      36.893836    
   3300000   0.33837677    -8.0788445     -7.5712865      1.483252       50218.233      36.893836      36.893836      36.893836    
   3400000   0.34053664    -8.0793489     -7.5685512      1.4844188      50218.233      36.893836      36.893836      36.893836    
   3500000   0.34160955    -8.0797513     -7.5673443      1.4785014      50218.233      36.893836      36.893836      36.893836    
   3600000   0.33866491    -8.0775257     -7.5695356      1.4870484      50218.233      36.893836      36.893836      36.893836    
   3700000   0.33947006    -8.0786644     -7.5694665      1.4802225      50218.233      36.893836      36.893836      36.893836    
   3800000   0.33876442    -8.0806554     -7.572516       1.4709079      50218.233      36.893836      36.893836      36.893836    
   3900000   0.34014613    -8.0781468     -7.5679349      1.483718       50218.233      36.893836      36.893836      36.893836    
   4000000   0.33920641    -8.0781198     -7.5693174      1.4923197      50218.233      36.893836      36.893836      36.893836    
   4100000   0.34077208    -8.0752068     -7.564056       1.5118992      50218.233      36.893836      36.893836      36.893836    
   4200000   0.33828971    -8.0781892     -7.5707618      1.4889737      50218.233      36.893836      36.893836      36.893836    
   4300000   0.33919459    -8.0773487     -7.5685641      1.4897745      50218.233      36.893836      36.893836      36.893836    
   4400000   0.34156977    -8.0771753     -7.5648279      1.4884879      50218.233      36.893836      36.893836      36.893836    
   4500000   0.33774907    -8.0759557     -7.5693393      1.5002772      50218.233      36.893836      36.893836      36.893836    
   4600000   0.34038463    -8.0754835     -7.5649138      1.5159939      50218.233      36.893836      36.893836      36.893836    
   4700000   0.33936533    -8.0805391     -7.5714983      1.4677053      50218.233      36.893836      36.893836      36.893836    
   4800000   0.33991673    -8.0788008     -7.568933       1.483311       50218.233      36.893836      36.893836      36.893836    
   4900000   0.33976348    -8.0775452     -7.5679073      1.5008299      50218.233      36.893836      36.893836      36.893836    
   5000000   0.34046012    -8.077323      -7.5666401      1.4962824      50218.233      36.893836      36.893836      36.893836    
   5100000   0.34082299    -8.0797853     -7.5685581      1.4822155      50218.233      36.893836      36.893836      36.893836    
   5200000   0.33965726    -8.0783286     -7.56885        1.4893998      50218.233      36.893836      36.893836      36.893836    
   5300000   0.33947684    -8.0807343     -7.5715262      1.4788919      50218.233      36.893836      36.893836      36.893836    
   5400000   0.33879746    -8.0757872     -7.5675982      1.5068604      50218.233      36.893836      36.893836      36.893836    
   5500000   0.33963859    -8.0789528     -7.5695021      1.4820108      50218.233      36.893836      36.893836      36.893836    
   5600000   0.34282307    -8.0795227     -7.5652954      1.481907       50218.233      36.893836      36.893836      36.893836    
   5700000   0.34110222    -8.0796662     -7.5680201      1.4814624      50218.233      36.893836      36.893836      36.893836    
   5800000   0.33833631    -8.076377      -7.5688797      1.4959076      50218.233      36.893836      36.893836      36.893836    
   5900000   0.34053714    -8.0784019     -7.5676035      1.4796098      50218.233      36.893836      36.893836      36.893836    
   6000000   0.34185172    -8.0794228     -7.5666525      1.4801533      50218.233      36.893836      36.893836      36.893836    
   6100000   0.33943673    -8.0759906     -7.5668428      1.4993721      50218.233      36.893836      36.893836      36.893836    
   6200000   0.33807156    -8.0795392     -7.572439       1.4735954      50218.233      36.893836      36.893836      36.893836    
   6300000   0.3415852     -8.0755203     -7.5631498      1.5108433      50218.233      36.893836      36.893836      36.893836    
   6400000   0.34213077    -8.0784834     -7.5652945      1.4960819      50218.233      36.893836      36.893836      36.893836    
   6500000   0.33918502    -8.0767088     -7.5679385      1.4907843      50218.233      36.893836      36.893836      36.893836    
   6600000   0.34104562    -8.0771336     -7.5655725      1.4912168      50218.233      36.893836      36.893836      36.893836    
   6700000   0.34135242    -8.0761555     -7.5641341      1.4983734      50218.233      36.893836      36.893836      36.893836    
   6800000   0.33924979    -8.0777835     -7.568916       1.4949004      50218.233      36.893836      36.893836      36.893836    
   6900000   0.34072033    -8.0781648     -7.5670916      1.4848699      50218.233      36.893836      36.893836      36.893836    
   7000000   0.3392909     -8.0745093     -7.5655802      1.5088672      50218.233      36.893836      36.893836      36.893836    
   7100000   0.34072523    -8.0745689     -7.5634884      1.5126316      50218.233      36.893836      36.893836      36.893836    
   7200000   0.3379468     -8.0781884     -7.5712754      1.4791806      50218.233      36.893836      36.893836      36.893836    
   7300000   0.34017512    -8.0777083     -7.5674529      1.4961325      50218.233      36.893836      36.893836      36.893836    
   7400000   0.34007434    -8.0775358     -7.5674315      1.4881265      50218.233      36.893836      36.893836      36.893836    
   7500000   0.34084614    -8.0776634     -7.5664015      1.4938655      50218.233      36.893836      36.893836      36.893836    
   7600000   0.34062606    -8.0775626     -7.5666308      1.4867069      50218.233      36.893836      36.893836      36.893836    
   7700000   0.33927947    -8.0768444     -7.5679325      1.4864667      50218.233      36.893836      36.893836      36.893836    
   7800000   0.33891118    -8.0750501     -7.5666906      1.506989       50218.233      36.893836      36.893836      36.893836    
   7900000   0.3395755     -8.0760261     -7.5666701      1.497346       50218.233      36.893836      36.893836      36.893836    
   8000000   0.34000555    -8.0790103     -7.5690092      1.4819951      50218.233      36.893836      36.893836      36.893836    
   8100000   0.33991749    -8.0762877     -7.5664188      1.5047181      50218.233      36.893836      36.893836      36.893836    
   8200000   0.34115279    -8.0781533     -7.5664314      1.4894698      50218.233      36.893836      36.893836      36.893836    
   8300000   0.34144942    -8.0793076     -7.5671407      1.4651639      50218.233      36.893836      36.893836      36.893836    
   8400000   0.33770825    -8.077005      -7.5704498      1.4906157      50218.233      36.893836      36.893836      36.893836    
   8500000   0.33907888    -8.0753478     -7.5667367      1.4968959      50218.233      36.893836      36.893836      36.893836    
   8600000   0.34010205    -8.0753764     -7.5652305      1.5103963      50218.233      36.893836      36.893836      36.893836    
   8700000   0.34046135    -8.0783317     -7.5676469      1.4801261      50218.233      36.893836      36.893836      36.893836    
   8800000   0.33756959    -8.0785163     -7.5721692      1.4750522      50218.233      36.893836      36.893836      36.893836    
   8900000   0.33892358    -8.0778406     -7.5694624      1.4795787      50218.233      36.893836      36.893836      36.893836    
   9000000   0.33974896    -8.0767958     -7.5671796      1.4894611      50218.233      36.893836      36.893836      36.893836    
   9100000   0.33965236    -8.078684      -7.5692127      1.4805972      50218.233      36.893836      36.893836      36.893836    
   9200000   0.34184064    -8.0752874     -7.5625338      1.505711       50218.233      36.893836      36.893836      36.893836    
   9300000   0.33923291    -8.0776598     -7.5688177      1.4921785      50218.233      36.893836      36.893836      36.893836    
   9400000   0.33885269    -8.0778395     -7.5695677      1.4842055      50218.233      36.893836      36.893836      36.893836    
   9500000   0.33959757    -8.0834095     -7.5740204      1.4396196      50218.233      36.893836      36.893836      36.893836    
   9600000   0.34136508    -8.0762693     -7.564229       1.4943807      50218.233      36.893836      36.893836      36.893836    
   9700000   0.34178083    -8.0790919     -7.566428       1.4719933      50218.233      36.893836      36.893836      36.893836    
   9800000   0.34006582    -8.0795175     -7.569426       1.4759322      50218.233      36.893836      36.893836      36.893836    
   9900000   0.33945627    -8.0797308     -7.5705536      1.4703296      50218.233      36.893836      36.893836      36.893836    
  10000000   0.33907332    -8.078166      -7.5695633      1.4811106      50218.233      36.893836      36.893836      36.893836    
  10100000   0.34178108    -8.0764412     -7.5637769      1.4923848      50218.233      36.893836      36.893836      36.893836    
  10200000   0.33987235    -8.0789884     -7.5691871      1.4803184      50218.233      36.893836      36.893836      36.893836    
  10300000   0.34231337    -8.0810115     -7.5675487      1.4578756      50218.233      36.893836      36.893836      36.893836    
  10400000   0.33974167    -8.0799206     -7.5703154      1.4733272      50218.233      36.893836      36.893836      36.893836    
  10500000   0.33979221    -8.0765914     -7.5669103      1.493238       50218.233      36.893836      36.893836      36.893836    
  10600000   0.34128371    -8.0800972     -7.568179       1.4691635      50218.233      36.893836      36.893836      36.893836    
  10700000   0.34019984    -8.0770417     -7.5667492      1.4990716      50218.233      36.893836      36.893836      36.893836    
  10800000   0.33956611    -8.0790315     -7.5696896      1.4765348      50218.233      36.893836      36.893836      36.893836    
  10900000   0.33973254    -8.076942      -7.5673505      1.4960708      50218.233      36.893836      36.893836      36.893836    
  11000000   0.34100479    -8.0791816     -7.5676817      1.4800005      50218.233      36.893836      36.893836      36.893836    
  11100000   0.34061032    -8.0774644     -7.5665562      1.4946438      50218.233      36.893836      36.893836      36.893836    
  11200000   0.34160719    -8.0766744     -7.564271       1.4970204      50218.233      36.893836      36.893836      36.893836    
  11300000   0.34084404    -8.078189      -7.5669302      1.4827002      50218.233      36.893836      36.893836      36.893836    
  11400000   0.33919707    -8.0772561     -7.5684677      1.4812152      50218.233      36.893836      36.893836      36.893836    
  11500000   0.34151736    -8.0768596     -7.5645908      1.4925668      50218.233      36.893836      36.893836      36.893836    
  11600000   0.34020673    -8.0799865     -7.5696837      1.4705396      50218.233      36.893836      36.893836      36.893836    
  11700000   0.33967916    -8.077618      -7.5681065      1.4954977      50218.233      36.893836      36.893836      36.893836    
  11800000   0.34054207    -8.0771837     -7.5663779      1.4949373      50218.233      36.893836      36.893836      36.893836    
  11900000   0.33993049    -8.0767273     -7.5668388      1.4946855      50218.233      36.893836      36.893836      36.893836    
  12000000   0.3408336     -8.0795265     -7.5682834      1.4736379      50218.233      36.893836      36.893836      36.893836    
  12100000   0.34089698    -8.0781049     -7.5667668      1.4843571      50218.233      36.893836      36.893836      36.893836    
  12200000   0.34050545    -8.0762062     -7.5654553      1.4902706      50218.233      36.893836      36.893836      36.893836    
  12300000   0.34073554    -8.0796353     -7.5685392      1.4784729      50218.233      36.893836      36.893836      36.893836    
  12400000   0.34035653    -8.0786185     -7.568091       1.4837887      50218.233      36.893836      36.893836      36.893836    
  12500000   0.3420032     -8.0791802     -7.5661827      1.4753077      50218.233      36.893836      36.893836      36.893836    
  12600000   0.34048249    -8.077042      -7.5663256      1.4946525      50218.233      36.893836      36.893836      36.893836    
  12700000   0.34013004    -8.0772177     -7.5670299      1.4850172      50218.233      36.893836      36.893836      36.893836    
  12800000   0.33831116    -8.0762524     -7.5687928      1.4990879      50218.233      36.893836      36.893836      36.893836    
  12900000   0.34005211    -8.0770708     -7.5669999      1.500862       50218.233      36.893836      36.893836      36.893836    
  13000000   0.33951087    -8.0793473     -7.5700882      1.4754125      50218.233      36.893836      36.893836      36.893836    
  13100000   0.33946296    -8.078942      -7.5697548      1.4798992      50218.233      36.893836      36.893836      36.893836    
  13200000   0.33910409    -8.0781147     -7.5694658      1.4957902      50218.233      36.893836      36.893836      36.893836    
  13300000   0.3412552     -8.0768739     -7.5649984      1.4967093      50218.233      36.893836      36.893836      36.893836    
  13400000   0.34101118    -8.0767891     -7.5652796      1.5019666      50218.233      36.893836      36.893836      36.893836    
  13500000   0.33980783    -8.0785648     -7.5688603      1.4769425      50218.233      36.893836      36.893836      36.893836    
  13600000   0.34049599    -8.0753591     -7.5646224      1.5168548      50218.233      36.893836      36.893836      36.893836    
  13700000   0.34031837    -8.0776827     -7.5672124      1.4966387      50218.233      36.893836      36.893836      36.893836    
  13800000   0.34053626    -8.080471      -7.5696738      1.4718085      50218.233      36.893836      36.893836      36.893836    
  13900000   0.34007527    -8.0790804     -7.5689747      1.47389        50218.233      36.893836      36.893836      36.893836    
  14000000   0.34079024    -8.0776712     -7.5664931      1.4869787      50218.233      36.893836      36.893836      36.893836    
  14100000   0.33946518    -8.0788968     -7.5697063      1.48785        50218.233      36.893836      36.893836      36.893836    
  14200000   0.34242576    -8.0789779     -7.5653466      1.4813737      50218.233      36.893836      36.893836      36.893836    
  14300000   0.33964641    -8.0788754     -7.5694131      1.4841536      50218.233      36.893836      36.893836      36.893836    
  14400000   0.34178931    -8.0775926     -7.564916       1.5025812      50218.233      36.893836      36.893836      36.893836    
  14500000   0.3408304     -8.0782791     -7.5670407      1.4905356      50218.233      36.893836      36.893836      36.893836    
  14600000   0.33997396    -8.0804286     -7.5704749      1.4718249      50218.233      36.893836      36.893836      36.893836    
  14700000   0.34263122    -8.0804513     -7.5665118      1.4723312      50218.233      36.893836      36.893836      36.893836    
  14800000   0.34080431    -8.0793424     -7.5681432      1.471731       50218.233      36.893836      36.893836      36.893836    
  14900000   0.33981616    -8.0782425     -7.5685255      1.4805318      50218.233      36.893836      36.893836      36.893836    
  15000000   0.34024181    -8.0794949     -7.5691394      1.4807103      50218.233      36.893836      36.893836      36.893836    
  15100000   0.34049771    -8.0773185     -7.5665792      1.4871686      50218.233      36.893836      36.893836      36.893836    
  15200000   0.33970786    -8.0781918     -7.5686373      1.4884663      50218.233      36.893836      36.893836      36.893836    
  15300000   0.33989859    -8.0801384     -7.5702978      1.4615642      50218.233      36.893836      36.893836      36.893836    
  15400000   0.3394498     -8.0793867     -7.5702193      1.4754215      50218.233      36.893836      36.893836      36.893836    
  15500000   0.33794853    -8.0783238     -7.5714083      1.4790309      50218.233      36.893836      36.893836      36.893836    
  15600000   0.34235924    -8.0771002     -7.5635687      1.4963693      50218.233      36.893836      36.893836      36.893836    
  15700000   0.34115837    -8.0789993     -7.567269       1.4809527      50218.233      36.893836      36.893836      36.893836    
  15800000   0.34041911    -8.0769434     -7.566322       1.4932181      50218.233      36.893836      36.893836      36.893836    
  15900000   0.34284832    -8.0793184     -7.5650532      1.4808925      50218.233      36.893836      36.893836      36.893836    
  16000000   0.34076228    -8.0779745     -7.5668384      1.4952778      50218.233      36.893836      36.893836      36.893836    
  16100000   0.33901446    -8.0806121     -7.5720976      1.4618115      50218.233      36.893836      36.893836      36.893836    
  16200000   0.34076902    -8.0755427     -7.5643965      1.5143043      50218.233      36.893836      36.893836      36.893836    
  16300000   0.33940554    -8.0782358     -7.5691348      1.4831477      50218.233      36.893836      36.893836      36.893836    
  16400000   0.3401734     -8.0782211     -7.5679683      1.48715        50218.233      36.893836      36.893836      36.893836    
  16500000   0.34033779    -8.0770823     -7.5665829      1.4948597      50218.233      36.893836      36.893836      36.893836    
  16600000   0.34100622    -8.0760969     -7.5645948      1.497995       50218.233      36.893836      36.893836      36.893836    
  16700000   0.34024437    -8.0756319     -7.5652726      1.5066262      50218.233      36.893836      36.893836      36.893836    
  16800000   0.33936029    -8.0763176     -7.5672844      1.5027929      50218.233      36.893836      36.893836      36.893836    
  16900000   0.34015838    -8.0772602     -7.5670299      1.4821667      50218.233      36.893836      36.893836      36.893836    
  17000000   0.34044411    -8.0804743     -7.5698154      1.47781        50218.233      36.893836      36.893836      36.893836    
  17100000   0.34105451    -8.07826       -7.5666855      1.4895531      50218.233      36.893836      36.893836      36.893836    
  17200000   0.33833776    -8.0778083     -7.5703089      1.480648       50218.233      36.893836      36.893836      36.893836    
  17300000   0.33890766    -8.0774348     -7.5690805      1.4916161      50218.233      36.893836      36.893836      36.893836    
  17400000   0.34011085    -8.0784207     -7.5682617      1.4815014      50218.233      36.893836      36.893836      36.893836    
  17500000   0.34113947    -8.0774747     -7.5657728      1.4952971      50218.233      36.893836      36.893836      36.893836    
  17600000   0.33953605    -8.0760118     -7.5667149      1.5002102      50218.233      36.893836      36.893836      36.893836    
  17700000   0.34017764    -8.0786707     -7.5684115      1.4869196      50218.233      36.893836      36.893836      36.893836    
  17800000   0.34160634    -8.0768079     -7.5644057      1.4891676      50218.233      36.893836      36.893836      36.893836    
  17900000   0.33922607    -8.0798243     -7.5709925      1.4686351      50218.233      36.893836      36.893836      36.893836    
  18000000   0.33955331    -8.0807613     -7.5714385      1.4619456      50218.233      36.893836      36.893836      36.893836    
  18100000   0.34001139    -8.0786298     -7.5686199      1.48457        50218.233      36.893836      36.893836      36.893836    
  18200000   0.34077589    -8.0796357     -7.5684791      1.4711673      50218.233      36.893836      36.893836      36.893836    
  18300000   0.34076452    -8.0742348     -7.5630952      1.5151691      50218.233      36.893836      36.893836      36.893836    
  18400000   0.34004043    -8.0788361     -7.5687828      1.4847827      50218.233      36.893836      36.893836      36.893836    
  18500000   0.33902632    -8.0763181     -7.5677859      1.5084003      50218.233      36.893836      36.893836      36.893836    
  18600000   0.33984766    -8.0796588     -7.5698946      1.4775344      50218.233      36.893836      36.893836      36.893836    
  18700000   0.34009838    -8.0768486     -7.5667083      1.493107       50218.233      36.893836      36.893836      36.893836    
  18800000   0.34000557    -8.0783553     -7.5683542      1.4782789      50218.233      36.893836      36.893836      36.893836    
  18900000   0.3397919     -8.0763914     -7.5667108      1.4965217      50218.233      36.893836      36.893836      36.893836    
  19000000   0.3399733     -8.0761947     -7.566242       1.5016061      50218.233      36.893836      36.893836      36.893836    
  19100000   0.34035424    -8.0783755     -7.5678514      1.4837785      50218.233      36.893836      36.893836      36.893836    
  19200000   0.33916977    -8.0780676     -7.5693201      1.4831052      50218.233      36.893836      36.893836      36.893836    
  19300000   0.34192067    -8.0790948     -7.5662211      1.4862769      50218.233      36.893836      36.893836      36.893836    
  19400000   0.34206813    -8.0761037     -7.5630088      1.5043605      50218.233      36.893836      36.893836      36.893836    
  19500000   0.34155855    -8.0773153     -7.5649848      1.4881934      50218.233      36.893836      36.893836      36.893836    
  19600000   0.33874705    -8.0762887     -7.5681754      1.5018566      50218.233      36.893836      36.893836      36.893836    
  19700000   0.341564      -8.0780712     -7.5657325      1.4835634      50218.233      36.893836      36.893836      36.893836    
  19800000   0.33892512    -8.0792983     -7.5709178      1.4701345      50218.233      36.893836      36.893836      36.893836    
  19900000   0.33874248    -8.0783663     -7.5702599      1.4831772      50218.233      36.893836      36.893836      36.893836    
  20000000   0.34028904    -8.0791568     -7.5687305      1.4732904      50218.233      36.893836      36.893836      36.893836    
  20100000   0.34156553    -8.0769802     -7.5646392      1.4963503      50218.233      36.893836      36.893836      36.893836    
  20200000   0.34152432    -8.0796096     -7.5673305      1.4736765      50218.233      36.893836      36.893836      36.893836    
  20300000   0.34149072    -8.0794103     -7.5671815      1.4799901      50218.233      36.893836      36.893836      36.893836    
  20400000   0.34027431    -8.0787242     -7.56832        1.4800749      50218.233      36.893836      36.893836      36.893836    
  20500000   0.33927492    -8.0796243     -7.5707191      1.4733769      50218.233      36.893836      36.893836      36.893836    
  20600000   0.33856425    -8.0787856     -7.5709465      1.4733137      50218.233      36.893836      36.893836      36.893836    
  20700000   0.33945797    -8.0797658     -7.5705861      1.474914       50218.233      36.893836      36.893836      36.893836    
  20800000   0.33845242    -8.0758382     -7.5681668      1.4952214      50218.233      36.893836      36.893836      36.893836    
  20900000   0.34147692    -8.0814539     -7.5692458      1.4709107      50218.233      36.893836      36.893836      36.893836    
  21000000   0.33837482    -8.078388      -7.570833       1.4846501      50218.233      36.893836      36.893836      36.893836    
  21100000   0.34109245    -8.0781255     -7.5664941      1.4984832      50218.233      36.893836      36.893836      36.893836    
  21200000   0.34182692    -8.079032      -7.566299       1.4929617      50218.233      36.893836      36.893836      36.893836    
  21300000   0.33900656    -8.0771826     -7.56868        1.4943404      50218.233      36.893836      36.893836      36.893836    
  21400000   0.33865514    -8.0781424     -7.5701669      1.4850501      50218.233      36.893836      36.893836      36.893836    
  21500000   0.33781823    -8.0805296     -7.5738095      1.4706508      50218.233      36.893836      36.893836      36.893836    
  21600000   0.33954041    -8.078137      -7.5688336      1.490675       50218.233      36.893836      36.893836      36.893836    
  21700000   0.34042768    -8.0788911     -7.5682568      1.4828038      50218.233      36.893836      36.893836      36.893836    
  21800000   0.3402455     -8.0770447     -7.5666837      1.4982073      50218.233      36.893836      36.893836      36.893836    
  21900000   0.34007005    -8.0771017     -7.5670038      1.4923679      50218.233      36.893836      36.893836      36.893836    
  22000000   0.34219748    -8.0742907     -7.5610017      1.5184715      50218.233      36.893836      36.893836      36.893836    
  22100000   0.33938221    -8.0787216     -7.5696555      1.474467       50218.233      36.893836      36.893836      36.893836    
  22200000   0.34129261    -8.0753398     -7.5634081      1.5051989      50218.233      36.893836      36.893836      36.893836    
  22300000   0.340716      -8.0761543     -7.5650875      1.5096815      50218.233      36.893836      36.893836      36.893836    
  22400000   0.34009637    -8.0783043     -7.568167       1.4893918      50218.233      36.893836      36.893836      36.893836    
  22500000   0.33880217    -8.0777376     -7.5695416      1.4935711      50218.233      36.893836      36.893836      36.893836    
  22600000   0.34070243    -8.0778722     -7.5668258      1.4931873      50218.233      36.893836      36.893836      36.893836    
  22700000   0.34036345    -8.0788675     -7.5683296      1.482693       50218.233      36.893836      36.893836      36.893836    
  22800000   0.34042199    -8.0760144     -7.5653887      1.5098202      50218.233      36.893836      36.893836      36.893836    
  22900000   0.34126622    -8.0737928     -7.5619007      1.5286102      50218.233      36.893836      36.893836      36.893836    
  23000000   0.33947152    -8.0800121     -7.570812       1.4748441      50218.233      36.893836      36.893836      36.893836    
  23100000   0.34110254    -8.0779814     -7.5663349      1.4862033      50218.233      36.893836      36.893836      36.893836    
  23200000   0.3403989     -8.0769874     -7.5663963      1.4959927      50218.233      36.893836      36.893836      36.893836    
  23300000   0.34050588    -8.0765015     -7.5657499      1.4891949      50218.233      36.893836      36.893836      36.893836    
  23400000   0.33970101    -8.0757225     -7.5661782      1.5033956      50218.233      36.893836      36.893836      36.893836    
  23500000   0.34025677    -8.0779927     -7.5676148      1.4899363      50218.233      36.893836      36.893836      36.893836    
  23600000   0.33829854    -8.0778974     -7.5704568      1.4909118      50218.233      36.893836      36.893836      36.893836    
  23700000   0.34107369    -8.0772367     -7.5656334      1.4975718      50218.233      36.893836      36.893836      36.893836    
  23800000   0.3388632     -8.0785578     -7.5702702      1.4782068      50218.233      36.893836      36.893836      36.893836    
  23900000   0.33859024    -8.0796895     -7.5718114      1.4717896      50218.233      36.893836      36.893836      36.893836    
  24000000   0.34010425    -8.0807135     -7.5705644      1.4626613      50218.233      36.893836      36.893836      36.893836    
  24100000   0.34167875    -8.0771835     -7.5646727      1.4906316      50218.233      36.893836      36.893836      36.893836    
  24200000   0.33934531    -8.0790493     -7.5700386      1.4857896      50218.233      36.893836      36.893836      36.893836    
  24300000   0.33915544    -8.078314      -7.5695881      1.4782431      50218.233      36.893836      36.893836      36.893836    
  24400000   0.34045572    -8.0814614     -7.5707851      1.4582963      50218.233      36.893836      36.893836      36.893836    
  24500000   0.34034998    -8.0790618     -7.5685441      1.4804071      50218.233      36.893836      36.893836      36.893836    
  24600000   0.34037828    -8.0801581     -7.5695979      1.4638236      50218.233      36.893836      36.893836      36.893836    
  24700000   0.34095653    -8.081206      -7.5697785      1.4709092      50218.233      36.893836      36.893836      36.893836    
  24800000   0.33993974    -8.0792563     -7.569354       1.4802647      50218.233      36.893836      36.893836      36.893836    
  24900000   0.33946104    -8.0819631     -7.5727787      1.4561466      50218.233      36.893836      36.893836      36.893836    
  25000000   0.34228412    -8.0811389     -7.56772        1.4722132      50218.233      36.893836      36.893836      36.893836    
  25100000   0.34035629    -8.0795158     -7.5689886      1.4748276      50218.233      36.893836      36.893836      36.893836    
  25200000   0.33857544    -8.0791161     -7.5712601      1.472772       50218.233      36.893836      36.893836      36.893836    
  25300000   0.33975921    -8.0802346     -7.570603       1.4636933      50218.233      36.893836      36.893836      36.893836    
  25400000   0.34071637    -8.0800256     -7.5689583      1.4760691      50218.233      36.893836      36.893836      36.893836    
  25500000   0.33885038    -8.0786067     -7.5703384      1.4809431      50218.233      36.893836      36.893836      36.893836    
  25600000   0.33985358    -8.0779978     -7.5682247      1.4870565      50218.233      36.893836      36.893836      36.893836    
  25700000   0.33850201    -8.0794648     -7.571719       1.4792924      50218.233      36.893836      36.893836      36.893836    
  25800000   0.33976336    -8.0795223     -7.5698845      1.4711323      50218.233      36.893836      36.893836      36.893836    
  25900000   0.33985761    -8.0820179     -7.5722387      1.4624664      50218.233      36.893836      36.893836      36.893836    
  26000000   0.33922257    -8.0761274     -7.5673008      1.4930534      50218.233      36.893836      36.893836      36.893836    
  26100000   0.3400079     -8.0827855     -7.5727809      1.4565633      50218.233      36.893836      36.893836      36.893836    
  26200000   0.34110584    -8.0768467     -7.5651952      1.5020316      50218.233      36.893836      36.893836      36.893836    
  26300000   0.33958523    -8.0785173     -7.5691467      1.488033       50218.233      36.893836      36.893836      36.893836    
  26400000   0.33994926    -8.0774512     -7.5675345      1.4910089      50218.233      36.893836      36.893836      36.893836    
  26500000   0.33838869    -8.08022       -7.5726442      1.4691185      50218.233      36.893836      36.893836      36.893836    
  26600000   0.34124973    -8.0784968     -7.5666294      1.4857493      50218.233      36.893836      36.893836      36.893836    
  26700000   0.33810033    -8.0776937     -7.5705504      1.4862615      50218.233      36.893836      36.893836      36.893836    
  26800000   0.34066083    -8.0777866     -7.5668026      1.4922402      50218.233      36.893836      36.893836      36.893836    
  26900000   0.33813265    -8.0787359     -7.5715441      1.477316       50218.233      36.893836      36.893836      36.893836    
  27000000   0.3410504     -8.0778019     -7.5662336      1.4972779      50218.233      36.893836      36.893836      36.893836    
  27100000   0.33969832    -8.0794061     -7.5698659      1.479095       50218.233      36.893836      36.893836      36.893836    
  27200000   0.33842749    -8.0800546     -7.5724206      1.4657297      50218.233      36.893836      36.893836      36.893836    
  27300000   0.34113861    -8.0785506     -7.56685        1.4848288      50218.233      36.893836      36.893836      36.893836    
  27400000   0.33880746    -8.0791723     -7.5709684      1.4808363      50218.233      36.893836      36.893836      36.893836    
  27500000   0.33999838    -8.0783111     -7.5683208      1.4864073      50218.233      36.893836      36.893836      36.893836    
  27600000   0.34065345    -8.0765155     -7.5655426      1.5002442      50218.233      36.893836      36.893836      36.893836    
  27700000   0.34058098    -8.0784643     -7.5676001      1.4805956      50218.233      36.893836      36.893836      36.893836    
  27800000   0.34050849    -8.0795245     -7.5687691      1.474756       50218.233      36.893836      36.893836      36.893836    
  27900000   0.33992992    -8.0787579     -7.5688702      1.4852248      50218.233      36.893836      36.893836      36.893836    
  28000000   0.3383472     -8.0764321     -7.5689185      1.4944816      50218.233      36.893836      36.893836      36.893836    
  28100000   0.33871509    -8.0767106     -7.5686452      1.497712       50218.233      36.893836      36.893836      36.893836    
  28200000   0.3417661     -8.078989      -7.5663471      1.4792783      50218.233      36.893836      36.893836      36.893836    
  28300000   0.3397376     -8.0746604     -7.5650612      1.5092719      50218.233      36.893836      36.893836      36.893836    
  28400000   0.34080819    -8.0778288     -7.5666238      1.4865457      50218.233      36.893836      36.893836      36.893836    
  28500000   0.33911371    -8.0784257     -7.5697624      1.4819031      50218.233      36.893836      36.893836      36.893836    
  28600000   0.34034617    -8.0776178     -7.5671058      1.4867482      50218.233      36.893836      36.893836      36.893836    
  28700000   0.33795712    -8.0755462     -7.5686177      1.5008124      50218.233      36.893836      36.893836      36.893836    
  28800000   0.33921921    -8.0806261     -7.5718045      1.4678284      50218.233      36.893836      36.893836      36.893836    
  28900000   0.33993238    -8.0792439     -7.5693526      1.4774154      50218.233      36.893836      36.893836      36.893836    
  29000000   0.34232086    -8.0767962     -7.5633223      1.5017771      50218.233      36.893836      36.893836      36.893836    
  29100000   0.34104469    -8.0796681     -7.5681084      1.480718       50218.233      36.893836      36.893836      36.893836    
  29200000   0.33935714    -8.0831423     -7.5741139      1.4450602      50218.233      36.893836      36.893836      36.893836    
  29300000   0.3385135     -8.0801824     -7.5724194      1.4641307      50218.233      36.893836      36.893836      36.893836    
  29400000   0.34209586    -8.0797003     -7.5665638      1.4791503      50218.233      36.893836      36.893836      36.893836    
  29500000   0.33890068    -8.0804069     -7.5720631      1.4615063      50218.233      36.893836      36.893836      36.893836    
  29600000   0.33918224    -8.0804751     -7.571709       1.468642       50218.233      36.893836      36.893836      36.893836    
  29700000   0.33960516    -8.0801339     -7.5707334      1.4696214      50218.233      36.893836      36.893836      36.893836    
  29800000   0.3411401     -8.080363      -7.5686601      1.475372       50218.233      36.893836      36.893836      36.893836    
  29900000   0.34084335    -8.0822131     -7.5709554      1.4594682      50218.233      36.893836      36.893836      36.893836    
  30000000   0.33924348    -8.0807068     -7.5718488      1.4562742      50218.233      36.893836      36.893836      36.893836    
  30100000   0.33930915    -8.0775275     -7.5685711      1.4967194      50218.233      36.893836      36.893836      36.893836    
  30200000   0.33994443    -8.0804289     -7.5705195      1.4679009      50218.233      36.893836      36.893836      36.893836    
  30300000   0.33979529    -8.07997       -7.5702843      1.4757747      50218.233      36.893836      36.893836      36.893836    
  30400000   0.34064975    -8.0788371     -7.5678697      1.4863145      50218.233      36.893836      36.893836      36.893836    
  30500000   0.34007546    -8.0837418     -7.5736358      1.4412418      50218.233      36.893836      36.893836      36.893836    
  30600000   0.34172131    -8.0803864     -7.5678117      1.4690938      50218.233      36.893836      36.893836      36.893836    
  30700000   0.33968957    -8.0827599     -7.5732328      1.4512435      50218.233      36.893836      36.893836      36.893836    
  30800000   0.33996645    -8.0804121     -7.5704697      1.469779       50218.233      36.893836      36.893836      36.893836    
  30900000   0.34036355    -8.0779467     -7.5674086      1.4913823      50218.233      36.893836      36.893836      36.893836    
  31000000   0.33797584    -8.0797806     -7.572824       1.4779502      50218.233      36.893836      36.893836      36.893836    
  31100000   0.33978526    -8.0783        -7.5686294      1.4902678      50218.233      36.893836      36.893836      36.893836    
  31200000   0.34113583    -8.077541      -7.5658445      1.4882901      50218.233      36.893836      36.893836      36.893836    
  31300000   0.34091168    -8.0772898     -7.5659296      1.4851004      50218.233      36.893836      36.893836      36.893836    
  31400000   0.33888371    -8.0805728     -7.5722544      1.470945       50218.233      36.893836      36.893836      36.893836    
  31500000   0.3394389     -8.0775939     -7.5684428      1.4789178      50218.233      36.893836      36.893836      36.893836    
  31600000   0.33827704    -8.0806581     -7.5732498      1.46971        50218.233      36.893836      36.893836      36.893836    
  31700000   0.34063931    -8.0773043     -7.5663526      1.4970865      50218.233      36.893836      36.893836      36.893836    
  31800000   0.34134603    -8.0790477     -7.567036       1.4883534      50218.233      36.893836      36.893836      36.893836    
  31900000   0.33840227    -8.0782071     -7.5706109      1.4851929      50218.233      36.893836      36.893836      36.893836    
  32000000   0.33799416    -8.0796312     -7.5726471      1.4766886      50218.233      36.893836      36.893836      36.893836    
  32100000   0.34033094    -8.0790472     -7.5685581      1.4837905      50218.233      36.893836      36.893836      36.893836    
  32200000   0.33988045    -8.0764693     -7.5666558      1.4968149      50218.233      36.893836      36.893836      36.893836    
  32300000   0.33846632    -8.0786734     -7.5709811      1.4885715      50218.233      36.893836      36.893836      36.893836    
  32400000   0.34066619    -8.078942      -7.56795        1.4789807      50218.233      36.893836      36.893836      36.893836    
  32500000   0.33902471    -8.0777037     -7.5691738      1.4921138      50218.233      36.893836      36.893836      36.893836    
  32600000   0.34062339    -8.0813249     -7.5703971      1.4660478      50218.233      36.893836      36.893836      36.893836    
  32700000   0.34043475    -8.0774337     -7.5667888      1.4836878      50218.233      36.893836      36.893836      36.893836    
  32800000   0.34029611    -8.0759361     -7.5654992      1.5064737      50218.233      36.893836      36.893836      36.893836    
  32900000   0.34060708    -8.0818684     -7.570965       1.4624023      50218.233      36.893836      36.893836      36.893836    
  33000000   0.33971166    -8.0787916     -7.5692313      1.4841857      50218.233      36.893836      36.893836      36.893836    
  33100000   0.33964659    -8.0756456     -7.5661829      1.5019127      50218.233      36.893836      36.893836      36.893836    
  33200000   0.33940345    -8.0803228     -7.5712249      1.4684714      50218.233      36.893836      36.893836      36.893836    
  33300000   0.34040861    -8.080742      -7.5701364      1.4635582      50218.233      36.893836      36.893836      36.893836    
  33400000   0.34126569    -8.0797529     -7.5678617      1.4724081      50218.233      36.893836      36.893836      36.893836    
  33500000   0.34069656    -8.0769466     -7.565909       1.4992917      50218.233      36.893836      36.893836      36.893836    
  33600000   0.33788885    -8.0813747     -7.5745487      1.4577794      50218.233      36.893836      36.893836      36.893836    
  33700000   0.33984175    -8.0816947     -7.5719393      1.4603221      50218.233      36.893836      36.893836      36.893836    
  33800000   0.34053445    -8.0777791     -7.5669847      1.4939884      50218.233      36.893836      36.893836      36.893836    
  33900000   0.34072954    -8.0786983     -7.5676112      1.4808919      50218.233      36.893836      36.893836      36.893836    
  34000000   0.34005977    -8.0794982     -7.5694158      1.476682       50218.233      36.893836      36.893836      36.893836    
  34100000   0.33913111    -8.078144      -7.5694546      1.4934613      50218.233      36.893836      36.893836      36.893836    
  34200000   0.3382964     -8.0807423     -7.573305       1.4719529      50218.233      36.893836      36.893836      36.893836    
  34300000   0.33998096    -8.0777373     -7.5677732      1.4892271      50218.233      36.893836      36.893836      36.893836    
  34400000   0.34014777    -8.0795694     -7.569355       1.4731159      50218.233      36.893836      36.893836      36.893836    
  34500000   0.34125299    -8.0775812     -7.565709       1.5003961      50218.233      36.893836      36.893836      36.893836    
  34600000   0.34077222    -8.0810041     -7.5698531      1.4670132      50218.233      36.893836      36.893836      36.893836    
  34700000   0.34033472    -8.0793602     -7.5688654      1.482167       50218.233      36.893836      36.893836      36.893836    
  34800000   0.34170009    -8.08118       -7.5686372      1.4573425      50218.233      36.893836      36.893836      36.893836    
  34900000   0.34145381    -8.0804151     -7.5682417      1.4698032      50218.233      36.893836      36.893836      36.893836    
  35000000   0.33967387    -8.0784476     -7.5689441      1.4793052      50218.233      36.893836      36.893836      36.893836    
  35100000   0.33997173    -8.0794233     -7.569473       1.4726776      50218.233      36.893836      36.893836      36.893836    
  35200000   0.34100499    -8.0789664     -7.5674662      1.4799162      50218.233      36.893836      36.893836      36.893836    
  35300000   0.33856954    -8.080834      -7.5729869      1.468179       50218.233      36.893836      36.893836      36.893836    
  35400000   0.34174694    -8.0786907     -7.5660776      1.4904377      50218.233      36.893836      36.893836      36.893836    
  35500000   0.34061772    -8.0794951     -7.5685758      1.4751757      50218.233      36.893836      36.893836      36.893836    
  35600000   0.34087095    -8.076194      -7.5648948      1.5087065      50218.233      36.893836      36.893836      36.893836    
  35700000   0.34077962    -8.0782584     -7.5670962      1.4942089      50218.233      36.893836      36.893836      36.893836    
  35800000   0.34042162    -8.0815445     -7.5709194      1.466573       50218.233      36.893836      36.893836      36.893836    
  35900000   0.33920665    -8.0797457     -7.5709429      1.4745861      50218.233      36.893836      36.893836      36.893836    
  36000000   0.33996192    -8.0790178     -7.5690821      1.4771578      50218.233      36.893836      36.893836      36.893836    
  36100000   0.34007915    -8.0799922     -7.5698808      1.4759143      50218.233      36.893836      36.893836      36.893836    
  36200000   0.34026634    -8.0786303     -7.5682381      1.4902297      50218.233      36.893836      36.893836      36.893836    
  36300000   0.34238294    -8.080147      -7.5665799      1.4724218      50218.233      36.893836      36.893836      36.893836    
  36400000   0.33962219    -8.0784089     -7.5689828      1.4812253      50218.233      36.893836      36.893836      36.893836    
  36500000   0.34014544    -8.077806      -7.5675951      1.4901863      50218.233      36.893836      36.893836      36.893836    
  36600000   0.33924579    -8.0785988     -7.5697373      1.4764732      50218.233      36.893836      36.893836      36.893836    
  36700000   0.3410794     -8.0765198     -7.564908       1.5017839      50218.233      36.893836      36.893836      36.893836    
  36800000   0.34222058    -8.076718      -7.5633944      1.4975404      50218.233      36.893836      36.893836      36.893836    
  36900000   0.33866469    -8.0784498     -7.5704599      1.4786361      50218.233      36.893836      36.893836      36.893836    
  37000000   0.33955196    -8.0795698     -7.5702491      1.4783443      50218.233      36.893836      36.893836      36.893836    
  37100000   0.34149758    -8.0802499     -7.5680108      1.4712275      50218.233      36.893836      36.893836      36.893836    
  37200000   0.33851923    -8.074499      -7.5667274      1.5148292      50218.233      36.893836      36.893836      36.893836    
  37300000   0.33885853    -8.0813801     -7.5730995      1.4602194      50218.233      36.893836      36.893836      36.893836    
  37400000   0.34040288    -8.0793486     -7.5687516      1.4757949      50218.233      36.893836      36.893836      36.893836    
  37500000   0.3394332     -8.0767762     -7.5676337      1.5026889      50218.233      36.893836      36.893836      36.893836    
  37600000   0.33995417    -8.0785189     -7.5685949      1.4885459      50218.233      36.893836      36.893836      36.893836    
  37700000   0.34021016    -8.0796448     -7.5693368      1.478817       50218.233      36.893836      36.893836      36.893836    
  37800000   0.3401165     -8.0753373     -7.5651698      1.5159267      50218.233      36.893836      36.893836      36.893836    
  37900000   0.33874958    -8.0776368     -7.5695197      1.4892867      50218.233      36.893836      36.893836      36.893836    
  38000000   0.34180378    -8.0778018     -7.5651034      1.4808432      50218.233      36.893836      36.893836      36.893836    
  38100000   0.33973897    -8.0786137     -7.5690125      1.4813761      50218.233      36.893836      36.893836      36.893836    
  38200000   0.33943092    -8.0797538     -7.5706146      1.4739125      50218.233      36.893836      36.893836      36.893836    
  38300000   0.33918795    -8.0805685     -7.5717939      1.4637075      50218.233      36.893836      36.893836      36.893836    
  38400000   0.34164295    -8.0780514     -7.5655942      1.4825958      50218.233      36.893836      36.893836      36.893836    
  38500000   0.34154353    -8.0797285     -7.5674205      1.4768677      50218.233      36.893836      36.893836      36.893836    
  38600000   0.34228126    -8.0795522     -7.5661377      1.4764228      50218.233      36.893836      36.893836      36.893836    
  38700000   0.34013904    -8.0783197     -7.5681184      1.4869464      50218.233      36.893836      36.893836      36.893836    
  38800000   0.34007634    -8.0756222     -7.565515       1.5046694      50218.233      36.893836      36.893836      36.893836    
  38900000   0.34072459    -8.0776205     -7.5665409      1.4890873      50218.233      36.893836      36.893836      36.893836    
  39000000   0.34223677    -8.0770141     -7.5636662      1.4921545      50218.233      36.893836      36.893836      36.893836    
  39100000   0.33799133    -8.0786569     -7.5716771      1.4794646      50218.233      36.893836      36.893836      36.893836    
  39200000   0.34004374    -8.0785388     -7.5684804      1.4796245      50218.233      36.893836      36.893836      36.893836    
  39300000   0.33999307    -8.0791358     -7.5691534      1.4799902      50218.233      36.893836      36.893836      36.893836    
  39400000   0.33976481    -8.0763621     -7.5667222      1.4976048      50218.233      36.893836      36.893836      36.893836    
  39500000   0.33931331    -8.0804123     -7.5714496      1.4654136      50218.233      36.893836      36.893836      36.893836    
  39600000   0.34126205    -8.0761973     -7.5643115      1.4997689      50218.233      36.893836      36.893836      36.893836    
  39700000   0.33894703    -8.0784304     -7.5700171      1.4786524      50218.233      36.893836      36.893836      36.893836    
  39800000   0.34166549    -8.0795179     -7.567027       1.475273       50218.233      36.893836      36.893836      36.893836    
  39900000   0.33907824    -8.0811372     -7.5725271      1.4637456      50218.233      36.893836      36.893836      36.893836    
  40000000   0.3392514     -8.0803745     -7.5715047      1.4649553      50218.233      36.893836      36.893836      36.893836    
  40100000   0.34032269    -8.0783311     -7.5678544      1.4829757      50218.233      36.893836      36.893836      36.893836    
  40200000   0.33884       -8.0808515     -7.5725987      1.4638033      50218.233      36.893836      36.893836      36.893836    
  40300000   0.33913992    -8.0780838     -7.5693812      1.4894005      50218.233      36.893836      36.893836      36.893836    
  40400000   0.33945021    -8.0808605     -7.5716924      1.4599097      50218.233      36.893836      36.893836      36.893836    
  40500000   0.34004842    -8.0818116     -7.5717462      1.4587017      50218.233      36.893836      36.893836      36.893836    
  40600000   0.33843136    -8.0797017     -7.5720619      1.4736048      50218.233      36.893836      36.893836      36.893836    
  40700000   0.34095902    -8.0776428     -7.5662115      1.4969461      50218.233      36.893836      36.893836      36.893836    
  40800000   0.33937139    -8.0796969     -7.5706471      1.4711372      50218.233      36.893836      36.893836      36.893836    
  40900000   0.33994869    -8.079842      -7.5699263      1.487139       50218.233      36.893836      36.893836      36.893836    
  41000000   0.33995005    -8.0781153     -7.5681975      1.4888526      50218.233      36.893836      36.893836      36.893836    
  41100000   0.34160961    -8.0779064     -7.5654992      1.4977662      50218.233      36.893836      36.893836      36.893836    
  41200000   0.33785035    -8.0807065     -7.5739382      1.4622273      50218.233      36.893836      36.893836      36.893836    
  41300000   0.33819895    -8.0791974     -7.5719061      1.4787673      50218.233      36.893836      36.893836      36.893836    
  41400000   0.33998163    -8.0796211     -7.5696559      1.4804701      50218.233      36.893836      36.893836      36.893836    
  41500000   0.33968447    -8.0804722     -7.5709527      1.4696504      50218.233      36.893836      36.893836      36.893836    
  41600000   0.33890408    -8.0793178     -7.5709689      1.4798547      50218.233      36.893836      36.893836      36.893836    
  41700000   0.33888493    -8.0767137     -7.5683935      1.498736       50218.233      36.893836      36.893836      36.893836    
  41800000   0.33968904    -8.0787304     -7.5692041      1.480199       50218.233      36.893836      36.893836      36.893836    
  41900000   0.34095788    -8.0760022     -7.5645726      1.5064089      50218.233      36.893836      36.893836      36.893836    
  42000000   0.33918999    -8.080696      -7.5719183      1.4630976      50218.233      36.893836      36.893836      36.893836    
  42100000   0.34051674    -8.0774049     -7.5666371      1.4931067      50218.233      36.893836      36.893836      36.893836    
  42200000   0.34056126    -8.0768561     -7.5660215      1.4930045      50218.233      36.893836      36.893836      36.893836    
  42300000   0.33908437    -8.0779164     -7.569297       1.4825198      50218.233      36.893836      36.893836      36.893836    
  42400000   0.33942557    -8.0791692     -7.5700381      1.4761165      50218.233      36.893836      36.893836      36.893836    
  42500000   0.34257342    -8.0751779     -7.5613251      1.5064426      50218.233      36.893836      36.893836      36.893836    
  42600000   0.3388293     -8.0798145     -7.5715778      1.4802016      50218.233      36.893836      36.893836      36.893836    
  42700000   0.33983035    -8.0794985     -7.5697602      1.4773867      50218.233      36.893836      36.893836      36.893836    
  42800000   0.34052311    -8.0786942     -7.5679168      1.4859929      50218.233      36.893836      36.893836      36.893836    
  42900000   0.34122219    -8.0821223     -7.5702963      1.4565215      50218.233      36.893836      36.893836      36.893836    
  43000000   0.34146463    -8.0810319     -7.5688422      1.4666676      50218.233      36.893836      36.893836      36.893836    
  43100000   0.33914928    -8.0803753     -7.5716586      1.4705384      50218.233      36.893836      36.893836      36.893836    
  43200000   0.33975641    -8.0789948     -7.5693674      1.4768266      50218.233      36.893836      36.893836      36.893836    
  43300000   0.34022466    -8.0779656     -7.5676359      1.4896554      50218.233      36.893836      36.893836      36.893836    
  43400000   0.34001683    -8.0788322     -7.5688142      1.482472       50218.233      36.893836      36.893836      36.893836    
  43500000   0.34087533    -8.0788138     -7.567508       1.4865869      50218.233      36.893836      36.893836      36.893836    
  43600000   0.33927815    -8.078256      -7.5693461      1.4812451      50218.233      36.893836      36.893836      36.893836    
  43700000   0.33772642    -8.0754936     -7.5689112      1.5034361      50218.233      36.893836      36.893836      36.893836    
  43800000   0.33950447    -8.0797345     -7.570485       1.4667443      50218.233      36.893836      36.893836      36.893836    
  43900000   0.3395997     -8.0810059     -7.5716136      1.4652864      50218.233      36.893836      36.893836      36.893836    
  44000000   0.34014749    -8.0782021     -7.5679882      1.4943755      50218.233      36.893836      36.893836      36.893836    
  44100000   0.34142542    -8.0807404     -7.5686096      1.4778745      50218.233      36.893836      36.893836      36.893836    
  44200000   0.33997951    -8.0804669     -7.5705049      1.464101       50218.233      36.893836      36.893836      36.893836    
  44300000   0.34060603    -8.0783381     -7.5674363      1.4837528      50218.233      36.893836      36.893836      36.893836    
  44400000   0.33799078    -8.0789987     -7.5720198      1.474916       50218.233      36.893836      36.893836      36.893836    
  44500000   0.34095149    -8.0808035     -7.5693836      1.4703985      50218.233      36.893836      36.893836      36.893836    
  44600000   0.34090986    -8.0792444     -7.5678869      1.4778553      50218.233      36.893836      36.893836      36.893836    
  44700000   0.34004665    -8.0796936     -7.5696309      1.4730117      50218.233      36.893836      36.893836      36.893836    
  44800000   0.33934868    -8.078458      -7.5694422      1.4817795      50218.233      36.893836      36.893836      36.893836    
  44900000   0.34029676    -8.0799733     -7.5695354      1.4733173      50218.233      36.893836      36.893836      36.893836    
  45000000   0.33889873    -8.0797402     -7.5713994      1.470186       50218.233      36.893836      36.893836      36.893836    
  45100000   0.34140789    -8.0836089     -7.5715043      1.4471662      50218.233      36.893836      36.893836      36.893836    
  45200000   0.3399812     -8.0804533     -7.5704888      1.4640415      50218.233      36.893836      36.893836      36.893836    
  45300000   0.33999102    -8.0784474     -7.5684682      1.4735533      50218.233      36.893836      36.893836      36.893836    
  45400000   0.34017674    -8.0778672     -7.5676094      1.4899561      50218.233      36.893836      36.893836      36.893836    
  45500000   0.34162262    -8.0799832     -7.5675565      1.4730734      50218.233      36.893836      36.893836      36.893836    
  45600000   0.34133243    -8.0788777     -7.5668864      1.4857836      50218.233      36.893836      36.893836      36.893836    
  45700000   0.33857925    -8.0802274     -7.5723658      1.4660338      50218.233      36.893836      36.893836      36.893836    
  45800000   0.34022301    -8.0781122     -7.567785       1.4932955      50218.233      36.893836      36.893836      36.893836    
  45900000   0.34049717    -8.0784049     -7.5676664      1.4874345      50218.233      36.893836      36.893836      36.893836    
  46000000   0.34086052    -8.0800469     -7.5687634      1.4799902      50218.233      36.893836      36.893836      36.893836    
  46100000   0.33767032    -8.0792253     -7.572727       1.4787811      50218.233      36.893836      36.893836      36.893836    
  46200000   0.34078797    -8.0788312     -7.5676565      1.484414       50218.233      36.893836      36.893836      36.893836    
  46300000   0.34093968    -8.0810281     -7.5696259      1.4709402      50218.233      36.893836      36.893836      36.893836    
  46400000   0.34033517    -8.0773528     -7.5668573      1.493945       50218.233      36.893836      36.893836      36.893836    
  46500000   0.33958352    -8.0798995     -7.5705314      1.4734289      50218.233      36.893836      36.893836      36.893836    
  46600000   0.34054125    -8.0758941     -7.5650895      1.5041211      50218.233      36.893836      36.893836      36.893836    
  46700000   0.34080196    -8.0797432     -7.5685475      1.4781771      50218.233      36.893836      36.893836      36.893836    
  46800000   0.33940237    -8.0818002     -7.5727039      1.4576428      50218.233      36.893836      36.893836      36.893836    
  46900000   0.33934847    -8.0781907     -7.5691752      1.4905807      50218.233      36.893836      36.893836      36.893836    
  47000000   0.34188555    -8.0774565     -7.5646355      1.5039458      50218.233      36.893836      36.893836      36.893836    
  47100000   0.33944458    -8.0781115     -7.5689519      1.4872031      50218.233      36.893836      36.893836      36.893836    
  47200000   0.34049861    -8.0776314     -7.5668908      1.4901537      50218.233      36.893836      36.893836      36.893836    
  47300000   0.33926188    -8.0775635     -7.5686779      1.4941054      50218.233      36.893836      36.893836      36.893836    
  47400000   0.34045383    -8.0786325     -7.567959       1.4797288      50218.233      36.893836      36.893836      36.893836    
  47500000   0.33973588    -8.0784598     -7.5688632      1.481263       50218.233      36.893836      36.893836      36.893836    
  47600000   0.34065628    -8.0793114     -7.5683342      1.4762433      50218.233      36.893836      36.893836      36.893836    
  47700000   0.33962057    -8.0749285     -7.5655049      1.5066574      50218.233      36.893836      36.893836      36.893836    
  47800000   0.34001396    -8.0793709     -7.5693572      1.485801       50218.233      36.893836      36.893836      36.893836    
  47900000   0.33979299    -8.0749061     -7.5652239      1.5126924      50218.233      36.893836      36.893836      36.893836    
  48000000   0.34042822    -8.0763922     -7.5657572      1.4924509      50218.233      36.893836      36.893836      36.893836    
  48100000   0.34070164    -8.0764007     -7.5653555      1.4937002      50218.233      36.893836      36.893836      36.893836    
  48200000   0.34109049    -8.0782397     -7.5666113      1.4867067      50218.233      36.893836      36.893836      36.893836    
  48300000   0.34024206    -8.0797784     -7.5694225      1.4727877      50218.233      36.893836      36.893836      36.893836    
  48400000   0.34131953    -8.0776506     -7.5656786      1.4928268      50218.233      36.893836      36.893836      36.893836    
  48500000   0.33977252    -8.0788446     -7.5691931      1.4750138      50218.233      36.893836      36.893836      36.893836    
  48600000   0.33960346    -8.0775021     -7.5681042      1.489806       50218.233      36.893836      36.893836      36.893836    
  48700000   0.33986946    -8.0762369     -7.5664399      1.4972538      50218.233      36.893836      36.893836      36.893836    
  48800000   0.3399629     -8.0799757     -7.5700386      1.4696197      50218.233      36.893836      36.893836      36.893836    
  48900000   0.33973718    -8.0783635     -7.568765       1.4839637      50218.233      36.893836      36.893836      36.893836    
  49000000   0.3408674     -8.0782185     -7.5669247      1.4843542      50218.233      36.893836      36.893836      36.893836    
  49100000   0.33896532    -8.0782281     -7.5697874      1.485318       50218.233      36.893836      36.893836      36.893836    
  49200000   0.33903112    -8.0818492     -7.5733097      1.4576483      50218.233      36.893836      36.893836      36.893836    
  49300000   0.34006816    -8.077771      -7.567676       1.4862882      50218.233      36.893836      36.893836      36.893836    
  49400000   0.33924394    -8.0785811     -7.5697225      1.4751567      50218.233      36.893836      36.893836      36.893836    
  49500000   0.33968645    -8.0806252     -7.5711028      1.4628366      50218.233      36.893836      36.893836      36.893836    
  49600000   0.34135677    -8.0801297     -7.5681019      1.4736502      50218.233      36.893836      36.893836      36.893836    
  49700000   0.3399995     -8.0803704     -7.5703784      1.4675262      50218.233      36.893836      36.893836      36.893836    
  49800000   0.33968766    -8.0774783     -7.5679541      1.4847289      50218.233      36.893836      36.893836      36.893836    
  49900000   0.33920554    -8.0800816     -7.5712805      1.4662721      50218.233      36.893836      36.893836      36.893836    
  50000000   0.33936872    -8.0804353     -7.5713895      1.4672111      50218.233      36.893836      36.893836      36.893836    
Loop time of 76467.1 on 5 procs for 50000000 steps with 70304 atoms

Performance: 564948.628 tau/day, 653.876 timesteps/s, 45.970 Matom-step/s
94.5% CPU use with 5 MPI tasks x 1 OpenMP threads

MPI task timing breakdown:
Section |  min time  |  avg time  |  max time  |%varavg| %total
---------------------------------------------------------------
Pair    | 25891      | 29671      | 32792      |1309.7 | 38.80
Neigh   | 197.56     | 216.21     | 228.86     |  75.1 |  0.28
Comm    | 11080      | 11151      | 11216      |  51.6 | 14.58
Output  | 0.092887   | 0.096088   | 0.10116    |   0.9 |  0.00
Modify  | 28594      | 31676      | 35549      |1282.4 | 41.42
Other   |            | 3753       |            |       |  4.91

Nlocal:        14060.8 ave       14123 max       14016 min
Histogram: 1 0 1 1 1 0 0 0 0 1
Nghost:        18767.8 ave       18825 max       18709 min
Histogram: 1 0 1 0 1 0 0 0 1 1
Neighs:              0 ave           0 max           0 min
Histogram: 5 0 0 0 0 0 0 0 0 0

Total # of neighbors = 0
Ave neighs/atom = 0
Neighbor list builds = 8576143
Dangerous builds = 0
clear
OMP_NUM_THREADS environment is not set. Defaulting to 1 thread. (src/comm.cpp:98)
  using 1 OpenMP thread(s) per MPI task
package gpu 0
jump dms320.lmp

variable T equal 320
# T = 1000* (temp in LJ unit)
variable f equal 100000
log log.${T}
log log.320
