variable TLJ equal (${T}/1000)
variable TLJ equal (400/1000)
variable NCyle equal 5
variable iStep equal (${f})
variable iStep equal (100000)
variable dumpStep equal (${f}*100)
variable dumpStep equal (100000*100)
variable runStep equal (${f}*100*${NCyle})
variable runStep equal (100000*100*${NCyle})
variable runStep equal (100000*100*5)

units       lj
atom_style  atomic
dimension 3
boundary     p p p
pair_style  lj/cut 2.5
read_data  ../data/T${T}.dat
read_data  ../data/T400.dat
Reading data file ...
  orthogonal box = (0.97250269 0.97250269 0.97250269) to (37.866338 37.866338 37.866338)
  1 by 1 by 5 MPI processor grid
  reading atoms ...
  70304 atoms
  reading velocities ...
  70304 velocities
  read_data CPU = 0.209 seconds
change_box all triclinic
Changing box ...
  triclinic box = (0.97250269 0.97250269 0.97250269) to (37.866338 37.866338 37.866338) with tilt (0 0 0)
mass 1 1
mass 2 1
pair_modify shift yes
pair_coeff  1 1 1 1
pair_coeff  1 2 1.5 0.8
pair_coeff  2 2 0.5 0.88


timestep 0.01
thermo ${iStep}
thermo 100000
reset_timestep 0
thermo_style custom step temp pe etotal press vol lx ly lz
fix             1 all nvt temp ${TLJ}  ${TLJ}  0.1
fix             1 all nvt temp 0.4  ${TLJ}  0.1
fix             1 all nvt temp 0.4  0.4  0.1
thermo_modify flush yes

fix dsf all deform 1 xy  wiggle 0.5  ${f}   units box
fix dsf all deform 1 xy  wiggle 0.5  100000   units box
fix ps1 all ave/time 1 1 ${iStep} c_thermo_press[1] c_thermo_press[2]  c_thermo_press[3] c_thermo_press[4]  c_thermo_press[5] c_thermo_press[6]  file  stress.${T}
fix ps1 all ave/time 1 1 100000 c_thermo_press[1] c_thermo_press[2]  c_thermo_press[3] c_thermo_press[4]  c_thermo_press[5] c_thermo_press[6]  file  stress.${T}
fix ps1 all ave/time 1 1 100000 c_thermo_press[1] c_thermo_press[2]  c_thermo_press[3] c_thermo_press[4]  c_thermo_press[5] c_thermo_press[6]  file  stress.400
dump            1 all custom ${dumpStep} dump.${T} id type x y z
dump            1 all custom 10000000 dump.${T} id type x y z
dump            1 all custom 10000000 dump.400 id type x y z
dump_modify 1 sort id
fix nodrift all momentum 1  linear 1 1 1
fix com_seed all recenter INIT INIT INIT shift all
run ${runStep}
run 50000000
Generated 0 of 1 mixed pair_coeff terms from geometric mixing rule
Per MPI rank memory allocation (min/avg/max) = 8.915 | 8.919 | 8.923 Mbytes
   Step          Temp          PotEng         TotEng         Press          Volume           Lx             Ly             Lz      
         0   0.39834578    -7.9990818     -7.4015716      2.1561044      50218.233      36.893836      36.893836      36.893836    
    100000   0.39882396    -7.9891192     -7.3908918      2.2291261      50218.233      36.893836      36.893836      36.893836    
    200000   0.39912664    -7.9901471     -7.3914656      2.2144697      50218.233      36.893836      36.893836      36.893836    
    300000   0.40099734    -7.9882379     -7.3867505      2.232929       50218.233      36.893836      36.893836      36.893836    
    400000   0.39973766    -7.991798      -7.3922         2.2118975      50218.233      36.893836      36.893836      36.893836    
    500000   0.39805954    -7.987271      -7.3901902      2.2405699      50218.233      36.893836      36.893836      36.893836    
    600000   0.39986608    -7.9852683     -7.3854777      2.2557349      50218.233      36.893836      36.893836      36.893836    
    700000   0.3986495     -7.9886186     -7.3906529      2.2314901      50218.233      36.893836      36.893836      36.893836    
    800000   0.39890712    -7.9895195     -7.3911673      2.235957       50218.233      36.893836      36.893836      36.893836    
    900000   0.39761014    -7.9895866     -7.3931799      2.2185278      50218.233      36.893836      36.893836      36.893836    
   1000000   0.40318548    -7.9865432     -7.3817736      2.2432726      50218.233      36.893836      36.893836      36.893836    
   1100000   0.40163565    -7.9841654     -7.3817205      2.2609061      50218.233      36.893836      36.893836      36.893836    
   1200000   0.40130689    -7.9879388     -7.3859871      2.2420486      50218.233      36.893836      36.893836      36.893836    
   1300000   0.40021077    -7.9908177     -7.3905101      2.204919       50218.233      36.893836      36.893836      36.893836    
   1400000   0.39926234    -7.9909967     -7.3921117      2.2121058      50218.233      36.893836      36.893836      36.893836    
   1500000   0.39909807    -7.9893413     -7.3907027      2.2321808      50218.233      36.893836      36.893836      36.893836    
   1600000   0.40100747    -7.982788      -7.3812854      2.2813957      50218.233      36.893836      36.893836      36.893836    
   1700000   0.39983303    -7.9889225     -7.3891815      2.2291594      50218.233      36.893836      36.893836      36.893836    
   1800000   0.39653989    -7.9862264     -7.3914251      2.2513519      50218.233      36.893836      36.893836      36.893836    
   1900000   0.40004301    -7.9842965     -7.3842405      2.2697382      50218.233      36.893836      36.893836      36.893836    
   2000000   0.39943788    -7.9879205     -7.3887722      2.2281604      50218.233      36.893836      36.893836      36.893836    
   2100000   0.39944283    -7.9914374     -7.3922816      2.2050923      50218.233      36.893836      36.893836      36.893836    
   2200000   0.4015962     -7.9866996     -7.3843139      2.2522513      50218.233      36.893836      36.893836      36.893836    
   2300000   0.39991371    -7.9893222     -7.3894602      2.2235348      50218.233      36.893836      36.893836      36.893836    
   2400000   0.40188398    -7.9885977     -7.3857803      2.2334542      50218.233      36.893836      36.893836      36.893836    
   2500000   0.39718138    -7.9897531     -7.3939895      2.2157495      50218.233      36.893836      36.893836      36.893836    
   2600000   0.39916513    -7.9877565     -7.3890173      2.2327956      50218.233      36.893836      36.893836      36.893836    
   2700000   0.40087717    -7.9870217     -7.3857145      2.2429158      50218.233      36.893836      36.893836      36.893836    
   2800000   0.39987181    -7.9865786     -7.3867794      2.2514843      50218.233      36.893836      36.893836      36.893836    
   2900000   0.40015261    -7.990023      -7.3898026      2.2179702      50218.233      36.893836      36.893836      36.893836    
   3000000   0.39928163    -7.9862725     -7.3873586      2.2486853      50218.233      36.893836      36.893836      36.893836    
   3100000   0.39916386    -7.9886262     -7.3898889      2.223793       50218.233      36.893836      36.893836      36.893836    
   3200000   0.39833793    -7.9871039     -7.3896055      2.2329836      50218.233      36.893836      36.893836      36.893836    
   3300000   0.39945231    -7.9884314     -7.3892614      2.2365564      50218.233      36.893836      36.893836      36.893836    
   3400000   0.39818753    -7.9872911     -7.3900183      2.2347189      50218.233      36.893836      36.893836      36.893836    
   3500000   0.39841699    -7.9867968     -7.3891798      2.2448268      50218.233      36.893836      36.893836      36.893836    
   3600000   0.40018262    -7.9874328     -7.3871674      2.2353508      50218.233      36.893836      36.893836      36.893836    
   3700000   0.40133372    -7.9869748     -7.3849827      2.2536484      50218.233      36.893836      36.893836      36.893836    
   3800000   0.39832351    -7.9884103     -7.3909335      2.2348314      50218.233      36.893836      36.893836      36.893836    
   3900000   0.40023517    -7.9882757     -7.3879315      2.2341216      50218.233      36.893836      36.893836      36.893836    
   4000000   0.40020841    -7.9913055     -7.3910014      2.2152826      50218.233      36.893836      36.893836      36.893836    
   4100000   0.39872754    -7.987671      -7.3895882      2.2359603      50218.233      36.893836      36.893836      36.893836    
   4200000   0.40099621    -7.9867574     -7.3852716      2.2469932      50218.233      36.893836      36.893836      36.893836    
   4300000   0.39976973    -7.9871037     -7.3874576      2.24647        50218.233      36.893836      36.893836      36.893836    
   4400000   0.39740156    -7.9882206     -7.3921267      2.2312174      50218.233      36.893836      36.893836      36.893836    
   4500000   0.39981848    -7.9880015     -7.3882823      2.2390336      50218.233      36.893836      36.893836      36.893836    
   4600000   0.39942091    -7.9923064     -7.3931835      2.2086646      50218.233      36.893836      36.893836      36.893836    
   4700000   0.40080286    -7.988259      -7.3870632      2.2301592      50218.233      36.893836      36.893836      36.893836    
   4800000   0.40003538    -7.9878706     -7.3878261      2.2453499      50218.233      36.893836      36.893836      36.893836    
   4900000   0.40161686    -7.9880427     -7.385626       2.2428855      50218.233      36.893836      36.893836      36.893836    
   5000000   0.39746719    -7.9886495     -7.3924572      2.2321122      50218.233      36.893836      36.893836      36.893836    
   5100000   0.39840962    -7.9884289     -7.3908229      2.2334071      50218.233      36.893836      36.893836      36.893836    
   5200000   0.40051418    -7.9861707     -7.3854079      2.2483041      50218.233      36.893836      36.893836      36.893836    
   5300000   0.40064915    -7.9883056     -7.3873404      2.2287584      50218.233      36.893836      36.893836      36.893836    
   5400000   0.39940959    -7.9873418     -7.3882359      2.2386447      50218.233      36.893836      36.893836      36.893836    
   5500000   0.40050652    -7.9904246     -7.3896734      2.216866       50218.233      36.893836      36.893836      36.893836    
   5600000   0.39832503    -7.9862007     -7.3887216      2.2539004      50218.233      36.893836      36.893836      36.893836    
   5700000   0.39786487    -7.9895481     -7.3927593      2.217393       50218.233      36.893836      36.893836      36.893836    
   5800000   0.40071832    -7.9908637     -7.3897948      2.2145259      50218.233      36.893836      36.893836      36.893836    
   5900000   0.40067084    -7.9906703     -7.3896726      2.2271821      50218.233      36.893836      36.893836      36.893836    
   6000000   0.40037651    -7.9863166     -7.3857604      2.2532747      50218.233      36.893836      36.893836      36.893836    
   6100000   0.39811576    -7.9886642     -7.391499       2.2384047      50218.233      36.893836      36.893836      36.893836    
   6200000   0.40146191    -7.9869368     -7.3847525      2.2432101      50218.233      36.893836      36.893836      36.893836    
   6300000   0.39923079    -7.9879689     -7.3891312      2.2346087      50218.233      36.893836      36.893836      36.893836    
   6400000   0.40026145    -7.9872515     -7.3868678      2.2435294      50218.233      36.893836      36.893836      36.893836    
   6500000   0.39692808    -7.9877971     -7.3924134      2.2261342      50218.233      36.893836      36.893836      36.893836    
   6600000   0.39955633    -7.9871778     -7.3878518      2.2384402      50218.233      36.893836      36.893836      36.893836    
   6700000   0.3997196     -7.9879184     -7.3883475      2.2294434      50218.233      36.893836      36.893836      36.893836    
   6800000   0.40067595    -7.9908803     -7.389875       2.2127822      50218.233      36.893836      36.893836      36.893836    
   6900000   0.39978741    -7.9890646     -7.389392       2.2234879      50218.233      36.893836      36.893836      36.893836    
   7000000   0.39982533    -7.9838071     -7.3840776      2.2664468      50218.233      36.893836      36.893836      36.893836    
   7100000   0.40253298    -7.9853505     -7.3815596      2.2554209      50218.233      36.893836      36.893836      36.893836    
   7200000   0.40156205    -7.9874161     -7.3850816      2.2349374      50218.233      36.893836      36.893836      36.893836    
   7300000   0.40146938    -7.9890133     -7.3868178      2.2316941      50218.233      36.893836      36.893836      36.893836    
   7400000   0.40295036    -7.9869639     -7.3825469      2.2513669      50218.233      36.893836      36.893836      36.893836    
   7500000   0.39980903    -7.9892614     -7.3895564      2.2376863      50218.233      36.893836      36.893836      36.893836    
   7600000   0.39760515    -7.9892347     -7.3928355      2.2175901      50218.233      36.893836      36.893836      36.893836    
   7700000   0.39927235    -7.9852427     -7.3863426      2.2542004      50218.233      36.893836      36.893836      36.893836    
   7800000   0.39954       -7.9895953     -7.3902939      2.2267464      50218.233      36.893836      36.893836      36.893836    
   7900000   0.39908525    -7.9871173     -7.3884979      2.2383536      50218.233      36.893836      36.893836      36.893836    
   8000000   0.40035389    -7.9890154     -7.3884931      2.2425823      50218.233      36.893836      36.893836      36.893836    
   8100000   0.40055382    -7.9874126     -7.3865904      2.2474969      50218.233      36.893836      36.893836      36.893836    
   8200000   0.40027497    -7.9873893     -7.3869853      2.2445634      50218.233      36.893836      36.893836      36.893836    
   8300000   0.40131623    -7.9884733     -7.3865076      2.2356841      50218.233      36.893836      36.893836      36.893836    
   8400000   0.39797104    -7.9886479     -7.3916999      2.2284908      50218.233      36.893836      36.893836      36.893836    
   8500000   0.39891658    -7.9907226     -7.3923563      2.2064555      50218.233      36.893836      36.893836      36.893836    
   8600000   0.40020473    -7.9878768     -7.3875782      2.2342062      50218.233      36.893836      36.893836      36.893836    
   8700000   0.39949788    -7.9886311     -7.3893928      2.2277275      50218.233      36.893836      36.893836      36.893836    
   8800000   0.40090138    -7.9888127     -7.3874692      2.2250567      50218.233      36.893836      36.893836      36.893836    
   8900000   0.40053897    -7.9924732     -7.3916733      2.202758       50218.233      36.893836      36.893836      36.893836    
   9000000   0.39899831    -7.9891947     -7.3907057      2.2196244      50218.233      36.893836      36.893836      36.893836    
   9100000   0.39924225    -7.9897238     -7.390869       2.2231922      50218.233      36.893836      36.893836      36.893836    
   9200000   0.39881872    -7.9884384     -7.3902188      2.2291308      50218.233      36.893836      36.893836      36.893836    
   9300000   0.40127265    -7.9903414     -7.388441       2.2140031      50218.233      36.893836      36.893836      36.893836    
   9400000   0.40105433    -7.9906148     -7.3890419      2.2191727      50218.233      36.893836      36.893836      36.893836    
   9500000   0.39974621    -7.9906792     -7.3910684      2.2168862      50218.233      36.893836      36.893836      36.893836    
   9600000   0.39956355    -7.9894985     -7.3901617      2.2308663      50218.233      36.893836      36.893836      36.893836    
   9700000   0.40054846    -7.9885251     -7.3877109      2.2277585      50218.233      36.893836      36.893836      36.893836    
   9800000   0.39927069    -7.9901212     -7.3912236      2.2153413      50218.233      36.893836      36.893836      36.893836    
   9900000   0.40035116    -7.9913505     -7.3908323      2.2124007      50218.233      36.893836      36.893836      36.893836    
  10000000   0.3985806     -7.9893223     -7.3914599      2.2217485      50218.233      36.893836      36.893836      36.893836    
  10100000   0.40208465    -7.9912736     -7.3881552      2.2033296      50218.233      36.893836      36.893836      36.893836    
  10200000   0.39937366    -7.9895436     -7.3904916      2.2209468      50218.233      36.893836      36.893836      36.893836    
  10300000   0.4011968     -7.991222      -7.3894354      2.2170833      50218.233      36.893836      36.893836      36.893836    
  10400000   0.39982343    -7.9892598     -7.3895332      2.2243963      50218.233      36.893836      36.893836      36.893836    
  10500000   0.39989071    -7.9917187     -7.3918912      2.209424       50218.233      36.893836      36.893836      36.893836    
  10600000   0.39803853    -7.9910431     -7.3939938      2.2081634      50218.233      36.893836      36.893836      36.893836    
  10700000   0.39950281    -7.9875404     -7.3882947      2.2530606      50218.233      36.893836      36.893836      36.893836    
  10800000   0.4005364     -7.9937039     -7.3929078      2.1944666      50218.233      36.893836      36.893836      36.893836    
  10900000   0.3975932     -7.990165      -7.3937836      2.2086868      50218.233      36.893836      36.893836      36.893836    
  11000000   0.4000603     -7.9906259     -7.390544       2.2151158      50218.233      36.893836      36.893836      36.893836    
  11100000   0.39976379    -7.9869456     -7.3873084      2.2481127      50218.233      36.893836      36.893836      36.893836    
  11200000   0.39969474    -7.9900554     -7.3905218      2.2167281      50218.233      36.893836      36.893836      36.893836    
  11300000   0.39891958    -7.9893448     -7.390974       2.2237516      50218.233      36.893836      36.893836      36.893836    
  11400000   0.40143678    -7.9909305     -7.3887839      2.2261569      50218.233      36.893836      36.893836      36.893836    
  11500000   0.39840625    -7.9903598     -7.392759       2.2218737      50218.233      36.893836      36.893836      36.893836    
  11600000   0.40002161    -7.9929472     -7.3929233      2.1981632      50218.233      36.893836      36.893836      36.893836    
  11700000   0.39941546    -7.9925846     -7.3934699      2.1990195      50218.233      36.893836      36.893836      36.893836    
  11800000   0.39921834    -7.9886593     -7.3898403      2.2322001      50218.233      36.893836      36.893836      36.893836    
  11900000   0.40047268    -7.9887195     -7.388019       2.2326372      50218.233      36.893836      36.893836      36.893836    
  12000000   0.40199912    -7.9905871     -7.3875969      2.2295592      50218.233      36.893836      36.893836      36.893836    
  12100000   0.40006865    -7.9866773     -7.3865829      2.2476636      50218.233      36.893836      36.893836      36.893836    
  12200000   0.39985113    -7.9848874     -7.3851193      2.2517158      50218.233      36.893836      36.893836      36.893836    
  12300000   0.39954317    -7.9878833     -7.388577       2.2396561      50218.233      36.893836      36.893836      36.893836    
  12400000   0.39962177    -7.989745      -7.3903209      2.2173421      50218.233      36.893836      36.893836      36.893836    
  12500000   0.39894906    -7.9890871     -7.390672       2.2317872      50218.233      36.893836      36.893836      36.893836    
  12600000   0.39956484    -7.9897863     -7.3904475      2.2206654      50218.233      36.893836      36.893836      36.893836    
  12700000   0.398952      -7.9892079     -7.3907884      2.2318602      50218.233      36.893836      36.893836      36.893836    
  12800000   0.40068959    -7.9887646     -7.3877388      2.235034       50218.233      36.893836      36.893836      36.893836    
  12900000   0.40108308    -7.9888566     -7.3872405      2.2355448      50218.233      36.893836      36.893836      36.893836    
  13000000   0.40137628    -7.9915774     -7.3895215      2.2117348      50218.233      36.893836      36.893836      36.893836    
  13100000   0.40065491    -7.9883094     -7.3873356      2.2336905      50218.233      36.893836      36.893836      36.893836    
  13200000   0.40027921    -7.9876493     -7.3872391      2.2451293      50218.233      36.893836      36.893836      36.893836    
  13300000   0.40096507    -7.9895904     -7.3881513      2.236974       50218.233      36.893836      36.893836      36.893836    
  13400000   0.39957378    -7.9909933     -7.3916412      2.2119873      50218.233      36.893836      36.893836      36.893836    
  13500000   0.40354875    -7.9871964     -7.3818819      2.2568449      50218.233      36.893836      36.893836      36.893836    
  13600000   0.40064028    -7.9883012     -7.3873493      2.2319363      50218.233      36.893836      36.893836      36.893836    
  13700000   0.39970419    -7.9887294     -7.3891817      2.2336239      50218.233      36.893836      36.893836      36.893836    
  13800000   0.39848797    -7.9934303     -7.3957069      2.2012641      50218.233      36.893836      36.893836      36.893836    
  13900000   0.39917788    -7.9912029     -7.3924446      2.2195992      50218.233      36.893836      36.893836      36.893836    
  14000000   0.40138174    -7.9899685     -7.3879045      2.2352246      50218.233      36.893836      36.893836      36.893836    
  14100000   0.40021936    -7.9912056     -7.3908851      2.2200274      50218.233      36.893836      36.893836      36.893836    
  14200000   0.39842237    -7.9904798     -7.3928547      2.214518       50218.233      36.893836      36.893836      36.893836    
  14300000   0.39976707    -7.9881443     -7.3885022      2.2469041      50218.233      36.893836      36.893836      36.893836    
  14400000   0.39892814    -7.9887072     -7.3903235      2.2311023      50218.233      36.893836      36.893836      36.893836    
  14500000   0.40140882    -7.9900239     -7.3879193      2.2232337      50218.233      36.893836      36.893836      36.893836    
  14600000   0.39799774    -7.9924126     -7.3954244      2.2058278      50218.233      36.893836      36.893836      36.893836    
  14700000   0.3984701     -7.990718      -7.3930214      2.2133337      50218.233      36.893836      36.893836      36.893836    
  14800000   0.39865745    -7.9916579     -7.3936802      2.2153131      50218.233      36.893836      36.893836      36.893836    
  14900000   0.40001157    -7.9934818     -7.393473       2.2057803      50218.233      36.893836      36.893836      36.893836    
  15000000   0.40053416    -7.9919552     -7.3911625      2.2089107      50218.233      36.893836      36.893836      36.893836    
  15100000   0.40014117    -7.9871989     -7.3869957      2.2421912      50218.233      36.893836      36.893836      36.893836    
  15200000   0.40009743    -7.9879603     -7.3878226      2.242623       50218.233      36.893836      36.893836      36.893836    
  15300000   0.40014399    -7.9890206     -7.3888132      2.2372197      50218.233      36.893836      36.893836      36.893836    
  15400000   0.40303733    -7.9893616     -7.3848142      2.2258456      50218.233      36.893836      36.893836      36.893836    
  15500000   0.40007203    -7.9883086     -7.3882091      2.2459932      50218.233      36.893836      36.893836      36.893836    
  15600000   0.40143768    -7.9896866     -7.3875386      2.2294239      50218.233      36.893836      36.893836      36.893836    
  15700000   0.39850512    -7.9902425     -7.3924933      2.2151661      50218.233      36.893836      36.893836      36.893836    
  15800000   0.39839361    -7.9895907     -7.3920088      2.2221685      50218.233      36.893836      36.893836      36.893836    
  15900000   0.40076209    -7.9903538     -7.3892192      2.225113       50218.233      36.893836      36.893836      36.893836    
  16000000   0.40021741    -7.9906729     -7.3903553      2.21121        50218.233      36.893836      36.893836      36.893836    
  16100000   0.40119301    -7.9927103     -7.3909294      2.2014988      50218.233      36.893836      36.893836      36.893836    
  16200000   0.39852004    -7.9939283     -7.3961568      2.1941678      50218.233      36.893836      36.893836      36.893836    
  16300000   0.3996466     -7.9880218     -7.3885604      2.2430881      50218.233      36.893836      36.893836      36.893836    
  16400000   0.39780796    -7.9893259     -7.3926225      2.2216822      50218.233      36.893836      36.893836      36.893836    
  16500000   0.40084113    -7.989893      -7.3886399      2.2280196      50218.233      36.893836      36.893836      36.893836    
  16600000   0.39860708    -7.9905741     -7.392672       2.2145928      50218.233      36.893836      36.893836      36.893836    
  16700000   0.40091808    -7.9890221     -7.3876536      2.2394284      50218.233      36.893836      36.893836      36.893836    
  16800000   0.39921453    -7.9910764     -7.3922631      2.2068634      50218.233      36.893836      36.893836      36.893836    
  16900000   0.39881965    -7.9920375     -7.3938166      2.2132683      50218.233      36.893836      36.893836      36.893836    
  17000000   0.40121447    -7.9883081     -7.3864949      2.2405759      50218.233      36.893836      36.893836      36.893836    
  17100000   0.39969871    -7.9904728     -7.3909333      2.2320766      50218.233      36.893836      36.893836      36.893836    
  17200000   0.39977882    -7.9904419     -7.3907822      2.2301426      50218.233      36.893836      36.893836      36.893836    
  17300000   0.39952819    -7.9884025     -7.3891188      2.2333903      50218.233      36.893836      36.893836      36.893836    
  17400000   0.39999452    -7.990357      -7.3903737      2.2202373      50218.233      36.893836      36.893836      36.893836    
  17500000   0.39994403    -7.9916811     -7.3917736      2.21972        50218.233      36.893836      36.893836      36.893836    
  17600000   0.39884396    -7.9923286     -7.3940711      2.1922084      50218.233      36.893836      36.893836      36.893836    
  17700000   0.4017485     -7.9846626     -7.3820484      2.2599091      50218.233      36.893836      36.893836      36.893836    
  17800000   0.40176546    -7.9873998     -7.3847602      2.2481532      50218.233      36.893836      36.893836      36.893836    
  17900000   0.39815586    -7.9905676     -7.3933423      2.2184163      50218.233      36.893836      36.893836      36.893836    
  18000000   0.40000854    -7.9900794     -7.3900751      2.2209315      50218.233      36.893836      36.893836      36.893836    
  18100000   0.39947508    -7.9890645     -7.3898604      2.2224944      50218.233      36.893836      36.893836      36.893836    
  18200000   0.39908273    -7.993621      -7.3950055      2.1949232      50218.233      36.893836      36.893836      36.893836    
  18300000   0.40129514    -7.9886237     -7.3866895      2.2405709      50218.233      36.893836      36.893836      36.893836    
  18400000   0.39896286    -7.9877316     -7.3892958      2.2346822      50218.233      36.893836      36.893836      36.893836    
  18500000   0.40213704    -7.9884416     -7.3852446      2.2514067      50218.233      36.893836      36.893836      36.893836    
  18600000   0.40154639    -7.989014      -7.3867029      2.2344146      50218.233      36.893836      36.893836      36.893836    
  18700000   0.40073196    -7.9916162     -7.3905268      2.2102967      50218.233      36.893836      36.893836      36.893836    
  18800000   0.39968472    -7.9929708     -7.3934523      2.2073463      50218.233      36.893836      36.893836      36.893836    
  18900000   0.40008897    -7.9882714     -7.3881465      2.2422381      50218.233      36.893836      36.893836      36.893836    
  19000000   0.40079376    -7.9897323     -7.3885502      2.2231998      50218.233      36.893836      36.893836      36.893836    
  19100000   0.39968317    -7.98875       -7.3892338      2.2212007      50218.233      36.893836      36.893836      36.893836    
  19200000   0.40151965    -7.9923118     -7.3900409      2.2021687      50218.233      36.893836      36.893836      36.893836    
  19300000   0.40073054    -7.9934265     -7.3923392      2.2001632      50218.233      36.893836      36.893836      36.893836    
  19400000   0.39668921    -7.9925866     -7.3975613      2.1970533      50218.233      36.893836      36.893836      36.893836    
  19500000   0.40125413    -7.989151      -7.3872784      2.227132       50218.233      36.893836      36.893836      36.893836    
  19600000   0.39940741    -7.9925646     -7.393462       2.2102612      50218.233      36.893836      36.893836      36.893836    
  19700000   0.40032143    -7.9900641     -7.3895905      2.2160032      50218.233      36.893836      36.893836      36.893836    
  19800000   0.3999161     -7.9872788     -7.3874132      2.249139       50218.233      36.893836      36.893836      36.893836    
  19900000   0.3993237     -7.9927456     -7.3937685      2.2069305      50218.233      36.893836      36.893836      36.893836    
  20000000   0.40038644    -7.9935261     -7.392955       2.1969139      50218.233      36.893836      36.893836      36.893836    
  20100000   0.40011516    -7.9877557     -7.3875915      2.2382834      50218.233      36.893836      36.893836      36.893836    
  20200000   0.40028642    -7.9907028     -7.3902817      2.2205721      50218.233      36.893836      36.893836      36.893836    
  20300000   0.39925666    -7.9897258     -7.3908494      2.226443       50218.233      36.893836      36.893836      36.893836    
  20400000   0.40084775    -7.9922181     -7.390955       2.2152979      50218.233      36.893836      36.893836      36.893836    
  20500000   0.40011951    -7.9920667     -7.391896       2.2130237      50218.233      36.893836      36.893836      36.893836    
  20600000   0.39961588    -7.9891723     -7.389757       2.2169304      50218.233      36.893836      36.893836      36.893836    
  20700000   0.39925452    -7.9908275     -7.3919542      2.2020019      50218.233      36.893836      36.893836      36.893836    
  20800000   0.39848465    -7.9938987     -7.3961802      2.2047761      50218.233      36.893836      36.893836      36.893836    
  20900000   0.40080403    -7.9916445     -7.390447       2.2158186      50218.233      36.893836      36.893836      36.893836    
  21000000   0.40024342    -7.9943345     -7.3939779      2.1913456      50218.233      36.893836      36.893836      36.893836    
  21100000   0.40161339    -7.9902544     -7.3878429      2.220709       50218.233      36.893836      36.893836      36.893836    
  21200000   0.40042912    -7.9905444     -7.3899093      2.2149038      50218.233      36.893836      36.893836      36.893836    
  21300000   0.39873517    -7.9877952     -7.3897009      2.2412275      50218.233      36.893836      36.893836      36.893836    
  21400000   0.39972246    -7.9899407     -7.3903656      2.2229832      50218.233      36.893836      36.893836      36.893836    
  21500000   0.39885247    -7.9895598     -7.3912896      2.2227863      50218.233      36.893836      36.893836      36.893836    
  21600000   0.40161684    -7.9919095     -7.3894928      2.2139279      50218.233      36.893836      36.893836      36.893836    
  21700000   0.39938432    -7.9891877     -7.3901197      2.2232504      50218.233      36.893836      36.893836      36.893836    
  21800000   0.4018716     -7.9897579     -7.3869591      2.2313675      50218.233      36.893836      36.893836      36.893836    
  21900000   0.39835713    -7.9869226     -7.3893954      2.2390073      50218.233      36.893836      36.893836      36.893836    
  22000000   0.40048144    -7.9923629     -7.3916493      2.2139243      50218.233      36.893836      36.893836      36.893836    
  22100000   0.40038735    -7.9900089     -7.3894364      2.2190671      50218.233      36.893836      36.893836      36.893836    
  22200000   0.40079872    -7.9897275     -7.388538       2.2207019      50218.233      36.893836      36.893836      36.893836    
  22300000   0.40083188    -7.9901525     -7.3889132      2.221412       50218.233      36.893836      36.893836      36.893836    
  22400000   0.40053823    -7.9886003     -7.3878015      2.2212712      50218.233      36.893836      36.893836      36.893836    
  22500000   0.40036142    -7.9906975     -7.3901639      2.217138       50218.233      36.893836      36.893836      36.893836    
  22600000   0.40126412    -7.9882381     -7.3863505      2.2305874      50218.233      36.893836      36.893836      36.893836    
  22700000   0.39871805    -7.991582      -7.3935134      2.2024293      50218.233      36.893836      36.893836      36.893836    
  22800000   0.40140889    -7.9905738     -7.388469       2.2164237      50218.233      36.893836      36.893836      36.893836    
  22900000   0.39934974    -7.9896199     -7.3906038      2.2194946      50218.233      36.893836      36.893836      36.893836    
  23000000   0.40096625    -7.989986      -7.3885451      2.2220687      50218.233      36.893836      36.893836      36.893836    
  23100000   0.39785543    -7.9922126     -7.395438       2.1968061      50218.233      36.893836      36.893836      36.893836    
  23200000   0.39852003    -7.9896785     -7.3919069      2.2259025      50218.233      36.893836      36.893836      36.893836    
  23300000   0.40309965    -7.994131      -7.3894902      2.1921274      50218.233      36.893836      36.893836      36.893836    
  23400000   0.40014091    -7.9868011     -7.3865983      2.2442437      50218.233      36.893836      36.893836      36.893836    
  23500000   0.40122896    -7.9849296     -7.3830947      2.2666752      50218.233      36.893836      36.893836      36.893836    
  23600000   0.39900724    -7.9906944     -7.3921921      2.2200395      50218.233      36.893836      36.893836      36.893836    
  23700000   0.40052024    -7.9899274     -7.3891556      2.2201953      50218.233      36.893836      36.893836      36.893836    
  23800000   0.40037964    -7.9880217     -7.3874607      2.2351225      50218.233      36.893836      36.893836      36.893836    
  23900000   0.39975574    -7.9912684     -7.3916434      2.2176116      50218.233      36.893836      36.893836      36.893836    
  24000000   0.39937515    -7.9946808     -7.3956266      2.1884815      50218.233      36.893836      36.893836      36.893836    
  24100000   0.40066549    -7.9934251     -7.3924354      2.193207       50218.233      36.893836      36.893836      36.893836    
  24200000   0.40090836    -7.9913383     -7.3899843      2.2188947      50218.233      36.893836      36.893836      36.893836    
  24300000   0.40024559    -7.9936353     -7.3932755      2.188944       50218.233      36.893836      36.893836      36.893836    
  24400000   0.39886398    -7.9928623     -7.3945748      2.2139994      50218.233      36.893836      36.893836      36.893836    
  24500000   0.40011597    -7.9937146     -7.3935492      2.194754       50218.233      36.893836      36.893836      36.893836    
  24600000   0.4004854     -7.9905264     -7.3898069      2.2299505      50218.233      36.893836      36.893836      36.893836    
  24700000   0.40130814    -7.9904355     -7.3884819      2.2173171      50218.233      36.893836      36.893836      36.893836    
  24800000   0.39994793    -7.9903056     -7.3903922      2.2140726      50218.233      36.893836      36.893836      36.893836    
  24900000   0.39897174    -7.9946742     -7.3962251      2.17823        50218.233      36.893836      36.893836      36.893836    
  25000000   0.40019986    -7.992797      -7.3925058      2.2079368      50218.233      36.893836      36.893836      36.893836    
  25100000   0.3991952     -7.9889863     -7.390202       2.2312454      50218.233      36.893836      36.893836      36.893836    
  25200000   0.40074654    -7.9935985     -7.3924872      2.2005457      50218.233      36.893836      36.893836      36.893836    
  25300000   0.39948431    -7.9893663     -7.3901484      2.2211828      50218.233      36.893836      36.893836      36.893836    
  25400000   0.40040718    -7.9911702     -7.390568       2.2116745      50218.233      36.893836      36.893836      36.893836    
  25500000   0.39923148    -7.9912104     -7.3923717      2.2046219      50218.233      36.893836      36.893836      36.893836    
  25600000   0.40056515    -7.9880379     -7.3871987      2.2249425      50218.233      36.893836      36.893836      36.893836    
  25700000   0.39922906    -7.9917421     -7.392907       2.2133073      50218.233      36.893836      36.893836      36.893836    
  25800000   0.40001781    -7.9892027     -7.3891845      2.2253102      50218.233      36.893836      36.893836      36.893836    
  25900000   0.39909943    -7.990127      -7.3914864      2.2244523      50218.233      36.893836      36.893836      36.893836    
  26000000   0.39959126    -7.9916138     -7.3922355      2.2101171      50218.233      36.893836      36.893836      36.893836    
  26100000   0.40009937    -7.9919579     -7.3918174      2.2076004      50218.233      36.893836      36.893836      36.893836    
  26200000   0.39893638    -7.9892566     -7.3908605      2.2242009      50218.233      36.893836      36.893836      36.893836    
  26300000   0.39944268    -7.9929476     -7.3937921      2.198648       50218.233      36.893836      36.893836      36.893836    
  26400000   0.39803501    -7.9898468     -7.3928028      2.2249042      50218.233      36.893836      36.893836      36.893836    
  26500000   0.40017195    -7.9885247     -7.3882753      2.2389401      50218.233      36.893836      36.893836      36.893836    
  26600000   0.39985573    -7.9906229     -7.3908478      2.2110409      50218.233      36.893836      36.893836      36.893836    
  26700000   0.40007523    -7.9897783     -7.389674       2.2204533      50218.233      36.893836      36.893836      36.893836    
  26800000   0.40203407    -7.9873528     -7.3843103      2.2378738      50218.233      36.893836      36.893836      36.893836    
  26900000   0.4000702     -7.9885406     -7.3884439      2.2327973      50218.233      36.893836      36.893836      36.893836    
  27000000   0.40060799    -7.9901984     -7.389295       2.2146903      50218.233      36.893836      36.893836      36.893836    
  27100000   0.39951235    -7.9911728     -7.3919128      2.2158525      50218.233      36.893836      36.893836      36.893836    
  27200000   0.4016618     -7.9895622     -7.3870781      2.230148       50218.233      36.893836      36.893836      36.893836    
  27300000   0.4006357     -7.9933851     -7.3924402      2.2002638      50218.233      36.893836      36.893836      36.893836    
  27400000   0.39859304    -7.9922905     -7.3944094      2.1982206      50218.233      36.893836      36.893836      36.893836    
  27500000   0.3996578     -7.9890281     -7.3895499      2.2253         50218.233      36.893836      36.893836      36.893836    
  27600000   0.3958581     -7.9857499     -7.3919712      2.2378441      50218.233      36.893836      36.893836      36.893836    
  27700000   0.39999188    -7.9908832     -7.3909039      2.2185488      50218.233      36.893836      36.893836      36.893836    
  27800000   0.40021025    -7.98695       -7.3866432      2.2503267      50218.233      36.893836      36.893836      36.893836    
  27900000   0.3995591     -7.9915963     -7.3922662      2.2171769      50218.233      36.893836      36.893836      36.893836    
  28000000   0.39930981    -7.9887631     -7.3898069      2.2297475      50218.233      36.893836      36.893836      36.893836    
  28100000   0.40097483    -7.9903119     -7.3888582      2.2333626      50218.233      36.893836      36.893836      36.893836    
  28200000   0.40077092    -7.9910733     -7.3899255      2.2105038      50218.233      36.893836      36.893836      36.893836    
  28300000   0.39937044    -7.9926577     -7.3936106      2.2010113      50218.233      36.893836      36.893836      36.893836    
  28400000   0.40273895    -7.9888992     -7.3847994      2.2334052      50218.233      36.893836      36.893836      36.893836    
  28500000   0.40050747    -7.9860037     -7.3852511      2.2505699      50218.233      36.893836      36.893836      36.893836    
  28600000   0.39845727    -7.9881832     -7.3905058      2.2271319      50218.233      36.893836      36.893836      36.893836    
  28700000   0.39914018    -7.9901547     -7.391453       2.2192844      50218.233      36.893836      36.893836      36.893836    
  28800000   0.40094154    -7.9898624     -7.3884586      2.2268588      50218.233      36.893836      36.893836      36.893836    
  28900000   0.39956694    -7.990322      -7.3909802      2.216686       50218.233      36.893836      36.893836      36.893836    
  29000000   0.39885187    -7.9919056     -7.3936363      2.1984163      50218.233      36.893836      36.893836      36.893836    
  29100000   0.40031101    -7.9901839     -7.389726       2.2148694      50218.233      36.893836      36.893836      36.893836    
  29200000   0.40079077    -7.990945      -7.3897674      2.2142258      50218.233      36.893836      36.893836      36.893836    
  29300000   0.40073753    -7.9924711     -7.3913734      2.199798       50218.233      36.893836      36.893836      36.893836    
  29400000   0.40205842    -7.9957247     -7.3926457      2.1803049      50218.233      36.893836      36.893836      36.893836    
  29500000   0.40207058    -7.9937373     -7.39064        2.197233       50218.233      36.893836      36.893836      36.893836    
  29600000   0.39926885    -7.9914385     -7.3925438      2.2010202      50218.233      36.893836      36.893836      36.893836    
  29700000   0.39838174    -7.9911666     -7.3936025      2.2076838      50218.233      36.893836      36.893836      36.893836    
  29800000   0.40090857    -7.9928425     -7.3914882      2.2003169      50218.233      36.893836      36.893836      36.893836    
  29900000   0.40017036    -7.9912954     -7.3910484      2.211756       50218.233      36.893836      36.893836      36.893836    
  30000000   0.3995111     -7.9928224     -7.3935642      2.2062264      50218.233      36.893836      36.893836      36.893836    
  30100000   0.3987811     -7.9883815     -7.3902183      2.241305       50218.233      36.893836      36.893836      36.893836    
  30200000   0.40048495    -7.9926577     -7.3919389      2.2093304      50218.233      36.893836      36.893836      36.893836    
  30300000   0.39931602    -7.9905125     -7.391547       2.2180915      50218.233      36.893836      36.893836      36.893836    
  30400000   0.40096409    -7.9900635     -7.3886259      2.2251812      50218.233      36.893836      36.893836      36.893836    
  30500000   0.40009375    -7.9921256     -7.3919935      2.2121337      50218.233      36.893836      36.893836      36.893836    
  30600000   0.40054923    -7.9916165     -7.3908012      2.2059243      50218.233      36.893836      36.893836      36.893836    
  30700000   0.39801261    -7.9917287     -7.3947182      2.2008357      50218.233      36.893836      36.893836      36.893836    
  30800000   0.40079172    -7.9925548     -7.3913758      2.2083067      50218.233      36.893836      36.893836      36.893836    
  30900000   0.40226107    -7.9909126     -7.3875295      2.2085821      50218.233      36.893836      36.893836      36.893836    
  31000000   0.39936617    -7.9897377     -7.3906969      2.2162853      50218.233      36.893836      36.893836      36.893836    
  31100000   0.40002886    -7.9885558     -7.388521       2.2396896      50218.233      36.893836      36.893836      36.893836    
  31200000   0.39954661    -7.9925655     -7.3932541      2.2122074      50218.233      36.893836      36.893836      36.893836    
  31300000   0.39856901    -7.9896088     -7.3917638      2.2113676      50218.233      36.893836      36.893836      36.893836    
  31400000   0.39979754    -7.9896647     -7.3899769      2.2202795      50218.233      36.893836      36.893836      36.893836    
  31500000   0.40027105    -7.9893899     -7.3889918      2.2231131      50218.233      36.893836      36.893836      36.893836    
  31600000   0.39982883    -7.9885495     -7.3888148      2.2361052      50218.233      36.893836      36.893836      36.893836    
  31700000   0.40069788    -7.9903294     -7.3892911      2.2202043      50218.233      36.893836      36.893836      36.893836    
  31800000   0.40016618    -7.9927115     -7.3924708      2.1990518      50218.233      36.893836      36.893836      36.893836    
  31900000   0.40078994    -7.9900162     -7.3888398      2.2187736      50218.233      36.893836      36.893836      36.893836    
  32000000   0.39908978    -7.9881301     -7.3895039      2.2321624      50218.233      36.893836      36.893836      36.893836    
  32100000   0.39907514    -7.9901502     -7.391546       2.2223505      50218.233      36.893836      36.893836      36.893836    
  32200000   0.40223015    -7.9917092     -7.3883725      2.2081728      50218.233      36.893836      36.893836      36.893836    
  32300000   0.40102743    -7.9914542     -7.3899216      2.2167089      50218.233      36.893836      36.893836      36.893836    
  32400000   0.39878354    -7.9919589     -7.3937921      2.2136419      50218.233      36.893836      36.893836      36.893836    
  32500000   0.40097255    -7.9906462     -7.3891959      2.2191141      50218.233      36.893836      36.893836      36.893836    
  32600000   0.40034728    -7.9883543     -7.3878419      2.2301567      50218.233      36.893836      36.893836      36.893836    
  32700000   0.40150217    -7.9916263     -7.3893816      2.2051506      50218.233      36.893836      36.893836      36.893836    
  32800000   0.40064095    -7.9902738     -7.3893209      2.2224765      50218.233      36.893836      36.893836      36.893836    
  32900000   0.39897365    -7.986714      -7.3882621      2.2406968      50218.233      36.893836      36.893836      36.893836    
  33000000   0.39951604    -7.9923912     -7.3931257      2.1962816      50218.233      36.893836      36.893836      36.893836    
  33100000   0.40034138    -7.9911429     -7.3906394      2.2214826      50218.233      36.893836      36.893836      36.893836    
  33200000   0.39960615    -7.9892169     -7.3898162      2.218668       50218.233      36.893836      36.893836      36.893836    
  33300000   0.40202186    -7.9917613     -7.3887371      2.2118267      50218.233      36.893836      36.893836      36.893836    
  33400000   0.40026744    -7.9908464     -7.3904537      2.2182482      50218.233      36.893836      36.893836      36.893836    
  33500000   0.40013879    -7.992298      -7.3920984      2.2001056      50218.233      36.893836      36.893836      36.893836    
  33600000   0.39874761    -7.9910638     -7.3929509      2.2151861      50218.233      36.893836      36.893836      36.893836    
  33700000   0.39989525    -7.9895867     -7.3897524      2.2300803      50218.233      36.893836      36.893836      36.893836    
  33800000   0.40163436    -7.9890583     -7.3866153      2.2350041      50218.233      36.893836      36.893836      36.893836    
  33900000   0.39932896    -7.9911959     -7.392211       2.2082528      50218.233      36.893836      36.893836      36.893836    
  34000000   0.39940138    -7.9884172     -7.3893237      2.2282419      50218.233      36.893836      36.893836      36.893836    
  34100000   0.39950598    -7.9920563     -7.3928058      2.2031945      50218.233      36.893836      36.893836      36.893836    
  34200000   0.39931875    -7.9886515     -7.3896819      2.232453       50218.233      36.893836      36.893836      36.893836    
  34300000   0.40048528    -7.9910714     -7.390352       2.2077581      50218.233      36.893836      36.893836      36.893836    
  34400000   0.4014194     -7.9893385     -7.387218       2.2252792      50218.233      36.893836      36.893836      36.893836    
  34500000   0.39921233    -7.9894481     -7.3906382      2.2247127      50218.233      36.893836      36.893836      36.893836    
  34600000   0.40030124    -7.9907789     -7.3903356      2.2126942      50218.233      36.893836      36.893836      36.893836    
  34700000   0.40079668    -7.9895054     -7.388319       2.2168324      50218.233      36.893836      36.893836      36.893836    
  34800000   0.40161879    -7.9907356     -7.388316       2.2117428      50218.233      36.893836      36.893836      36.893836    
  34900000   0.40016673    -7.9877397     -7.3874981      2.2315908      50218.233      36.893836      36.893836      36.893836    
  35000000   0.40003461    -7.992838      -7.3927946      2.2055422      50218.233      36.893836      36.893836      36.893836    
  35100000   0.40163966    -7.9951949     -7.392744       2.1834005      50218.233      36.893836      36.893836      36.893836    
  35200000   0.40155211    -7.9899118     -7.3875922      2.2302026      50218.233      36.893836      36.893836      36.893836    
  35300000   0.40127705    -7.9909936     -7.3890866      2.2204888      50218.233      36.893836      36.893836      36.893836    
  35400000   0.39980512    -7.9889003     -7.3892012      2.226228       50218.233      36.893836      36.893836      36.893836    
  35500000   0.39780856    -7.9930014     -7.396297       2.1964585      50218.233      36.893836      36.893836      36.893836    
  35600000   0.39925786    -7.9885351     -7.3896568      2.2283716      50218.233      36.893836      36.893836      36.893836    
  35700000   0.39912054    -7.9909974     -7.3923251      2.2152557      50218.233      36.893836      36.893836      36.893836    
  35800000   0.39996447    -7.9949765     -7.3950383      2.1835225      50218.233      36.893836      36.893836      36.893836    
  35900000   0.40164043    -7.9904527     -7.3880007      2.2132501      50218.233      36.893836      36.893836      36.893836    
  36000000   0.39985377    -7.990776      -7.3910039      2.2125068      50218.233      36.893836      36.893836      36.893836    
  36100000   0.40068863    -7.9930078     -7.3919834      2.1950611      50218.233      36.893836      36.893836      36.893836    
  36200000   0.40004623    -7.9920166     -7.3919558      2.2004825      50218.233      36.893836      36.893836      36.893836    
  36300000   0.40152353    -7.9913504     -7.3890736      2.2163965      50218.233      36.893836      36.893836      36.893836    
  36400000   0.3989677     -7.9902987     -7.3918557      2.2171383      50218.233      36.893836      36.893836      36.893836    
  36500000   0.4013329     -7.9894561     -7.3874654      2.221199       50218.233      36.893836      36.893836      36.893836    
  36600000   0.40137673    -7.992241      -7.3901845      2.2069011      50218.233      36.893836      36.893836      36.893836    
  36700000   0.40016512    -7.9886709     -7.3884318      2.2335079      50218.233      36.893836      36.893836      36.893836    
  36800000   0.3978501     -7.9886518     -7.3918852      2.2285869      50218.233      36.893836      36.893836      36.893836    
  36900000   0.39919683    -7.987119      -7.3883323      2.2361265      50218.233      36.893836      36.893836      36.893836    
  37000000   0.40205273    -7.988393      -7.3853225      2.2365517      50218.233      36.893836      36.893836      36.893836    
  37100000   0.39743181    -7.9856879     -7.3895486      2.2465959      50218.233      36.893836      36.893836      36.893836    
  37200000   0.39991811    -7.9930363     -7.3931677      2.1955433      50218.233      36.893836      36.893836      36.893836    
  37300000   0.39970663    -7.9896244     -7.390073       2.2242652      50218.233      36.893836      36.893836      36.893836    
  37400000   0.39737188    -7.9890949     -7.3930455      2.2276123      50218.233      36.893836      36.893836      36.893836    
  37500000   0.40032554    -7.9905156     -7.3900358      2.2143537      50218.233      36.893836      36.893836      36.893836    
  37600000   0.39963359    -7.9912777     -7.3918358      2.2088447      50218.233      36.893836      36.893836      36.893836    
  37700000   0.40023134    -7.9914443     -7.3911058      2.2169594      50218.233      36.893836      36.893836      36.893836    
  37800000   0.39925273    -7.9914167     -7.3925461      2.2136975      50218.233      36.893836      36.893836      36.893836    
  37900000   0.40051751    -7.9875275     -7.3867597      2.2377024      50218.233      36.893836      36.893836      36.893836    
  38000000   0.39920772    -7.9883968     -7.3895938      2.2289965      50218.233      36.893836      36.893836      36.893836    
  38100000   0.39941979    -7.9916443     -7.3925231      2.2154837      50218.233      36.893836      36.893836      36.893836    
  38200000   0.40104381    -7.989889      -7.3883319      2.2230334      50218.233      36.893836      36.893836      36.893836    
  38300000   0.39840517    -7.9885778     -7.3909785      2.2320632      50218.233      36.893836      36.893836      36.893836    
  38400000   0.39823876    -7.9900982     -7.3927486      2.228128       50218.233      36.893836      36.893836      36.893836    
  38500000   0.39985996    -7.9895987     -7.3898173      2.2275726      50218.233      36.893836      36.893836      36.893836    
  38600000   0.40010273    -7.989894      -7.3897484      2.2270237      50218.233      36.893836      36.893836      36.893836    
  38700000   0.39771558    -7.9889608     -7.392396       2.220136       50218.233      36.893836      36.893836      36.893836    
  38800000   0.40059672    -7.9890352     -7.3881487      2.2323713      50218.233      36.893836      36.893836      36.893836    
  38900000   0.40028075    -7.9894263     -7.3890137      2.2340245      50218.233      36.893836      36.893836      36.893836    
  39000000   0.39941699    -7.9917711     -7.3926541      2.2102633      50218.233      36.893836      36.893836      36.893836    
  39100000   0.39875338    -7.9912353     -7.3931137      2.2050373      50218.233      36.893836      36.893836      36.893836    
  39200000   0.39807893    -7.9922132     -7.3951033      2.2014336      50218.233      36.893836      36.893836      36.893836    
  39300000   0.40066565    -7.9876938     -7.3867039      2.2372394      50218.233      36.893836      36.893836      36.893836    
  39400000   0.39972545    -7.9904172     -7.3908375      2.2118273      50218.233      36.893836      36.893836      36.893836    
  39500000   0.4009714     -7.9891584     -7.3877098      2.2301623      50218.233      36.893836      36.893836      36.893836    
  39600000   0.40003708    -7.9924485     -7.3924014      2.1989645      50218.233      36.893836      36.893836      36.893836    
  39700000   0.39835031    -7.991328      -7.3938111      2.2128628      50218.233      36.893836      36.893836      36.893836    
  39800000   0.39913351    -7.9921546     -7.3934628      2.2029709      50218.233      36.893836      36.893836      36.893836    
  39900000   0.39793507    -7.9907869     -7.3938928      2.212387       50218.233      36.893836      36.893836      36.893836    
  40000000   0.40021925    -7.9934226     -7.3931022      2.201752       50218.233      36.893836      36.893836      36.893836    
  40100000   0.39985481    -7.9923757     -7.392602       2.1960874      50218.233      36.893836      36.893836      36.893836    
  40200000   0.39805386    -7.9912531     -7.3941808      2.211421       50218.233      36.893836      36.893836      36.893836    
  40300000   0.39881965    -7.9917898     -7.3935689      2.2014589      50218.233      36.893836      36.893836      36.893836    
  40400000   0.39804732    -7.9942495     -7.397187       2.1867287      50218.233      36.893836      36.893836      36.893836    
  40500000   0.40134302    -7.9893069     -7.3873009      2.2334244      50218.233      36.893836      36.893836      36.893836    
  40600000   0.40046793    -7.9920042     -7.3913108      2.1957077      50218.233      36.893836      36.893836      36.893836    
  40700000   0.3996165     -7.9903787     -7.3909624      2.2226099      50218.233      36.893836      36.893836      36.893836    
  40800000   0.39920061    -7.9893263     -7.3905339      2.2202279      50218.233      36.893836      36.893836      36.893836    
  40900000   0.40001126    -7.992773      -7.3927647      2.2132152      50218.233      36.893836      36.893836      36.893836    
  41000000   0.40261822    -7.9959891     -7.3920703      2.1777741      50218.233      36.893836      36.893836      36.893836    
  41100000   0.39899023    -7.9920098     -7.393533       2.2097031      50218.233      36.893836      36.893836      36.893836    
  41200000   0.39982672    -7.9935084     -7.3937769      2.1929163      50218.233      36.893836      36.893836      36.893836    
  41300000   0.39845643    -7.9880292     -7.390353       2.2263582      50218.233      36.893836      36.893836      36.893836    
  41400000   0.40034776    -7.9911045     -7.3905914      2.2148004      50218.233      36.893836      36.893836      36.893836    
  41500000   0.40103041    -7.9885961     -7.387059       2.2368208      50218.233      36.893836      36.893836      36.893836    
  41600000   0.3984539     -7.9925206     -7.3948483      2.2040076      50218.233      36.893836      36.893836      36.893836    
  41700000   0.4003706     -7.9898077     -7.3892603      2.2332726      50218.233      36.893836      36.893836      36.893836    
  41800000   0.39821184    -7.9909561     -7.3936468      2.2049354      50218.233      36.893836      36.893836      36.893836    
  41900000   0.40179477    -7.9887999     -7.3861163      2.2245738      50218.233      36.893836      36.893836      36.893836    
  42000000   0.39972242    -7.989269      -7.3896939      2.2253528      50218.233      36.893836      36.893836      36.893836    
  42100000   0.39932433    -7.9907455     -7.3917675      2.2167865      50218.233      36.893836      36.893836      36.893836    
  42200000   0.4004035     -7.99338       -7.3927833      2.1847753      50218.233      36.893836      36.893836      36.893836    
  42300000   0.40061718    -7.9911486     -7.3902314      2.2168897      50218.233      36.893836      36.893836      36.893836    
  42400000   0.40014392    -7.992386      -7.3921787      2.2029538      50218.233      36.893836      36.893836      36.893836    
  42500000   0.40171593    -7.9904673     -7.387902       2.2217031      50218.233      36.893836      36.893836      36.893836    
  42600000   0.39807007    -7.9904335     -7.3933369      2.2249189      50218.233      36.893836      36.893836      36.893836    
  42700000   0.40052903    -7.9914466     -7.3906616      2.217119       50218.233      36.893836      36.893836      36.893836    
  42800000   0.4000105     -7.9922255     -7.3922183      2.210003       50218.233      36.893836      36.893836      36.893836    
  42900000   0.40143595    -7.9897842     -7.3876388      2.2232203      50218.233      36.893836      36.893836      36.893836    
  43000000   0.39916413    -7.9920205     -7.3932828      2.214237       50218.233      36.893836      36.893836      36.893836    
  43100000   0.39978413    -7.9923684     -7.3927007      2.2036661      50218.233      36.893836      36.893836      36.893836    
  43200000   0.39804863    -7.9934679     -7.3964034      2.1999627      50218.233      36.893836      36.893836      36.893836    
  43300000   0.40020948    -7.9904958     -7.3901901      2.2240579      50218.233      36.893836      36.893836      36.893836    
  43400000   0.39839776    -7.990374      -7.3927858      2.2185274      50218.233      36.893836      36.893836      36.893836    
  43500000   0.3997545     -7.9891378     -7.3895145      2.2223311      50218.233      36.893836      36.893836      36.893836    
  43600000   0.40025691    -7.9884481     -7.3880712      2.2369744      50218.233      36.893836      36.893836      36.893836    
  43700000   0.40068185    -7.9874804     -7.3864661      2.2411138      50218.233      36.893836      36.893836      36.893836    
  43800000   0.4007993     -7.9928817     -7.3916913      2.2022703      50218.233      36.893836      36.893836      36.893836    
  43900000   0.40087856    -7.9877362     -7.3864269      2.2438871      50218.233      36.893836      36.893836      36.893836    
  44000000   0.40032223    -7.9957557     -7.3952809      2.1771626      50218.233      36.893836      36.893836      36.893836    
  44100000   0.40080434    -7.9909769     -7.3897789      2.2135665      50218.233      36.893836      36.893836      36.893836    
  44200000   0.39973588    -7.9919343     -7.392339       2.2109264      50218.233      36.893836      36.893836      36.893836    
  44300000   0.40004965    -7.9950705     -7.3950046      2.1856567      50218.233      36.893836      36.893836      36.893836    
  44400000   0.39967549    -7.9936889     -7.3941842      2.1898363      50218.233      36.893836      36.893836      36.893836    
  44500000   0.40064822    -7.9944518     -7.393488       2.1837088      50218.233      36.893836      36.893836      36.893836    
  44600000   0.39995006    -7.9936798     -7.3937633      2.1951754      50218.233      36.893836      36.893836      36.893836    
  44700000   0.39946193    -7.990187      -7.3910027      2.2153348      50218.233      36.893836      36.893836      36.893836    
  44800000   0.40165377    -7.9936413     -7.3911693      2.1909224      50218.233      36.893836      36.893836      36.893836    
  44900000   0.40105707    -7.9923214     -7.3907443      2.1965762      50218.233      36.893836      36.893836      36.893836    
  45000000   0.4000483     -7.990883      -7.3908191      2.2081126      50218.233      36.893836      36.893836      36.893836    
  45100000   0.40242842    -7.9937692     -7.3901352      2.2057662      50218.233      36.893836      36.893836      36.893836    
  45200000   0.39978757    -7.990041      -7.3903682      2.2208987      50218.233      36.893836      36.893836      36.893836    
  45300000   0.3989288     -7.9914403     -7.3930557      2.2066903      50218.233      36.893836      36.893836      36.893836    
  45400000   0.40140762    -7.9905854     -7.3884825      2.2039873      50218.233      36.893836      36.893836      36.893836    
  45500000   0.40173961    -7.9917089     -7.389108       2.2126922      50218.233      36.893836      36.893836      36.893836    
  45600000   0.39977662    -7.9919372     -7.3922808      2.1914855      50218.233      36.893836      36.893836      36.893836    
  45700000   0.39943909    -7.9939713     -7.3948212      2.1888082      50218.233      36.893836      36.893836      36.893836    
  45800000   0.3993132     -7.9910867     -7.3921254      2.2065332      50218.233      36.893836      36.893836      36.893836    
  45900000   0.39963757    -7.989713      -7.3902652      2.2201238      50218.233      36.893836      36.893836      36.893836    
  46000000   0.39902617    -7.9896198     -7.3910891      2.215409       50218.233      36.893836      36.893836      36.893836    
  46100000   0.4007008     -7.9926168     -7.3915742      2.2022118      50218.233      36.893836      36.893836      36.893836    
  46200000   0.39824345    -7.9938998     -7.3965431      2.1913629      50218.233      36.893836      36.893836      36.893836    
  46300000   0.39968521    -7.9920925     -7.3925732      2.2015508      50218.233      36.893836      36.893836      36.893836    
  46400000   0.40000069    -7.9898375     -7.389845       2.2157435      50218.233      36.893836      36.893836      36.893836    
  46500000   0.39782759    -7.9893144     -7.3925815      2.2279819      50218.233      36.893836      36.893836      36.893836    
  46600000   0.40131585    -7.9924304     -7.3904652      2.2016184      50218.233      36.893836      36.893836      36.893836    
  46700000   0.40000106    -7.9917136     -7.3917205      2.2150571      50218.233      36.893836      36.893836      36.893836    
  46800000   0.39748603    -7.9900546     -7.393834       2.2118971      50218.233      36.893836      36.893836      36.893836    
  46900000   0.40001098    -7.9917834     -7.3917755      2.1989255      50218.233      36.893836      36.893836      36.893836    
  47000000   0.40028185    -7.9908855     -7.3904712      2.2052791      50218.233      36.893836      36.893836      36.893836    
  47100000   0.40039264    -7.9920133     -7.3914329      2.2053113      50218.233      36.893836      36.893836      36.893836    
  47200000   0.39852454    -7.990168      -7.3923897      2.2064876      50218.233      36.893836      36.893836      36.893836    
  47300000   0.39976843    -7.9899286     -7.3902845      2.2172301      50218.233      36.893836      36.893836      36.893836    
  47400000   0.40146091    -7.9902987     -7.3881159      2.2212157      50218.233      36.893836      36.893836      36.893836    
  47500000   0.39995289    -7.9887367     -7.3888159      2.228018       50218.233      36.893836      36.893836      36.893836    
  47600000   0.40038062    -7.9881371     -7.3875747      2.2390221      50218.233      36.893836      36.893836      36.893836    
  47700000   0.3986849     -7.9901106     -7.3920917      2.2103725      50218.233      36.893836      36.893836      36.893836    
  47800000   0.39857461    -7.9895646     -7.3917112      2.216566       50218.233      36.893836      36.893836      36.893836    
  47900000   0.40097617    -7.9903386     -7.3888829      2.2203483      50218.233      36.893836      36.893836      36.893836    
  48000000   0.39985567    -7.9904885     -7.3907135      2.2195057      50218.233      36.893836      36.893836      36.893836    
  48100000   0.39702006    -7.987719      -7.3921974      2.2305467      50218.233      36.893836      36.893836      36.893836    
  48200000   0.3993884     -7.9880041     -7.38893        2.2319198      50218.233      36.893836      36.893836      36.893836    
  48300000   0.39987259    -7.9953933     -7.395593       2.1708404      50218.233      36.893836      36.893836      36.893836    
  48400000   0.40022187    -7.9916542     -7.3913299      2.2094904      50218.233      36.893836      36.893836      36.893836    
  48500000   0.4015508     -7.9911926     -7.3888749      2.2173973      50218.233      36.893836      36.893836      36.893836    
  48600000   0.39995603    -7.9883973     -7.3884718      2.2325536      50218.233      36.893836      36.893836      36.893836    
  48700000   0.39870921    -7.9952244     -7.3971691      2.1812736      50218.233      36.893836      36.893836      36.893836    
  48800000   0.40135302    -7.9923637     -7.3903427      2.2024785      50218.233      36.893836      36.893836      36.893836    
  48900000   0.39897944    -7.9910376     -7.392577       2.1988846      50218.233      36.893836      36.893836      36.893836    
  49000000   0.40339335    -7.9918051     -7.3867237      2.2177386      50218.233      36.893836      36.893836      36.893836    
  49100000   0.39978358    -7.9917414     -7.3920746      2.1990286      50218.233      36.893836      36.893836      36.893836    
  49200000   0.39867713    -7.9925651     -7.3945579      2.1981309      50218.233      36.893836      36.893836      36.893836    
  49300000   0.3979303     -7.9901722     -7.3932853      2.2205225      50218.233      36.893836      36.893836      36.893836    
  49400000   0.39772856    -7.9934015     -7.3968171      2.1955642      50218.233      36.893836      36.893836      36.893836    
  49500000   0.40096852    -7.992406      -7.3909618      2.2046423      50218.233      36.893836      36.893836      36.893836    
  49600000   0.39833622    -7.9915853     -7.3940894      2.1999796      50218.233      36.893836      36.893836      36.893836    
  49700000   0.40218311    -7.9925001     -7.389234       2.2058972      50218.233      36.893836      36.893836      36.893836    
  49800000   0.4020345     -7.9913328     -7.3882896      2.224723       50218.233      36.893836      36.893836      36.893836    
  49900000   0.40222311    -7.9931615     -7.3898355      2.1950801      50218.233      36.893836      36.893836      36.893836    
  50000000   0.39937627    -7.9936711     -7.3946153      2.1916708      50218.233      36.893836      36.893836      36.893836    
Loop time of 78535.2 on 5 procs for 50000000 steps with 70304 atoms

Performance: 550071.966 tau/day, 636.657 timesteps/s, 44.760 Matom-step/s
94.1% CPU use with 5 MPI tasks x 1 OpenMP threads

MPI task timing breakdown:
Section |  min time  |  avg time  |  max time  |%varavg| %total
---------------------------------------------------------------
Pair    | 24035      | 29619      | 34268      |2067.7 | 37.71
Neigh   | 239.69     | 258.12     | 297.25     | 130.4 |  0.33
Comm    | 11625      | 11699      | 11805      |  56.7 | 14.90
Output  | 0.090487   | 0.094384   | 0.10263    |   1.4 |  0.00
Modify  | 28352      | 33042      | 38748      |1975.2 | 42.07
Other   |            | 3917       |            |       |  4.99

Nlocal:        14060.8 ave       14135 max       14025 min
Histogram: 3 0 0 0 0 1 0 0 0 1
Nghost:          18732 ave       18828 max       18689 min
Histogram: 3 0 0 0 1 0 0 0 0 1
Neighs:              0 ave           0 max           0 min
Histogram: 5 0 0 0 0 0 0 0 0 0

Total # of neighbors = 0
Ave neighs/atom = 0
Neighbor list builds = 9544176
Dangerous builds = 0
clear
OMP_NUM_THREADS environment is not set. Defaulting to 1 thread. (src/comm.cpp:98)
  using 1 OpenMP thread(s) per MPI task
package gpu 0
jump dms380.lmp

variable T equal 380
# T = 1000* (temp in LJ unit)
variable f equal 100000
log log.${T}
log log.380
