variable TLJ equal (${T}/1000)
variable TLJ equal (300/1000)
variable NCyle equal 5
variable iStep equal (${f})
variable iStep equal (100000)
variable dumpStep equal (${f}*100)
variable dumpStep equal (100000*100)
variable runStep equal (${f}*100*${NCyle})
variable runStep equal (100000*100*${NCyle})
variable runStep equal (100000*100*5)

units       lj
atom_style  atomic
dimension 3
boundary     p p p
pair_style  lj/cut 2.5
read_data  ../data/T${T}.dat
read_data  ../data/T300.dat
Reading data file ...
  orthogonal box = (0.97250269 0.97250269 0.97250269) to (37.866338 37.866338 37.866338)
  1 by 1 by 5 MPI processor grid
  reading atoms ...
  70304 atoms
  reading velocities ...
  70304 velocities
  read_data CPU = 0.209 seconds
change_box all triclinic
Changing box ...
  triclinic box = (0.97250269 0.97250269 0.97250269) to (37.866338 37.866338 37.866338) with tilt (0 0 0)
mass 1 1
mass 2 1
pair_modify shift yes
pair_coeff  1 1 1 1
pair_coeff  1 2 1.5 0.8
pair_coeff  2 2 0.5 0.88


timestep 0.01
thermo ${iStep}
thermo 100000
reset_timestep 0
thermo_style custom step temp pe etotal press vol lx ly lz
fix             1 all nvt temp ${TLJ}  ${TLJ}  0.1
fix             1 all nvt temp 0.3  ${TLJ}  0.1
fix             1 all nvt temp 0.3  0.3  0.1
thermo_modify flush yes

fix dsf all deform 1 xy  wiggle 0.5  ${f}   units box
fix dsf all deform 1 xy  wiggle 0.5  100000   units box
fix ps1 all ave/time 1 1 ${iStep} c_thermo_press[1] c_thermo_press[2]  c_thermo_press[3] c_thermo_press[4]  c_thermo_press[5] c_thermo_press[6]  file  stress.${T}
fix ps1 all ave/time 1 1 100000 c_thermo_press[1] c_thermo_press[2]  c_thermo_press[3] c_thermo_press[4]  c_thermo_press[5] c_thermo_press[6]  file  stress.${T}
fix ps1 all ave/time 1 1 100000 c_thermo_press[1] c_thermo_press[2]  c_thermo_press[3] c_thermo_press[4]  c_thermo_press[5] c_thermo_press[6]  file  stress.300
dump            1 all custom ${dumpStep} dump.${T} id type x y z
dump            1 all custom 10000000 dump.${T} id type x y z
dump            1 all custom 10000000 dump.300 id type x y z
dump_modify 1 sort id
fix nodrift all momentum 1  linear 1 1 1
fix com_seed all recenter INIT INIT INIT shift all
run ${runStep}
run 50000000
Generated 0 of 1 mixed pair_coeff terms from geometric mixing rule
Per MPI rank memory allocation (min/avg/max) = 8.915 | 8.918 | 8.921 Mbytes
   Step          Temp          PotEng         TotEng         Press          Volume           Lx             Ly             Lz      
         0   0.30034515    -8.1416212     -7.6911099      0.95878446     50218.233      36.893836      36.893836      36.893836    
    100000   0.29967348    -8.137113      -7.6876092      0.98470258     50218.233      36.893836      36.893836      36.893836    
    200000   0.30087338    -8.1377108     -7.6864071      0.98788063     50218.233      36.893836      36.893836      36.893836    
    300000   0.29973315    -8.1348627     -7.6852694      1.0090314      50218.233      36.893836      36.893836      36.893836    
    400000   0.30240727    -8.1374307     -7.6838263      0.99153105     50218.233      36.893836      36.893836      36.893836    
    500000   0.29943783    -8.1354001     -7.6862498      1.0090055      50218.233      36.893836      36.893836      36.893836    
    600000   0.30173295    -8.1376468     -7.6850538      0.99269359     50218.233      36.893836      36.893836      36.893836    
    700000   0.30036087    -8.1336912     -7.6831563      1.0138741      50218.233      36.893836      36.893836      36.893836    
    800000   0.29942007    -8.135697      -7.6865733      1.0000772      50218.233      36.893836      36.893836      36.893836    
    900000   0.29940116    -8.1348748     -7.6857794      1.0081892      50218.233      36.893836      36.893836      36.893836    
   1000000   0.30002422    -8.1374485     -7.6874186      0.99249436     50218.233      36.893836      36.893836      36.893836    
   1100000   0.29954959    -8.1361017     -7.6867837      0.9981394      50218.233      36.893836      36.893836      36.893836    
   1200000   0.29943418    -8.1359307     -7.6867858      0.99395691     50218.233      36.893836      36.893836      36.893836    
   1300000   0.30081003    -8.1365149     -7.6853063      0.99337729     50218.233      36.893836      36.893836      36.893836    
   1400000   0.2996834     -8.1354583     -7.6859396      1.0011633      50218.233      36.893836      36.893836      36.893836    
   1500000   0.29921517    -8.1359168     -7.6871004      1.0034695      50218.233      36.893836      36.893836      36.893836    
   1600000   0.29997415    -8.1358113     -7.6858565      1.000627       50218.233      36.893836      36.893836      36.893836    
   1700000   0.30134851    -8.1361493     -7.684133       0.99341397     50218.233      36.893836      36.893836      36.893836    
   1800000   0.30095387    -8.1366132     -7.6851888      0.99474619     50218.233      36.893836      36.893836      36.893836    
   1900000   0.29897408    -8.1335901     -7.6851354      1.0132795      50218.233      36.893836      36.893836      36.893836    
   2000000   0.29977611    -8.1354247     -7.685767       0.99782664     50218.233      36.893836      36.893836      36.893836    
   2100000   0.30083447    -8.1363061     -7.6850609      1.0059289      50218.233      36.893836      36.893836      36.893836    
   2200000   0.29848142    -8.1340565     -7.6863408      1.0105186      50218.233      36.893836      36.893836      36.893836    
   2300000   0.29944558    -8.1368999     -7.687738       0.9997951      50218.233      36.893836      36.893836      36.893836    
   2400000   0.29837411    -8.1348991     -7.6873443      1.003202       50218.233      36.893836      36.893836      36.893836    
   2500000   0.29942553    -8.135834      -7.6867021      1.0025529      50218.233      36.893836      36.893836      36.893836    
   2600000   0.29886423    -8.1376737     -7.6893838      0.99312397     50218.233      36.893836      36.893836      36.893836    
   2700000   0.29895332    -8.1357952     -7.6873716      1.0003506      50218.233      36.893836      36.893836      36.893836    
   2800000   0.30011795    -8.1350209     -7.6848503      1.0148682      50218.233      36.893836      36.893836      36.893836    
   2900000   0.29920593    -8.1346602     -7.6858577      1.0085531      50218.233      36.893836      36.893836      36.893836    
   3000000   0.29912666    -8.1355099     -7.6868263      0.99605755     50218.233      36.893836      36.893836      36.893836    
   3100000   0.30004059    -8.1346908     -7.6846363      1.0078567      50218.233      36.893836      36.893836      36.893836    
   3200000   0.3004212     -8.1346721     -7.6840467      1.0141839      50218.233      36.893836      36.893836      36.893836    
   3300000   0.30149456    -8.1343914     -7.682156       1.0207571      50218.233      36.893836      36.893836      36.893836    
   3400000   0.30024436    -8.1360782     -7.6857181      0.99722238     50218.233      36.893836      36.893836      36.893836    
   3500000   0.30011764    -8.1388051     -7.6886351      0.98814929     50218.233      36.893836      36.893836      36.893836    
   3600000   0.29918496    -8.1361624     -7.6873914      1.0086353      50218.233      36.893836      36.893836      36.893836    
   3700000   0.30102224    -8.1346418     -7.6831149      1.0064531      50218.233      36.893836      36.893836      36.893836    
   3800000   0.30016384    -8.1353993     -7.68516        1.0040192      50218.233      36.893836      36.893836      36.893836    
   3900000   0.30063291    -8.1356564     -7.6847134      1.0017359      50218.233      36.893836      36.893836      36.893836    
   4000000   0.30009473    -8.1358658     -7.6857301      0.99894712     50218.233      36.893836      36.893836      36.893836    
   4100000   0.30106062    -8.1364957     -7.6849112      0.99144935     50218.233      36.893836      36.893836      36.893836    
   4200000   0.29997761    -8.1385404     -7.6885804      0.97739016     50218.233      36.893836      36.893836      36.893836    
   4300000   0.30100423    -8.1362794     -7.6847794      0.99602005     50218.233      36.893836      36.893836      36.893836    
   4400000   0.29963434    -8.136354      -7.6869089      0.99998108     50218.233      36.893836      36.893836      36.893836    
   4500000   0.30087325    -8.1352261     -7.6839226      1.0032383      50218.233      36.893836      36.893836      36.893836    
   4600000   0.29981183    -8.1392232     -7.6895119      0.97824822     50218.233      36.893836      36.893836      36.893836    
   4700000   0.29885323    -8.1363338     -7.6880604      1.0025216      50218.233      36.893836      36.893836      36.893836    
   4800000   0.30028182    -8.1350202     -7.6846039      1.0053228      50218.233      36.893836      36.893836      36.893836    
   4900000   0.29884019    -8.1367833     -7.6885294      1.0014464      50218.233      36.893836      36.893836      36.893836    
   5000000   0.29931311    -8.1373723     -7.688409       0.98486476     50218.233      36.893836      36.893836      36.893836    
   5100000   0.30044221    -8.1362464     -7.6855895      0.99340637     50218.233      36.893836      36.893836      36.893836    
   5200000   0.30079603    -8.1359644     -7.6847768      1.0070292      50218.233      36.893836      36.893836      36.893836    
   5300000   0.30010855    -8.1389111     -7.6887547      0.98198277     50218.233      36.893836      36.893836      36.893836    
   5400000   0.29931016    -8.1353785     -7.6864196      0.99976448     50218.233      36.893836      36.893836      36.893836    
   5500000   0.29864542    -8.1381897     -7.690228       0.96966311     50218.233      36.893836      36.893836      36.893836    
   5600000   0.3001174     -8.1388412     -7.6886715      0.97438427     50218.233      36.893836      36.893836      36.893836    
   5700000   0.29973096    -8.1384073     -7.6888172      0.98546429     50218.233      36.893836      36.893836      36.893836    
   5800000   0.30074331    -8.1343648     -7.6832563      1.0147859      50218.233      36.893836      36.893836      36.893836    
   5900000   0.29951304    -8.1344777     -7.6852145      1.0155857      50218.233      36.893836      36.893836      36.893836    
   6000000   0.30054453    -8.1371346     -7.6863242      0.99096628     50218.233      36.893836      36.893836      36.893836    
   6100000   0.29981172    -8.1345548     -7.6848436      1.0114646      50218.233      36.893836      36.893836      36.893836    
   6200000   0.30054407    -8.1377185     -7.6869088      0.98753918     50218.233      36.893836      36.893836      36.893836    
   6300000   0.30035902    -8.134615      -7.6840829      1.0163607      50218.233      36.893836      36.893836      36.893836    
   6400000   0.30219068    -8.1338506     -7.680571       1.0227963      50218.233      36.893836      36.893836      36.893836    
   6500000   0.30286535    -8.1378934     -7.6836019      0.98882968     50218.233      36.893836      36.893836      36.893836    
   6600000   0.30027258    -8.1352264     -7.6848239      1.0141695      50218.233      36.893836      36.893836      36.893836    
   6700000   0.30083006    -8.1388261     -7.6875874      0.9819341      50218.233      36.893836      36.893836      36.893836    
   6800000   0.30066524    -8.1340276     -7.6830361      1.0164325      50218.233      36.893836      36.893836      36.893836    
   6900000   0.30062679    -8.135726      -7.6847923      1.0016817      50218.233      36.893836      36.893836      36.893836    
   7000000   0.29841751    -8.1355705     -7.6879506      1.0015157      50218.233      36.893836      36.893836      36.893836    
   7100000   0.30003712    -8.1351749     -7.6851257      1.0066141      50218.233      36.893836      36.893836      36.893836    
   7200000   0.29988997    -8.1343754     -7.6845468      1.017439       50218.233      36.893836      36.893836      36.893836    
   7300000   0.2993153     -8.1360777     -7.6871111      0.99583613     50218.233      36.893836      36.893836      36.893836    
   7400000   0.30034584    -8.1354423     -7.6849299      0.99959575     50218.233      36.893836      36.893836      36.893836    
   7500000   0.29951932    -8.1349422     -7.6856696      1.009726       50218.233      36.893836      36.893836      36.893836    
   7600000   0.29999429    -8.1339765     -7.6839915      1.0150703      50218.233      36.893836      36.893836      36.893836    
   7700000   0.30064952    -8.1367916     -7.6858238      1.0001699      50218.233      36.893836      36.893836      36.893836    
   7800000   0.30071977    -8.1355631     -7.6844899      1.0039132      50218.233      36.893836      36.893836      36.893836    
   7900000   0.29909993    -8.1348095     -7.686166       1.0004228      50218.233      36.893836      36.893836      36.893836    
   8000000   0.29913511    -8.1360728     -7.6873766      0.99678696     50218.233      36.893836      36.893836      36.893836    
   8100000   0.3010598     -8.136148      -7.6845647      1.002262       50218.233      36.893836      36.893836      36.893836    
   8200000   0.29927063    -8.1370765     -7.6881769      0.98821585     50218.233      36.893836      36.893836      36.893836    
   8300000   0.30012999    -8.1375625     -7.6873739      0.98302737     50218.233      36.893836      36.893836      36.893836    
   8400000   0.30144805    -8.1358285     -7.6836628      1.0004444      50218.233      36.893836      36.893836      36.893836    
   8500000   0.30013681    -8.1387691     -7.6885703      0.9818587      50218.233      36.893836      36.893836      36.893836    
   8600000   0.30006875    -8.1368523     -7.6867556      0.9951629      50218.233      36.893836      36.893836      36.893836    
   8700000   0.30058798    -8.1348547     -7.6839791      1.0037686      50218.233      36.893836      36.893836      36.893836    
   8800000   0.29868688    -8.1350276     -7.6870037      1.0073333      50218.233      36.893836      36.893836      36.893836    
   8900000   0.29984783    -8.1364945     -7.6867292      0.99478171     50218.233      36.893836      36.893836      36.893836    
   9000000   0.30009535    -8.1378218     -7.6876852      0.98592128     50218.233      36.893836      36.893836      36.893836    
   9100000   0.29923133    -8.1385359     -7.6896953      0.97790576     50218.233      36.893836      36.893836      36.893836    
   9200000   0.30026473    -8.1384909     -7.6881002      0.98233752     50218.233      36.893836      36.893836      36.893836    
   9300000   0.30144348    -8.1374505     -7.6852917      0.98828865     50218.233      36.893836      36.893836      36.893836    
   9400000   0.29725454    -8.1364545     -7.6905791      0.99029298     50218.233      36.893836      36.893836      36.893836    
   9500000   0.30041619    -8.1384056     -7.6877878      0.98076445     50218.233      36.893836      36.893836      36.893836    
   9600000   0.29991607    -8.1369898     -7.6871221      0.98975531     50218.233      36.893836      36.893836      36.893836    
   9700000   0.30114025    -8.1379318     -7.6862279      0.99187421     50218.233      36.893836      36.893836      36.893836    
   9800000   0.29954693    -8.1367014     -7.6873874      0.98875348     50218.233      36.893836      36.893836      36.893836    
   9900000   0.29939013    -8.136146      -7.6870672      0.99907698     50218.233      36.893836      36.893836      36.893836    
  10000000   0.30049838    -8.137033      -7.6862918      0.99525982     50218.233      36.893836      36.893836      36.893836    
  10100000   0.30003697    -8.1354246     -7.6853756      1.0184296      50218.233      36.893836      36.893836      36.893836    
  10200000   0.29973239    -8.1366428     -7.6870506      0.99297384     50218.233      36.893836      36.893836      36.893836    
  10300000   0.3004024     -8.1384837     -7.6878865      0.97572409     50218.233      36.893836      36.893836      36.893836    
  10400000   0.29876584    -8.1374136     -7.6892712      0.99193513     50218.233      36.893836      36.893836      36.893836    
  10500000   0.29910315    -8.1366397     -7.6879913      1.0039832      50218.233      36.893836      36.893836      36.893836    
  10600000   0.29912771    -8.1357167     -7.6870315      0.99677273     50218.233      36.893836      36.893836      36.893836    
  10700000   0.29964098    -8.1359608     -7.6865057      1.0036418      50218.233      36.893836      36.893836      36.893836    
  10800000   0.30072168    -8.1359147     -7.6848386      1.0042464      50218.233      36.893836      36.893836      36.893836    
  10900000   0.30084925    -8.1360238     -7.6847563      1.0087935      50218.233      36.893836      36.893836      36.893836    
  11000000   0.30020733    -8.1363849     -7.6860803      0.99689588     50218.233      36.893836      36.893836      36.893836    
  11100000   0.29855664    -8.1361894     -7.6883608      0.99105449     50218.233      36.893836      36.893836      36.893836    
  11200000   0.29974334    -8.1342052     -7.6845965      1.0200016      50218.233      36.893836      36.893836      36.893836    
  11300000   0.29982286    -8.136408      -7.6866801      1.0023839      50218.233      36.893836      36.893836      36.893836    
  11400000   0.30079109    -8.136344      -7.6851638      0.99915585     50218.233      36.893836      36.893836      36.893836    
  11500000   0.29944951    -8.1355993     -7.6864314      1.0052441      50218.233      36.893836      36.893836      36.893836    
  11600000   0.29907987    -8.1365635     -7.68795        0.99213828     50218.233      36.893836      36.893836      36.893836    
  11700000   0.29988216    -8.1380031     -7.6881863      0.98495279     50218.233      36.893836      36.893836      36.893836    
  11800000   0.29842322    -8.1352033     -7.6875749      1.0056468      50218.233      36.893836      36.893836      36.893836    
  11900000   0.29859311    -8.1342948     -7.6864115      1.0066971      50218.233      36.893836      36.893836      36.893836    
  12000000   0.29859581    -8.1340844     -7.6861971      1.0104572      50218.233      36.893836      36.893836      36.893836    
  12100000   0.29886046    -8.1372307     -7.6889463      0.99290816     50218.233      36.893836      36.893836      36.893836    
  12200000   0.29991322    -8.1319088     -7.6820454      1.0385751      50218.233      36.893836      36.893836      36.893836    
  12300000   0.3006612     -8.1367015     -7.6857161      0.99719139     50218.233      36.893836      36.893836      36.893836    
  12400000   0.30165199    -8.1362181     -7.6837465      1.0038005      50218.233      36.893836      36.893836      36.893836    
  12500000   0.30114811    -8.1360472     -7.6843315      1.0076891      50218.233      36.893836      36.893836      36.893836    
  12600000   0.29814625    -8.1340837     -7.6868707      1.015731       50218.233      36.893836      36.893836      36.893836    
  12700000   0.30034758    -8.1353937     -7.6848787      1.0063349      50218.233      36.893836      36.893836      36.893836    
  12800000   0.29948846    -8.1346498     -7.6854235      1.0153977      50218.233      36.893836      36.893836      36.893836    
  12900000   0.30112225    -8.1363139     -7.684637       0.99899745     50218.233      36.893836      36.893836      36.893836    
  13000000   0.29838845    -8.1368379     -7.6892616      0.99385592     50218.233      36.893836      36.893836      36.893836    
  13100000   0.29941751    -8.1371172     -7.6879973      0.99870395     50218.233      36.893836      36.893836      36.893836    
  13200000   0.29946979    -8.1358106     -7.6866123      1.0129346      50218.233      36.893836      36.893836      36.893836    
  13300000   0.300443      -8.1360612     -7.6854031      0.9989274      50218.233      36.893836      36.893836      36.893836    
  13400000   0.29975237    -8.1350691     -7.6854469      1.0056811      50218.233      36.893836      36.893836      36.893836    
  13500000   0.30036033    -8.1367839     -7.6862498      0.9925975      50218.233      36.893836      36.893836      36.893836    
  13600000   0.30022419    -8.1384958     -7.6881659      0.98324626     50218.233      36.893836      36.893836      36.893836    
  13700000   0.30089559    -8.1337422     -7.6824052      1.0217656      50218.233      36.893836      36.893836      36.893836    
  13800000   0.30076436    -8.1347188     -7.6835787      1.0139574      50218.233      36.893836      36.893836      36.893836    
  13900000   0.29922585    -8.1364569     -7.6876245      0.99917706     50218.233      36.893836      36.893836      36.893836    
  14000000   0.30259439    -8.1354204     -7.6815353      1.0004018      50218.233      36.893836      36.893836      36.893836    
  14100000   0.30087579    -8.1371267     -7.6858194      0.98985246     50218.233      36.893836      36.893836      36.893836    
  14200000   0.29881506    -8.1356329     -7.6874167      0.99351434     50218.233      36.893836      36.893836      36.893836    
  14300000   0.29966094    -8.1363967     -7.6869117      0.99792784     50218.233      36.893836      36.893836      36.893836    
  14400000   0.30070594    -8.1376366     -7.6865841      0.98861266     50218.233      36.893836      36.893836      36.893836    
  14500000   0.29902902    -8.1363746     -7.6878374      1.0048992      50218.233      36.893836      36.893836      36.893836    
  14600000   0.30016663    -8.1392992     -7.6890557      0.97638533     50218.233      36.893836      36.893836      36.893836    
  14700000   0.29961603    -8.1357047     -7.686287       1.0020019      50218.233      36.893836      36.893836      36.893836    
  14800000   0.29943446    -8.1320914     -7.6829461      1.0319497      50218.233      36.893836      36.893836      36.893836    
  14900000   0.30013326    -8.1363121     -7.6861186      1.0004733      50218.233      36.893836      36.893836      36.893836    
  15000000   0.29942788    -8.139032      -7.6898966      0.98176307     50218.233      36.893836      36.893836      36.893836    
  15100000   0.30042515    -8.1368299     -7.6861986      0.99786012     50218.233      36.893836      36.893836      36.893836    
  15200000   0.29967116    -8.1349228     -7.6854224      1.0090019      50218.233      36.893836      36.893836      36.893836    
  15300000   0.30139171    -8.1377428     -7.6856617      0.98722468     50218.233      36.893836      36.893836      36.893836    
  15400000   0.29903395    -8.1361243     -7.6875798      1.0015053      50218.233      36.893836      36.893836      36.893836    
  15500000   0.29960689    -8.1347697     -7.6853657      1.0084377      50218.233      36.893836      36.893836      36.893836    
  15600000   0.29961807    -8.1348601     -7.6854394      0.99745504     50218.233      36.893836      36.893836      36.893836    
  15700000   0.29976392    -8.1377162     -7.6880767      0.992195       50218.233      36.893836      36.893836      36.893836    
  15800000   0.29796442    -8.1376514     -7.6907112      0.98654271     50218.233      36.893836      36.893836      36.893836    
  15900000   0.29908805    -8.1358411     -7.6872154      0.99435077     50218.233      36.893836      36.893836      36.893836    
  16000000   0.29900618    -8.1349439     -7.686441       1.01066        50218.233      36.893836      36.893836      36.893836    
  16100000   0.29955815    -8.1372604     -7.6879296      0.98923705     50218.233      36.893836      36.893836      36.893836    
  16200000   0.30041045    -8.1376784     -7.6870691      0.99281605     50218.233      36.893836      36.893836      36.893836    
  16300000   0.29961258    -8.1356955     -7.686283       1.0025222      50218.233      36.893836      36.893836      36.893836    
  16400000   0.29967243    -8.1382532     -7.688751       0.98294227     50218.233      36.893836      36.893836      36.893836    
  16500000   0.30026847    -8.13521       -7.6848137      1.0032455      50218.233      36.893836      36.893836      36.893836    
  16600000   0.29941151    -8.1363761     -7.6872653      0.99894405     50218.233      36.893836      36.893836      36.893836    
  16700000   0.29999776    -8.135864      -7.6858738      1.0015327      50218.233      36.893836      36.893836      36.893836    
  16800000   0.29866799    -8.1371295     -7.6891339      0.99170982     50218.233      36.893836      36.893836      36.893836    
  16900000   0.29949465    -8.1357334     -7.6864978      1.0057552      50218.233      36.893836      36.893836      36.893836    
  17000000   0.29925166    -8.134542      -7.6856709      1.0167218      50218.233      36.893836      36.893836      36.893836    
  17100000   0.29952957    -8.1365194     -7.6872315      1.0004111      50218.233      36.893836      36.893836      36.893836    
  17200000   0.30044612    -8.1354856     -7.6848228      1.005549       50218.233      36.893836      36.893836      36.893836    
  17300000   0.29855904    -8.1367339     -7.6889018      0.9965635      50218.233      36.893836      36.893836      36.893836    
  17400000   0.29875691    -8.1351315     -7.6870025      1.0044718      50218.233      36.893836      36.893836      36.893836    
  17500000   0.30020983    -8.1338209     -7.6835125      1.0197432      50218.233      36.893836      36.893836      36.893836    
  17600000   0.29989277    -8.13476       -7.6849273      1.0078484      50218.233      36.893836      36.893836      36.893836    
  17700000   0.29986123    -8.1354042     -7.6856188      1.0069363      50218.233      36.893836      36.893836      36.893836    
  17800000   0.30008275    -8.1336995     -7.6835818      1.0230651      50218.233      36.893836      36.893836      36.893836    
  17900000   0.29953068    -8.1380522     -7.6887626      0.98472906     50218.233      36.893836      36.893836      36.893836    
  18000000   0.29956796    -8.1346722     -7.6853266      1.0103739      50218.233      36.893836      36.893836      36.893836    
  18100000   0.29952184    -8.1372336     -7.6879573      0.99470859     50218.233      36.893836      36.893836      36.893836    
  18200000   0.30075156    -8.1349105     -7.6837896      1.0101287      50218.233      36.893836      36.893836      36.893836    
  18300000   0.29913874    -8.1366407     -7.6879389      0.99964359     50218.233      36.893836      36.893836      36.893836    
  18400000   0.29928647    -8.1362656     -7.6873423      0.98837441     50218.233      36.893836      36.893836      36.893836    
  18500000   0.29989215    -8.1350448     -7.6852129      1.0116372      50218.233      36.893836      36.893836      36.893836    
  18600000   0.30020041    -8.1363189     -7.6860247      0.99724117     50218.233      36.893836      36.893836      36.893836    
  18700000   0.3013808     -8.1351496     -7.6830848      1.0066216      50218.233      36.893836      36.893836      36.893836    
  18800000   0.30105154    -8.1342786     -7.6827077      1.0149134      50218.233      36.893836      36.893836      36.893836    
  18900000   0.30029335    -8.1371816     -7.6867479      0.99249115     50218.233      36.893836      36.893836      36.893836    
  19000000   0.29915673    -8.13515       -7.6864213      0.99899007     50218.233      36.893836      36.893836      36.893836    
  19100000   0.29956263    -8.1366884     -7.6873508      0.99409958     50218.233      36.893836      36.893836      36.893836    
  19200000   0.30017651    -8.1380697     -7.6878113      0.98696279     50218.233      36.893836      36.893836      36.893836    
  19300000   0.29950162    -8.1366707     -7.6874247      0.9932635      50218.233      36.893836      36.893836      36.893836    
  19400000   0.30031368    -8.1362017     -7.6857376      1.0007112      50218.233      36.893836      36.893836      36.893836    
  19500000   0.3012226     -8.1360256     -7.6841981      1.004997       50218.233      36.893836      36.893836      36.893836    
  19600000   0.30106528    -8.1365688     -7.6849773      0.99543146     50218.233      36.893836      36.893836      36.893836    
  19700000   0.30046645    -8.1373919     -7.6866987      0.99061757     50218.233      36.893836      36.893836      36.893836    
  19800000   0.30069886    -8.1355642     -7.6845223      1.0054987      50218.233      36.893836      36.893836      36.893836    
  19900000   0.29999234    -8.1348793     -7.6848972      1.0183773      50218.233      36.893836      36.893836      36.893836    
  20000000   0.30022045    -8.137832      -7.6875077      0.98144289     50218.233      36.893836      36.893836      36.893836    
  20100000   0.3015256     -8.1354572     -7.6831752      1.00852        50218.233      36.893836      36.893836      36.893836    
  20200000   0.30112501    -8.1403789     -7.6886978      0.96456232     50218.233      36.893836      36.893836      36.893836    
  20300000   0.29887624    -8.1373608     -7.6890528      0.98999299     50218.233      36.893836      36.893836      36.893836    
  20400000   0.30029882    -8.1350214     -7.6845796      1.0147681      50218.233      36.893836      36.893836      36.893836    
  20500000   0.3001723     -8.1372441     -7.686992       0.99637715     50218.233      36.893836      36.893836      36.893836    
  20600000   0.30250643    -8.1377605     -7.6840073      0.99690958     50218.233      36.893836      36.893836      36.893836    
  20700000   0.29992039    -8.1355992     -7.685725       1.0075818      50218.233      36.893836      36.893836      36.893836    
  20800000   0.29902171    -8.1390578     -7.6905316      0.98001645     50218.233      36.893836      36.893836      36.893836    
  20900000   0.29903202    -8.138524      -7.6899823      0.97816617     50218.233      36.893836      36.893836      36.893836    
  21000000   0.29931469    -8.1349139     -7.6859482      1.0166104      50218.233      36.893836      36.893836      36.893836    
  21100000   0.30013016    -8.1363078     -7.686119       1.00165        50218.233      36.893836      36.893836      36.893836    
  21200000   0.29795489    -8.1360308     -7.6891048      0.99951713     50218.233      36.893836      36.893836      36.893836    
  21300000   0.29882203    -8.1351029     -7.6868762      1.0078199      50218.233      36.893836      36.893836      36.893836    
  21400000   0.30058706    -8.1362259     -7.6853517      1.0005249      50218.233      36.893836      36.893836      36.893836    
  21500000   0.29841593    -8.1368731     -7.6892556      0.98668963     50218.233      36.893836      36.893836      36.893836    
  21600000   0.30077092    -8.1376573     -7.6865074      0.98521261     50218.233      36.893836      36.893836      36.893836    
  21700000   0.30034688    -8.1357495     -7.6852356      0.99493772     50218.233      36.893836      36.893836      36.893836    
  21800000   0.29980354    -8.1347491     -7.6850502      1.0173552      50218.233      36.893836      36.893836      36.893836    
  21900000   0.30063836    -8.1374665     -7.6865154      0.9943818      50218.233      36.893836      36.893836      36.893836    
  22000000   0.29990497    -8.1364401     -7.6865891      0.99443733     50218.233      36.893836      36.893836      36.893836    
  22100000   0.30002631    -8.1365272     -7.6864941      0.99227812     50218.233      36.893836      36.893836      36.893836    
  22200000   0.29880041    -8.1359896     -7.6877953      0.99215252     50218.233      36.893836      36.893836      36.893836    
  22300000   0.29981234    -8.1352381     -7.685526       1.0066455      50218.233      36.893836      36.893836      36.893836    
  22400000   0.29969039    -8.1360255     -7.6864963      1.0047382      50218.233      36.893836      36.893836      36.893836    
  22500000   0.2999859     -8.1328704     -7.6828979      1.0197426      50218.233      36.893836      36.893836      36.893836    
  22600000   0.30135458    -8.1349241     -7.6828987      1.0069361      50218.233      36.893836      36.893836      36.893836    
  22700000   0.30069194    -8.1333061     -7.6822746      1.0210256      50218.233      36.893836      36.893836      36.893836    
  22800000   0.29982767    -8.1335498     -7.6838147      1.0245207      50218.233      36.893836      36.893836      36.893836    
  22900000   0.29965973    -8.1359947     -7.6865115      0.9980973      50218.233      36.893836      36.893836      36.893836    
  23000000   0.30050744    -8.1354051     -7.6846504      1.0061608      50218.233      36.893836      36.893836      36.893836    
  23100000   0.29989338    -8.1373356     -7.687502       0.98601721     50218.233      36.893836      36.893836      36.893836    
  23200000   0.30002502    -8.1351811     -7.68515        1.0061383      50218.233      36.893836      36.893836      36.893836    
  23300000   0.29946828    -8.1361815     -7.6869854      1.0026371      50218.233      36.893836      36.893836      36.893836    
  23400000   0.30036892    -8.1374662     -7.6869192      0.99835747     50218.233      36.893836      36.893836      36.893836    
  23500000   0.30094128    -8.1360173     -7.6846118      1.0053683      50218.233      36.893836      36.893836      36.893836    
  23600000   0.29916089    -8.1363692     -7.6876342      1.0005104      50218.233      36.893836      36.893836      36.893836    
  23700000   0.29938713    -8.1359548     -7.6868805      0.99651733     50218.233      36.893836      36.893836      36.893836    
  23800000   0.29957801    -8.1346561     -7.6852954      1.0149021      50218.233      36.893836      36.893836      36.893836    
  23900000   0.30068809    -8.1369234     -7.6858976      0.99909214     50218.233      36.893836      36.893836      36.893836    
  24000000   0.29988592    -8.1355045     -7.685682       1.0070538      50218.233      36.893836      36.893836      36.893836    
  24100000   0.29971963    -8.1344087     -7.6848357      1.0115054      50218.233      36.893836      36.893836      36.893836    
  24200000   0.29961342    -8.1384218     -7.689008       0.98611553     50218.233      36.893836      36.893836      36.893836    
  24300000   0.30021707    -8.1368898     -7.6865706      0.99227707     50218.233      36.893836      36.893836      36.893836    
  24400000   0.29997626    -8.1358846     -7.6859266      1.0049102      50218.233      36.893836      36.893836      36.893836    
  24500000   0.2988924     -8.1368946     -7.6885623      0.99371264     50218.233      36.893836      36.893836      36.893836    
  24600000   0.29915354    -8.1362072     -7.6874832      1.0022925      50218.233      36.893836      36.893836      36.893836    
  24700000   0.30051983    -8.1364851     -7.6857118      1.0026411      50218.233      36.893836      36.893836      36.893836    
  24800000   0.3011671     -8.1405116     -7.6887673      0.9776081      50218.233      36.893836      36.893836      36.893836    
  24900000   0.30012463    -8.1335028     -7.6833222      1.0219143      50218.233      36.893836      36.893836      36.893836    
  25000000   0.29914702    -8.1381863     -7.6894722      0.98005082     50218.233      36.893836      36.893836      36.893836    
  25100000   0.29957324    -8.1362523     -7.6868988      1.0083034      50218.233      36.893836      36.893836      36.893836    
  25200000   0.29826179    -8.1367807     -7.6893944      0.99128556     50218.233      36.893836      36.893836      36.893836    
  25300000   0.29937228    -8.1369948     -7.6879427      1.0031996      50218.233      36.893836      36.893836      36.893836    
  25400000   0.301027      -8.1356575     -7.6841234      1.0122309      50218.233      36.893836      36.893836      36.893836    
  25500000   0.30054944    -8.1362512     -7.6854334      0.99820226     50218.233      36.893836      36.893836      36.893836    
  25600000   0.29926914    -8.1392187     -7.6903214      0.96822422     50218.233      36.893836      36.893836      36.893836    
  25700000   0.30078165    -8.1385042     -7.6873381      0.98421282     50218.233      36.893836      36.893836      36.893836    
  25800000   0.30027801    -8.1357562     -7.6853456      1.0073392      50218.233      36.893836      36.893836      36.893836    
  25900000   0.30090506    -8.135844      -7.6844928      1.0069412      50218.233      36.893836      36.893836      36.893836    
  26000000   0.29971415    -8.1349419     -7.6853771      1.0077583      50218.233      36.893836      36.893836      36.893836    
  26100000   0.29965139    -8.1372276     -7.6877569      0.99202217     50218.233      36.893836      36.893836      36.893836    
  26200000   0.30048562    -8.1363095     -7.6855875      0.99781887     50218.233      36.893836      36.893836      36.893836    
  26300000   0.29895416    -8.1349039     -7.686479       1.0114669      50218.233      36.893836      36.893836      36.893836    
  26400000   0.30055288    -8.1348097     -7.6839868      1.0155108      50218.233      36.893836      36.893836      36.893836    
  26500000   0.29985361    -8.1385679     -7.6887939      0.98666927     50218.233      36.893836      36.893836      36.893836    
  26600000   0.29913353    -8.1363177     -7.6876237      0.98848409     50218.233      36.893836      36.893836      36.893836    
  26700000   0.29976967    -8.1361277     -7.6864796      1.0027812      50218.233      36.893836      36.893836      36.893836    
  26800000   0.29969984    -8.1334764     -7.6839331      1.0190237      50218.233      36.893836      36.893836      36.893836    
  26900000   0.29875514    -8.1351811     -7.6870548      1.0133209      50218.233      36.893836      36.893836      36.893836    
  27000000   0.29932136    -8.1368684     -7.6878928      0.99440163     50218.233      36.893836      36.893836      36.893836    
  27100000   0.29927742    -8.1381333     -7.6892236      0.98552059     50218.233      36.893836      36.893836      36.893836    
  27200000   0.30104932    -8.1379011     -7.6863336      0.98297718     50218.233      36.893836      36.893836      36.893836    
  27300000   0.3000028     -8.1360142     -7.6860164      1.0033504      50218.233      36.893836      36.893836      36.893836    
  27400000   0.30150901    -8.1378993     -7.6856422      0.99097091     50218.233      36.893836      36.893836      36.893836    
  27500000   0.3035535     -8.1354033     -7.6800795      1.0147866      50218.233      36.893836      36.893836      36.893836    
  27600000   0.30159384    -8.1354747     -7.6830903      1.0097503      50218.233      36.893836      36.893836      36.893836    
  27700000   0.30098441    -8.1381641     -7.6866939      0.98722902     50218.233      36.893836      36.893836      36.893836    
  27800000   0.29976017    -8.1365472     -7.6869133      0.99314793     50218.233      36.893836      36.893836      36.893836    
  27900000   0.30195401    -8.1367585     -7.6838339      1.0077362      50218.233      36.893836      36.893836      36.893836    
  28000000   0.30019833    -8.1372194     -7.6869283      0.99309309     50218.233      36.893836      36.893836      36.893836    
  28100000   0.29992826    -8.1365582     -7.6866722      0.99743531     50218.233      36.893836      36.893836      36.893836    
  28200000   0.29904113    -8.1357839     -7.6872286      0.99950812     50218.233      36.893836      36.893836      36.893836    
  28300000   0.3003424     -8.1382834     -7.6877762      0.98655641     50218.233      36.893836      36.893836      36.893836    
  28400000   0.29859357    -8.1349215     -7.6870376      1.0084587      50218.233      36.893836      36.893836      36.893836    
  28500000   0.29880662    -8.1365584     -7.6883548      0.99327406     50218.233      36.893836      36.893836      36.893836    
  28600000   0.29975863    -8.1362809     -7.6866493      1.0000779      50218.233      36.893836      36.893836      36.893836    
  28700000   0.29976315    -8.1385436     -7.6889052      0.98468104     50218.233      36.893836      36.893836      36.893836    
  28800000   0.30004693    -8.1327619     -7.6826979      1.0242518      50218.233      36.893836      36.893836      36.893836    
  28900000   0.30053987    -8.1342906     -7.6834872      1.026325       50218.233      36.893836      36.893836      36.893836    
  29000000   0.2984076     -8.1357887     -7.6881837      1.0072052      50218.233      36.893836      36.893836      36.893836    
  29100000   0.29980118    -8.1344812     -7.6847858      1.0182506      50218.233      36.893836      36.893836      36.893836    
  29200000   0.29929284    -8.1397561     -7.6908232      0.96788353     50218.233      36.893836      36.893836      36.893836    
  29300000   0.29964174    -8.1354546     -7.6859984      1.011192       50218.233      36.893836      36.893836      36.893836    
  29400000   0.30121125    -8.1364619     -7.6846514      1.0003002      50218.233      36.893836      36.893836      36.893836    
  29500000   0.3002078     -8.1383772     -7.6880719      0.98038824     50218.233      36.893836      36.893836      36.893836    
  29600000   0.30153228    -8.1389389     -7.6866469      0.97648071     50218.233      36.893836      36.893836      36.893836    
  29700000   0.29920412    -8.1369833     -7.6881835      0.99083784     50218.233      36.893836      36.893836      36.893836    
  29800000   0.30151071    -8.1343424     -7.6820828      1.0140154      50218.233      36.893836      36.893836      36.893836    
  29900000   0.3005456     -8.1376035     -7.6867915      0.99549028     50218.233      36.893836      36.893836      36.893836    
  30000000   0.2980624     -8.1389695     -7.6918822      0.97685643     50218.233      36.893836      36.893836      36.893836    
  30100000   0.30033573    -8.1385746     -7.6880774      0.97813885     50218.233      36.893836      36.893836      36.893836    
  30200000   0.29981968    -8.1370709     -7.6873477      0.99709877     50218.233      36.893836      36.893836      36.893836    
  30300000   0.30018064    -8.1349612     -7.6846966      1.005294       50218.233      36.893836      36.893836      36.893836    
  30400000   0.29873209    -8.1393738     -7.691282       0.96820393     50218.233      36.893836      36.893836      36.893836    
  30500000   0.30071802    -8.1345998     -7.6835292      1.0146856      50218.233      36.893836      36.893836      36.893836    
  30600000   0.29991079    -8.1356816     -7.6858218      1.0022567      50218.233      36.893836      36.893836      36.893836    
  30700000   0.30010766    -8.1382878     -7.6881327      0.99178536     50218.233      36.893836      36.893836      36.893836    
  30800000   0.29974806    -8.1366557     -7.68704        0.99786671     50218.233      36.893836      36.893836      36.893836    
  30900000   0.3015594     -8.1360018     -7.6836691      1.0058717      50218.233      36.893836      36.893836      36.893836    
  31000000   0.29956545    -8.1355017     -7.6861599      1.0010401      50218.233      36.893836      36.893836      36.893836    
  31100000   0.30108641    -8.1367624     -7.6851392      0.99723721     50218.233      36.893836      36.893836      36.893836    
  31200000   0.30028845    -8.1383342     -7.6879079      0.98817711     50218.233      36.893836      36.893836      36.893836    
  31300000   0.29937979    -8.1364396     -7.6873763      1.0017083      50218.233      36.893836      36.893836      36.893836    
  31400000   0.30038293    -8.1384076     -7.6878396      0.97878536     50218.233      36.893836      36.893836      36.893836    
  31500000   0.29792523    -8.1373037     -7.6904222      0.98424342     50218.233      36.893836      36.893836      36.893836    
  31600000   0.29972604    -8.1333958     -7.6838132      1.0218211      50218.233      36.893836      36.893836      36.893836    
  31700000   0.30093558    -8.1344087     -7.6830118      1.003968       50218.233      36.893836      36.893836      36.893836    
  31800000   0.30041483    -8.1351106     -7.6844947      1.0023221      50218.233      36.893836      36.893836      36.893836    
  31900000   0.30113565    -8.1364374     -7.6847404      1.0000671      50218.233      36.893836      36.893836      36.893836    
  32000000   0.29926237    -8.1373602     -7.6884731      0.98762422     50218.233      36.893836      36.893836      36.893836    
  32100000   0.29917754    -8.1345605     -7.6858006      1.0144915      50218.233      36.893836      36.893836      36.893836    
  32200000   0.30078854    -8.133607      -7.6824307      1.0227346      50218.233      36.893836      36.893836      36.893836    
  32300000   0.300489      -8.1357671     -7.68504        1.0016445      50218.233      36.893836      36.893836      36.893836    
  32400000   0.30121262    -8.1346654     -7.6828529      1.0139481      50218.233      36.893836      36.893836      36.893836    
  32500000   0.30104608    -8.1323721     -7.6808094      1.0277845      50218.233      36.893836      36.893836      36.893836    
  32600000   0.30080583    -8.1322542     -7.6810519      1.0313798      50218.233      36.893836      36.893836      36.893836    
  32700000   0.29991218    -8.1333526     -7.6834907      1.0142089      50218.233      36.893836      36.893836      36.893836    
  32800000   0.30057971    -8.137899      -7.6870359      0.98927771     50218.233      36.893836      36.893836      36.893836    
  32900000   0.29849005    -8.1352902     -7.6875615      1.0018812      50218.233      36.893836      36.893836      36.893836    
  33000000   0.29862147    -8.1362226     -7.6882968      0.99708954     50218.233      36.893836      36.893836      36.893836    
  33100000   0.29955154    -8.1343607     -7.6850398      1.0163756      50218.233      36.893836      36.893836      36.893836    
  33200000   0.29884523    -8.1355915     -7.6873301      1.0024397      50218.233      36.893836      36.893836      36.893836    
  33300000   0.29942011    -8.1358362     -7.6867125      0.99915424     50218.233      36.893836      36.893836      36.893836    
  33400000   0.30099173    -8.1368028     -7.6853217      0.99354615     50218.233      36.893836      36.893836      36.893836    
  33500000   0.29893507    -8.1361939     -7.6877977      0.9971421      50218.233      36.893836      36.893836      36.893836    
  33600000   0.3003113     -8.1359113     -7.6854508      1.010534       50218.233      36.893836      36.893836      36.893836    
  33700000   0.30009704    -8.1368192     -7.6866801      0.98858641     50218.233      36.893836      36.893836      36.893836    
  33800000   0.29918504    -8.1356575     -7.6868863      1.0008759      50218.233      36.893836      36.893836      36.893836    
  33900000   0.30002275    -8.1379477     -7.68792        0.99501784     50218.233      36.893836      36.893836      36.893836    
  34000000   0.29959693    -8.1366275     -7.6872385      0.99944919     50218.233      36.893836      36.893836      36.893836    
  34100000   0.29932008    -8.137199      -7.6882252      0.99136437     50218.233      36.893836      36.893836      36.893836    
  34200000   0.30051763    -8.138033      -7.687263       0.99023938     50218.233      36.893836      36.893836      36.893836    
  34300000   0.29966906    -8.1389343     -7.6894371      0.9817573      50218.233      36.893836      36.893836      36.893836    
  34400000   0.30080633    -8.13557       -7.6843669      0.99885259     50218.233      36.893836      36.893836      36.893836    
  34500000   0.30030252    -8.1362569     -7.6858095      1.0052622      50218.233      36.893836      36.893836      36.893836    
  34600000   0.30216679    -8.1370853     -7.6838416      1.0038594      50218.233      36.893836      36.893836      36.893836    
  34700000   0.30133607    -8.1365735     -7.6845759      0.99807851     50218.233      36.893836      36.893836      36.893836    
  34800000   0.29961149    -8.1381517     -7.6887408      0.98540907     50218.233      36.893836      36.893836      36.893836    
  34900000   0.30040093    -8.1365229     -7.685928       1.0043031      50218.233      36.893836      36.893836      36.893836    
  35000000   0.2988728     -8.1386098     -7.690307       0.97603879     50218.233      36.893836      36.893836      36.893836    
  35100000   0.29957144    -8.1354135     -7.6860628      1.0094067      50218.233      36.893836      36.893836      36.893836    
  35200000   0.30021186    -8.1368399     -7.6865285      0.99275996     50218.233      36.893836      36.893836      36.893836    
  35300000   0.29967409    -8.1380013     -7.6884966      0.97938434     50218.233      36.893836      36.893836      36.893836    
  35400000   0.30166458    -8.1361694     -7.683679       1.0036353      50218.233      36.893836      36.893836      36.893836    
  35500000   0.299898      -8.1370588     -7.6872182      0.99358455     50218.233      36.893836      36.893836      36.893836    
  35600000   0.30020678    -8.1367296     -7.6864258      0.99800598     50218.233      36.893836      36.893836      36.893836    
  35700000   0.29830992    -8.1368966     -7.6894381      0.9855235      50218.233      36.893836      36.893836      36.893836    
  35800000   0.29878178    -8.1351977     -7.6870314      1.0036848      50218.233      36.893836      36.893836      36.893836    
  35900000   0.2992646     -8.1369283     -7.6880378      0.99554178     50218.233      36.893836      36.893836      36.893836    
  36000000   0.30110549    -8.137468      -7.6858162      0.99351915     50218.233      36.893836      36.893836      36.893836    
  36100000   0.30109211    -8.1380574     -7.6864256      0.9854544      50218.233      36.893836      36.893836      36.893836    
  36200000   0.2980763     -8.1374456     -7.6903375      0.99496474     50218.233      36.893836      36.893836      36.893836    
  36300000   0.29946144    -8.1362008     -7.687015       1.0003577      50218.233      36.893836      36.893836      36.893836    
  36400000   0.30064408    -8.1346991     -7.6837394      1.0137964      50218.233      36.893836      36.893836      36.893836    
  36500000   0.29923327    -8.1346294     -7.6857859      1.0175499      50218.233      36.893836      36.893836      36.893836    
  36600000   0.30109091    -8.1356027     -7.6839728      1.0088804      50218.233      36.893836      36.893836      36.893836    
  36700000   0.30108832    -8.1354871     -7.683861       0.99678069     50218.233      36.893836      36.893836      36.893836    
  36800000   0.30003282    -8.1392385     -7.6891957      0.96993752     50218.233      36.893836      36.893836      36.893836    
  36900000   0.29819864    -8.1346482     -7.6873566      1.0045737      50218.233      36.893836      36.893836      36.893836    
  37000000   0.29921201    -8.1331137     -7.6843021      1.0278525      50218.233      36.893836      36.893836      36.893836    
  37100000   0.30179628    -8.1344731     -7.6817851      1.0165558      50218.233      36.893836      36.893836      36.893836    
  37200000   0.30081135    -8.1359871     -7.6847765      0.99710199     50218.233      36.893836      36.893836      36.893836    
  37300000   0.30001864    -8.134365      -7.6843435      1.0241021      50218.233      36.893836      36.893836      36.893836    
  37400000   0.29966177    -8.1358375     -7.6863512      1.0014116      50218.233      36.893836      36.893836      36.893836    
  37500000   0.30028967    -8.1389813     -7.6885532      0.97827074     50218.233      36.893836      36.893836      36.893836    
  37600000   0.30006762    -8.1324454     -7.6823504      1.0308877      50218.233      36.893836      36.893836      36.893836    
  37700000   0.29841535    -8.1346929     -7.6870762      1.0061945      50218.233      36.893836      36.893836      36.893836    
  37800000   0.29834669    -8.1368588     -7.6893451      0.9916369      50218.233      36.893836      36.893836      36.893836    
  37900000   0.30055049    -8.1378485     -7.6870292      0.99054271     50218.233      36.893836      36.893836      36.893836    
  38000000   0.29995162    -8.1351226     -7.6852016      1.0151578      50218.233      36.893836      36.893836      36.893836    
  38100000   0.29993133    -8.1351774     -7.6852868      1.0133128      50218.233      36.893836      36.893836      36.893836    
  38200000   0.30104461    -8.1363387     -7.6847782      0.99415072     50218.233      36.893836      36.893836      36.893836    
  38300000   0.29962024    -8.1344429     -7.6850189      1.0072253      50218.233      36.893836      36.893836      36.893836    
  38400000   0.30081582    -8.1376309     -7.6864136      0.99300379     50218.233      36.893836      36.893836      36.893836    
  38500000   0.29865157    -8.1353895     -7.6874186      1.0045948      50218.233      36.893836      36.893836      36.893836    
  38600000   0.29916287    -8.1376212     -7.6888833      0.9833445      50218.233      36.893836      36.893836      36.893836    
  38700000   0.30007383    -8.1355385     -7.6854342      1.0005326      50218.233      36.893836      36.893836      36.893836    
  38800000   0.30060378    -8.1371666     -7.6862674      0.99245082     50218.233      36.893836      36.893836      36.893836    
  38900000   0.29868179    -8.1366024     -7.6885861      0.99480244     50218.233      36.893836      36.893836      36.893836    
  39000000   0.29876092    -8.1384383     -7.6903032      0.98090267     50218.233      36.893836      36.893836      36.893836    
  39100000   0.29809151    -8.1360447     -7.6889138      0.99755589     50218.233      36.893836      36.893836      36.893836    
  39200000   0.30037813    -8.1381315     -7.6875707      0.98894928     50218.233      36.893836      36.893836      36.893836    
  39300000   0.30129158    -8.1375002     -7.6855692      0.98645128     50218.233      36.893836      36.893836      36.893836    
  39400000   0.29926002    -8.1387976     -7.689914       0.97804529     50218.233      36.893836      36.893836      36.893836    
  39500000   0.29961559    -8.1373484     -7.6879314      0.99434354     50218.233      36.893836      36.893836      36.893836    
  39600000   0.30046232    -8.1361221     -7.6854351      1.0079992      50218.233      36.893836      36.893836      36.893836    
  39700000   0.29880977    -8.1350768     -7.6868686      1.0046726      50218.233      36.893836      36.893836      36.893836    
  39800000   0.29988053    -8.1357264     -7.685912       0.99944576     50218.233      36.893836      36.893836      36.893836    
  39900000   0.30035738    -8.1379834     -7.6874538      0.9839102      50218.233      36.893836      36.893836      36.893836    
  40000000   0.30099088    -8.136884      -7.6854041      0.99704275     50218.233      36.893836      36.893836      36.893836    
  40100000   0.30046733    -8.1381355     -7.6874409      0.98582084     50218.233      36.893836      36.893836      36.893836    
  40200000   0.30010225    -8.137555      -7.687408       0.98552293     50218.233      36.893836      36.893836      36.893836    
  40300000   0.30022312    -8.1352449     -7.6849166      0.99679728     50218.233      36.893836      36.893836      36.893836    
  40400000   0.30185996    -8.1386676     -7.6858841      0.99022673     50218.233      36.893836      36.893836      36.893836    
  40500000   0.30045128    -8.136233      -7.6855625      0.99792353     50218.233      36.893836      36.893836      36.893836    
  40600000   0.30003601    -8.1356476     -7.6856         1.0021107      50218.233      36.893836      36.893836      36.893836    
  40700000   0.29993728    -8.1355462     -7.6856467      0.99943031     50218.233      36.893836      36.893836      36.893836    
  40800000   0.29943377    -8.1357865     -7.6866422      0.99762658     50218.233      36.893836      36.893836      36.893836    
  40900000   0.30055899    -8.1366576     -7.6858255      0.99218116     50218.233      36.893836      36.893836      36.893836    
  41000000   0.29943705    -8.1359933     -7.6868441      1.00116        50218.233      36.893836      36.893836      36.893836    
  41100000   0.29978686    -8.1372811     -7.6876072      0.98711768     50218.233      36.893836      36.893836      36.893836    
  41200000   0.29982771    -8.1379779     -7.6882427      0.97868001     50218.233      36.893836      36.893836      36.893836    
  41300000   0.30005093    -8.138378      -7.688308       0.9829255      50218.233      36.893836      36.893836      36.893836    
  41400000   0.30018232    -8.1339423     -7.6836753      1.0100089      50218.233      36.893836      36.893836      36.893836    
  41500000   0.29981436    -8.1355067     -7.6857915      1.0012289      50218.233      36.893836      36.893836      36.893836    
  41600000   0.30067755    -8.1377106     -7.6867007      0.99429071     50218.233      36.893836      36.893836      36.893836    
  41700000   0.30039256    -8.1340263     -7.6834438      1.0215317      50218.233      36.893836      36.893836      36.893836    
  41800000   0.2999727     -8.1376028     -7.6876501      0.99267257     50218.233      36.893836      36.893836      36.893836    
  41900000   0.30124074    -8.1359986     -7.6841439      1.0050838      50218.233      36.893836      36.893836      36.893836    
  42000000   0.30002759    -8.135272      -7.685237       1.0149836      50218.233      36.893836      36.893836      36.893836    
  42100000   0.29861725    -8.1334998     -7.6855803      1.0125694      50218.233      36.893836      36.893836      36.893836    
  42200000   0.30103036    -8.1392362     -7.6876971      0.97598796     50218.233      36.893836      36.893836      36.893836    
  42300000   0.30139324    -8.1381207     -7.6860373      0.98780698     50218.233      36.893836      36.893836      36.893836    
  42400000   0.29991438    -8.1358084     -7.6859432      1.0062817      50218.233      36.893836      36.893836      36.893836    
  42500000   0.30048505    -8.1334632     -7.6827421      1.0153913      50218.233      36.893836      36.893836      36.893836    
  42600000   0.29984525    -8.1346917     -7.6849302      1.0121551      50218.233      36.893836      36.893836      36.893836    
  42700000   0.30071436    -8.1353254     -7.6842603      1.0051829      50218.233      36.893836      36.893836      36.893836    
  42800000   0.30012147    -8.137117      -7.6869412      0.99038412     50218.233      36.893836      36.893836      36.893836    
  42900000   0.29976272    -8.1384104     -7.6887727      0.98748787     50218.233      36.893836      36.893836      36.893836    
  43000000   0.30048809    -8.1335224     -7.6827967      1.0176369      50218.233      36.893836      36.893836      36.893836    
  43100000   0.29898818    -8.1345444     -7.6860685      1.0148492      50218.233      36.893836      36.893836      36.893836    
  43200000   0.30046863    -8.1360409     -7.6853444      1.0080792      50218.233      36.893836      36.893836      36.893836    
  43300000   0.29855207    -8.1376843     -7.6898626      0.98809981     50218.233      36.893836      36.893836      36.893836    
  43400000   0.3017987     -8.136688      -7.6839964      0.99118754     50218.233      36.893836      36.893836      36.893836    
  43500000   0.30012574    -8.1369951     -7.6868129      0.99905152     50218.233      36.893836      36.893836      36.893836    
  43600000   0.29905875    -8.1379618     -7.68938        0.98836588     50218.233      36.893836      36.893836      36.893836    
  43700000   0.29844211    -8.1357425     -7.6880857      1.0078716      50218.233      36.893836      36.893836      36.893836    
  43800000   0.29830333    -8.1341613     -7.6867127      1.0131875      50218.233      36.893836      36.893836      36.893836    
  43900000   0.3002843     -8.1366504     -7.6862303      0.99755622     50218.233      36.893836      36.893836      36.893836    
  44000000   0.29999012    -8.1371051     -7.6871263      0.99188863     50218.233      36.893836      36.893836      36.893836    
  44100000   0.29833245    -8.1355025     -7.6880102      1.0000812      50218.233      36.893836      36.893836      36.893836    
  44200000   0.30015748    -8.1368006     -7.6865708      0.99743094     50218.233      36.893836      36.893836      36.893836    
  44300000   0.29883978    -8.1383126     -7.6900593      0.98739353     50218.233      36.893836      36.893836      36.893836    
  44400000   0.3001157     -8.138517      -7.6883499      0.97810386     50218.233      36.893836      36.893836      36.893836    
  44500000   0.29918728    -8.138067      -7.6892925      0.97670166     50218.233      36.893836      36.893836      36.893836    
  44600000   0.30087273    -8.1377138     -7.6864111      0.99115523     50218.233      36.893836      36.893836      36.893836    
  44700000   0.30086898    -8.1364704     -7.6851733      0.99734545     50218.233      36.893836      36.893836      36.893836    
  44800000   0.30051064    -8.1374732     -7.6867136      0.9919199      50218.233      36.893836      36.893836      36.893836    
  44900000   0.30043385    -8.1352511     -7.6846068      1.0054596      50218.233      36.893836      36.893836      36.893836    
  45000000   0.29908802    -8.1351936     -7.686568       1.0035801      50218.233      36.893836      36.893836      36.893836    
  45100000   0.30001447    -8.1353472     -7.6853319      1.0009257      50218.233      36.893836      36.893836      36.893836    
  45200000   0.30171198    -8.1376778     -7.6851162      0.98673892     50218.233      36.893836      36.893836      36.893836    
  45300000   0.30013084    -8.1380891     -7.6878992      0.98796297     50218.233      36.893836      36.893836      36.893836    
  45400000   0.29964435    -8.1354073     -7.6859472      1.0001793      50218.233      36.893836      36.893836      36.893836    
  45500000   0.30061375    -8.1386361     -7.6877219      0.97794        50218.233      36.893836      36.893836      36.893836    
  45600000   0.29978997    -8.1375545     -7.687876       0.99185277     50218.233      36.893836      36.893836      36.893836    
  45700000   0.29876574    -8.1350644     -7.6869222      1.0079319      50218.233      36.893836      36.893836      36.893836    
  45800000   0.30195097    -8.1374568     -7.6845368      0.99249743     50218.233      36.893836      36.893836      36.893836    
  45900000   0.29985845    -8.1379295     -7.6881483      0.98879667     50218.233      36.893836      36.893836      36.893836    
  46000000   0.30028419    -8.135394      -7.6849742      1.004363       50218.233      36.893836      36.893836      36.893836    
  46100000   0.30101867    -8.1369506     -7.685429       0.99711716     50218.233      36.893836      36.893836      36.893836    
  46200000   0.29917795    -8.1364402     -7.6876797      0.9909519      50218.233      36.893836      36.893836      36.893836    
  46300000   0.29957055    -8.1357425     -7.686393       1.0070343      50218.233      36.893836      36.893836      36.893836    
  46400000   0.30039953    -8.1359325     -7.6853396      1.0001833      50218.233      36.893836      36.893836      36.893836    
  46500000   0.3003718     -8.1359186     -7.6853673      0.99551402     50218.233      36.893836      36.893836      36.893836    
  46600000   0.30020555    -8.1360325     -7.6857306      1.0087927      50218.233      36.893836      36.893836      36.893836    
  46700000   0.3013202     -8.1374804     -7.6855065      0.99800945     50218.233      36.893836      36.893836      36.893836    
  46800000   0.29900976    -8.138036      -7.6895278      0.98037505     50218.233      36.893836      36.893836      36.893836    
  46900000   0.29959871    -8.1360819     -7.6866902      0.99693441     50218.233      36.893836      36.893836      36.893836    
  47000000   0.29918253    -8.1346331     -7.6858657      1.0083686      50218.233      36.893836      36.893836      36.893836    
  47100000   0.30151345    -8.1352894     -7.6830257      1.0013138      50218.233      36.893836      36.893836      36.893836    
  47200000   0.29919046    -8.1361237     -7.6873444      1.003057       50218.233      36.893836      36.893836      36.893836    
  47300000   0.30003719    -8.1377371     -7.6876877      0.99898985     50218.233      36.893836      36.893836      36.893836    
  47400000   0.30059545    -8.1350158     -7.684129       1.0106571      50218.233      36.893836      36.893836      36.893836    
  47500000   0.30013928    -8.1363462     -7.6861437      0.99539964     50218.233      36.893836      36.893836      36.893836    
  47600000   0.29968808    -8.1345376     -7.6850118      1.0082812      50218.233      36.893836      36.893836      36.893836    
  47700000   0.29990928    -8.1376332     -7.6877757      0.99985911     50218.233      36.893836      36.893836      36.893836    
  47800000   0.29943911    -8.1356244     -7.6864721      0.99768322     50218.233      36.893836      36.893836      36.893836    
  47900000   0.2993108     -8.1339773     -7.6850175      1.0191176      50218.233      36.893836      36.893836      36.893836    
  48000000   0.30125959    -8.1351365     -7.6832535      1.0106556      50218.233      36.893836      36.893836      36.893836    
  48100000   0.30195413    -8.1374624     -7.6845376      0.9958861      50218.233      36.893836      36.893836      36.893836    
  48200000   0.29857873    -8.1351507     -7.687289       1.0129417      50218.233      36.893836      36.893836      36.893836    
  48300000   0.30001266    -8.1360969     -7.6860843      0.99655211     50218.233      36.893836      36.893836      36.893836    
  48400000   0.29926845    -8.1356153     -7.686719       1.0039001      50218.233      36.893836      36.893836      36.893836    
  48500000   0.30021228    -8.1376376     -7.6873256      0.98921864     50218.233      36.893836      36.893836      36.893836    
  48600000   0.2970041     -8.1366282     -7.6911283      0.99407529     50218.233      36.893836      36.893836      36.893836    
  48700000   0.29948051    -8.1373024     -7.688088       0.99514147     50218.233      36.893836      36.893836      36.893836    
  48800000   0.29949585    -8.1340247     -7.6847873      1.0226775      50218.233      36.893836      36.893836      36.893836    
  48900000   0.3007958     -8.136         -7.6848127      1.0041804      50218.233      36.893836      36.893836      36.893836    
  49000000   0.29958162    -8.137153      -7.687787       0.98363204     50218.233      36.893836      36.893836      36.893836    
  49100000   0.30251975    -8.1356703     -7.6818971      0.9991913      50218.233      36.893836      36.893836      36.893836    
  49200000   0.29808157    -8.1375982     -7.6904822      0.98722826     50218.233      36.893836      36.893836      36.893836    
  49300000   0.30009455    -8.1378245     -7.687689       0.98347107     50218.233      36.893836      36.893836      36.893836    
  49400000   0.29873096    -8.1401015     -7.6920115      0.96232033     50218.233      36.893836      36.893836      36.893836    
  49500000   0.29970389    -8.1365263     -7.6869769      0.99389052     50218.233      36.893836      36.893836      36.893836    
  49600000   0.29881507    -8.1362304     -7.6880142      0.99857996     50218.233      36.893836      36.893836      36.893836    
  49700000   0.30044366    -8.1396987     -7.6890396      0.97350962     50218.233      36.893836      36.893836      36.893836    
  49800000   0.29937798    -8.1383819     -7.6893213      0.97791259     50218.233      36.893836      36.893836      36.893836    
  49900000   0.29972005    -8.1366574     -7.6870837      0.99272616     50218.233      36.893836      36.893836      36.893836    
  50000000   0.29996501    -8.1383036     -7.6883625      0.98491523     50218.233      36.893836      36.893836      36.893836    
Loop time of 75829.6 on 5 procs for 50000000 steps with 70304 atoms

Performance: 569698.050 tau/day, 659.373 timesteps/s, 46.357 Matom-step/s
94.4% CPU use with 5 MPI tasks x 1 OpenMP threads

MPI task timing breakdown:
Section |  min time  |  avg time  |  max time  |%varavg| %total
---------------------------------------------------------------
Pair    | 25854      | 29538      | 32183      |1362.4 | 38.95
Neigh   | 189.6      | 194.27     | 198.61     |  22.6 |  0.26
Comm    | 10648      | 10750      | 10875      |  70.7 | 14.18
Output  | 0.090241   | 0.093353   | 0.098536   |   0.9 |  0.00
Modify  | 29112      | 31712      | 35523      |1348.8 | 41.82
Other   |            | 3636       |            |       |  4.79

Nlocal:        14060.8 ave       14110 max       14018 min
Histogram: 1 0 1 0 1 0 1 0 0 1
Nghost:        18752.4 ave       18793 max       18716 min
Histogram: 1 1 1 0 0 0 0 0 0 2
Neighs:              0 ave           0 max           0 min
Histogram: 5 0 0 0 0 0 0 0 0 0

Total # of neighbors = 0
Ave neighs/atom = 0
Neighbor list builds = 8237352
Dangerous builds = 0
clear
OMP_NUM_THREADS environment is not set. Defaulting to 1 thread. (src/comm.cpp:98)
  using 1 OpenMP thread(s) per MPI task
package gpu 0
jump dms280.lmp

variable T equal 280
# T = 1000* (temp in LJ unit)
variable f equal 100000
log log.${T}
log log.280
