variable TLJ equal (${T}/1000)
variable TLJ equal (480/1000)
variable NCyle equal 5
variable iStep equal (${f})
variable iStep equal (100000)
variable dumpStep equal (${f}*100)
variable dumpStep equal (100000*100)
variable runStep equal (${f}*100*${NCyle})
variable runStep equal (100000*100*${NCyle})
variable runStep equal (100000*100*5)

units       lj
atom_style  atomic
dimension 3
boundary     p p p
pair_style  lj/cut 2.5
read_data  ../data/T${T}.dat
read_data  ../data/T480.dat
Reading data file ...
  orthogonal box = (0.97250269 0.97250269 0.97250269) to (37.866338 37.866338 37.866338)
  1 by 1 by 5 MPI processor grid
  reading atoms ...
  70304 atoms
  reading velocities ...
  70304 velocities
  read_data CPU = 0.210 seconds
change_box all triclinic
Changing box ...
  triclinic box = (0.97250269 0.97250269 0.97250269) to (37.866338 37.866338 37.866338) with tilt (0 0 0)
mass 1 1
mass 2 1
pair_modify shift yes
pair_coeff  1 1 1 1
pair_coeff  1 2 1.5 0.8
pair_coeff  2 2 0.5 0.88


timestep 0.01
thermo ${iStep}
thermo 100000
reset_timestep 0
thermo_style custom step temp pe etotal press vol lx ly lz
fix             1 all nvt temp ${TLJ}  ${TLJ}  0.1
fix             1 all nvt temp 0.48  ${TLJ}  0.1
fix             1 all nvt temp 0.48  0.48  0.1
thermo_modify flush yes

fix dsf all deform 1 xy  wiggle 0.5  ${f}   units box
fix dsf all deform 1 xy  wiggle 0.5  100000   units box
fix ps1 all ave/time 1 1 ${iStep} c_thermo_press[1] c_thermo_press[2]  c_thermo_press[3] c_thermo_press[4]  c_thermo_press[5] c_thermo_press[6]  file  stress.${T}
fix ps1 all ave/time 1 1 100000 c_thermo_press[1] c_thermo_press[2]  c_thermo_press[3] c_thermo_press[4]  c_thermo_press[5] c_thermo_press[6]  file  stress.${T}
fix ps1 all ave/time 1 1 100000 c_thermo_press[1] c_thermo_press[2]  c_thermo_press[3] c_thermo_press[4]  c_thermo_press[5] c_thermo_press[6]  file  stress.480
dump            1 all custom ${dumpStep} dump.${T} id type x y z
dump            1 all custom 10000000 dump.${T} id type x y z
dump            1 all custom 10000000 dump.480 id type x y z
dump_modify 1 sort id
fix nodrift all momentum 1  linear 1 1 1
fix com_seed all recenter INIT INIT INIT shift all
run ${runStep}
run 50000000
Generated 0 of 1 mixed pair_coeff terms from geometric mixing rule
Per MPI rank memory allocation (min/avg/max) = 8.912 | 8.915 | 8.918 Mbytes
   Step          Temp          PotEng         TotEng         Press          Volume           Lx             Ly             Lz      
         0   0.48208273    -7.8640938     -7.14098        3.2637634      50218.233      36.893836      36.893836      36.893836    
    100000   0.48090064    -7.8533389     -7.1319982      3.359754       50218.233      36.893836      36.893836      36.893836    
    200000   0.48109322    -7.854267      -7.1326375      3.3410138      50218.233      36.893836      36.893836      36.893836    
    300000   0.47801223    -7.8535061     -7.1364979      3.3433039      50218.233      36.893836      36.893836      36.893836    
    400000   0.48176367    -7.8566747     -7.1340395      3.3278368      50218.233      36.893836      36.893836      36.893836    
    500000   0.4797506     -7.8538593     -7.1342437      3.337779       50218.233      36.893836      36.893836      36.893836    
    600000   0.48063839    -7.8529617     -7.1320144      3.3573961      50218.233      36.893836      36.893836      36.893836    
    700000   0.47939071    -7.8557938     -7.136718       3.3334409      50218.233      36.893836      36.893836      36.893836    
    800000   0.48044545    -7.8526958     -7.1320379      3.3469263      50218.233      36.893836      36.893836      36.893836    
    900000   0.47899399    -7.8604845     -7.1420037      3.3022341      50218.233      36.893836      36.893836      36.893836    
   1000000   0.48049808    -7.8594712     -7.1387343      3.3091131      50218.233      36.893836      36.893836      36.893836    
   1100000   0.48104799    -7.8537381     -7.1321764      3.3398063      50218.233      36.893836      36.893836      36.893836    
   1200000   0.48041189    -7.8554536     -7.1348461      3.3262468      50218.233      36.893836      36.893836      36.893836    
   1300000   0.48015185    -7.8545725     -7.1343549      3.3342911      50218.233      36.893836      36.893836      36.893836    
   1400000   0.47915589    -7.8539813     -7.1352577      3.3434364      50218.233      36.893836      36.893836      36.893836    
   1500000   0.47868559    -7.8549306     -7.1369125      3.3274311      50218.233      36.893836      36.893836      36.893836    
   1600000   0.48010303    -7.8565639     -7.1364196      3.3275591      50218.233      36.893836      36.893836      36.893836    
   1700000   0.47862857    -7.8591732     -7.1412406      3.2885077      50218.233      36.893836      36.893836      36.893836    
   1800000   0.48170036    -7.8607064     -7.1381661      3.2882685      50218.233      36.893836      36.893836      36.893836    
   1900000   0.47745971    -7.8581086     -7.1419292      3.2973705      50218.233      36.893836      36.893836      36.893836    
   2000000   0.48203587    -7.8540179     -7.1309744      3.3435138      50218.233      36.893836      36.893836      36.893836    
   2100000   0.47941813    -7.8542221     -7.1351052      3.3430395      50218.233      36.893836      36.893836      36.893836    
   2200000   0.47935919    -7.8574564     -7.1384279      3.3103897      50218.233      36.893836      36.893836      36.893836    
   2300000   0.47968671    -7.8573759     -7.1378561      3.3070841      50218.233      36.893836      36.893836      36.893836    
   2400000   0.47934346    -7.8533632     -7.1343583      3.3346328      50218.233      36.893836      36.893836      36.893836    
   2500000   0.48106193    -7.8525803     -7.1309977      3.3461922      50218.233      36.893836      36.893836      36.893836    
   2600000   0.47974392    -7.857785      -7.1381794      3.3135674      50218.233      36.893836      36.893836      36.893836    
   2700000   0.48260814    -7.8527159     -7.128814       3.3476984      50218.233      36.893836      36.893836      36.893836    
   2800000   0.48016928    -7.853703      -7.1334593      3.3403248      50218.233      36.893836      36.893836      36.893836    
   2900000   0.47959133    -7.8558939     -7.1365171      3.3152287      50218.233      36.893836      36.893836      36.893836    
   3000000   0.48046095    -7.8542955     -7.1336143      3.3310223      50218.233      36.893836      36.893836      36.893836    
   3100000   0.47817879    -7.8573152     -7.1400572      3.3211641      50218.233      36.893836      36.893836      36.893836    
   3200000   0.48110449    -7.8561093     -7.1344628      3.3201369      50218.233      36.893836      36.893836      36.893836    
   3300000   0.4790587     -7.8561482     -7.1375704      3.3375741      50218.233      36.893836      36.893836      36.893836    
   3400000   0.48152025    -7.8543447     -7.1320746      3.3351924      50218.233      36.893836      36.893836      36.893836    
   3500000   0.48180673    -7.8548672     -7.1321674      3.335261       50218.233      36.893836      36.893836      36.893836    
   3600000   0.47903529    -7.8554133     -7.1368705      3.3396248      50218.233      36.893836      36.893836      36.893836    
   3700000   0.47643121    -7.8569815     -7.1423448      3.3106866      50218.233      36.893836      36.893836      36.893836    
   3800000   0.47872927    -7.8526695     -7.1345858      3.3484002      50218.233      36.893836      36.893836      36.893836    
   3900000   0.47942905    -7.8556068     -7.1364734      3.3237029      50218.233      36.893836      36.893836      36.893836    
   4000000   0.48179209    -7.8560617     -7.1333839      3.3318027      50218.233      36.893836      36.893836      36.893836    
   4100000   0.47841099    -7.8550312     -7.1374249      3.3291358      50218.233      36.893836      36.893836      36.893836    
   4200000   0.47699156    -7.8561828     -7.1407056      3.3176436      50218.233      36.893836      36.893836      36.893836    
   4300000   0.48027243    -7.8571276     -7.1367292      3.3044925      50218.233      36.893836      36.893836      36.893836    
   4400000   0.48020498    -7.8573385     -7.1370413      3.3030002      50218.233      36.893836      36.893836      36.893836    
   4500000   0.47786237    -7.8556236     -7.1388402      3.3315775      50218.233      36.893836      36.893836      36.893836    
   4600000   0.47938372    -7.8553749     -7.1363096      3.3398427      50218.233      36.893836      36.893836      36.893836    
   4700000   0.48041246    -7.8514953     -7.1308868      3.3535443      50218.233      36.893836      36.893836      36.893836    
   4800000   0.48042575    -7.8553319     -7.1347035      3.3345596      50218.233      36.893836      36.893836      36.893836    
   4900000   0.48111549    -7.8525339     -7.130871       3.3518336      50218.233      36.893836      36.893836      36.893836    
   5000000   0.4786054     -7.8522186     -7.1343207      3.3506794      50218.233      36.893836      36.893836      36.893836    
   5100000   0.48098568    -7.8552236     -7.1337554      3.3374381      50218.233      36.893836      36.893836      36.893836    
   5200000   0.48027687    -7.8487306     -7.1283255      3.3875303      50218.233      36.893836      36.893836      36.893836    
   5300000   0.47832217    -7.8538087     -7.1363356      3.3449676      50218.233      36.893836      36.893836      36.893836    
   5400000   0.48215941    -7.8550207     -7.1317919      3.332732       50218.233      36.893836      36.893836      36.893836    
   5500000   0.47989535    -7.8546997     -7.1348669      3.3310336      50218.233      36.893836      36.893836      36.893836    
   5600000   0.48144371    -7.8610332     -7.1388779      3.2967483      50218.233      36.893836      36.893836      36.893836    
   5700000   0.48187713    -7.8560158     -7.1332104      3.3207504      50218.233      36.893836      36.893836      36.893836    
   5800000   0.48230632    -7.8579348     -7.1344856      3.3185436      50218.233      36.893836      36.893836      36.893836    
   5900000   0.4797388     -7.8567187     -7.1371207      3.3154298      50218.233      36.893836      36.893836      36.893836    
   6000000   0.48097612    -7.8521215     -7.1306676      3.3576028      50218.233      36.893836      36.893836      36.893836    
   6100000   0.48188201    -7.8585822     -7.1357694      3.3072862      50218.233      36.893836      36.893836      36.893836    
   6200000   0.48044085    -7.859849      -7.1391979      3.307995       50218.233      36.893836      36.893836      36.893836    
   6300000   0.4800879     -7.8569849     -7.1368633      3.3214965      50218.233      36.893836      36.893836      36.893836    
   6400000   0.48177284    -7.8563312     -7.1336822      3.3214211      50218.233      36.893836      36.893836      36.893836    
   6500000   0.48072754    -7.8551896     -7.1341085      3.3288114      50218.233      36.893836      36.893836      36.893836    
   6600000   0.47904083    -7.857987      -7.1394359      3.3116302      50218.233      36.893836      36.893836      36.893836    
   6700000   0.47812536    -7.8554986     -7.1383208      3.3303279      50218.233      36.893836      36.893836      36.893836    
   6800000   0.47956307    -7.8540059     -7.1346715      3.3303324      50218.233      36.893836      36.893836      36.893836    
   6900000   0.47946602    -7.8543612     -7.1351724      3.3279204      50218.233      36.893836      36.893836      36.893836    
   7000000   0.48189151    -7.857965      -7.135138       3.3176146      50218.233      36.893836      36.893836      36.893836    
   7100000   0.47977393    -7.8592954     -7.1396448      3.3066612      50218.233      36.893836      36.893836      36.893836    
   7200000   0.48078648    -7.8553619     -7.1341925      3.3267227      50218.233      36.893836      36.893836      36.893836    
   7300000   0.48145604    -7.8548604     -7.1326866      3.3430758      50218.233      36.893836      36.893836      36.893836    
   7400000   0.47876072    -7.8599245     -7.1417937      3.3076449      50218.233      36.893836      36.893836      36.893836    
   7500000   0.48031407    -7.8575447     -7.1370838      3.3143342      50218.233      36.893836      36.893836      36.893836    
   7600000   0.478688      -7.8538483     -7.1358265      3.3440178      50218.233      36.893836      36.893836      36.893836    
   7700000   0.47828257    -7.8550628     -7.1376492      3.3304315      50218.233      36.893836      36.893836      36.893836    
   7800000   0.47877071    -7.8513968     -7.133251       3.3627006      50218.233      36.893836      36.893836      36.893836    
   7900000   0.47845129    -7.8538642     -7.1361975      3.3361321      50218.233      36.893836      36.893836      36.893836    
   8000000   0.48171595    -7.8556757     -7.133112       3.3362067      50218.233      36.893836      36.893836      36.893836    
   8100000   0.480046      -7.8575671     -7.1375084      3.3192909      50218.233      36.893836      36.893836      36.893836    
   8200000   0.48092829    -7.8510059     -7.1296238      3.3723546      50218.233      36.893836      36.893836      36.893836    
   8300000   0.47943371    -7.8575436     -7.1384032      3.3176465      50218.233      36.893836      36.893836      36.893836    
   8400000   0.47967822    -7.8521987     -7.1326916      3.3530645      50218.233      36.893836      36.893836      36.893836    
   8500000   0.47883359    -7.8578283     -7.1395881      3.3196738      50218.233      36.893836      36.893836      36.893836    
   8600000   0.48276266    -7.8580853     -7.1339516      3.3131669      50218.233      36.893836      36.893836      36.893836    
   8700000   0.47945383    -7.8602242     -7.1410537      3.2903349      50218.233      36.893836      36.893836      36.893836    
   8800000   0.48253334    -7.8573339     -7.1335442      3.3227174      50218.233      36.893836      36.893836      36.893836    
   8900000   0.48092468    -7.8567431     -7.1353664      3.3229228      50218.233      36.893836      36.893836      36.893836    
   9000000   0.4801408     -7.8563129     -7.1361119      3.335774       50218.233      36.893836      36.893836      36.893836    
   9100000   0.48021988    -7.8561539     -7.1358343      3.3334605      50218.233      36.893836      36.893836      36.893836    
   9200000   0.47889812    -7.8595302     -7.1411932      3.299466       50218.233      36.893836      36.893836      36.893836    
   9300000   0.47951352    -7.8575427     -7.1382827      3.3241911      50218.233      36.893836      36.893836      36.893836    
   9400000   0.47842861    -7.8522496     -7.1346169      3.353081       50218.233      36.893836      36.893836      36.893836    
   9500000   0.47788891    -7.859531      -7.1427079      3.2953137      50218.233      36.893836      36.893836      36.893836    
   9600000   0.47918511    -7.8587857     -7.1400183      3.3173135      50218.233      36.893836      36.893836      36.893836    
   9700000   0.48341473    -7.856008      -7.1308962      3.3381576      50218.233      36.893836      36.893836      36.893836    
   9800000   0.4806027     -7.8600464     -7.1391525      3.2978281      50218.233      36.893836      36.893836      36.893836    
   9900000   0.48243477    -7.8627756     -7.1391338      3.2914242      50218.233      36.893836      36.893836      36.893836    
  10000000   0.47949324    -7.8568423     -7.1376126      3.3201891      50218.233      36.893836      36.893836      36.893836    
  10100000   0.47994965    -7.8599474     -7.1400332      3.3022633      50218.233      36.893836      36.893836      36.893836    
  10200000   0.48000561    -7.8563311     -7.1363329      3.3204359      50218.233      36.893836      36.893836      36.893836    
  10300000   0.47991493    -7.8577759     -7.1379138      3.3178902      50218.233      36.893836      36.893836      36.893836    
  10400000   0.48165576    -7.8563315     -7.1338581      3.3369546      50218.233      36.893836      36.893836      36.893836    
  10500000   0.4810531     -7.8605964     -7.139027       3.3006762      50218.233      36.893836      36.893836      36.893836    
  10600000   0.47806825    -7.8590765     -7.1419843      3.3098178      50218.233      36.893836      36.893836      36.893836    
  10700000   0.47912202    -7.8572315     -7.1385587      3.3284906      50218.233      36.893836      36.893836      36.893836    
  10800000   0.47991891    -7.8600033     -7.1401352      3.3018985      50218.233      36.893836      36.893836      36.893836    
  10900000   0.48210142    -7.858554      -7.1354122      3.3201237      50218.233      36.893836      36.893836      36.893836    
  11000000   0.47932993    -7.8578998     -7.1389151      3.3031438      50218.233      36.893836      36.893836      36.893836    
  11100000   0.4814402     -7.8547227     -7.1325726      3.3359082      50218.233      36.893836      36.893836      36.893836    
  11200000   0.47876134    -7.8552731     -7.1371413      3.3182326      50218.233      36.893836      36.893836      36.893836    
  11300000   0.47987044    -7.8607755     -7.1409801      3.2875399      50218.233      36.893836      36.893836      36.893836    
  11400000   0.47864848    -7.8565624     -7.1385999      3.3207689      50218.233      36.893836      36.893836      36.893836    
  11500000   0.47926972    -7.8561729     -7.1372786      3.3271496      50218.233      36.893836      36.893836      36.893836    
  11600000   0.48159509    -7.8576065     -7.1352241      3.3173981      50218.233      36.893836      36.893836      36.893836    
  11700000   0.47782581    -7.8563445     -7.1396159      3.3181809      50218.233      36.893836      36.893836      36.893836    
  11800000   0.48052088    -7.8600468     -7.1392758      3.3008924      50218.233      36.893836      36.893836      36.893836    
  11900000   0.47973896    -7.8556132     -7.136015       3.3421974      50218.233      36.893836      36.893836      36.893836    
  12000000   0.48048251    -7.8565204     -7.1358069      3.3288863      50218.233      36.893836      36.893836      36.893836    
  12100000   0.48144358    -7.8546524     -7.1324973      3.3413032      50218.233      36.893836      36.893836      36.893836    
  12200000   0.47879749    -7.8585365     -7.1403505      3.3140115      50218.233      36.893836      36.893836      36.893836    
  12300000   0.4807119     -7.8593295     -7.1382719      3.3099902      50218.233      36.893836      36.893836      36.893836    
  12400000   0.4821652     -7.8573671     -7.1341296      3.3156962      50218.233      36.893836      36.893836      36.893836    
  12500000   0.47918935    -7.8548668     -7.136093       3.334377       50218.233      36.893836      36.893836      36.893836    
  12600000   0.48107404    -7.8533028     -7.1317021      3.3623322      50218.233      36.893836      36.893836      36.893836    
  12700000   0.47752102    -7.8554474     -7.139176       3.3269254      50218.233      36.893836      36.893836      36.893836    
  12800000   0.4776201     -7.8597361     -7.1433161      3.2977384      50218.233      36.893836      36.893836      36.893836    
  12900000   0.47909058    -7.8575361     -7.1389105      3.2989137      50218.233      36.893836      36.893836      36.893836    
  13000000   0.48273637    -7.858282      -7.1341877      3.3029788      50218.233      36.893836      36.893836      36.893836    
  13100000   0.48006424    -7.8550756     -7.1349895      3.3373693      50218.233      36.893836      36.893836      36.893836    
  13200000   0.48054476    -7.8545101     -7.1337032      3.337972       50218.233      36.893836      36.893836      36.893836    
  13300000   0.48117545    -7.8569687     -7.1352157      3.3306079      50218.233      36.893836      36.893836      36.893836    
  13400000   0.4817733     -7.8561982     -7.1335485      3.3304792      50218.233      36.893836      36.893836      36.893836    
  13500000   0.47850164    -7.8586712     -7.140929       3.3038777      50218.233      36.893836      36.893836      36.893836    
  13600000   0.48048795    -7.8569354     -7.1362137      3.329391       50218.233      36.893836      36.893836      36.893836    
  13700000   0.47998989    -7.8590252     -7.1390506      3.3167007      50218.233      36.893836      36.893836      36.893836    
  13800000   0.4777597     -7.8613305     -7.1447011      3.2889477      50218.233      36.893836      36.893836      36.893836    
  13900000   0.48022759    -7.8599161     -7.139585       3.3025673      50218.233      36.893836      36.893836      36.893836    
  14000000   0.48091718    -7.8603047     -7.1389392      3.3034631      50218.233      36.893836      36.893836      36.893836    
  14100000   0.48054955    -7.8561559     -7.1353418      3.3294323      50218.233      36.893836      36.893836      36.893836    
  14200000   0.47778685    -7.8628522     -7.1461821      3.2651335      50218.233      36.893836      36.893836      36.893836    
  14300000   0.48061316    -7.8585869     -7.1376774      3.3178394      50218.233      36.893836      36.893836      36.893836    
  14400000   0.48071015    -7.8544673     -7.1334124      3.3395003      50218.233      36.893836      36.893836      36.893836    
  14500000   0.47804304    -7.8583061     -7.1412518      3.3075423      50218.233      36.893836      36.893836      36.893836    
  14600000   0.47996859    -7.8592402     -7.1392976      3.3078558      50218.233      36.893836      36.893836      36.893836    
  14700000   0.47769111    -7.8577092     -7.1411828      3.3120621      50218.233      36.893836      36.893836      36.893836    
  14800000   0.48218766    -7.8551645     -7.1318933      3.3450595      50218.233      36.893836      36.893836      36.893836    
  14900000   0.47939635    -7.8621662     -7.1430819      3.2868593      50218.233      36.893836      36.893836      36.893836    
  15000000   0.47851944    -7.8567294     -7.1389605      3.3231907      50218.233      36.893836      36.893836      36.893836    
  15100000   0.48147222    -7.8633744     -7.1411763      3.2758769      50218.233      36.893836      36.893836      36.893836    
  15200000   0.48003029    -7.858289      -7.1382538      3.3047031      50218.233      36.893836      36.893836      36.893836    
  15300000   0.47871885    -7.8613976     -7.1433295      3.2861609      50218.233      36.893836      36.893836      36.893836    
  15400000   0.47907095    -7.8620355     -7.1434393      3.2735364      50218.233      36.893836      36.893836      36.893836    
  15500000   0.47871086    -7.8633945     -7.1453384      3.2647448      50218.233      36.893836      36.893836      36.893836    
  15600000   0.47888919    -7.8602711     -7.1419475      3.2988832      50218.233      36.893836      36.893836      36.893836    
  15700000   0.48504184    -7.8594651     -7.1319127      3.3086344      50218.233      36.893836      36.893836      36.893836    
  15800000   0.47891728    -7.8559727     -7.137607       3.3174601      50218.233      36.893836      36.893836      36.893836    
  15900000   0.47825801    -7.8602697     -7.1428929      3.3028643      50218.233      36.893836      36.893836      36.893836    
  16000000   0.48197526    -7.8590746     -7.136122       3.3002278      50218.233      36.893836      36.893836      36.893836    
  16100000   0.48236845    -7.8615165     -7.1379741      3.2817094      50218.233      36.893836      36.893836      36.893836    
  16200000   0.47640361    -7.8605412     -7.1459459      3.2936596      50218.233      36.893836      36.893836      36.893836    
  16300000   0.47912685    -7.8518365     -7.1331564      3.3550324      50218.233      36.893836      36.893836      36.893836    
  16400000   0.47853076    -7.8541046     -7.1363187      3.3428482      50218.233      36.893836      36.893836      36.893836    
  16500000   0.4810362     -7.853178      -7.1316339      3.3430342      50218.233      36.893836      36.893836      36.893836    
  16600000   0.48040006    -7.8551809     -7.134591       3.3298433      50218.233      36.893836      36.893836      36.893836    
  16700000   0.48003897    -7.8556035     -7.1355553      3.3229825      50218.233      36.893836      36.893836      36.893836    
  16800000   0.47583448    -7.8565677     -7.1428262      3.3161161      50218.233      36.893836      36.893836      36.893836    
  16900000   0.48010799    -7.8551583     -7.1350065      3.3303806      50218.233      36.893836      36.893836      36.893836    
  17000000   0.48013132    -7.8541602     -7.1339735      3.3373259      50218.233      36.893836      36.893836      36.893836    
  17100000   0.48110071    -7.8582974     -7.1366566      3.3095047      50218.233      36.893836      36.893836      36.893836    
  17200000   0.48385916    -7.856016      -7.1302376      3.3372087      50218.233      36.893836      36.893836      36.893836    
  17300000   0.48006755    -7.8615588     -7.1414678      3.283129       50218.233      36.893836      36.893836      36.893836    
  17400000   0.4817021     -7.8573599     -7.134817       3.3234252      50218.233      36.893836      36.893836      36.893836    
  17500000   0.47853276    -7.8584627     -7.1406738      3.3122316      50218.233      36.893836      36.893836      36.893836    
  17600000   0.47849035    -7.8601064     -7.1423811      3.2970664      50218.233      36.893836      36.893836      36.893836    
  17700000   0.47931179    -7.8610864     -7.1421289      3.2860731      50218.233      36.893836      36.893836      36.893836    
  17800000   0.48120936    -7.8604075     -7.1386037      3.2943266      50218.233      36.893836      36.893836      36.893836    
  17900000   0.47861723    -7.8595911     -7.1416755      3.290756       50218.233      36.893836      36.893836      36.893836    
  18000000   0.47951697    -7.8562185     -7.1369533      3.3386971      50218.233      36.893836      36.893836      36.893836    
  18100000   0.47907372    -7.8591987     -7.1405983      3.3078864      50218.233      36.893836      36.893836      36.893836    
  18200000   0.47989163    -7.8580805     -7.1382533      3.3157291      50218.233      36.893836      36.893836      36.893836    
  18300000   0.48073224    -7.8613285     -7.1402404      3.3060387      50218.233      36.893836      36.893836      36.893836    
  18400000   0.48078577    -7.8594192     -7.1382508      3.3011184      50218.233      36.893836      36.893836      36.893836    
  18500000   0.48043554    -7.8647876     -7.1441445      3.2687887      50218.233      36.893836      36.893836      36.893836    
  18600000   0.47838061    -7.8536828     -7.1361221      3.3400975      50218.233      36.893836      36.893836      36.893836    
  18700000   0.47741713    -7.8585859     -7.1424704      3.3023869      50218.233      36.893836      36.893836      36.893836    
  18800000   0.48147793    -7.8601835     -7.1379769      3.2910019      50218.233      36.893836      36.893836      36.893836    
  18900000   0.4794537     -7.8624392     -7.1432689      3.2917824      50218.233      36.893836      36.893836      36.893836    
  19000000   0.47977781    -7.858209      -7.1385525      3.3223579      50218.233      36.893836      36.893836      36.893836    
  19100000   0.48093743    -7.8603773     -7.1389814      3.3024855      50218.233      36.893836      36.893836      36.893836    
  19200000   0.47872942    -7.8622905     -7.1442065      3.2748565      50218.233      36.893836      36.893836      36.893836    
  19300000   0.47895291    -7.8601944     -7.1417752      3.2929232      50218.233      36.893836      36.893836      36.893836    
  19400000   0.48007374    -7.8614318     -7.1413314      3.2785242      50218.233      36.893836      36.893836      36.893836    
  19500000   0.47802691    -7.8597138     -7.1426836      3.2953996      50218.233      36.893836      36.893836      36.893836    
  19600000   0.47960323    -7.8592677     -7.139873       3.2971899      50218.233      36.893836      36.893836      36.893836    
  19700000   0.48040326    -7.8610117     -7.140417       3.2827574      50218.233      36.893836      36.893836      36.893836    
  19800000   0.48283228    -7.8623753     -7.1381372      3.2881316      50218.233      36.893836      36.893836      36.893836    
  19900000   0.4780319     -7.8572414     -7.1402037      3.3094823      50218.233      36.893836      36.893836      36.893836    
  20000000   0.4780734     -7.8599292     -7.1428293      3.2888369      50218.233      36.893836      36.893836      36.893836    
  20100000   0.47871226    -7.8620407     -7.1439825      3.2813737      50218.233      36.893836      36.893836      36.893836    
  20200000   0.48337855    -7.858497      -7.1334394      3.2974352      50218.233      36.893836      36.893836      36.893836    
  20300000   0.48086892    -7.8593255     -7.1380324      3.3032161      50218.233      36.893836      36.893836      36.893836    
  20400000   0.47907836    -7.857394      -7.1387867      3.310785       50218.233      36.893836      36.893836      36.893836    
  20500000   0.47887047    -7.859327      -7.1410315      3.3055236      50218.233      36.893836      36.893836      36.893836    
  20600000   0.4776983     -7.8590084     -7.1424712      3.3013865      50218.233      36.893836      36.893836      36.893836    
  20700000   0.47927363    -7.8603444     -7.1414442      3.2865952      50218.233      36.893836      36.893836      36.893836    
  20800000   0.47664578    -7.8613943     -7.1464358      3.2808545      50218.233      36.893836      36.893836      36.893836    
  20900000   0.48056283    -7.8611625     -7.1403285      3.2847407      50218.233      36.893836      36.893836      36.893836    
  21000000   0.47824738    -7.8546574     -7.1372966      3.3264031      50218.233      36.893836      36.893836      36.893836    
  21100000   0.48382696    -7.8612178     -7.1354877      3.2857101      50218.233      36.893836      36.893836      36.893836    
  21200000   0.48022841    -7.8604336     -7.1401013      3.2821846      50218.233      36.893836      36.893836      36.893836    
  21300000   0.47980101    -7.8556433     -7.135952       3.3296091      50218.233      36.893836      36.893836      36.893836    
  21400000   0.47806235    -7.8624937     -7.1454104      3.2756045      50218.233      36.893836      36.893836      36.893836    
  21500000   0.47860387    -7.8566326     -7.138737       3.3277669      50218.233      36.893836      36.893836      36.893836    
  21600000   0.48204099    -7.859557      -7.1365058      3.3072351      50218.233      36.893836      36.893836      36.893836    
  21700000   0.4783409     -7.8603342     -7.142833       3.2915824      50218.233      36.893836      36.893836      36.893836    
  21800000   0.47954042    -7.8598328     -7.1405324      3.3038225      50218.233      36.893836      36.893836      36.893836    
  21900000   0.47773276    -7.8579931     -7.1414042      3.3122738      50218.233      36.893836      36.893836      36.893836    
  22000000   0.48009764    -7.8605783     -7.1404421      3.2863831      50218.233      36.893836      36.893836      36.893836    
  22100000   0.4794856     -7.8596229     -7.1404047      3.3122577      50218.233      36.893836      36.893836      36.893836    
  22200000   0.48306644    -7.8553628     -7.1307734      3.339966       50218.233      36.893836      36.893836      36.893836    
  22300000   0.47961333    -7.8598082     -7.1403985      3.2937503      50218.233      36.893836      36.893836      36.893836    
  22400000   0.47772652    -7.861698      -7.1451185      3.2798182      50218.233      36.893836      36.893836      36.893836    
  22500000   0.48254534    -7.8605491     -7.1367414      3.3018899      50218.233      36.893836      36.893836      36.893836    
  22600000   0.47975748    -7.856695      -7.1370691      3.3247747      50218.233      36.893836      36.893836      36.893836    
  22700000   0.47931708    -7.8577662     -7.1388008      3.3139423      50218.233      36.893836      36.893836      36.893836    
  22800000   0.47914252    -7.857444      -7.1387404      3.3128785      50218.233      36.893836      36.893836      36.893836    
  22900000   0.48196685    -7.8586587     -7.1357188      3.3125268      50218.233      36.893836      36.893836      36.893836    
  23000000   0.48094365    -7.8557257     -7.1343205      3.3350715      50218.233      36.893836      36.893836      36.893836    
  23100000   0.48116349    -7.8574535     -7.1357186      3.3246042      50218.233      36.893836      36.893836      36.893836    
  23200000   0.47949971    -7.8613911     -7.1421518      3.2918996      50218.233      36.893836      36.893836      36.893836    
  23300000   0.48139619    -7.8572745     -7.1351905      3.3138814      50218.233      36.893836      36.893836      36.893836    
  23400000   0.48256048    -7.8553677     -7.1315372      3.32909        50218.233      36.893836      36.893836      36.893836    
  23500000   0.47929472    -7.8594483     -7.1405164      3.29924        50218.233      36.893836      36.893836      36.893836    
  23600000   0.48138155    -7.8601695     -7.1381074      3.2945617      50218.233      36.893836      36.893836      36.893836    
  23700000   0.48214211    -7.8552743     -7.1320714      3.3394749      50218.233      36.893836      36.893836      36.893836    
  23800000   0.48030301    -7.8601073     -7.1396631      3.3042703      50218.233      36.893836      36.893836      36.893836    
  23900000   0.48102727    -7.8549685     -7.1334378      3.3324467      50218.233      36.893836      36.893836      36.893836    
  24000000   0.47805749    -7.8566558     -7.1395797      3.3237182      50218.233      36.893836      36.893836      36.893836    
  24100000   0.48214864    -7.8578692     -7.1346566      3.3176776      50218.233      36.893836      36.893836      36.893836    
  24200000   0.47781209    -7.8585478     -7.1418399      3.3098569      50218.233      36.893836      36.893836      36.893836    
  24300000   0.48229997    -7.8577746     -7.1343349      3.3129573      50218.233      36.893836      36.893836      36.893836    
  24400000   0.48033221    -7.8599785     -7.1394904      3.2922565      50218.233      36.893836      36.893836      36.893836    
  24500000   0.48086536    -7.8596233     -7.1383355      3.3106359      50218.233      36.893836      36.893836      36.893836    
  24600000   0.48145267    -7.859111      -7.1369423      3.3026209      50218.233      36.893836      36.893836      36.893836    
  24700000   0.48181917    -7.8585904     -7.1358719      3.3060799      50218.233      36.893836      36.893836      36.893836    
  24800000   0.47776661    -7.8578516     -7.1412119      3.3106668      50218.233      36.893836      36.893836      36.893836    
  24900000   0.47945929    -7.8563419     -7.1371632      3.3235489      50218.233      36.893836      36.893836      36.893836    
  25000000   0.47740445    -7.8617109     -7.1456144      3.2755247      50218.233      36.893836      36.893836      36.893836    
  25100000   0.48105436    -7.8572554     -7.1356841      3.3203864      50218.233      36.893836      36.893836      36.893836    
  25200000   0.48066291    -7.8528784     -7.1318943      3.3529135      50218.233      36.893836      36.893836      36.893836    
  25300000   0.47871954    -7.8589944     -7.1409253      3.308593       50218.233      36.893836      36.893836      36.893836    
  25400000   0.48132676    -7.8557585     -7.1337786      3.3326942      50218.233      36.893836      36.893836      36.893836    
  25500000   0.47900379    -7.8581461     -7.1396507      3.3104203      50218.233      36.893836      36.893836      36.893836    
  25600000   0.47887293    -7.8578968     -7.1395977      3.3143518      50218.233      36.893836      36.893836      36.893836    
  25700000   0.47862708    -7.8578387     -7.1399082      3.3214814      50218.233      36.893836      36.893836      36.893836    
  25800000   0.47900577    -7.854841      -7.1363426      3.3283369      50218.233      36.893836      36.893836      36.893836    
  25900000   0.48072597    -7.8617685     -7.1406898      3.277994       50218.233      36.893836      36.893836      36.893836    
  26000000   0.48139454    -7.8564642     -7.1343827      3.319562       50218.233      36.893836      36.893836      36.893836    
  26100000   0.4802109     -7.8588546     -7.1385485      3.3064986      50218.233      36.893836      36.893836      36.893836    
  26200000   0.47968386    -7.8603852     -7.1408697      3.2856544      50218.233      36.893836      36.893836      36.893836    
  26300000   0.4799885     -7.8572175     -7.137245       3.3173699      50218.233      36.893836      36.893836      36.893836    
  26400000   0.48043635    -7.8571394     -7.1364951      3.3124797      50218.233      36.893836      36.893836      36.893836    
  26500000   0.48068884    -7.8573307     -7.1363077      3.3182111      50218.233      36.893836      36.893836      36.893836    
  26600000   0.48356003    -7.8580116     -7.1326819      3.3012398      50218.233      36.893836      36.893836      36.893836    
  26700000   0.47815066    -7.8563115     -7.1390957      3.3129372      50218.233      36.893836      36.893836      36.893836    
  26800000   0.48087444    -7.8550527     -7.1337513      3.339954       50218.233      36.893836      36.893836      36.893836    
  26900000   0.48122854    -7.8524663     -7.1306337      3.3538212      50218.233      36.893836      36.893836      36.893836    
  27000000   0.48065074    -7.858138      -7.1371721      3.3172882      50218.233      36.893836      36.893836      36.893836    
  27100000   0.47812057    -7.8558356     -7.138665       3.3210179      50218.233      36.893836      36.893836      36.893836    
  27200000   0.47957668    -7.8507731     -7.1314183      3.3619974      50218.233      36.893836      36.893836      36.893836    
  27300000   0.47976275    -7.8567178     -7.1370839      3.3125524      50218.233      36.893836      36.893836      36.893836    
  27400000   0.48039437    -7.8576726     -7.1370913      3.3129981      50218.233      36.893836      36.893836      36.893836    
  27500000   0.47897431    -7.856196      -7.1377447      3.3248766      50218.233      36.893836      36.893836      36.893836    
  27600000   0.47437547    -7.8553139     -7.1437608      3.3240421      50218.233      36.893836      36.893836      36.893836    
  27700000   0.47876476    -7.8589409     -7.140804       3.3076982      50218.233      36.893836      36.893836      36.893836    
  27800000   0.4789275     -7.8534059     -7.1350249      3.332777       50218.233      36.893836      36.893836      36.893836    
  27900000   0.47978116    -7.8601174     -7.1404559      3.2910742      50218.233      36.893836      36.893836      36.893836    
  28000000   0.48040028    -7.8608375     -7.1402473      3.2847121      50218.233      36.893836      36.893836      36.893836    
  28100000   0.48122092    -7.855073      -7.1332519      3.3259929      50218.233      36.893836      36.893836      36.893836    
  28200000   0.48120202    -7.8575891     -7.1357964      3.305786       50218.233      36.893836      36.893836      36.893836    
  28300000   0.47838469    -7.8544706     -7.1369038      3.323929       50218.233      36.893836      36.893836      36.893836    
  28400000   0.479734      -7.8553424     -7.1357516      3.3312276      50218.233      36.893836      36.893836      36.893836    
  28500000   0.48076987    -7.8552029     -7.1340584      3.3218379      50218.233      36.893836      36.893836      36.893836    
  28600000   0.48023212    -7.8567254     -7.1363874      3.3053594      50218.233      36.893836      36.893836      36.893836    
  28700000   0.47705997    -7.8576129     -7.1420331      3.3011736      50218.233      36.893836      36.893836      36.893836    
  28800000   0.47962362    -7.8551027     -7.1356775      3.3309015      50218.233      36.893836      36.893836      36.893836    
  28900000   0.48162725    -7.8571831     -7.1347525      3.307214       50218.233      36.893836      36.893836      36.893836    
  29000000   0.47788895    -7.8555325     -7.1387093      3.3284473      50218.233      36.893836      36.893836      36.893836    
  29100000   0.47850357    -7.8571268     -7.1393817      3.3172437      50218.233      36.893836      36.893836      36.893836    
  29200000   0.48015874    -7.8579272     -7.1376993      3.3070209      50218.233      36.893836      36.893836      36.893836    
  29300000   0.4787407     -7.8587576     -7.1406567      3.2995344      50218.233      36.893836      36.893836      36.893836    
  29400000   0.47886629    -7.8586816     -7.1403924      3.3005104      50218.233      36.893836      36.893836      36.893836    
  29500000   0.48071751    -7.8587956     -7.1377296      3.294247       50218.233      36.893836      36.893836      36.893836    
  29600000   0.4795289     -7.8591574     -7.1398743      3.301304       50218.233      36.893836      36.893836      36.893836    
  29700000   0.47843804    -7.8572465     -7.1395997      3.3112922      50218.233      36.893836      36.893836      36.893836    
  29800000   0.48351561    -7.8562553     -7.1309922      3.3316571      50218.233      36.893836      36.893836      36.893836    
  29900000   0.48206876    -7.8584498     -7.135357       3.3096798      50218.233      36.893836      36.893836      36.893836    
  30000000   0.47969446    -7.86145       -7.1419185      3.2722605      50218.233      36.893836      36.893836      36.893836    
  30100000   0.48222248    -7.8629485     -7.1396251      3.2838557      50218.233      36.893836      36.893836      36.893836    
  30200000   0.47864512    -7.8603664     -7.142409       3.2806023      50218.233      36.893836      36.893836      36.893836    
  30300000   0.47756137    -7.8567039     -7.140372       3.3166508      50218.233      36.893836      36.893836      36.893836    
  30400000   0.48074736    -7.8551617     -7.1340509      3.3361667      50218.233      36.893836      36.893836      36.893836    
  30500000   0.47836365    -7.8613116     -7.1437763      3.2826356      50218.233      36.893836      36.893836      36.893836    
  30600000   0.48015578    -7.8567578     -7.1365344      3.3258041      50218.233      36.893836      36.893836      36.893836    
  30700000   0.47967395    -7.856122      -7.1366213      3.3178828      50218.233      36.893836      36.893836      36.893836    
  30800000   0.47891133    -7.8572962     -7.1389394      3.3054965      50218.233      36.893836      36.893836      36.893836    
  30900000   0.47769616    -7.8590678     -7.1425337      3.3003198      50218.233      36.893836      36.893836      36.893836    
  31000000   0.48059439    -7.8598684     -7.1389871      3.2967019      50218.233      36.893836      36.893836      36.893836    
  31100000   0.47602282    -7.8576199     -7.1435958      3.3078412      50218.233      36.893836      36.893836      36.893836    
  31200000   0.48050629    -7.8592628     -7.1385137      3.293963       50218.233      36.893836      36.893836      36.893836    
  31300000   0.47965961    -7.8582884     -7.1388092      3.2994159      50218.233      36.893836      36.893836      36.893836    
  31400000   0.47887815    -7.8591706     -7.1408635      3.2980161      50218.233      36.893836      36.893836      36.893836    
  31500000   0.47893719    -7.8582654     -7.1398698      3.307573       50218.233      36.893836      36.893836      36.893836    
  31600000   0.47780284    -7.8545054     -7.1378113      3.3375868      50218.233      36.893836      36.893836      36.893836    
  31700000   0.4791862     -7.8549648     -7.1361957      3.3193488      50218.233      36.893836      36.893836      36.893836    
  31800000   0.48210755    -7.8579045     -7.1347535      3.3208251      50218.233      36.893836      36.893836      36.893836    
  31900000   0.47923983    -7.8584328     -7.1395833      3.3210276      50218.233      36.893836      36.893836      36.893836    
  32000000   0.48060392    -7.8598481     -7.1389525      3.3064845      50218.233      36.893836      36.893836      36.893836    
  32100000   0.48091081    -7.8584666     -7.1371107      3.3105694      50218.233      36.893836      36.893836      36.893836    
  32200000   0.4792598     -7.8534861     -7.1346066      3.3394038      50218.233      36.893836      36.893836      36.893836    
  32300000   0.47666665    -7.8519545     -7.1369647      3.3464197      50218.233      36.893836      36.893836      36.893836    
  32400000   0.47925893    -7.8558907     -7.1370125      3.3393034      50218.233      36.893836      36.893836      36.893836    
  32500000   0.48298495    -7.8568543     -7.1323872      3.3232186      50218.233      36.893836      36.893836      36.893836    
  32600000   0.4809442     -7.8570362     -7.1356302      3.3221543      50218.233      36.893836      36.893836      36.893836    
  32700000   0.47970661    -7.8551592     -7.1356095      3.3255456      50218.233      36.893836      36.893836      36.893836    
  32800000   0.48299783    -7.8586187     -7.1341322      3.3187901      50218.233      36.893836      36.893836      36.893836    
  32900000   0.4806283     -7.8536515     -7.1327193      3.3482097      50218.233      36.893836      36.893836      36.893836    
  33000000   0.48199598    -7.8563988     -7.1334151      3.3279214      50218.233      36.893836      36.893836      36.893836    
  33100000   0.47897367    -7.8569745     -7.1385242      3.3258958      50218.233      36.893836      36.893836      36.893836    
  33200000   0.48006537    -7.8576485     -7.1375607      3.3166883      50218.233      36.893836      36.893836      36.893836    
  33300000   0.47800808    -7.8516706     -7.1346687      3.356496       50218.233      36.893836      36.893836      36.893836    
  33400000   0.48122159    -7.8567302     -7.1349081      3.3218062      50218.233      36.893836      36.893836      36.893836    
  33500000   0.48134142    -7.8543121     -7.1323103      3.34885        50218.233      36.893836      36.893836      36.893836    
  33600000   0.48082254    -7.8591124     -7.1378888      3.3134624      50218.233      36.893836      36.893836      36.893836    
  33700000   0.48066477    -7.8535466     -7.1325597      3.3467283      50218.233      36.893836      36.893836      36.893836    
  33800000   0.47869604    -7.8524733     -7.1344395      3.3549389      50218.233      36.893836      36.893836      36.893836    
  33900000   0.47806243    -7.8597306     -7.1426472      3.2935724      50218.233      36.893836      36.893836      36.893836    
  34000000   0.47933614    -7.8591891     -7.1401952      3.2981417      50218.233      36.893836      36.893836      36.893836    
  34100000   0.48140227    -7.8539903     -7.1318971      3.3392714      50218.233      36.893836      36.893836      36.893836    
  34200000   0.47993097    -7.8539896     -7.1341034      3.3527082      50218.233      36.893836      36.893836      36.893836    
  34300000   0.48076911    -7.8564944     -7.135351       3.3422293      50218.233      36.893836      36.893836      36.893836    
  34400000   0.4793972     -7.8604134     -7.1413278      3.2979108      50218.233      36.893836      36.893836      36.893836    
  34500000   0.48190261    -7.8541793     -7.1313357      3.3454356      50218.233      36.893836      36.893836      36.893836    
  34600000   0.47990706    -7.8576106     -7.1377602      3.31312        50218.233      36.893836      36.893836      36.893836    
  34700000   0.4806304     -7.8559022     -7.1349668      3.3288606      50218.233      36.893836      36.893836      36.893836    
  34800000   0.47669923    -7.8547126     -7.139674       3.3292077      50218.233      36.893836      36.893836      36.893836    
  34900000   0.48155042    -7.8586152     -7.1362999      3.3172917      50218.233      36.893836      36.893836      36.893836    
  35000000   0.48208639    -7.859366      -7.1362467      3.3133498      50218.233      36.893836      36.893836      36.893836    
  35100000   0.47997085    -7.854993      -7.1350469      3.3327926      50218.233      36.893836      36.893836      36.893836    
  35200000   0.48144858    -7.8571155     -7.1349529      3.3301918      50218.233      36.893836      36.893836      36.893836    
  35300000   0.47733511    -7.8538089     -7.1378164      3.3351381      50218.233      36.893836      36.893836      36.893836    
  35400000   0.48180942    -7.8563905     -7.1336867      3.3313105      50218.233      36.893836      36.893836      36.893836    
  35500000   0.47999109    -7.8587313     -7.1387549      3.3103447      50218.233      36.893836      36.893836      36.893836    
  35600000   0.48080407    -7.8564337     -7.1352378      3.3292356      50218.233      36.893836      36.893836      36.893836    
  35700000   0.48015507    -7.8557147     -7.1354923      3.321019       50218.233      36.893836      36.893836      36.893836    
  35800000   0.47798059    -7.8573906     -7.1404299      3.3227432      50218.233      36.893836      36.893836      36.893836    
  35900000   0.48033393    -7.859734      -7.1392434      3.3100703      50218.233      36.893836      36.893836      36.893836    
  36000000   0.48179035    -7.8582643     -7.1355891      3.3188376      50218.233      36.893836      36.893836      36.893836    
  36100000   0.48170479    -7.8562861     -7.1337392      3.3339183      50218.233      36.893836      36.893836      36.893836    
  36200000   0.48309883    -7.8566117     -7.1319738      3.3284065      50218.233      36.893836      36.893836      36.893836    
  36300000   0.48040231    -7.8564969     -7.1359037      3.3272658      50218.233      36.893836      36.893836      36.893836    
  36400000   0.47981298    -7.8567681     -7.1370588      3.3242922      50218.233      36.893836      36.893836      36.893836    
  36500000   0.47957956    -7.8537704     -7.1344112      3.3508415      50218.233      36.893836      36.893836      36.893836    
  36600000   0.48014549    -7.8545665     -7.1343585      3.3450531      50218.233      36.893836      36.893836      36.893836    
  36700000   0.4795071     -7.8557843     -7.1365338      3.3306372      50218.233      36.893836      36.893836      36.893836    
  36800000   0.48098099    -7.854098      -7.1326368      3.3470424      50218.233      36.893836      36.893836      36.893836    
  36900000   0.48197922    -7.855461      -7.1325024      3.3464142      50218.233      36.893836      36.893836      36.893836    
  37000000   0.48117962    -7.8563238     -7.1345646      3.3228091      50218.233      36.893836      36.893836      36.893836    
  37100000   0.48085071    -7.8573434     -7.1360776      3.3193253      50218.233      36.893836      36.893836      36.893836    
  37200000   0.4796343     -7.856546      -7.1371048      3.321879       50218.233      36.893836      36.893836      36.893836    
  37300000   0.48200549    -7.8562238     -7.1332258      3.3250338      50218.233      36.893836      36.893836      36.893836    
  37400000   0.47788421    -7.8572211     -7.140405       3.317459       50218.233      36.893836      36.893836      36.893836    
  37500000   0.47971452    -7.8565974     -7.1370359      3.3305507      50218.233      36.893836      36.893836      36.893836    
  37600000   0.47855657    -7.862585      -7.1447603      3.275473       50218.233      36.893836      36.893836      36.893836    
  37700000   0.47846246    -7.8554254     -7.1377419      3.3278046      50218.233      36.893836      36.893836      36.893836    
  37800000   0.48188219    -7.859941      -7.137128       3.2921458      50218.233      36.893836      36.893836      36.893836    
  37900000   0.47900497    -7.856929      -7.1384317      3.3257267      50218.233      36.893836      36.893836      36.893836    
  38000000   0.47972032    -7.8565525     -7.1369822      3.3111532      50218.233      36.893836      36.893836      36.893836    
  38100000   0.48095331    -7.8583621     -7.1369424      3.3086611      50218.233      36.893836      36.893836      36.893836    
  38200000   0.48067647    -7.8575468     -7.1365423      3.3175942      50218.233      36.893836      36.893836      36.893836    
  38300000   0.47900487    -7.8556407     -7.1371436      3.3182382      50218.233      36.893836      36.893836      36.893836    
  38400000   0.48148866    -7.8594707     -7.137248       3.3025566      50218.233      36.893836      36.893836      36.893836    
  38500000   0.48159035    -7.8582089     -7.1358336      3.3140248      50218.233      36.893836      36.893836      36.893836    
  38600000   0.47842999    -7.8538861     -7.1362514      3.3441084      50218.233      36.893836      36.893836      36.893836    
  38700000   0.48085171    -7.8615173     -7.14025        3.2953174      50218.233      36.893836      36.893836      36.893836    
  38800000   0.48251238    -7.853227      -7.1294688      3.3538607      50218.233      36.893836      36.893836      36.893836    
  38900000   0.47856965    -7.8569378     -7.1390935      3.3173264      50218.233      36.893836      36.893836      36.893836    
  39000000   0.47775701    -7.8570693     -7.140444       3.3048612      50218.233      36.893836      36.893836      36.893836    
  39100000   0.48232512    -7.8549565     -7.1314791      3.343113       50218.233      36.893836      36.893836      36.893836    
  39200000   0.47796578    -7.8572339     -7.1402954      3.3118639      50218.233      36.893836      36.893836      36.893836    
  39300000   0.48003994    -7.8599275     -7.1398779      3.3012276      50218.233      36.893836      36.893836      36.893836    
  39400000   0.48377044    -7.8539423     -7.128297       3.3440306      50218.233      36.893836      36.893836      36.893836    
  39500000   0.48114642    -7.8567147     -7.1350054      3.3169426      50218.233      36.893836      36.893836      36.893836    
  39600000   0.4771223     -7.8567786     -7.1411053      3.3078228      50218.233      36.893836      36.893836      36.893836    
  39700000   0.47986516    -7.8561543     -7.1363668      3.3251841      50218.233      36.893836      36.893836      36.893836    
  39800000   0.48018103    -7.8598732     -7.1396119      3.2964577      50218.233      36.893836      36.893836      36.893836    
  39900000   0.48070523    -7.8565018     -7.1354542      3.3244979      50218.233      36.893836      36.893836      36.893836    
  40000000   0.48196845    -7.8568642     -7.1339218      3.3345506      50218.233      36.893836      36.893836      36.893836    
  40100000   0.47838896    -7.8602388     -7.1426655      3.296129       50218.233      36.893836      36.893836      36.893836    
  40200000   0.48073148    -7.8589092     -7.1378222      3.3049923      50218.233      36.893836      36.893836      36.893836    
  40300000   0.48007626    -7.8605418     -7.1404377      3.292159       50218.233      36.893836      36.893836      36.893836    
  40400000   0.48034377    -7.8580622     -7.1375568      3.3106403      50218.233      36.893836      36.893836      36.893836    
  40500000   0.48299512    -7.8561402     -7.1316578      3.3376701      50218.233      36.893836      36.893836      36.893836    
  40600000   0.48113492    -7.8580392     -7.1363471      3.3210934      50218.233      36.893836      36.893836      36.893836    
  40700000   0.48145741    -7.8591989     -7.1370231      3.3021786      50218.233      36.893836      36.893836      36.893836    
  40800000   0.47762465    -7.8561125     -7.1396857      3.336288       50218.233      36.893836      36.893836      36.893836    
  40900000   0.48040946    -7.8627982     -7.1421943      3.2816068      50218.233      36.893836      36.893836      36.893836    
  41000000   0.47967394    -7.8596247     -7.140124       3.2955764      50218.233      36.893836      36.893836      36.893836    
  41100000   0.47976836    -7.8585318     -7.1388895      3.3051578      50218.233      36.893836      36.893836      36.893836    
  41200000   0.48084836    -7.8605775     -7.1393152      3.3038486      50218.233      36.893836      36.893836      36.893836    
  41300000   0.48080224    -7.8606427     -7.1394496      3.2933139      50218.233      36.893836      36.893836      36.893836    
  41400000   0.47821413    -7.8573166     -7.1400056      3.3046928      50218.233      36.893836      36.893836      36.893836    
  41500000   0.47882609    -7.8642361     -7.1460072      3.2672857      50218.233      36.893836      36.893836      36.893836    
  41600000   0.47955933    -7.8569011     -7.1375724      3.3193509      50218.233      36.893836      36.893836      36.893836    
  41700000   0.47887591    -7.8564334     -7.1381297      3.3345172      50218.233      36.893836      36.893836      36.893836    
  41800000   0.48236519    -7.8604147     -7.1368772      3.2900536      50218.233      36.893836      36.893836      36.893836    
  41900000   0.48118195    -7.8545508     -7.1327881      3.3283899      50218.233      36.893836      36.893836      36.893836    
  42000000   0.48046788    -7.8583259     -7.1376343      3.3081888      50218.233      36.893836      36.893836      36.893836    
  42100000   0.48131515    -7.8565534     -7.1345909      3.318611       50218.233      36.893836      36.893836      36.893836    
  42200000   0.48088384    -7.8600713     -7.1387558      3.304138       50218.233      36.893836      36.893836      36.893836    
  42300000   0.48332088    -7.8604766     -7.1355056      3.306977       50218.233      36.893836      36.893836      36.893836    
  42400000   0.47957515    -7.8561457     -7.1367932      3.3311093      50218.233      36.893836      36.893836      36.893836    
  42500000   0.48000556    -7.860976      -7.1409779      3.2887451      50218.233      36.893836      36.893836      36.893836    
  42600000   0.48063395    -7.8588982     -7.1379575      3.3098304      50218.233      36.893836      36.893836      36.893836    
  42700000   0.48077822    -7.8541579     -7.1330008      3.3524508      50218.233      36.893836      36.893836      36.893836    
  42800000   0.48057243    -7.8610437     -7.1401953      3.3011295      50218.233      36.893836      36.893836      36.893836    
  42900000   0.48137508    -7.8616336     -7.1395812      3.2799838      50218.233      36.893836      36.893836      36.893836    
  43000000   0.47968775    -7.8562517     -7.1367304      3.3077817      50218.233      36.893836      36.893836      36.893836    
  43100000   0.48029082    -7.8562958     -7.1358699      3.3247516      50218.233      36.893836      36.893836      36.893836    
  43200000   0.47883068    -7.8638897     -7.1456539      3.2534381      50218.233      36.893836      36.893836      36.893836    
  43300000   0.48077367    -7.8576919     -7.1365417      3.3027554      50218.233      36.893836      36.893836      36.893836    
  43400000   0.48118245    -7.8573159     -7.1355524      3.323878       50218.233      36.893836      36.893836      36.893836    
  43500000   0.48032585    -7.8626012     -7.1421227      3.2847872      50218.233      36.893836      36.893836      36.893836    
  43600000   0.47855442    -7.8570049     -7.1391835      3.3099431      50218.233      36.893836      36.893836      36.893836    
  43700000   0.47983262    -7.8627835     -7.1430448      3.2700011      50218.233      36.893836      36.893836      36.893836    
  43800000   0.47779667    -7.8638614     -7.1471766      3.268915       50218.233      36.893836      36.893836      36.893836    
  43900000   0.47811769    -7.8609809     -7.1438145      3.280032       50218.233      36.893836      36.893836      36.893836    
  44000000   0.47989744    -7.8584354     -7.1385995      3.3027061      50218.233      36.893836      36.893836      36.893836    
  44100000   0.47911882    -7.857919      -7.139251       3.3063778      50218.233      36.893836      36.893836      36.893836    
  44200000   0.47865534    -7.8565185     -7.1385457      3.3257058      50218.233      36.893836      36.893836      36.893836    
  44300000   0.48012911    -7.8574348     -7.1372513      3.3163565      50218.233      36.893836      36.893836      36.893836    
  44400000   0.47940907    -7.8592153     -7.140112       3.2986046      50218.233      36.893836      36.893836      36.893836    
  44500000   0.48185171    -7.8621137     -7.1393464      3.282008       50218.233      36.893836      36.893836      36.893836    
  44600000   0.47986847    -7.8575501     -7.1377576      3.3036748      50218.233      36.893836      36.893836      36.893836    
  44700000   0.47998973    -7.8604493     -7.1404749      3.273334       50218.233      36.893836      36.893836      36.893836    
  44800000   0.4781931     -7.8597499     -7.1424705      3.2915717      50218.233      36.893836      36.893836      36.893836    
  44900000   0.4791825     -7.8604488     -7.1416853      3.3020042      50218.233      36.893836      36.893836      36.893836    
  45000000   0.47621111    -7.864802      -7.1504955      3.2705175      50218.233      36.893836      36.893836      36.893836    
  45100000   0.48119123    -7.858509      -7.1367324      3.3072197      50218.233      36.893836      36.893836      36.893836    
  45200000   0.48110485    -7.8588828     -7.1372358      3.2902931      50218.233      36.893836      36.893836      36.893836    
  45300000   0.48053246    -7.8602717     -7.1394832      3.2997639      50218.233      36.893836      36.893836      36.893836    
  45400000   0.48141883    -7.8584189     -7.1363009      3.3107277      50218.233      36.893836      36.893836      36.893836    
  45500000   0.4781308     -7.8580276     -7.1408416      3.3080868      50218.233      36.893836      36.893836      36.893836    
  45600000   0.47874385    -7.8557206     -7.137615       3.3299728      50218.233      36.893836      36.893836      36.893836    
  45700000   0.47928408    -7.8603169     -7.141401       3.2883978      50218.233      36.893836      36.893836      36.893836    
  45800000   0.47870147    -7.8613508     -7.1433088      3.2885901      50218.233      36.893836      36.893836      36.893836    
  45900000   0.48002206    -7.8588611     -7.1388383      3.3075501      50218.233      36.893836      36.893836      36.893836    
  46000000   0.47890739    -7.858935      -7.1405841      3.301599       50218.233      36.893836      36.893836      36.893836    
  46100000   0.47605689    -7.8603755     -7.1463003      3.2858719      50218.233      36.893836      36.893836      36.893836    
  46200000   0.47945942    -7.8532332     -7.1340543      3.3400349      50218.233      36.893836      36.893836      36.893836    
  46300000   0.47851365    -7.8617128     -7.1439525      3.2753261      50218.233      36.893836      36.893836      36.893836    
  46400000   0.47776195    -7.8646081     -7.1479753      3.2591006      50218.233      36.893836      36.893836      36.893836    
  46500000   0.48027909    -7.8597687     -7.1393604      3.2948693      50218.233      36.893836      36.893836      36.893836    
  46600000   0.479177      -7.8601874     -7.1414321      3.300132       50218.233      36.893836      36.893836      36.893836    
  46700000   0.48103144    -7.8612408     -7.1397039      3.2967534      50218.233      36.893836      36.893836      36.893836    
  46800000   0.4799167     -7.8630194     -7.1431546      3.2703651      50218.233      36.893836      36.893836      36.893836    
  46900000   0.4805459     -7.8601805     -7.1393719      3.2904652      50218.233      36.893836      36.893836      36.893836    
  47000000   0.47966357    -7.8606322     -7.141147       3.2876644      50218.233      36.893836      36.893836      36.893836    
  47100000   0.48267376    -7.8586057     -7.1346054      3.3161595      50218.233      36.893836      36.893836      36.893836    
  47200000   0.48011739    -7.8595073     -7.1393414      3.2990168      50218.233      36.893836      36.893836      36.893836    
  47300000   0.48070221    -7.8590035     -7.1379604      3.3061614      50218.233      36.893836      36.893836      36.893836    
  47400000   0.48169644    -7.8570092     -7.1344748      3.3209316      50218.233      36.893836      36.893836      36.893836    
  47500000   0.48040378    -7.8612279     -7.1406325      3.2891758      50218.233      36.893836      36.893836      36.893836    
  47600000   0.48349099    -7.8583258     -7.1330997      3.3228929      50218.233      36.893836      36.893836      36.893836    
  47700000   0.48030755    -7.8592435     -7.1387924      3.3079217      50218.233      36.893836      36.893836      36.893836    
  47800000   0.4796567     -7.8605695     -7.1410947      3.2921656      50218.233      36.893836      36.893836      36.893836    
  47900000   0.4822389     -7.8668028     -7.1434547      3.2534992      50218.233      36.893836      36.893836      36.893836    
  48000000   0.48141708    -7.8607413     -7.138626       3.2976514      50218.233      36.893836      36.893836      36.893836    
  48100000   0.4800378     -7.85937       -7.1393236      3.2953521      50218.233      36.893836      36.893836      36.893836    
  48200000   0.47939642    -7.8572741     -7.1381898      3.3140058      50218.233      36.893836      36.893836      36.893836    
  48300000   0.48213521    -7.8593326     -7.1361401      3.2925661      50218.233      36.893836      36.893836      36.893836    
  48400000   0.48217683    -7.8614893     -7.1382343      3.2898636      50218.233      36.893836      36.893836      36.893836    
  48500000   0.47839233    -7.8629718     -7.1453935      3.2628078      50218.233      36.893836      36.893836      36.893836    
  48600000   0.48005229    -7.8640645     -7.1439963      3.2731996      50218.233      36.893836      36.893836      36.893836    
  48700000   0.48138116    -7.8607091     -7.1386477      3.3037614      50218.233      36.893836      36.893836      36.893836    
  48800000   0.4784984     -7.8605798     -7.1428424      3.2949047      50218.233      36.893836      36.893836      36.893836    
  48900000   0.48102996    -7.8582221     -7.1366874      3.3067623      50218.233      36.893836      36.893836      36.893836    
  49000000   0.47904268    -7.8566423     -7.1380885      3.3176607      50218.233      36.893836      36.893836      36.893836    
  49100000   0.48118809    -7.8602622     -7.1384904      3.2891117      50218.233      36.893836      36.893836      36.893836    
  49200000   0.47946371    -7.8600276     -7.1408423      3.2941121      50218.233      36.893836      36.893836      36.893836    
  49300000   0.48014525    -7.8594949     -7.1392873      3.2995401      50218.233      36.893836      36.893836      36.893836    
  49400000   0.47880675    -7.8621997     -7.1439998      3.2762197      50218.233      36.893836      36.893836      36.893836    
  49500000   0.48232757    -7.8565089     -7.1330279      3.3327368      50218.233      36.893836      36.893836      36.893836    
  49600000   0.48066366    -7.8600565     -7.1390713      3.2991976      50218.233      36.893836      36.893836      36.893836    
  49700000   0.48321637    -7.8595784     -7.1347641      3.3060564      50218.233      36.893836      36.893836      36.893836    
  49800000   0.48076404    -7.8592866     -7.1381508      3.2994298      50218.233      36.893836      36.893836      36.893836    
  49900000   0.47815139    -7.8604572     -7.1432403      3.2830383      50218.233      36.893836      36.893836      36.893836    
  50000000   0.47682707    -7.8636649     -7.1484345      3.2673578      50218.233      36.893836      36.893836      36.893836    
Loop time of 80094.3 on 5 procs for 50000000 steps with 70304 atoms

Performance: 539363.989 tau/day, 624.264 timesteps/s, 43.888 Matom-step/s
94.6% CPU use with 5 MPI tasks x 1 OpenMP threads

MPI task timing breakdown:
Section |  min time  |  avg time  |  max time  |%varavg| %total
---------------------------------------------------------------
Pair    | 30556      | 31232      | 31957      | 309.1 | 38.99
Neigh   | 257.21     | 278.38     | 290.81     |  68.5 |  0.35
Comm    | 12087      | 12178      | 12275      |  63.0 | 15.20
Output  | 0.09056    | 0.095046   | 0.10446    |   1.6 |  0.00
Modify  | 31269      | 32148      | 32797      | 316.7 | 40.14
Other   |            | 4257       |            |       |  5.32

Nlocal:        14060.8 ave       14111 max       14021 min
Histogram: 1 1 0 0 1 1 0 0 0 1
Nghost:        18762.4 ave       18913 max       18689 min
Histogram: 1 2 0 1 0 0 0 0 0 1
Neighs:              0 ave           0 max           0 min
Histogram: 5 0 0 0 0 0 0 0 0 0

Total # of neighbors = 0
Ave neighs/atom = 0
Neighbor list builds = 10131470
Dangerous builds = 0
clear
OMP_NUM_THREADS environment is not set. Defaulting to 1 thread. (src/comm.cpp:98)
  using 1 OpenMP thread(s) per MPI task
package gpu 0
jump dms460.lmp

variable T equal 460
# T = 1000* (temp in LJ unit)
variable f equal 100000
log log.${T}
log log.460
