variable TLJ equal (${T}/1000)
variable TLJ equal (430/1000)
variable NCyle equal 5
variable iStep equal (${f})
variable iStep equal (100000)
variable dumpStep equal (${f}*100)
variable dumpStep equal (100000*100)
variable runStep equal (${f}*100*${NCyle})
variable runStep equal (100000*100*${NCyle})
variable runStep equal (100000*100*5)

units       lj
atom_style  atomic
dimension 3
boundary     p p p
pair_style  lj/cut 2.5
read_data  ../data/T${T}.dat
read_data  ../data/T430.dat
Reading data file ...
  orthogonal box = (0.97250269 0.97250269 0.97250269) to (37.866338 37.866338 37.866338)
  1 by 1 by 5 MPI processor grid
  reading atoms ...
  70304 atoms
  reading velocities ...
  70304 velocities
  read_data CPU = 0.209 seconds
change_box all triclinic
Changing box ...
  triclinic box = (0.97250269 0.97250269 0.97250269) to (37.866338 37.866338 37.866338) with tilt (0 0 0)
mass 1 1
mass 2 1
pair_modify shift yes
pair_coeff  1 1 1 1
pair_coeff  1 2 1.5 0.8
pair_coeff  2 2 0.5 0.88


timestep 0.01
thermo ${iStep}
thermo 100000
reset_timestep 0
thermo_style custom step temp pe etotal press vol lx ly lz
fix             1 all nvt temp ${TLJ}  ${TLJ}  0.1
fix             1 all nvt temp 0.43  ${TLJ}  0.1
fix             1 all nvt temp 0.43  0.43  0.1
thermo_modify flush yes

fix dsf all deform 1 xy  wiggle 0.5  ${f}   units box
fix dsf all deform 1 xy  wiggle 0.5  100000   units box
fix ps1 all ave/time 1 1 ${iStep} c_thermo_press[1] c_thermo_press[2]  c_thermo_press[3] c_thermo_press[4]  c_thermo_press[5] c_thermo_press[6]  file  stress.${T}
fix ps1 all ave/time 1 1 100000 c_thermo_press[1] c_thermo_press[2]  c_thermo_press[3] c_thermo_press[4]  c_thermo_press[5] c_thermo_press[6]  file  stress.${T}
fix ps1 all ave/time 1 1 100000 c_thermo_press[1] c_thermo_press[2]  c_thermo_press[3] c_thermo_press[4]  c_thermo_press[5] c_thermo_press[6]  file  stress.430
dump            1 all custom ${dumpStep} dump.${T} id type x y z
dump            1 all custom 10000000 dump.${T} id type x y z
dump            1 all custom 10000000 dump.430 id type x y z
dump_modify 1 sort id
fix nodrift all momentum 1  linear 1 1 1
fix com_seed all recenter INIT INIT INIT shift all
run ${runStep}
run 50000000
Generated 0 of 1 mixed pair_coeff terms from geometric mixing rule
Per MPI rank memory allocation (min/avg/max) = 6.663 | 8.467 | 8.92 Mbytes
   Step          Temp          PotEng         TotEng         Press          Volume           Lx             Ly             Lz      
         0   0.42818741    -7.9499773     -7.3077053      2.5557416      50218.233      36.893836      36.893836      36.893836    
    100000   0.42987929    -7.945916      -7.3011062      2.5922612      50218.233      36.893836      36.893836      36.893836    
    200000   0.43098354    -7.9420479     -7.2955818      2.6278004      50218.233      36.893836      36.893836      36.893836    
    300000   0.43097988    -7.9421815     -7.2957208      2.6281599      50218.233      36.893836      36.893836      36.893836    
    400000   0.43016917    -7.942729      -7.2974844      2.6133356      50218.233      36.893836      36.893836      36.893836    
    500000   0.4307508     -7.946923      -7.300806       2.5807047      50218.233      36.893836      36.893836      36.893836    
    600000   0.42942561    -7.9448671     -7.3007379      2.5993754      50218.233      36.893836      36.893836      36.893836    
    700000   0.42763777    -7.9416563     -7.3002088      2.6192065      50218.233      36.893836      36.893836      36.893836    
    800000   0.43008769    -7.9408859     -7.2957635      2.632454       50218.233      36.893836      36.893836      36.893836    
    900000   0.43082509    -7.9441357     -7.2979073      2.6030497      50218.233      36.893836      36.893836      36.893836    
   1000000   0.43169628    -7.9440018     -7.2964666      2.6035661      50218.233      36.893836      36.893836      36.893836    
   1100000   0.43114648    -7.9412822     -7.2945717      2.6188141      50218.233      36.893836      36.893836      36.893836    
   1200000   0.43069726    -7.9388004     -7.2927637      2.64343        50218.233      36.893836      36.893836      36.893836    
   1300000   0.42759937    -7.9393084     -7.2979184      2.6358748      50218.233      36.893836      36.893836      36.893836    
   1400000   0.43113507    -7.9456877     -7.2989943      2.6027768      50218.233      36.893836      36.893836      36.893836    
   1500000   0.43108209    -7.9417181     -7.2951042      2.625627       50218.233      36.893836      36.893836      36.893836    
   1600000   0.43135267    -7.9402405     -7.2932207      2.6319004      50218.233      36.893836      36.893836      36.893836    
   1700000   0.42985476    -7.9418597     -7.2970867      2.6183676      50218.233      36.893836      36.893836      36.893836    
   1800000   0.43112487    -7.9413105     -7.2946324      2.6393493      50218.233      36.893836      36.893836      36.893836    
   1900000   0.42803036    -7.9426122     -7.3005758      2.6106821      50218.233      36.893836      36.893836      36.893836    
   2000000   0.43188886    -7.9423258     -7.2945018      2.6259121      50218.233      36.893836      36.893836      36.893836    
   2100000   0.42938234    -7.9425678     -7.2985035      2.6172937      50218.233      36.893836      36.893836      36.893836    
   2200000   0.42755075    -7.937791      -7.296474       2.6546312      50218.233      36.893836      36.893836      36.893836    
   2300000   0.42939458    -7.9447153     -7.3006326      2.6151073      50218.233      36.893836      36.893836      36.893836    
   2400000   0.42792896    -7.9410688     -7.2991845      2.6278446      50218.233      36.893836      36.893836      36.893836    
   2500000   0.42816444    -7.9431428     -7.3009053      2.6106843      50218.233      36.893836      36.893836      36.893836    
   2600000   0.42840937    -7.9416689     -7.299064       2.6225873      50218.233      36.893836      36.893836      36.893836    
   2700000   0.43062454    -7.9416544     -7.2957268      2.6339836      50218.233      36.893836      36.893836      36.893836    
   2800000   0.42772851    -7.9375881     -7.2960045      2.6538397      50218.233      36.893836      36.893836      36.893836    
   2900000   0.42850025    -7.9404453     -7.2977041      2.6230852      50218.233      36.893836      36.893836      36.893836    
   3000000   0.43042545    -7.9385165     -7.2928875      2.6516271      50218.233      36.893836      36.893836      36.893836    
   3100000   0.42757757    -7.9398267     -7.2984695      2.6352104      50218.233      36.893836      36.893836      36.893836    
   3200000   0.43064792    -7.9408288     -7.2948662      2.6283628      50218.233      36.893836      36.893836      36.893836    
   3300000   0.43244783    -7.9403201     -7.2916575      2.6368703      50218.233      36.893836      36.893836      36.893836    
   3400000   0.43111829    -7.9412743     -7.2946061      2.6289197      50218.233      36.893836      36.893836      36.893836    
   3500000   0.42980598    -7.9392921     -7.2945923      2.6403306      50218.233      36.893836      36.893836      36.893836    
   3600000   0.42975668    -7.9409418     -7.2963159      2.6264328      50218.233      36.893836      36.893836      36.893836    
   3700000   0.43189826    -7.9404027     -7.2925645      2.637602       50218.233      36.893836      36.893836      36.893836    
   3800000   0.42949076    -7.9404622     -7.2962352      2.6311394      50218.233      36.893836      36.893836      36.893836    
   3900000   0.43036574    -7.9413571     -7.2958177      2.6212053      50218.233      36.893836      36.893836      36.893836    
   4000000   0.4326642     -7.9451159     -7.2961289      2.6057922      50218.233      36.893836      36.893836      36.893836    
   4100000   0.43192585    -7.941126      -7.2932465      2.6325068      50218.233      36.893836      36.893836      36.893836    
   4200000   0.43121319    -7.9440624     -7.2972518      2.6024652      50218.233      36.893836      36.893836      36.893836    
   4300000   0.42995988    -7.9417044     -7.2967737      2.6219461      50218.233      36.893836      36.893836      36.893836    
   4400000   0.42984693    -7.943276      -7.2985148      2.6165202      50218.233      36.893836      36.893836      36.893836    
   4500000   0.43028417    -7.944189      -7.2987719      2.6140863      50218.233      36.893836      36.893836      36.893836    
   4600000   0.42786858    -7.9445634     -7.3027697      2.593004       50218.233      36.893836      36.893836      36.893836    
   4700000   0.42953581    -7.9456328     -7.3013383      2.6041339      50218.233      36.893836      36.893836      36.893836    
   4800000   0.428505      -7.9455128     -7.3027644      2.5781854      50218.233      36.893836      36.893836      36.893836    
   4900000   0.42865723    -7.9436006     -7.3006239      2.6028399      50218.233      36.893836      36.893836      36.893836    
   5000000   0.43037078    -7.9416403     -7.2960934      2.6203104      50218.233      36.893836      36.893836      36.893836    
   5100000   0.43052947    -7.9400572     -7.2942721      2.6298431      50218.233      36.893836      36.893836      36.893836    
   5200000   0.42877817    -7.9418818     -7.2987237      2.6194663      50218.233      36.893836      36.893836      36.893836    
   5300000   0.42727164    -7.9403454     -7.2994471      2.6258697      50218.233      36.893836      36.893836      36.893836    
   5400000   0.43067117    -7.9413501     -7.2953525      2.6247317      50218.233      36.893836      36.893836      36.893836    
   5500000   0.42911808    -7.943579      -7.2999111      2.6087144      50218.233      36.893836      36.893836      36.893836    
   5600000   0.43025008    -7.9415706     -7.2962047      2.624264       50218.233      36.893836      36.893836      36.893836    
   5700000   0.43148345    -7.939524      -7.2923081      2.633503       50218.233      36.893836      36.893836      36.893836    
   5800000   0.42829377    -7.9413032     -7.2988717      2.616872       50218.233      36.893836      36.893836      36.893836    
   5900000   0.43043802    -7.9450974     -7.2994495      2.6019538      50218.233      36.893836      36.893836      36.893836    
   6000000   0.43286544    -7.9448161     -7.2955272      2.6047479      50218.233      36.893836      36.893836      36.893836    
   6100000   0.42878923    -7.9384512     -7.2952765      2.637979       50218.233      36.893836      36.893836      36.893836    
   6200000   0.43105965    -7.9412218     -7.2946415      2.6245955      50218.233      36.893836      36.893836      36.893836    
   6300000   0.42934692    -7.9426506     -7.2986394      2.6209428      50218.233      36.893836      36.893836      36.893836    
   6400000   0.42948263    -7.9389066     -7.2946918      2.6339404      50218.233      36.893836      36.893836      36.893836    
   6500000   0.43023397    -7.9409988     -7.295657       2.6304727      50218.233      36.893836      36.893836      36.893836    
   6600000   0.4310671     -7.9433239     -7.2967325      2.6148405      50218.233      36.893836      36.893836      36.893836    
   6700000   0.42983815    -7.9416664     -7.2969184      2.6161837      50218.233      36.893836      36.893836      36.893836    
   6800000   0.42889415    -7.9406149     -7.2972829      2.6299184      50218.233      36.893836      36.893836      36.893836    
   6900000   0.43029762    -7.9483273     -7.30289        2.5714532      50218.233      36.893836      36.893836      36.893836    
   7000000   0.43106403    -7.9401434     -7.2935566      2.623235       50218.233      36.893836      36.893836      36.893836    
   7100000   0.42955768    -7.9429482     -7.2986209      2.6137349      50218.233      36.893836      36.893836      36.893836    
   7200000   0.43040994    -7.9395024     -7.2938967      2.6376425      50218.233      36.893836      36.893836      36.893836    
   7300000   0.43012914    -7.940531      -7.2953464      2.6350563      50218.233      36.893836      36.893836      36.893836    
   7400000   0.42752856    -7.9451012     -7.3038175      2.5968715      50218.233      36.893836      36.893836      36.893836    
   7500000   0.43031868    -7.9411803     -7.2957115      2.6198994      50218.233      36.893836      36.893836      36.893836    
   7600000   0.43075083    -7.9414174     -7.2953004      2.6285208      50218.233      36.893836      36.893836      36.893836    
   7700000   0.43089677    -7.9406102     -7.2942742      2.6352804      50218.233      36.893836      36.893836      36.893836    
   7800000   0.43182464    -7.9422359     -7.2945081      2.6219032      50218.233      36.893836      36.893836      36.893836    
   7900000   0.42842193    -7.9435451     -7.3009214      2.607815       50218.233      36.893836      36.893836      36.893836    
   8000000   0.43233235    -7.9426076     -7.2941183      2.613705       50218.233      36.893836      36.893836      36.893836    
   8100000   0.42899093    -7.9415087     -7.2980314      2.6230448      50218.233      36.893836      36.893836      36.893836    
   8200000   0.42833519    -7.9443345     -7.3018408      2.6096989      50218.233      36.893836      36.893836      36.893836    
   8300000   0.42847815    -7.9422326     -7.2995245      2.6097752      50218.233      36.893836      36.893836      36.893836    
   8400000   0.43188859    -7.9440464     -7.2962228      2.6067288      50218.233      36.893836      36.893836      36.893836    
   8500000   0.43234058    -7.9431336     -7.2946319      2.6097308      50218.233      36.893836      36.893836      36.893836    
   8600000   0.43058911    -7.9422515     -7.296377       2.6182682      50218.233      36.893836      36.893836      36.893836    
   8700000   0.43087895    -7.9411231     -7.2948138      2.6250014      50218.233      36.893836      36.893836      36.893836    
   8800000   0.4318668     -7.9401616     -7.2923706      2.6287262      50218.233      36.893836      36.893836      36.893836    
   8900000   0.43003986    -7.9427666     -7.297716       2.6140906      50218.233      36.893836      36.893836      36.893836    
   9000000   0.4291362     -7.9451098     -7.3014146      2.5926436      50218.233      36.893836      36.893836      36.893836    
   9100000   0.43063145    -7.9438052     -7.2978672      2.5997578      50218.233      36.893836      36.893836      36.893836    
   9200000   0.43054232    -7.9432415     -7.2974372      2.6160365      50218.233      36.893836      36.893836      36.893836    
   9300000   0.4304981     -7.9455001     -7.2997621      2.5920239      50218.233      36.893836      36.893836      36.893836    
   9400000   0.43108425    -7.9469335     -7.3003164      2.5861418      50218.233      36.893836      36.893836      36.893836    
   9500000   0.42827159    -7.948042      -7.3056438      2.5651393      50218.233      36.893836      36.893836      36.893836    
   9600000   0.42899114    -7.942585      -7.2991074      2.6081262      50218.233      36.893836      36.893836      36.893836    
   9700000   0.42964171    -7.9439001     -7.2994467      2.6014672      50218.233      36.893836      36.893836      36.893836    
   9800000   0.42773002    -7.9420439     -7.300458       2.6140778      50218.233      36.893836      36.893836      36.893836    
   9900000   0.42839905    -7.9430633     -7.3004739      2.607447       50218.233      36.893836      36.893836      36.893836    
  10000000   0.43179237    -7.941857      -7.2941776      2.6203175      50218.233      36.893836      36.893836      36.893836    
  10100000   0.42817696    -7.9438724     -7.3016161      2.6050017      50218.233      36.893836      36.893836      36.893836    
  10200000   0.42872093    -7.9441785     -7.3011063      2.6082499      50218.233      36.893836      36.893836      36.893836    
  10300000   0.42839074    -7.9404237     -7.2978467      2.6307807      50218.233      36.893836      36.893836      36.893836    
  10400000   0.42957602    -7.943016      -7.2986612      2.5999122      50218.233      36.893836      36.893836      36.893836    
  10500000   0.43091278    -7.9446154     -7.2982554      2.5963169      50218.233      36.893836      36.893836      36.893836    
  10600000   0.42820122    -7.9435836     -7.3012909      2.607083       50218.233      36.893836      36.893836      36.893836    
  10700000   0.42851881    -7.9446639     -7.3018948      2.5963739      50218.233      36.893836      36.893836      36.893836    
  10800000   0.42833017    -7.9415286     -7.2990425      2.6192008      50218.233      36.893836      36.893836      36.893836    
  10900000   0.43116445    -7.9439466     -7.2972092      2.6046508      50218.233      36.893836      36.893836      36.893836    
  11000000   0.43149099    -7.9441146     -7.2968874      2.6116168      50218.233      36.893836      36.893836      36.893836    
  11100000   0.42896429    -7.9429637     -7.2995265      2.6142307      50218.233      36.893836      36.893836      36.893836    
  11200000   0.4289121     -7.9450081     -7.3016491      2.5908861      50218.233      36.893836      36.893836      36.893836    
  11300000   0.43009386    -7.9426817     -7.2975501      2.616266       50218.233      36.893836      36.893836      36.893836    
  11400000   0.42919249    -7.9422838     -7.2985042      2.6137156      50218.233      36.893836      36.893836      36.893836    
  11500000   0.42943454    -7.9427284     -7.2985857      2.6197983      50218.233      36.893836      36.893836      36.893836    
  11600000   0.42945604    -7.942939      -7.2987641      2.6156182      50218.233      36.893836      36.893836      36.893836    
  11700000   0.43261517    -7.9368653     -7.2879518      2.6694132      50218.233      36.893836      36.893836      36.893836    
  11800000   0.42586576    -7.9429828     -7.3041932      2.6030843      50218.233      36.893836      36.893836      36.893836    
  11900000   0.42888015    -7.9454444     -7.3021334      2.5935532      50218.233      36.893836      36.893836      36.893836    
  12000000   0.42783242    -7.9441433     -7.3024038      2.6037152      50218.233      36.893836      36.893836      36.893836    
  12100000   0.42924163    -7.9420296     -7.2981763      2.6108954      50218.233      36.893836      36.893836      36.893836    
  12200000   0.43051704    -7.9432952     -7.2975288      2.607144       50218.233      36.893836      36.893836      36.893836    
  12300000   0.42525357    -7.9432169     -7.3053456      2.6062747      50218.233      36.893836      36.893836      36.893836    
  12400000   0.42892384    -7.9450781     -7.3017015      2.5986353      50218.233      36.893836      36.893836      36.893836    
  12500000   0.43364281    -7.9434927     -7.2930378      2.6056646      50218.233      36.893836      36.893836      36.893836    
  12600000   0.43054304    -7.9430704     -7.297265       2.6215973      50218.233      36.893836      36.893836      36.893836    
  12700000   0.42843837    -7.9417202     -7.2990718      2.6175251      50218.233      36.893836      36.893836      36.893836    
  12800000   0.43008791    -7.9422649     -7.2971422      2.6116359      50218.233      36.893836      36.893836      36.893836    
  12900000   0.43050269    -7.9381541     -7.2924092      2.6478729      50218.233      36.893836      36.893836      36.893836    
  13000000   0.42800684    -7.9437601     -7.301759       2.5870246      50218.233      36.893836      36.893836      36.893836    
  13100000   0.42857113    -7.9391943     -7.2963467      2.6348424      50218.233      36.893836      36.893836      36.893836    
  13200000   0.43138869    -7.9416988     -7.294625       2.6188057      50218.233      36.893836      36.893836      36.893836    
  13300000   0.43082541    -7.9433592     -7.2971303      2.609301       50218.233      36.893836      36.893836      36.893836    
  13400000   0.42985228    -7.9434661     -7.2986969      2.6119811      50218.233      36.893836      36.893836      36.893836    
  13500000   0.43192308    -7.940532      -7.2926566      2.6333035      50218.233      36.893836      36.893836      36.893836    
  13600000   0.42944576    -7.9420645     -7.297905       2.6199504      50218.233      36.893836      36.893836      36.893836    
  13700000   0.42878793    -7.9416396     -7.2984668      2.6279884      50218.233      36.893836      36.893836      36.893836    
  13800000   0.43280849    -7.9419717     -7.2927682      2.6333963      50218.233      36.893836      36.893836      36.893836    
  13900000   0.43080434    -7.9439894     -7.2977921      2.6102673      50218.233      36.893836      36.893836      36.893836    
  14000000   0.42895199    -7.9422231     -7.2988043      2.6122355      50218.233      36.893836      36.893836      36.893836    
  14100000   0.4287146     -7.9422009     -7.2991381      2.6196781      50218.233      36.893836      36.893836      36.893836    
  14200000   0.42892156    -7.9420226     -7.2986494      2.6152977      50218.233      36.893836      36.893836      36.893836    
  14300000   0.43173603    -7.9436114     -7.2960166      2.6111065      50218.233      36.893836      36.893836      36.893836    
  14400000   0.43134085    -7.9385433     -7.2915413      2.6579881      50218.233      36.893836      36.893836      36.893836    
  14500000   0.43087664    -7.9456126     -7.2993069      2.5925772      50218.233      36.893836      36.893836      36.893836    
  14600000   0.43175283    -7.9448673     -7.2972472      2.5948591      50218.233      36.893836      36.893836      36.893836    
  14700000   0.42966943    -7.9427619     -7.298267       2.6166755      50218.233      36.893836      36.893836      36.893836    
  14800000   0.43188803    -7.9424181     -7.2945952      2.6205501      50218.233      36.893836      36.893836      36.893836    
  14900000   0.43011829    -7.9424212     -7.297253       2.620358       50218.233      36.893836      36.893836      36.893836    
  15000000   0.42883797    -7.9419532     -7.2987054      2.6203577      50218.233      36.893836      36.893836      36.893836    
  15100000   0.42782033    -7.940858      -7.2991367      2.6215126      50218.233      36.893836      36.893836      36.893836    
  15200000   0.43030866    -7.9444262     -7.2989724      2.6069008      50218.233      36.893836      36.893836      36.893836    
  15300000   0.43036992    -7.9406457     -7.2951         2.6252751      50218.233      36.893836      36.893836      36.893836    
  15400000   0.42858952    -7.9465811     -7.303706       2.5758443      50218.233      36.893836      36.893836      36.893836    
  15500000   0.42924149    -7.942901      -7.299048       2.613722       50218.233      36.893836      36.893836      36.893836    
  15600000   0.43091798    -7.9464445     -7.3000768      2.5897424      50218.233      36.893836      36.893836      36.893836    
  15700000   0.42748294    -7.9485877     -7.3073724      2.5618084      50218.233      36.893836      36.893836      36.893836    
  15800000   0.43052393    -7.9387078     -7.292931       2.6400899      50218.233      36.893836      36.893836      36.893836    
  15900000   0.42960343    -7.9442341     -7.2998382      2.5945229      50218.233      36.893836      36.893836      36.893836    
  16000000   0.43129854    -7.944116      -7.2971774      2.6020172      50218.233      36.893836      36.893836      36.893836    
  16100000   0.43106882    -7.9437809     -7.2971868      2.6001732      50218.233      36.893836      36.893836      36.893836    
  16200000   0.42978776    -7.9370951     -7.2924226      2.65391        50218.233      36.893836      36.893836      36.893836    
  16300000   0.43029771    -7.9410574     -7.29562        2.6288764      50218.233      36.893836      36.893836      36.893836    
  16400000   0.42905956    -7.9438731     -7.3002929      2.591888       50218.233      36.893836      36.893836      36.893836    
  16500000   0.430084      -7.943769      -7.2986522      2.6055695      50218.233      36.893836      36.893836      36.893836    
  16600000   0.43105108    -7.9436328     -7.2970654      2.6085747      50218.233      36.893836      36.893836      36.893836    
  16700000   0.43098885    -7.9412025     -7.2947284      2.6368397      50218.233      36.893836      36.893836      36.893836    
  16800000   0.43078195    -7.942646      -7.2964823      2.6143611      50218.233      36.893836      36.893836      36.893836    
  16900000   0.4298107     -7.9446373     -7.2999305      2.6002263      50218.233      36.893836      36.893836      36.893836    
  17000000   0.43005414    -7.9439584     -7.2988864      2.6064668      50218.233      36.893836      36.893836      36.893836    
  17100000   0.42765008    -7.9439036     -7.3024376      2.6079088      50218.233      36.893836      36.893836      36.893836    
  17200000   0.42924152    -7.9427476     -7.2988945      2.6117649      50218.233      36.893836      36.893836      36.893836    
  17300000   0.43036757    -7.9453385     -7.2997963      2.5876462      50218.233      36.893836      36.893836      36.893836    
  17400000   0.43183086    -7.939391      -7.2916539      2.6456827      50218.233      36.893836      36.893836      36.893836    
  17500000   0.43045703    -7.9425979     -7.2969216      2.6132265      50218.233      36.893836      36.893836      36.893836    
  17600000   0.4302625     -7.9402414     -7.2948568      2.6495541      50218.233      36.893836      36.893836      36.893836    
  17700000   0.43008025    -7.9392632     -7.294152       2.6385138      50218.233      36.893836      36.893836      36.893836    
  17800000   0.42967052    -7.9430438     -7.2985472      2.599459       50218.233      36.893836      36.893836      36.893836    
  17900000   0.43053517    -7.9405425     -7.2947489      2.6273662      50218.233      36.893836      36.893836      36.893836    
  18000000   0.43077661    -7.9443724     -7.2982166      2.6002169      50218.233      36.893836      36.893836      36.893836    
  18100000   0.42702759    -7.9417276     -7.3011953      2.6189162      50218.233      36.893836      36.893836      36.893836    
  18200000   0.43041191    -7.9395623     -7.2939536      2.6442134      50218.233      36.893836      36.893836      36.893836    
  18300000   0.42859954    -7.9452267     -7.3023365      2.5954296      50218.233      36.893836      36.893836      36.893836    
  18400000   0.43249937    -7.9468368     -7.298097       2.5911686      50218.233      36.893836      36.893836      36.893836    
  18500000   0.43088564    -7.9472104     -7.3008911      2.5832683      50218.233      36.893836      36.893836      36.893836    
  18600000   0.42794332    -7.944515      -7.3026091      2.5982392      50218.233      36.893836      36.893836      36.893836    
  18700000   0.42973182    -7.943978      -7.2993895      2.6079257      50218.233      36.893836      36.893836      36.893836    
  18800000   0.42999913    -7.9433954     -7.2984059      2.6151299      50218.233      36.893836      36.893836      36.893836    
  18900000   0.43004698    -7.9425608     -7.2974995      2.611339       50218.233      36.893836      36.893836      36.893836    
  19000000   0.42910945    -7.9431335     -7.2994785      2.6108421      50218.233      36.893836      36.893836      36.893836    
  19100000   0.43172465    -7.9448408     -7.2972631      2.6033875      50218.233      36.893836      36.893836      36.893836    
  19200000   0.42972689    -7.9427467     -7.2981655      2.6067496      50218.233      36.893836      36.893836      36.893836    
  19300000   0.42991847    -7.9417105     -7.296842       2.6254134      50218.233      36.893836      36.893836      36.893836    
  19400000   0.42914755    -7.9449514     -7.3012393      2.6024779      50218.233      36.893836      36.893836      36.893836    
  19500000   0.43046266    -7.9452021     -7.2995173      2.5945391      50218.233      36.893836      36.893836      36.893836    
  19600000   0.43053293    -7.9433602     -7.29757        2.6047654      50218.233      36.893836      36.893836      36.893836    
  19700000   0.42942986    -7.9455856     -7.30145        2.6016069      50218.233      36.893836      36.893836      36.893836    
  19800000   0.42981942    -7.9429407     -7.2982208      2.6138839      50218.233      36.893836      36.893836      36.893836    
  19900000   0.4290961     -7.945035      -7.3014         2.6069794      50218.233      36.893836      36.893836      36.893836    
  20000000   0.43061729    -7.9442709     -7.2983542      2.6044739      50218.233      36.893836      36.893836      36.893836    
  20100000   0.43000213    -7.9439367     -7.2989427      2.6071418      50218.233      36.893836      36.893836      36.893836    
  20200000   0.4305449     -7.9408925     -7.2950843      2.6291409      50218.233      36.893836      36.893836      36.893836    
  20300000   0.43053186    -7.9435131     -7.2977245      2.6100645      50218.233      36.893836      36.893836      36.893836    
  20400000   0.43153546    -7.9441849     -7.2968909      2.6055702      50218.233      36.893836      36.893836      36.893836    
  20500000   0.42952032    -7.9441408     -7.2998695      2.6094151      50218.233      36.893836      36.893836      36.893836    
  20600000   0.43198625    -7.9458954     -7.2979253      2.5940822      50218.233      36.893836      36.893836      36.893836    
  20700000   0.43025205    -7.9427946     -7.2974257      2.6198828      50218.233      36.893836      36.893836      36.893836    
  20800000   0.43096932    -7.9460692     -7.2996245      2.5878582      50218.233      36.893836      36.893836      36.893836    
  20900000   0.42879092    -7.9447341     -7.3015568      2.5997698      50218.233      36.893836      36.893836      36.893836    
  21000000   0.42925136    -7.9418881     -7.2980202      2.6172984      50218.233      36.893836      36.893836      36.893836    
  21100000   0.42944638    -7.9420742     -7.2979138      2.6218442      50218.233      36.893836      36.893836      36.893836    
  21200000   0.43028685    -7.9470907     -7.3016697      2.5915448      50218.233      36.893836      36.893836      36.893836    
  21300000   0.43080689    -7.9450807     -7.2988796      2.6016611      50218.233      36.893836      36.893836      36.893836    
  21400000   0.43149328    -7.9416174     -7.2943867      2.620969       50218.233      36.893836      36.893836      36.893836    
  21500000   0.43267407    -7.942286      -7.2932841      2.6204474      50218.233      36.893836      36.893836      36.893836    
  21600000   0.42888751    -7.9408919     -7.2975698      2.6367839      50218.233      36.893836      36.893836      36.893836    
  21700000   0.43267046    -7.9436949     -7.2946984      2.6128951      50218.233      36.893836      36.893836      36.893836    
  21800000   0.42825418    -7.9452187     -7.3028466      2.5954446      50218.233      36.893836      36.893836      36.893836    
  21900000   0.43185794    -7.9437789     -7.2960012      2.6170706      50218.233      36.893836      36.893836      36.893836    
  22000000   0.43037558    -7.9447538     -7.2991996      2.5983413      50218.233      36.893836      36.893836      36.893836    
  22100000   0.43054532    -7.9457893     -7.2999805      2.5903877      50218.233      36.893836      36.893836      36.893836    
  22200000   0.43044254    -7.9445531     -7.2988985      2.6088457      50218.233      36.893836      36.893836      36.893836    
  22300000   0.43204767    -7.9431463     -7.295084       2.6119877      50218.233      36.893836      36.893836      36.893836    
  22400000   0.43009086    -7.9458272     -7.3007001      2.5825334      50218.233      36.893836      36.893836      36.893836    
  22500000   0.43046179    -7.943358      -7.2976745      2.6002118      50218.233      36.893836      36.893836      36.893836    
  22600000   0.42762268    -7.9386267     -7.2972018      2.6433404      50218.233      36.893836      36.893836      36.893836    
  22700000   0.43199748    -7.9432939     -7.2953069      2.6142657      50218.233      36.893836      36.893836      36.893836    
  22800000   0.43055928    -7.9400332     -7.2942035      2.6407734      50218.233      36.893836      36.893836      36.893836    
  22900000   0.42841012    -7.9392735     -7.2966674      2.6452887      50218.233      36.893836      36.893836      36.893836    
  23000000   0.42701823    -7.9433478     -7.3028296      2.5985843      50218.233      36.893836      36.893836      36.893836    
  23100000   0.42835418    -7.9412834     -7.2987612      2.6245548      50218.233      36.893836      36.893836      36.893836    
  23200000   0.43010219    -7.942081      -7.2969369      2.6257683      50218.233      36.893836      36.893836      36.893836    
  23300000   0.43039047    -7.9452258     -7.2996493      2.5962996      50218.233      36.893836      36.893836      36.893836    
  23400000   0.42942534    -7.9448346     -7.3007058      2.5990571      50218.233      36.893836      36.893836      36.893836    
  23500000   0.43156202    -7.9445536     -7.2972198      2.6048158      50218.233      36.893836      36.893836      36.893836    
  23600000   0.43086854    -7.9446869     -7.2983933      2.6032219      50218.233      36.893836      36.893836      36.893836    
  23700000   0.42977541    -7.9432009     -7.298547       2.6006267      50218.233      36.893836      36.893836      36.893836    
  23800000   0.42902238    -7.9399546     -7.2964302      2.6295084      50218.233      36.893836      36.893836      36.893836    
  23900000   0.43174667    -7.9443087     -7.2966979      2.6059861      50218.233      36.893836      36.893836      36.893836    
  24000000   0.42873347    -7.942306      -7.2992149      2.6157145      50218.233      36.893836      36.893836      36.893836    
  24100000   0.42975945    -7.9420569     -7.2974269      2.6207599      50218.233      36.893836      36.893836      36.893836    
  24200000   0.42965215    -7.9488134     -7.3043444      2.5685939      50218.233      36.893836      36.893836      36.893836    
  24300000   0.430212      -7.9449719     -7.2996631      2.6032494      50218.233      36.893836      36.893836      36.893836    
  24400000   0.43158668    -7.9455206     -7.2981498      2.5997475      50218.233      36.893836      36.893836      36.893836    
  24500000   0.43146085    -7.947047      -7.2998649      2.5880315      50218.233      36.893836      36.893836      36.893836    
  24600000   0.42947609    -7.9489938     -7.3047888      2.5558196      50218.233      36.893836      36.893836      36.893836    
  24700000   0.42784965    -7.9447257     -7.3029604      2.5962312      50218.233      36.893836      36.893836      36.893836    
  24800000   0.43184859    -7.9464961     -7.2987324      2.5875386      50218.233      36.893836      36.893836      36.893836    
  24900000   0.43000293    -7.9494985     -7.3045032      2.5630588      50218.233      36.893836      36.893836      36.893836    
  25000000   0.42954881    -7.9463873     -7.3020732      2.5934307      50218.233      36.893836      36.893836      36.893836    
  25100000   0.42878211    -7.9456228     -7.3024588      2.5970961      50218.233      36.893836      36.893836      36.893836    
  25200000   0.42937987    -7.942916      -7.2988553      2.6142939      50218.233      36.893836      36.893836      36.893836    
  25300000   0.43060145    -7.9480903     -7.3021973      2.5741005      50218.233      36.893836      36.893836      36.893836    
  25400000   0.42879644    -7.9461329     -7.3029474      2.5842049      50218.233      36.893836      36.893836      36.893836    
  25500000   0.42736531    -7.9437793     -7.3027405      2.6142438      50218.233      36.893836      36.893836      36.893836    
  25600000   0.42882277    -7.9442562     -7.3010312      2.6042123      50218.233      36.893836      36.893836      36.893836    
  25700000   0.43080068    -7.9424277     -7.2962358      2.6227109      50218.233      36.893836      36.893836      36.893836    
  25800000   0.43086707    -7.9440025     -7.297711       2.6071265      50218.233      36.893836      36.893836      36.893836    
  25900000   0.43012107    -7.9430864     -7.297914       2.6178001      50218.233      36.893836      36.893836      36.893836    
  26000000   0.43150394    -7.9449658     -7.2977191      2.6046006      50218.233      36.893836      36.893836      36.893836    
  26100000   0.43129139    -7.9422617     -7.2953339      2.6273922      50218.233      36.893836      36.893836      36.893836    
  26200000   0.42867271    -7.9451404     -7.3021405      2.5974649      50218.233      36.893836      36.893836      36.893836    
  26300000   0.4310387     -7.9470269     -7.3004781      2.5823203      50218.233      36.893836      36.893836      36.893836    
  26400000   0.4306854     -7.9467549     -7.300736       2.5904993      50218.233      36.893836      36.893836      36.893836    
  26500000   0.43117018    -7.9454243     -7.2986782      2.5921043      50218.233      36.893836      36.893836      36.893836    
  26600000   0.42954633    -7.9404879     -7.2961775      2.6319278      50218.233      36.893836      36.893836      36.893836    
  26700000   0.42951844    -7.9461958     -7.3019273      2.5864994      50218.233      36.893836      36.893836      36.893836    
  26800000   0.43170117    -7.9414058     -7.2938632      2.6320193      50218.233      36.893836      36.893836      36.893836    
  26900000   0.42942316    -7.9433402     -7.2992147      2.6061736      50218.233      36.893836      36.893836      36.893836    
  27000000   0.4297973     -7.9397131     -7.2950263      2.6312247      50218.233      36.893836      36.893836      36.893836    
  27100000   0.43066661    -7.9424425     -7.2964518      2.6185841      50218.233      36.893836      36.893836      36.893836    
  27200000   0.4288012     -7.9407639     -7.2975712      2.6277974      50218.233      36.893836      36.893836      36.893836    
  27300000   0.43022813    -7.942444      -7.2971109      2.6196076      50218.233      36.893836      36.893836      36.893836    
  27400000   0.42869061    -7.9443017     -7.3012749      2.6004707      50218.233      36.893836      36.893836      36.893836    
  27500000   0.42995023    -7.9449146     -7.2999984      2.599029       50218.233      36.893836      36.893836      36.893836    
  27600000   0.43182164    -7.9435759     -7.2958527      2.6029095      50218.233      36.893836      36.893836      36.893836    
  27700000   0.42912913    -7.9406425     -7.296958       2.6240282      50218.233      36.893836      36.893836      36.893836    
  27800000   0.42843982    -7.9422324     -7.2995819      2.6153931      50218.233      36.893836      36.893836      36.893836    
  27900000   0.42965964    -7.9441523     -7.299672       2.6181677      50218.233      36.893836      36.893836      36.893836    
  28000000   0.42915654    -7.94428       -7.3005544      2.6170164      50218.233      36.893836      36.893836      36.893836    
  28100000   0.4293053     -7.9428331     -7.2988843      2.6157707      50218.233      36.893836      36.893836      36.893836    
  28200000   0.4302596     -7.9446894     -7.2993092      2.6140425      50218.233      36.893836      36.893836      36.893836    
  28300000   0.42985785    -7.9436997     -7.2989221      2.6139434      50218.233      36.893836      36.893836      36.893836    
  28400000   0.43173871    -7.9474517     -7.2998529      2.5905151      50218.233      36.893836      36.893836      36.893836    
  28500000   0.43264981    -7.9433552     -7.2943897      2.6171749      50218.233      36.893836      36.893836      36.893836    
  28600000   0.43220778    -7.9464789     -7.2981765      2.5964658      50218.233      36.893836      36.893836      36.893836    
  28700000   0.43008271    -7.9440215     -7.2989066      2.6091759      50218.233      36.893836      36.893836      36.893836    
  28800000   0.43076436    -7.9453904     -7.2992531      2.5987472      50218.233      36.893836      36.893836      36.893836    
  28900000   0.42854817    -7.943405      -7.3005919      2.6024811      50218.233      36.893836      36.893836      36.893836    
  29000000   0.42986669    -7.9441805     -7.2993896      2.6094769      50218.233      36.893836      36.893836      36.893836    
  29100000   0.42777001    -7.9428599     -7.301214       2.6150913      50218.233      36.893836      36.893836      36.893836    
  29200000   0.4303983     -7.944167      -7.2985788      2.6099536      50218.233      36.893836      36.893836      36.893836    
  29300000   0.429374      -7.9432832     -7.2992313      2.620615       50218.233      36.893836      36.893836      36.893836    
  29400000   0.42859062    -7.9410447     -7.2981679      2.6371191      50218.233      36.893836      36.893836      36.893836    
  29500000   0.42993574    -7.9442872     -7.2993927      2.607489       50218.233      36.893836      36.893836      36.893836    
  29600000   0.42866872    -7.9464861     -7.3034922      2.5921402      50218.233      36.893836      36.893836      36.893836    
  29700000   0.42776722    -7.9468594     -7.3052177      2.5742815      50218.233      36.893836      36.893836      36.893836    
  29800000   0.42955836    -7.9445096     -7.3001812      2.604192       50218.233      36.893836      36.893836      36.893836    
  29900000   0.43001824    -7.9455905     -7.3005723      2.5927192      50218.233      36.893836      36.893836      36.893836    
  30000000   0.42897397    -7.9458937     -7.3024419      2.5970927      50218.233      36.893836      36.893836      36.893836    
  30100000   0.42887495    -7.9448038     -7.3015006      2.597755       50218.233      36.893836      36.893836      36.893836    
  30200000   0.43143145    -7.9460422     -7.2989042      2.5978387      50218.233      36.893836      36.893836      36.893836    
  30300000   0.42924691    -7.9467898     -7.3029285      2.5962915      50218.233      36.893836      36.893836      36.893836    
  30400000   0.43348237    -7.9455564     -7.2953421      2.60987        50218.233      36.893836      36.893836      36.893836    
  30500000   0.43102531    -7.9440387     -7.2975099      2.605931       50218.233      36.893836      36.893836      36.893836    
  30600000   0.42938613    -7.9400237     -7.2959536      2.6438557      50218.233      36.893836      36.893836      36.893836    
  30700000   0.42979509    -7.9432217     -7.2985382      2.6143799      50218.233      36.893836      36.893836      36.893836    
  30800000   0.43129903    -7.9472752     -7.3003359      2.5952685      50218.233      36.893836      36.893836      36.893836    
  30900000   0.42965624    -7.9444755     -7.3000003      2.5975435      50218.233      36.893836      36.893836      36.893836    
  31000000   0.43020116    -7.946749      -7.3014564      2.5920029      50218.233      36.893836      36.893836      36.893836    
  31100000   0.43222079    -7.9450381     -7.2967161      2.5976601      50218.233      36.893836      36.893836      36.893836    
  31200000   0.42781918    -7.9451242     -7.3034046      2.5969926      50218.233      36.893836      36.893836      36.893836    
  31300000   0.42955553    -7.9428011     -7.298477       2.6127778      50218.233      36.893836      36.893836      36.893836    
  31400000   0.43036314    -7.9407978     -7.2952622      2.6312613      50218.233      36.893836      36.893836      36.893836    
  31500000   0.42890789    -7.9423084     -7.2989557      2.617964       50218.233      36.893836      36.893836      36.893836    
  31600000   0.43095409    -7.9475991     -7.3011772      2.5867246      50218.233      36.893836      36.893836      36.893836    
  31700000   0.42982677    -7.943472      -7.298741       2.607669       50218.233      36.893836      36.893836      36.893836    
  31800000   0.42749378    -7.9452516     -7.30402        2.6002725      50218.233      36.893836      36.893836      36.893836    
  31900000   0.43019107    -7.9452116     -7.2999341      2.5960551      50218.233      36.893836      36.893836      36.893836    
  32000000   0.42908373    -7.9439621     -7.3003457      2.6084216      50218.233      36.893836      36.893836      36.893836    
  32100000   0.42955071    -7.944727      -7.3004101      2.6024571      50218.233      36.893836      36.893836      36.893836    
  32200000   0.42942453    -7.9475707     -7.3034431      2.5744706      50218.233      36.893836      36.893836      36.893836    
  32300000   0.42968308    -7.9444346     -7.2999192      2.6021614      50218.233      36.893836      36.893836      36.893836    
  32400000   0.42784752    -7.9471865     -7.3054244      2.58453        50218.233      36.893836      36.893836      36.893836    
  32500000   0.42921685    -7.947243      -7.3034269      2.5700498      50218.233      36.893836      36.893836      36.893836    
  32600000   0.43257612    -7.944012      -7.295157       2.6101989      50218.233      36.893836      36.893836      36.893836    
  32700000   0.4273123     -7.943069      -7.3021097      2.6177223      50218.233      36.893836      36.893836      36.893836    
  32800000   0.43053088    -7.9420865     -7.2962993      2.623132       50218.233      36.893836      36.893836      36.893836    
  32900000   0.43160581    -7.9452193     -7.2978198      2.5927459      50218.233      36.893836      36.893836      36.893836    
  33000000   0.42959202    -7.9439069     -7.299528       2.6083733      50218.233      36.893836      36.893836      36.893836    
  33100000   0.43146893    -7.9436824     -7.2964882      2.6148704      50218.233      36.893836      36.893836      36.893836    
  33200000   0.4297378     -7.9456345     -7.3010369      2.5963176      50218.233      36.893836      36.893836      36.893836    
  33300000   0.42896219    -7.9453006     -7.3018665      2.5888541      50218.233      36.893836      36.893836      36.893836    
  33400000   0.42938733    -7.9435386     -7.2994667      2.6095436      50218.233      36.893836      36.893836      36.893836    
  33500000   0.42907987    -7.9451377     -7.3015271      2.6121822      50218.233      36.893836      36.893836      36.893836    
  33600000   0.42930873    -7.9446867     -7.3007327      2.5918716      50218.233      36.893836      36.893836      36.893836    
  33700000   0.42807832    -7.943667      -7.3015586      2.6053789      50218.233      36.893836      36.893836      36.893836    
  33800000   0.42865597    -7.9459561     -7.3029812      2.6003785      50218.233      36.893836      36.893836      36.893836    
  33900000   0.42981821    -7.9494508     -7.3047327      2.5591325      50218.233      36.893836      36.893836      36.893836    
  34000000   0.43013872    -7.9457291     -7.3005301      2.606761       50218.233      36.893836      36.893836      36.893836    
  34100000   0.42710104    -7.9462054     -7.3055629      2.5782872      50218.233      36.893836      36.893836      36.893836    
  34200000   0.43064341    -7.9441795     -7.2982236      2.6164918      50218.233      36.893836      36.893836      36.893836    
  34300000   0.42774375    -7.9444765     -7.30287        2.6026163      50218.233      36.893836      36.893836      36.893836    
  34400000   0.43003279    -7.9460119     -7.3009719      2.5944992      50218.233      36.893836      36.893836      36.893836    
  34500000   0.43086595    -7.9471856     -7.3008958      2.5909333      50218.233      36.893836      36.893836      36.893836    
  34600000   0.43062705    -7.947724      -7.3017926      2.580539       50218.233      36.893836      36.893836      36.893836    
  34700000   0.42897921    -7.9459825     -7.3025228      2.5968887      50218.233      36.893836      36.893836      36.893836    
  34800000   0.42968639    -7.9462261     -7.3017057      2.5896919      50218.233      36.893836      36.893836      36.893836    
  34900000   0.43014148    -7.9496378     -7.3044348      2.5704429      50218.233      36.893836      36.893836      36.893836    
  35000000   0.43212714    -7.9464541     -7.2982726      2.5974723      50218.233      36.893836      36.893836      36.893836    
  35100000   0.43178266    -7.944501      -7.2968362      2.6053605      50218.233      36.893836      36.893836      36.893836    
  35200000   0.42868395    -7.9462646     -7.3032478      2.5865306      50218.233      36.893836      36.893836      36.893836    
  35300000   0.4292168     -7.9474681     -7.3036521      2.5856927      50218.233      36.893836      36.893836      36.893836    
  35400000   0.43120961    -7.941237      -7.2944318      2.6235492      50218.233      36.893836      36.893836      36.893836    
  35500000   0.4307619     -7.9438682     -7.2977346      2.6067842      50218.233      36.893836      36.893836      36.893836    
  35600000   0.4285108     -7.9454839     -7.3027269      2.5925537      50218.233      36.893836      36.893836      36.893836    
  35700000   0.42979019    -7.947405      -7.3027288      2.5940647      50218.233      36.893836      36.893836      36.893836    
  35800000   0.42975359    -7.9500047     -7.3053835      2.5550525      50218.233      36.893836      36.893836      36.893836    
  35900000   0.42913198    -7.9422394     -7.2985505      2.6251316      50218.233      36.893836      36.893836      36.893836    
  36000000   0.43145643    -7.946455      -7.2992796      2.5871833      50218.233      36.893836      36.893836      36.893836    
  36100000   0.42929594    -7.9432225     -7.2992877      2.609265       50218.233      36.893836      36.893836      36.893836    
  36200000   0.43169043    -7.9460699     -7.2985435      2.5928033      50218.233      36.893836      36.893836      36.893836    
  36300000   0.43052242    -7.9464693     -7.3006949      2.5862909      50218.233      36.893836      36.893836      36.893836    
  36400000   0.43181375    -7.9459488     -7.2982374      2.5967162      50218.233      36.893836      36.893836      36.893836    
  36500000   0.43023033    -7.9444735     -7.2991372      2.6084822      50218.233      36.893836      36.893836      36.893836    
  36600000   0.42951893    -7.948945      -7.3046758      2.557118       50218.233      36.893836      36.893836      36.893836    
  36700000   0.42987293    -7.9460743     -7.301274       2.5900865      50218.233      36.893836      36.893836      36.893836    
  36800000   0.42792424    -7.9468167     -7.3049394      2.5800042      50218.233      36.893836      36.893836      36.893836    
  36900000   0.43046002    -7.9453221     -7.2996412      2.5851036      50218.233      36.893836      36.893836      36.893836    
  37000000   0.4292766     -7.9460816     -7.3021758      2.5820734      50218.233      36.893836      36.893836      36.893836    
  37100000   0.43062165    -7.944649      -7.2987257      2.5898888      50218.233      36.893836      36.893836      36.893836    
  37200000   0.4282913     -7.9470833     -7.3046555      2.5800968      50218.233      36.893836      36.893836      36.893836    
  37300000   0.4303673     -7.9422926     -7.2967509      2.6110149      50218.233      36.893836      36.893836      36.893836    
  37400000   0.43010896    -7.9450439     -7.2998896      2.5981794      50218.233      36.893836      36.893836      36.893836    
  37500000   0.43056894    -7.9449466     -7.2991023      2.5850376      50218.233      36.893836      36.893836      36.893836    
  37600000   0.42951831    -7.948179      -7.3039107      2.5692238      50218.233      36.893836      36.893836      36.893836    
  37700000   0.4282414     -7.9404239     -7.2980709      2.6162458      50218.233      36.893836      36.893836      36.893836    
  37800000   0.43087562    -7.9461429     -7.2998386      2.5937565      50218.233      36.893836      36.893836      36.893836    
  37900000   0.43108751    -7.9451079     -7.2984858      2.6051927      50218.233      36.893836      36.893836      36.893836    
  38000000   0.43233643    -7.948288      -7.2997926      2.5776508      50218.233      36.893836      36.893836      36.893836    
  38100000   0.42902279    -7.9463248     -7.3027998      2.5926813      50218.233      36.893836      36.893836      36.893836    
  38200000   0.42993528    -7.9488038     -7.30391        2.5611011      50218.233      36.893836      36.893836      36.893836    
  38300000   0.42763498    -7.9455185     -7.3040752      2.5930395      50218.233      36.893836      36.893836      36.893836    
  38400000   0.43197963    -7.9472453     -7.2992851      2.5930025      50218.233      36.893836      36.893836      36.893836    
  38500000   0.42855186    -7.9452217     -7.3024031      2.5925019      50218.233      36.893836      36.893836      36.893836    
  38600000   0.43106399    -7.9487338     -7.3021471      2.575219       50218.233      36.893836      36.893836      36.893836    
  38700000   0.4318012     -7.9481506     -7.300458       2.5777052      50218.233      36.893836      36.893836      36.893836    
  38800000   0.43164246    -7.9442639     -7.2968094      2.6204796      50218.233      36.893836      36.893836      36.893836    
  38900000   0.42814716    -7.9494113     -7.3071997      2.56602        50218.233      36.893836      36.893836      36.893836    
  39000000   0.43063878    -7.9431929     -7.297244       2.6071474      50218.233      36.893836      36.893836      36.893836    
  39100000   0.42910703    -7.9472028     -7.3035514      2.5762398      50218.233      36.893836      36.893836      36.893836    
  39200000   0.43093984    -7.9469076     -7.300507       2.5826649      50218.233      36.893836      36.893836      36.893836    
  39300000   0.42909881    -7.9445137     -7.3008746      2.6057461      50218.233      36.893836      36.893836      36.893836    
  39400000   0.43143965    -7.9454343     -7.298284       2.5985955      50218.233      36.893836      36.893836      36.893836    
  39500000   0.42984664    -7.9445665     -7.2998057      2.5976009      50218.233      36.893836      36.893836      36.893836    
  39600000   0.43075502    -7.9467266     -7.3006032      2.5809561      50218.233      36.893836      36.893836      36.893836    
  39700000   0.42940326    -7.9476601     -7.3035644      2.5756211      50218.233      36.893836      36.893836      36.893836    
  39800000   0.43022202    -7.9455757     -7.3002519      2.5966435      50218.233      36.893836      36.893836      36.893836    
  39900000   0.43070672    -7.9443218     -7.2982709      2.5992044      50218.233      36.893836      36.893836      36.893836    
  40000000   0.42770197    -7.9474185     -7.3058747      2.5783454      50218.233      36.893836      36.893836      36.893836    
  40100000   0.43124863    -7.9468334     -7.2999697      2.5937682      50218.233      36.893836      36.893836      36.893836    
  40200000   0.43004853    -7.947704      -7.3026404      2.5745359      50218.233      36.893836      36.893836      36.893836    
  40300000   0.42829349    -7.9495234     -7.3070923      2.5627401      50218.233      36.893836      36.893836      36.893836    
  40400000   0.42963431    -7.9492988     -7.3048565      2.5594534      50218.233      36.893836      36.893836      36.893836    
  40500000   0.43035722    -7.9464077     -7.3008811      2.5984962      50218.233      36.893836      36.893836      36.893836    
  40600000   0.42930863    -7.9480304     -7.3040766      2.5891792      50218.233      36.893836      36.893836      36.893836    
  40700000   0.43224112    -7.9457588     -7.2974063      2.596974       50218.233      36.893836      36.893836      36.893836    
  40800000   0.42747903    -7.9452619     -7.3040524      2.5943437      50218.233      36.893836      36.893836      36.893836    
  40900000   0.42922441    -7.9484373     -7.3046098      2.5739796      50218.233      36.893836      36.893836      36.893836    
  41000000   0.42817769    -7.9496672     -7.3074098      2.5561004      50218.233      36.893836      36.893836      36.893836    
  41100000   0.42827504    -7.9440154     -7.301612       2.6117921      50218.233      36.893836      36.893836      36.893836    
  41200000   0.43310372    -7.9464192     -7.2967729      2.5903299      50218.233      36.893836      36.893836      36.893836    
  41300000   0.42812455    -7.9464155     -7.3042378      2.5803398      50218.233      36.893836      36.893836      36.893836    
  41400000   0.43093219    -7.9482995     -7.3019104      2.5777067      50218.233      36.893836      36.893836      36.893836    
  41500000   0.42856766    -7.9507521     -7.3079097      2.5516936      50218.233      36.893836      36.893836      36.893836    
  41600000   0.42915648    -7.9493086     -7.305583       2.5705461      50218.233      36.893836      36.893836      36.893836    
  41700000   0.43055843    -7.946799      -7.3009706      2.5859341      50218.233      36.893836      36.893836      36.893836    
  41800000   0.42720165    -7.9459316     -7.3051382      2.5903857      50218.233      36.893836      36.893836      36.893836    
  41900000   0.4282485     -7.9456001     -7.3032365      2.592714       50218.233      36.893836      36.893836      36.893836    
  42000000   0.43036322    -7.9472409     -7.3017053      2.5858014      50218.233      36.893836      36.893836      36.893836    
  42100000   0.42931805    -7.9442706     -7.3003027      2.6001564      50218.233      36.893836      36.893836      36.893836    
  42200000   0.43114131    -7.947173      -7.3004702      2.5839298      50218.233      36.893836      36.893836      36.893836    
  42300000   0.42916132    -7.9458403     -7.3021074      2.5956952      50218.233      36.893836      36.893836      36.893836    
  42400000   0.43136992    -7.9469563     -7.2999106      2.5811873      50218.233      36.893836      36.893836      36.893836    
  42500000   0.43094081    -7.947568      -7.301166       2.5869913      50218.233      36.893836      36.893836      36.893836    
  42600000   0.43171495    -7.9459815     -7.2984182      2.5992061      50218.233      36.893836      36.893836      36.893836    
  42700000   0.43005446    -7.9483916     -7.3033191      2.5770508      50218.233      36.893836      36.893836      36.893836    
  42800000   0.42854574    -7.9441405     -7.3013311      2.5952239      50218.233      36.893836      36.893836      36.893836    
  42900000   0.43142072    -7.9445279     -7.297406       2.6068665      50218.233      36.893836      36.893836      36.893836    
  43000000   0.43152239    -7.9437667     -7.2964924      2.6064435      50218.233      36.893836      36.893836      36.893836    
  43100000   0.42782277    -7.947088      -7.305363       2.5819557      50218.233      36.893836      36.893836      36.893836    
  43200000   0.42900446    -7.9460177     -7.3025201      2.5889964      50218.233      36.893836      36.893836      36.893836    
  43300000   0.42976771    -7.9506673     -7.3060249      2.5557593      50218.233      36.893836      36.893836      36.893836    
  43400000   0.42858727    -7.9462351     -7.3033633      2.5859947      50218.233      36.893836      36.893836      36.893836    
  43500000   0.43084478    -7.9476834     -7.3014254      2.5754304      50218.233      36.893836      36.893836      36.893836    
  43600000   0.43080849    -7.9489395     -7.3027359      2.5728782      50218.233      36.893836      36.893836      36.893836    
  43700000   0.43004436    -7.944714      -7.2996566      2.5885581      50218.233      36.893836      36.893836      36.893836    
  43800000   0.43224355    -7.9427109     -7.2943548      2.624255       50218.233      36.893836      36.893836      36.893836    
  43900000   0.42737261    -7.9472325     -7.3061827      2.5873517      50218.233      36.893836      36.893836      36.893836    
  44000000   0.43176713    -7.9460052     -7.2983637      2.5895647      50218.233      36.893836      36.893836      36.893836    
  44100000   0.42844583    -7.9468955     -7.3042359      2.5825137      50218.233      36.893836      36.893836      36.893836    
  44200000   0.43058959    -7.9470345     -7.3011593      2.5737218      50218.233      36.893836      36.893836      36.893836    
  44300000   0.43075088    -7.9464567     -7.3003396      2.5974786      50218.233      36.893836      36.893836      36.893836    
  44400000   0.43029107    -7.9463485     -7.3009211      2.585425       50218.233      36.893836      36.893836      36.893836    
  44500000   0.42919361    -7.9480649     -7.3042836      2.5677809      50218.233      36.893836      36.893836      36.893836    
  44600000   0.42923719    -7.9479451     -7.3040985      2.579464       50218.233      36.893836      36.893836      36.893836    
  44700000   0.43127072    -7.9484498     -7.301553       2.5623311      50218.233      36.893836      36.893836      36.893836    
  44800000   0.42976714    -7.9486655     -7.3040239      2.5670093      50218.233      36.893836      36.893836      36.893836    
  44900000   0.42850681    -7.9487897     -7.3060386      2.5646792      50218.233      36.893836      36.893836      36.893836    
  45000000   0.43019944    -7.9496792     -7.3043893      2.5587678      50218.233      36.893836      36.893836      36.893836    
  45100000   0.43022642    -7.9445561     -7.2992256      2.603146       50218.233      36.893836      36.893836      36.893836    
  45200000   0.42875017    -7.9483644     -7.3052483      2.578641       50218.233      36.893836      36.893836      36.893836    
  45300000   0.42945923    -7.944957      -7.3007773      2.6000579      50218.233      36.893836      36.893836      36.893836    
  45400000   0.43049495    -7.9468182     -7.3010849      2.5821585      50218.233      36.893836      36.893836      36.893836    
  45500000   0.42832186    -7.9471971     -7.3047234      2.5678098      50218.233      36.893836      36.893836      36.893836    
  45600000   0.43219514    -7.945271      -7.2969875      2.5998694      50218.233      36.893836      36.893836      36.893836    
  45700000   0.42895396    -7.9456936     -7.3022718      2.5961796      50218.233      36.893836      36.893836      36.893836    
  45800000   0.42961904    -7.9457691     -7.3013497      2.5987538      50218.233      36.893836      36.893836      36.893836    
  45900000   0.42932041    -7.9473845     -7.303413       2.5880174      50218.233      36.893836      36.893836      36.893836    
  46000000   0.42920633    -7.9418018     -7.2980015      2.6196456      50218.233      36.893836      36.893836      36.893836    
  46100000   0.42951506    -7.9485658     -7.3043023      2.5865274      50218.233      36.893836      36.893836      36.893836    
  46200000   0.43035835    -7.9466455     -7.3011172      2.5896387      50218.233      36.893836      36.893836      36.893836    
  46300000   0.42950919    -7.9487112     -7.3044566      2.5756541      50218.233      36.893836      36.893836      36.893836    
  46400000   0.42723946    -7.9491335     -7.3082835      2.5747693      50218.233      36.893836      36.893836      36.893836    
  46500000   0.43082464    -7.9450421     -7.2988144      2.6079265      50218.233      36.893836      36.893836      36.893836    
  46600000   0.43034005    -7.9477751     -7.3022742      2.5841841      50218.233      36.893836      36.893836      36.893836    
  46700000   0.42931046    -7.9470427     -7.3030862      2.5880443      50218.233      36.893836      36.893836      36.893836    
  46800000   0.43013322    -7.9459419     -7.3007513      2.5910398      50218.233      36.893836      36.893836      36.893836    
  46900000   0.42774774    -7.946593      -7.3049806      2.5822366      50218.233      36.893836      36.893836      36.893836    
  47000000   0.42699715    -7.9459028     -7.3054162      2.595216       50218.233      36.893836      36.893836      36.893836    
  47100000   0.43029636    -7.946641      -7.3012056      2.5928606      50218.233      36.893836      36.893836      36.893836    
  47200000   0.42943827    -7.9418314     -7.2976831      2.6224011      50218.233      36.893836      36.893836      36.893836    
  47300000   0.43087126    -7.945353      -7.2990553      2.5983197      50218.233      36.893836      36.893836      36.893836    
  47400000   0.42958409    -7.9452589     -7.3008919      2.6038259      50218.233      36.893836      36.893836      36.893836    
  47500000   0.42857829    -7.9460341     -7.3031758      2.5928505      50218.233      36.893836      36.893836      36.893836    
  47600000   0.43022798    -7.9470924     -7.3017596      2.581354       50218.233      36.893836      36.893836      36.893836    
  47700000   0.4286047     -7.9461593     -7.3032613      2.5793736      50218.233      36.893836      36.893836      36.893836    
  47800000   0.43165345    -7.9460142     -7.2985432      2.5972042      50218.233      36.893836      36.893836      36.893836    
  47900000   0.43163972    -7.9474037     -7.2999533      2.5889956      50218.233      36.893836      36.893836      36.893836    
  48000000   0.42682577    -7.9461643     -7.3059348      2.584065       50218.233      36.893836      36.893836      36.893836    
  48100000   0.42968867    -7.9442419     -7.2997181      2.5978313      50218.233      36.893836      36.893836      36.893836    
  48200000   0.43008233    -7.9478525     -7.3027382      2.5805443      50218.233      36.893836      36.893836      36.893836    
  48300000   0.4313785     -7.9483864     -7.3013279      2.5739604      50218.233      36.893836      36.893836      36.893836    
  48400000   0.42988235    -7.9472889     -7.3024745      2.5846219      50218.233      36.893836      36.893836      36.893836    
  48500000   0.4298525     -7.9485427     -7.3037731      2.5807297      50218.233      36.893836      36.893836      36.893836    
  48600000   0.42870057    -7.9457597     -7.302718       2.5847855      50218.233      36.893836      36.893836      36.893836    
  48700000   0.43139516    -7.9483781     -7.3012946      2.5843504      50218.233      36.893836      36.893836      36.893836    
  48800000   0.43256883    -7.9488758     -7.3000318      2.5844936      50218.233      36.893836      36.893836      36.893836    
  48900000   0.4278378     -7.94636       -7.3046124      2.5890007      50218.233      36.893836      36.893836      36.893836    
  49000000   0.42945063    -7.9458449     -7.3016781      2.5835449      50218.233      36.893836      36.893836      36.893836    
  49100000   0.42963894    -7.948143      -7.3036938      2.5775577      50218.233      36.893836      36.893836      36.893836    
  49200000   0.42968528    -7.9482275     -7.3037088      2.5762655      50218.233      36.893836      36.893836      36.893836    
  49300000   0.43042286    -7.950737      -7.3051119      2.5633194      50218.233      36.893836      36.893836      36.893836    
  49400000   0.4270086     -7.9453058     -7.304802       2.5980438      50218.233      36.893836      36.893836      36.893836    
  49500000   0.42951719    -7.9482912     -7.3040246      2.5694296      50218.233      36.893836      36.893836      36.893836    
  49600000   0.43047952    -7.9457909     -7.3000808      2.5989711      50218.233      36.893836      36.893836      36.893836    
  49700000   0.42979895    -7.9491655     -7.3044762      2.5711892      50218.233      36.893836      36.893836      36.893836    
  49800000   0.4309403     -7.9464345     -7.3000332      2.5935116      50218.233      36.893836      36.893836      36.893836    
  49900000   0.43073658    -7.947695      -7.3015993      2.5842355      50218.233      36.893836      36.893836      36.893836    
  50000000   0.42886721    -7.9493459     -7.3060543      2.5772731      50218.233      36.893836      36.893836      36.893836    
Loop time of 78128 on 5 procs for 50000000 steps with 70304 atoms

Performance: 552938.885 tau/day, 639.976 timesteps/s, 44.993 Matom-step/s
94.9% CPU use with 5 MPI tasks x 1 OpenMP threads

MPI task timing breakdown:
Section |  min time  |  avg time  |  max time  |%varavg| %total
---------------------------------------------------------------
Pair    | 28845      | 30896      | 32666      | 776.6 | 39.55
Neigh   | 252.81     | 278.49     | 305.73     | 116.1 |  0.36
Comm    | 11703      | 11819      | 11977      |  82.2 | 15.13
Output  | 0.091191   | 0.094311   | 0.099813   |   1.0 |  0.00
Modify  | 29279      | 31189      | 33314      | 807.7 | 39.92
Other   |            | 3945       |            |       |  5.05

Nlocal:        14060.8 ave       14118 max       14012 min
Histogram: 1 1 0 0 1 0 0 1 0 1
Nghost:        18764.6 ave       18811 max       18724 min
Histogram: 1 1 0 0 1 0 0 1 0 1
Neighs:              0 ave           0 max           0 min
Histogram: 5 0 0 0 0 0 0 0 0 0

Total # of neighbors = 0
Ave neighs/atom = 0
Neighbor list builds = 9938995
Dangerous builds = 0
clear
OMP_NUM_THREADS environment is not set. Defaulting to 1 thread. (src/comm.cpp:98)
  using 1 OpenMP thread(s) per MPI task
package gpu 0
jump dms410.lmp

variable T equal 410
# T = 1000* (temp in LJ unit)
variable f equal 100000
log log.${T}
log log.410
