variable TLJ equal (${T}/1000)
variable TLJ equal (380/1000)
variable NCyle equal 5
variable iStep equal (${f})
variable iStep equal (100000)
variable dumpStep equal (${f}*100)
variable dumpStep equal (100000*100)
variable runStep equal (${f}*100*${NCyle})
variable runStep equal (100000*100*${NCyle})
variable runStep equal (100000*100*5)

units       lj
atom_style  atomic
dimension 3
boundary     p p p
pair_style  lj/cut 2.5
read_data  ../data/T${T}.dat
read_data  ../data/T380.dat
Reading data file ...
  orthogonal box = (0.97250269 0.97250269 0.97250269) to (37.866338 37.866338 37.866338)
  1 by 1 by 5 MPI processor grid
  reading atoms ...
  70304 atoms
  reading velocities ...
  70304 velocities
  read_data CPU = 0.209 seconds
change_box all triclinic
Changing box ...
  triclinic box = (0.97250269 0.97250269 0.97250269) to (37.866338 37.866338 37.866338) with tilt (0 0 0)
mass 1 1
mass 2 1
pair_modify shift yes
pair_coeff  1 1 1 1
pair_coeff  1 2 1.5 0.8
pair_coeff  2 2 0.5 0.88


timestep 0.01
thermo ${iStep}
thermo 100000
reset_timestep 0
thermo_style custom step temp pe etotal press vol lx ly lz
fix             1 all nvt temp ${TLJ}  ${TLJ}  0.1
fix             1 all nvt temp 0.38  ${TLJ}  0.1
fix             1 all nvt temp 0.38  0.38  0.1
thermo_modify flush yes

fix dsf all deform 1 xy  wiggle 0.5  ${f}   units box
fix dsf all deform 1 xy  wiggle 0.5  100000   units box
fix ps1 all ave/time 1 1 ${iStep} c_thermo_press[1] c_thermo_press[2]  c_thermo_press[3] c_thermo_press[4]  c_thermo_press[5] c_thermo_press[6]  file  stress.${T}
fix ps1 all ave/time 1 1 100000 c_thermo_press[1] c_thermo_press[2]  c_thermo_press[3] c_thermo_press[4]  c_thermo_press[5] c_thermo_press[6]  file  stress.${T}
fix ps1 all ave/time 1 1 100000 c_thermo_press[1] c_thermo_press[2]  c_thermo_press[3] c_thermo_press[4]  c_thermo_press[5] c_thermo_press[6]  file  stress.380
dump            1 all custom ${dumpStep} dump.${T} id type x y z
dump            1 all custom 10000000 dump.${T} id type x y z
dump            1 all custom 10000000 dump.380 id type x y z
dump_modify 1 sort id
fix nodrift all momentum 1  linear 1 1 1
fix com_seed all recenter INIT INIT INIT shift all
run ${runStep}
run 50000000
Generated 0 of 1 mixed pair_coeff terms from geometric mixing rule
Per MPI rank memory allocation (min/avg/max) = 6.668 | 8.466 | 8.923 Mbytes
   Step          Temp          PotEng         TotEng         Press          Volume           Lx             Ly             Lz      
         0   0.37918496    -8.0295222     -7.4607528      1.9016522      50218.233      36.893836      36.893836      36.893836    
    100000   0.37950351    -8.0187643     -7.4495171      1.982616       50218.233      36.893836      36.893836      36.893836    
    200000   0.37952313    -8.0180683     -7.4487917      1.9939412      50218.233      36.893836      36.893836      36.893836    
    300000   0.38002234    -8.0184515     -7.448426       1.9881456      50218.233      36.893836      36.893836      36.893836    
    400000   0.38190693    -8.0191584     -7.4463062      1.9796603      50218.233      36.893836      36.893836      36.893836    
    500000   0.37727061    -8.0196825     -7.4537847      1.970303       50218.233      36.893836      36.893836      36.893836    
    600000   0.38032412    -8.0161009     -7.4456228      2.0050873      50218.233      36.893836      36.893836      36.893836    
    700000   0.37976709    -8.0181198     -7.4484773      1.9920074      50218.233      36.893836      36.893836      36.893836    
    800000   0.38018922    -8.017094      -7.4468182      2.0033236      50218.233      36.893836      36.893836      36.893836    
    900000   0.37990131    -8.0188925     -7.4490487      1.9737584      50218.233      36.893836      36.893836      36.893836    
   1000000   0.38131375    -8.0179669     -7.4460044      1.9939786      50218.233      36.893836      36.893836      36.893836    
   1100000   0.3802589     -8.018353      -7.4479728      1.9835521      50218.233      36.893836      36.893836      36.893836    
   1200000   0.3812107     -8.0172362     -7.4454283      1.997725       50218.233      36.893836      36.893836      36.893836    
   1300000   0.38040749    -8.0201811     -7.449578       1.970225       50218.233      36.893836      36.893836      36.893836    
   1400000   0.37821092    -8.0215239     -7.4542156      1.9656232      50218.233      36.893836      36.893836      36.893836    
   1500000   0.38250695    -8.0163799     -7.4426276      2.0020526      50218.233      36.893836      36.893836      36.893836    
   1600000   0.38052945    -8.0219324     -7.4511464      1.9583667      50218.233      36.893836      36.893836      36.893836    
   1700000   0.37924995    -8.0200646     -7.4511978      1.9792142      50218.233      36.893836      36.893836      36.893836    
   1800000   0.38040911    -8.015638      -7.4450324      2.0078444      50218.233      36.893836      36.893836      36.893836    
   1900000   0.38092843    -8.0188127     -7.4474281      1.9786005      50218.233      36.893836      36.893836      36.893836    
   2000000   0.38125573    -8.0183506     -7.4464752      1.9864267      50218.233      36.893836      36.893836      36.893836    
   2100000   0.3807612     -8.018941      -7.4478073      1.9839949      50218.233      36.893836      36.893836      36.893836    
   2200000   0.37825874    -8.0197573     -7.4523773      1.9746381      50218.233      36.893836      36.893836      36.893836    
   2300000   0.3813357     -8.019105      -7.4471096      1.9815301      50218.233      36.893836      36.893836      36.893836    
   2400000   0.38318027    -8.0200561     -7.4452939      1.9726284      50218.233      36.893836      36.893836      36.893836    
   2500000   0.38001572    -8.019861      -7.4498455      1.9778925      50218.233      36.893836      36.893836      36.893836    
   2600000   0.38151647    -8.014705      -7.4424385      2.0193795      50218.233      36.893836      36.893836      36.893836    
   2700000   0.38156528    -8.0173697     -7.4450299      1.9994899      50218.233      36.893836      36.893836      36.893836    
   2800000   0.37848574    -8.0177512     -7.4500306      1.9939004      50218.233      36.893836      36.893836      36.893836    
   2900000   0.37901368    -8.0208318     -7.4523193      1.9707795      50218.233      36.893836      36.893836      36.893836    
   3000000   0.37761785    -8.0196196     -7.4532009      1.9780758      50218.233      36.893836      36.893836      36.893836    
   3100000   0.38171552    -8.0169155     -7.4443504      2.0102436      50218.233      36.893836      36.893836      36.893836    
   3200000   0.37752284    -8.0186445     -7.4523683      1.9836084      50218.233      36.893836      36.893836      36.893836    
   3300000   0.37876773    -8.021317      -7.4531734      1.9666221      50218.233      36.893836      36.893836      36.893836    
   3400000   0.37990763    -8.0150951     -7.4452418      2.0067877      50218.233      36.893836      36.893836      36.893836    
   3500000   0.3800069     -8.0182956     -7.4482933      1.987185       50218.233      36.893836      36.893836      36.893836    
   3600000   0.38085476    -8.0195964     -7.4483224      1.981541       50218.233      36.893836      36.893836      36.893836    
   3700000   0.3802173     -8.0161428     -7.4458249      2.0151115      50218.233      36.893836      36.893836      36.893836    
   3800000   0.38123155    -8.0214497     -7.4496105      1.970236       50218.233      36.893836      36.893836      36.893836    
   3900000   0.37961607    -8.0196084     -7.4501924      1.9756305      50218.233      36.893836      36.893836      36.893836    
   4000000   0.37920803    -8.0152247     -7.4464208      2.0131093      50218.233      36.893836      36.893836      36.893836    
   4100000   0.37918873    -8.0173112     -7.4485362      1.9920522      50218.233      36.893836      36.893836      36.893836    
   4200000   0.38181491    -8.0171927     -7.4444785      2.0018921      50218.233      36.893836      36.893836      36.893836    
   4300000   0.38053862    -8.0193922     -7.4485924      1.9805108      50218.233      36.893836      36.893836      36.893836    
   4400000   0.37858757    -8.0204099     -7.4525366      1.9749209      50218.233      36.893836      36.893836      36.893836    
   4500000   0.38033762    -8.0206708     -7.4501724      1.9693038      50218.233      36.893836      36.893836      36.893836    
   4600000   0.37869234    -8.0176281     -7.4495977      1.9911982      50218.233      36.893836      36.893836      36.893836    
   4700000   0.37964043    -8.0186029     -7.4491503      1.9824202      50218.233      36.893836      36.893836      36.893836    
   4800000   0.38070043    -8.0225984     -7.4515558      1.9592172      50218.233      36.893836      36.893836      36.893836    
   4900000   0.38159642    -8.0191518     -7.4467653      1.9883278      50218.233      36.893836      36.893836      36.893836    
   5000000   0.37826543    -8.0204954     -7.4531054      1.9713646      50218.233      36.893836      36.893836      36.893836    
   5100000   0.38021127    -8.0152371     -7.4449283      2.0092443      50218.233      36.893836      36.893836      36.893836    
   5200000   0.38172487    -8.0206632     -7.448084       1.9754655      50218.233      36.893836      36.893836      36.893836    
   5300000   0.37928372    -8.0208185     -7.451901       1.9766879      50218.233      36.893836      36.893836      36.893836    
   5400000   0.37842738    -8.0187641     -7.4511311      1.9849135      50218.233      36.893836      36.893836      36.893836    
   5500000   0.38061021    -8.0202524     -7.4493452      1.9755543      50218.233      36.893836      36.893836      36.893836    
   5600000   0.37996902    -8.0181841     -7.4482387      1.9895891      50218.233      36.893836      36.893836      36.893836    
   5700000   0.37968135    -8.018056      -7.4485421      1.9854155      50218.233      36.893836      36.893836      36.893836    
   5800000   0.38250241    -8.0216216     -7.4478762      1.9607657      50218.233      36.893836      36.893836      36.893836    
   5900000   0.3797781     -8.0203451     -7.450686       1.9597738      50218.233      36.893836      36.893836      36.893836    
   6000000   0.37989491    -8.0212388     -7.4514046      1.9694634      50218.233      36.893836      36.893836      36.893836    
   6100000   0.37903634    -8.0205585     -7.4520121      1.978044       50218.233      36.893836      36.893836      36.893836    
   6200000   0.38031705    -8.0202033     -7.4497358      1.9744107      50218.233      36.893836      36.893836      36.893836    
   6300000   0.37779764    -8.020598      -7.4539096      1.9709685      50218.233      36.893836      36.893836      36.893836    
   6400000   0.38104978    -8.0169709     -7.4454044      1.9919628      50218.233      36.893836      36.893836      36.893836    
   6500000   0.37972131    -8.0186155     -7.4490417      1.9858453      50218.233      36.893836      36.893836      36.893836    
   6600000   0.3797703     -8.0190817     -7.4494344      1.9834716      50218.233      36.893836      36.893836      36.893836    
   6700000   0.37998554    -8.0197274     -7.4497572      1.9783278      50218.233      36.893836      36.893836      36.893836    
   6800000   0.37940143    -8.0200662     -7.4509722      1.9793078      50218.233      36.893836      36.893836      36.893836    
   6900000   0.37911337    -8.0205982     -7.4519362      1.9641631      50218.233      36.893836      36.893836      36.893836    
   7000000   0.37804913    -8.0175636     -7.450498       1.9873377      50218.233      36.893836      36.893836      36.893836    
   7100000   0.38149252    -8.0174553     -7.4452247      1.9980454      50218.233      36.893836      36.893836      36.893836    
   7200000   0.38098899    -8.0189199     -7.4474445      1.9818555      50218.233      36.893836      36.893836      36.893836    
   7300000   0.37954641    -8.0208569     -7.4515453      1.9596376      50218.233      36.893836      36.893836      36.893836    
   7400000   0.38119105    -8.0198827     -7.4481043      1.9711344      50218.233      36.893836      36.893836      36.893836    
   7500000   0.37858942    -8.0163073     -7.4484312      1.9985149      50218.233      36.893836      36.893836      36.893836    
   7600000   0.3799151     -8.0197032     -7.4498386      1.9750878      50218.233      36.893836      36.893836      36.893836    
   7700000   0.37932013    -8.0179541     -7.448982       1.9897853      50218.233      36.893836      36.893836      36.893836    
   7800000   0.37986908    -8.0184565     -7.4486609      1.9793675      50218.233      36.893836      36.893836      36.893836    
   7900000   0.3803735     -8.0178007     -7.4472485      1.9852363      50218.233      36.893836      36.893836      36.893836    
   8000000   0.38114095    -8.0164723     -7.444769       1.9968526      50218.233      36.893836      36.893836      36.893836    
   8100000   0.38188689    -8.0190366     -7.4462144      1.9928996      50218.233      36.893836      36.893836      36.893836    
   8200000   0.37754715    -8.0170048     -7.4506922      1.9914595      50218.233      36.893836      36.893836      36.893836    
   8300000   0.37931476    -8.0179343     -7.4489703      1.9793972      50218.233      36.893836      36.893836      36.893836    
   8400000   0.37837758    -8.0215523     -7.453994       1.9621332      50218.233      36.893836      36.893836      36.893836    
   8500000   0.38122275    -8.0203097     -7.4484837      1.9746015      50218.233      36.893836      36.893836      36.893836    
   8600000   0.37916809    -8.021604      -7.4528599      1.9533424      50218.233      36.893836      36.893836      36.893836    
   8700000   0.38081361    -8.0197509     -7.4485386      1.9703169      50218.233      36.893836      36.893836      36.893836    
   8800000   0.37972643    -8.0217972     -7.4522157      1.9719541      50218.233      36.893836      36.893836      36.893836    
   8900000   0.37937501    -8.0196208     -7.4505663      1.9788707      50218.233      36.893836      36.893836      36.893836    
   9000000   0.38082208    -8.0201403     -7.4489153      1.9677838      50218.233      36.893836      36.893836      36.893836    
   9100000   0.37981449    -8.0189711     -7.4492575      1.979655       50218.233      36.893836      36.893836      36.893836    
   9200000   0.37890663    -8.0203414     -7.4519895      1.9653098      50218.233      36.893836      36.893836      36.893836    
   9300000   0.38024466    -8.0180742     -7.4477153      1.9967649      50218.233      36.893836      36.893836      36.893836    
   9400000   0.37857172    -8.0177212     -7.4498717      1.9982854      50218.233      36.893836      36.893836      36.893836    
   9500000   0.38058009    -8.0201928     -7.4493308      1.9796863      50218.233      36.893836      36.893836      36.893836    
   9600000   0.37905664    -8.0200847     -7.4515079      1.9745943      50218.233      36.893836      36.893836      36.893836    
   9700000   0.38049282    -8.0209245     -7.4501934      1.9749693      50218.233      36.893836      36.893836      36.893836    
   9800000   0.38075802    -8.0200286     -7.4488997      1.974055       50218.233      36.893836      36.893836      36.893836    
   9900000   0.38069664    -8.0204409     -7.449404       1.9716917      50218.233      36.893836      36.893836      36.893836    
  10000000   0.38065381    -8.0185278     -7.4475552      1.9910334      50218.233      36.893836      36.893836      36.893836    
  10100000   0.37963185    -8.0176752     -7.4482355      1.9917132      50218.233      36.893836      36.893836      36.893836    
  10200000   0.37900056    -8.020278      -7.4517852      1.964215       50218.233      36.893836      36.893836      36.893836    
  10300000   0.37979135    -8.0211743     -7.4514954      1.9704853      50218.233      36.893836      36.893836      36.893836    
  10400000   0.37938475    -8.0229185     -7.4538495      1.9585925      50218.233      36.893836      36.893836      36.893836    
  10500000   0.38020447    -8.0186996     -7.448401       1.9903334      50218.233      36.893836      36.893836      36.893836    
  10600000   0.37998561    -8.0174928     -7.4475225      1.9896108      50218.233      36.893836      36.893836      36.893836    
  10700000   0.38047604    -8.0183753     -7.4476693      1.9918528      50218.233      36.893836      36.893836      36.893836    
  10800000   0.38014605    -8.0189218     -7.4487108      1.9769027      50218.233      36.893836      36.893836      36.893836    
  10900000   0.37741803    -8.0195086     -7.4533896      1.9638071      50218.233      36.893836      36.893836      36.893836    
  11000000   0.37911887    -8.0180788     -7.4494086      1.9952196      50218.233      36.893836      36.893836      36.893836    
  11100000   0.37859319    -8.0225179     -7.4546361      1.9565267      50218.233      36.893836      36.893836      36.893836    
  11200000   0.38099093    -8.0165342     -7.445056       2.0053926      50218.233      36.893836      36.893836      36.893836    
  11300000   0.38014224    -8.021489      -7.4512837      1.9632369      50218.233      36.893836      36.893836      36.893836    
  11400000   0.3806758     -8.0200742     -7.4490687      1.9762466      50218.233      36.893836      36.893836      36.893836    
  11500000   0.38196553    -8.0226789     -7.4497387      1.9496527      50218.233      36.893836      36.893836      36.893836    
  11600000   0.38041709    -8.0179776     -7.4473601      1.9909788      50218.233      36.893836      36.893836      36.893836    
  11700000   0.37804233    -8.018131      -7.4510756      1.9819674      50218.233      36.893836      36.893836      36.893836    
  11800000   0.38164815    -8.019844      -7.4473799      1.9787642      50218.233      36.893836      36.893836      36.893836    
  11900000   0.37936374    -8.0180677     -7.4490302      1.9886954      50218.233      36.893836      36.893836      36.893836    
  12000000   0.3792654     -8.0171571     -7.4482671      2.0021607      50218.233      36.893836      36.893836      36.893836    
  12100000   0.37767696    -8.0178319     -7.4513245      1.9866376      50218.233      36.893836      36.893836      36.893836    
  12200000   0.38048983    -8.0186224     -7.4478958      1.9929088      50218.233      36.893836      36.893836      36.893836    
  12300000   0.37899781    -8.0200577     -7.451569       1.9753696      50218.233      36.893836      36.893836      36.893836    
  12400000   0.38004488    -8.0200077     -7.4499485      1.9811448      50218.233      36.893836      36.893836      36.893836    
  12500000   0.37997164    -8.0189948     -7.4490455      1.9886146      50218.233      36.893836      36.893836      36.893836    
  12600000   0.38182679    -8.0202663     -7.4475343      1.9753322      50218.233      36.893836      36.893836      36.893836    
  12700000   0.38057431    -8.0184444     -7.4475911      1.9918114      50218.233      36.893836      36.893836      36.893836    
  12800000   0.37953096    -8.0179168     -7.4486284      1.9841834      50218.233      36.893836      36.893836      36.893836    
  12900000   0.38123717    -8.0191707     -7.4473231      1.9868381      50218.233      36.893836      36.893836      36.893836    
  13000000   0.38037832    -8.0204921     -7.4499327      1.9764267      50218.233      36.893836      36.893836      36.893836    
  13100000   0.37864004    -8.0212669     -7.453315       1.9616846      50218.233      36.893836      36.893836      36.893836    
  13200000   0.38116828    -8.0217815     -7.4500372      1.9701351      50218.233      36.893836      36.893836      36.893836    
  13300000   0.37852266    -8.0204191     -7.4526431      1.9766275      50218.233      36.893836      36.893836      36.893836    
  13400000   0.38122791    -8.0191389     -7.4473051      1.9842022      50218.233      36.893836      36.893836      36.893836    
  13500000   0.38148296    -8.0210737     -7.4488574      1.9637445      50218.233      36.893836      36.893836      36.893836    
  13600000   0.38102332    -8.0183276     -7.4468008      1.9793155      50218.233      36.893836      36.893836      36.893836    
  13700000   0.38258415    -8.0176316     -7.4437635      1.9924756      50218.233      36.893836      36.893836      36.893836    
  13800000   0.38038002    -8.0204457     -7.4498838      1.9742529      50218.233      36.893836      36.893836      36.893836    
  13900000   0.37897304    -8.0256313     -7.4571799      1.9288491      50218.233      36.893836      36.893836      36.893836    
  14000000   0.3799367     -8.0172023     -7.4473054      1.993378       50218.233      36.893836      36.893836      36.893836    
  14100000   0.38014971    -8.019779      -7.4495626      1.9705173      50218.233      36.893836      36.893836      36.893836    
  14200000   0.38117878    -8.0190623     -7.4473023      1.9861965      50218.233      36.893836      36.893836      36.893836    
  14300000   0.37917063    -8.0213909     -7.452643       1.9581495      50218.233      36.893836      36.893836      36.893836    
  14400000   0.37838087    -8.0209208     -7.4533576      1.9603755      50218.233      36.893836      36.893836      36.893836    
  14500000   0.37795324    -8.0209097     -7.4539879      1.9669198      50218.233      36.893836      36.893836      36.893836    
  14600000   0.37964621    -8.0212501     -7.4517889      1.9606531      50218.233      36.893836      36.893836      36.893836    
  14700000   0.38186466    -8.0196539     -7.446865       1.9713743      50218.233      36.893836      36.893836      36.893836    
  14800000   0.38093527    -8.0220736     -7.4506788      1.9651009      50218.233      36.893836      36.893836      36.893836    
  14900000   0.37943104    -8.0217875     -7.4526491      1.9619334      50218.233      36.893836      36.893836      36.893836    
  15000000   0.37998689    -8.0206882     -7.450716       1.9713464      50218.233      36.893836      36.893836      36.893836    
  15100000   0.38110519    -8.0187879     -7.4471382      1.9887145      50218.233      36.893836      36.893836      36.893836    
  15200000   0.38073629    -8.0176201     -7.4465238      2.0031457      50218.233      36.893836      36.893836      36.893836    
  15300000   0.38015527    -8.0207531     -7.4505283      1.9712434      50218.233      36.893836      36.893836      36.893836    
  15400000   0.37983026    -8.0188953     -7.449158       1.9803734      50218.233      36.893836      36.893836      36.893836    
  15500000   0.38180421    -8.0236569     -7.4509587      1.9537549      50218.233      36.893836      36.893836      36.893836    
  15600000   0.38121472    -8.0207944     -7.4489805      1.9692208      50218.233      36.893836      36.893836      36.893836    
  15700000   0.38004714    -8.0180148     -7.4479522      1.987011       50218.233      36.893836      36.893836      36.893836    
  15800000   0.38016089    -8.0242862     -7.454053       1.9470416      50218.233      36.893836      36.893836      36.893836    
  15900000   0.37947228    -8.018772      -7.4495717      1.9801617      50218.233      36.893836      36.893836      36.893836    
  16000000   0.38317913    -8.0210941     -7.4463336      1.9743599      50218.233      36.893836      36.893836      36.893836    
  16100000   0.38077296    -8.0228035     -7.4516522      1.9516157      50218.233      36.893836      36.893836      36.893836    
  16200000   0.37986227    -8.0221873     -7.452402       1.9453239      50218.233      36.893836      36.893836      36.893836    
  16300000   0.37940713    -8.0206041     -7.4515015      1.9790212      50218.233      36.893836      36.893836      36.893836    
  16400000   0.37840231    -8.0190634     -7.451468       1.9729895      50218.233      36.893836      36.893836      36.893836    
  16500000   0.37999087    -8.0194609     -7.4494827      1.9762327      50218.233      36.893836      36.893836      36.893836    
  16600000   0.38132354    -8.0191869     -7.4472097      1.9869491      50218.233      36.893836      36.893836      36.893836    
  16700000   0.37750069    -8.0183073     -7.4520643      1.98965        50218.233      36.893836      36.893836      36.893836    
  16800000   0.37951342    -8.0209353     -7.4516733      1.9620978      50218.233      36.893836      36.893836      36.893836    
  16900000   0.38010923    -8.0175637     -7.447408       1.9885406      50218.233      36.893836      36.893836      36.893836    
  17000000   0.37889787    -8.0209338     -7.4525951      1.9584575      50218.233      36.893836      36.893836      36.893836    
  17100000   0.38142897    -8.0215714     -7.449436       1.9631039      50218.233      36.893836      36.893836      36.893836    
  17200000   0.3798686     -8.0203572     -7.4505624      1.9740575      50218.233      36.893836      36.893836      36.893836    
  17300000   0.37957444    -8.0198001     -7.4504465      1.9774068      50218.233      36.893836      36.893836      36.893836    
  17400000   0.38103467    -8.0166321     -7.4450883      2.0017769      50218.233      36.893836      36.893836      36.893836    
  17500000   0.3797778     -8.0166648     -7.4470062      2.008114       50218.233      36.893836      36.893836      36.893836    
  17600000   0.379627      -8.019508      -7.4500756      1.9717949      50218.233      36.893836      36.893836      36.893836    
  17700000   0.38061194    -8.019478      -7.4485682      1.9803106      50218.233      36.893836      36.893836      36.893836    
  17800000   0.38251941    -8.0189856     -7.4452147      1.9885443      50218.233      36.893836      36.893836      36.893836    
  17900000   0.38288256    -8.0184338     -7.4441181      1.9860899      50218.233      36.893836      36.893836      36.893836    
  18000000   0.3819778     -8.0210332     -7.4480746      1.9612912      50218.233      36.893836      36.893836      36.893836    
  18100000   0.38057811    -8.0210167     -7.4501576      1.9629748      50218.233      36.893836      36.893836      36.893836    
  18200000   0.37920782    -8.0170695     -7.4482659      1.9953251      50218.233      36.893836      36.893836      36.893836    
  18300000   0.37963186    -8.0200587     -7.450619       1.9778406      50218.233      36.893836      36.893836      36.893836    
  18400000   0.38136763    -8.0200344     -7.4479911      1.9683775      50218.233      36.893836      36.893836      36.893836    
  18500000   0.38042638    -8.0206848     -7.4500533      1.9693087      50218.233      36.893836      36.893836      36.893836    
  18600000   0.38132798    -8.0206696     -7.4486857      1.9767459      50218.233      36.893836      36.893836      36.893836    
  18700000   0.37989748    -8.0192198     -7.4493817      1.9757         50218.233      36.893836      36.893836      36.893836    
  18800000   0.38074621    -8.0175411     -7.4464299      1.9960677      50218.233      36.893836      36.893836      36.893836    
  18900000   0.38046872    -8.0176983     -7.4470034      1.9945382      50218.233      36.893836      36.893836      36.893836    
  19000000   0.38000116    -8.0214308     -7.4514371      1.9533087      50218.233      36.893836      36.893836      36.893836    
  19100000   0.38048509    -8.02148       -7.4507605      1.9587744      50218.233      36.893836      36.893836      36.893836    
  19200000   0.38117263    -8.023087      -7.4513362      1.9522444      50218.233      36.893836      36.893836      36.893836    
  19300000   0.3788929     -8.0224161     -7.4540848      1.9553659      50218.233      36.893836      36.893836      36.893836    
  19400000   0.37945798    -8.0219872     -7.4528083      1.9615542      50218.233      36.893836      36.893836      36.893836    
  19500000   0.38050255    -8.0199898     -7.4492441      1.9696594      50218.233      36.893836      36.893836      36.893836    
  19600000   0.3779067     -8.0188072     -7.4519552      1.9719558      50218.233      36.893836      36.893836      36.893836    
  19700000   0.38197388    -8.0180788     -7.4451261      1.9949002      50218.233      36.893836      36.893836      36.893836    
  19800000   0.38007566    -8.0187053     -7.4485999      1.9949401      50218.233      36.893836      36.893836      36.893836    
  19900000   0.37906769    -8.0203475     -7.4517541      1.9705888      50218.233      36.893836      36.893836      36.893836    
  20000000   0.37979543    -8.0188972     -7.4492122      1.9874685      50218.233      36.893836      36.893836      36.893836    
  20100000   0.37828109    -8.0214834     -7.4540698      1.9535045      50218.233      36.893836      36.893836      36.893836    
  20200000   0.38005554    -8.0187949     -7.4487197      1.9873096      50218.233      36.893836      36.893836      36.893836    
  20300000   0.37894415    -8.017947      -7.4495388      1.9897024      50218.233      36.893836      36.893836      36.893836    
  20400000   0.3805275     -8.0190906     -7.4483074      1.9880876      50218.233      36.893836      36.893836      36.893836    
  20500000   0.3791719     -8.0217515     -7.4530018      1.9644452      50218.233      36.893836      36.893836      36.893836    
  20600000   0.38098235    -8.0211886     -7.4497232      1.9666784      50218.233      36.893836      36.893836      36.893836    
  20700000   0.38111664    -8.0214181     -7.4497513      1.9704523      50218.233      36.893836      36.893836      36.893836    
  20800000   0.37964549    -8.019216      -7.4497558      1.9794712      50218.233      36.893836      36.893836      36.893836    
  20900000   0.38102476    -8.0210128     -7.4494838      1.977909       50218.233      36.893836      36.893836      36.893836    
  21000000   0.37980796    -8.0224096     -7.4527057      1.9556207      50218.233      36.893836      36.893836      36.893836    
  21100000   0.37942661    -8.0207058     -7.451574       1.9686464      50218.233      36.893836      36.893836      36.893836    
  21200000   0.37968714    -8.0210804     -7.4515578      1.9720797      50218.233      36.893836      36.893836      36.893836    
  21300000   0.37866975    -8.0181118     -7.4501153      1.984061       50218.233      36.893836      36.893836      36.893836    
  21400000   0.3805784     -8.0194425     -7.448583       1.9844397      50218.233      36.893836      36.893836      36.893836    
  21500000   0.37999688    -8.0211217     -7.4511344      1.9686481      50218.233      36.893836      36.893836      36.893836    
  21600000   0.37981998    -8.022005      -7.4522832      1.9656289      50218.233      36.893836      36.893836      36.893836    
  21700000   0.37987609    -8.0193371     -7.4495311      1.9769158      50218.233      36.893836      36.893836      36.893836    
  21800000   0.38034869    -8.0190792     -7.4485642      1.9807287      50218.233      36.893836      36.893836      36.893836    
  21900000   0.38050751    -8.0189167     -7.4481635      1.9838068      50218.233      36.893836      36.893836      36.893836    
  22000000   0.38002191    -8.0171822     -7.4471574      2.000824       50218.233      36.893836      36.893836      36.893836    
  22100000   0.38089854    -8.0162012     -7.4448616      2.0024548      50218.233      36.893836      36.893836      36.893836    
  22200000   0.38100832    -8.0153171     -7.4438127      2.0184007      50218.233      36.893836      36.893836      36.893836    
  22300000   0.38088536    -8.0169837     -7.4456638      2.0009292      50218.233      36.893836      36.893836      36.893836    
  22400000   0.3821056     -8.0202606     -7.4471104      1.984257       50218.233      36.893836      36.893836      36.893836    
  22500000   0.38036671    -8.0203259     -7.4497839      1.9772889      50218.233      36.893836      36.893836      36.893836    
  22600000   0.38189609    -8.0195232     -7.4466872      1.984055       50218.233      36.893836      36.893836      36.893836    
  22700000   0.38056225    -8.0219929     -7.4511576      1.9568867      50218.233      36.893836      36.893836      36.893836    
  22800000   0.38124697    -8.0185627     -7.4467004      1.9871233      50218.233      36.893836      36.893836      36.893836    
  22900000   0.37904662    -8.0180002     -7.4494384      1.9828377      50218.233      36.893836      36.893836      36.893836    
  23000000   0.38126762    -8.0232833     -7.45139        1.9602469      50218.233      36.893836      36.893836      36.893836    
  23100000   0.38104921    -8.0205371     -7.4489714      1.9661254      50218.233      36.893836      36.893836      36.893836    
  23200000   0.38059864    -8.0174678     -7.4465779      1.9911197      50218.233      36.893836      36.893836      36.893836    
  23300000   0.38149779    -8.0181298     -7.4458913      1.9930139      50218.233      36.893836      36.893836      36.893836    
  23400000   0.38174308    -8.0200916     -7.4474852      1.9788016      50218.233      36.893836      36.893836      36.893836    
  23500000   0.37966151    -8.0169497     -7.4474655      2.0018901      50218.233      36.893836      36.893836      36.893836    
  23600000   0.38102114    -8.0213188     -7.4497952      1.9691777      50218.233      36.893836      36.893836      36.893836    
  23700000   0.38078713    -8.0211376     -7.449965       1.9764091      50218.233      36.893836      36.893836      36.893836    
  23800000   0.3801424     -8.0224386     -7.4522331      1.9561915      50218.233      36.893836      36.893836      36.893836    
  23900000   0.37899972    -8.0209431     -7.4524516      1.9751912      50218.233      36.893836      36.893836      36.893836    
  24000000   0.37853441    -8.0191511     -7.4513576      1.9896047      50218.233      36.893836      36.893836      36.893836    
  24100000   0.38096048    -8.0203472     -7.4489146      1.9845904      50218.233      36.893836      36.893836      36.893836    
  24200000   0.37983934    -8.023779      -7.4540281      1.9465346      50218.233      36.893836      36.893836      36.893836    
  24300000   0.3825518     -8.0209046     -7.4470851      1.9731546      50218.233      36.893836      36.893836      36.893836    
  24400000   0.37976564    -8.022861      -7.4532207      1.9648427      50218.233      36.893836      36.893836      36.893836    
  24500000   0.38066127    -8.0191427     -7.4481589      1.981066       50218.233      36.893836      36.893836      36.893836    
  24600000   0.38037258    -8.0193035     -7.4487527      1.9825986      50218.233      36.893836      36.893836      36.893836    
  24700000   0.38080439    -8.0218722     -7.4506738      1.9672895      50218.233      36.893836      36.893836      36.893836    
  24800000   0.37894836    -8.019666      -7.4512516      1.9718238      50218.233      36.893836      36.893836      36.893836    
  24900000   0.37771476    -8.0209533     -7.4543893      1.9706894      50218.233      36.893836      36.893836      36.893836    
  25000000   0.37875259    -8.0180538     -7.449933       1.9870558      50218.233      36.893836      36.893836      36.893836    
  25100000   0.37900195    -8.0181579     -7.4496631      1.9860253      50218.233      36.893836      36.893836      36.893836    
  25200000   0.38142931    -8.0224037     -7.4502679      1.9679982      50218.233      36.893836      36.893836      36.893836    
  25300000   0.37832675    -8.0190869     -7.4516049      1.987374       50218.233      36.893836      36.893836      36.893836    
  25400000   0.38135508    -8.0259815     -7.453957       1.9377148      50218.233      36.893836      36.893836      36.893836    
  25500000   0.38168048    -8.019148      -7.4466354      1.9888062      50218.233      36.893836      36.893836      36.893836    
  25600000   0.3791526     -8.0232954     -7.4545745      1.9578263      50218.233      36.893836      36.893836      36.893836    
  25700000   0.38002856    -8.0236482     -7.4536135      1.9506161      50218.233      36.893836      36.893836      36.893836    
  25800000   0.37816313    -8.0187459     -7.4515093      1.9866873      50218.233      36.893836      36.893836      36.893836    
  25900000   0.38151421    -8.0200729     -7.4478097      1.9805924      50218.233      36.893836      36.893836      36.893836    
  26000000   0.38041115    -8.0205623     -7.4499537      1.9695988      50218.233      36.893836      36.893836      36.893836    
  26100000   0.37891976    -8.0202542     -7.4518826      1.9671626      50218.233      36.893836      36.893836      36.893836    
  26200000   0.38158718    -8.0198795     -7.4475069      1.9851887      50218.233      36.893836      36.893836      36.893836    
  26300000   0.3795302     -8.0190571     -7.4497699      1.9862134      50218.233      36.893836      36.893836      36.893836    
  26400000   0.37868524    -8.0200447     -7.4520249      1.9704345      50218.233      36.893836      36.893836      36.893836    
  26500000   0.3796738     -8.0199962     -7.4504936      1.9727319      50218.233      36.893836      36.893836      36.893836    
  26600000   0.38032195    -8.0189343     -7.4484595      1.9875471      50218.233      36.893836      36.893836      36.893836    
  26700000   0.37926514    -8.0175158     -7.4486262      1.991126       50218.233      36.893836      36.893836      36.893836    
  26800000   0.37966226    -8.0220839     -7.4525986      1.9668895      50218.233      36.893836      36.893836      36.893836    
  26900000   0.3798415     -8.0166083     -7.4468541      2.0087487      50218.233      36.893836      36.893836      36.893836    
  27000000   0.37970924    -8.019147      -7.4495912      1.9759167      50218.233      36.893836      36.893836      36.893836    
  27100000   0.37899263    -8.0209386     -7.4524577      1.9668436      50218.233      36.893836      36.893836      36.893836    
  27200000   0.38015638    -8.0191791     -7.4489527      1.9758715      50218.233      36.893836      36.893836      36.893836    
  27300000   0.38230557    -8.0217517     -7.4483015      1.9671258      50218.233      36.893836      36.893836      36.893836    
  27400000   0.38058141    -8.0209066     -7.4500426      1.9638406      50218.233      36.893836      36.893836      36.893836    
  27500000   0.37893729    -8.016594      -7.4481961      1.9973567      50218.233      36.893836      36.893836      36.893836    
  27600000   0.37993047    -8.0186644     -7.4487768      1.9926394      50218.233      36.893836      36.893836      36.893836    
  27700000   0.38121723    -8.0205488     -7.4487311      1.9677502      50218.233      36.893836      36.893836      36.893836    
  27800000   0.38262294    -8.0191133     -7.445187       1.9971105      50218.233      36.893836      36.893836      36.893836    
  27900000   0.37940689    -8.0201264     -7.4510242      1.980298       50218.233      36.893836      36.893836      36.893836    
  28000000   0.38053454    -8.0196976     -7.4489039      1.9763686      50218.233      36.893836      36.893836      36.893836    
  28100000   0.37852287    -8.0211167     -7.4533404      1.964308       50218.233      36.893836      36.893836      36.893836    
  28200000   0.37990397    -8.0224429     -7.4525951      1.9632988      50218.233      36.893836      36.893836      36.893836    
  28300000   0.38111411    -8.021495      -7.449832       1.9722207      50218.233      36.893836      36.893836      36.893836    
  28400000   0.38179584    -8.0196944     -7.4470088      1.9756112      50218.233      36.893836      36.893836      36.893836    
  28500000   0.38059559    -8.020489      -7.4496037      1.9779747      50218.233      36.893836      36.893836      36.893836    
  28600000   0.38101893    -8.0209292     -7.4494089      1.9753396      50218.233      36.893836      36.893836      36.893836    
  28700000   0.37984697    -8.0226584     -7.452896       1.951043       50218.233      36.893836      36.893836      36.893836    
  28800000   0.38158143    -8.0200529     -7.4476889      1.9859608      50218.233      36.893836      36.893836      36.893836    
  28900000   0.38004601    -8.020714      -7.4506531      1.9714108      50218.233      36.893836      36.893836      36.893836    
  29000000   0.38016678    -8.0212816     -7.4510395      1.9592031      50218.233      36.893836      36.893836      36.893836    
  29100000   0.38063684    -8.0206018     -7.4496547      1.971421       50218.233      36.893836      36.893836      36.893836    
  29200000   0.37845287    -8.0214563     -7.4537851      1.9719312      50218.233      36.893836      36.893836      36.893836    
  29300000   0.38080698    -8.0245147     -7.4533124      1.9489166      50218.233      36.893836      36.893836      36.893836    
  29400000   0.379476      -8.0232204     -7.4540145      1.9414765      50218.233      36.893836      36.893836      36.893836    
  29500000   0.37950994    -8.0219539     -7.4526971      1.9627298      50218.233      36.893836      36.893836      36.893836    
  29600000   0.38047547    -8.022554      -7.4518489      1.9623637      50218.233      36.893836      36.893836      36.893836    
  29700000   0.3787818     -8.0222731     -7.4541085      1.967706       50218.233      36.893836      36.893836      36.893836    
  29800000   0.38181475    -8.0240376     -7.4513236      1.9559104      50218.233      36.893836      36.893836      36.893836    
  29900000   0.38184641    -8.0200265     -7.4472651      1.9889834      50218.233      36.893836      36.893836      36.893836    
  30000000   0.38156219    -8.0248595     -7.4525244      1.9430936      50218.233      36.893836      36.893836      36.893836    
  30100000   0.37942358    -8.0218662     -7.4527389      1.9520154      50218.233      36.893836      36.893836      36.893836    
  30200000   0.38002732    -8.0235058     -7.4534729      1.9551395      50218.233      36.893836      36.893836      36.893836    
  30300000   0.37866864    -8.0186043     -7.4506094      1.9922916      50218.233      36.893836      36.893836      36.893836    
  30400000   0.37901281    -8.0218716     -7.4533605      1.949989       50218.233      36.893836      36.893836      36.893836    
  30500000   0.37976693    -8.0206497     -7.4510074      1.9785034      50218.233      36.893836      36.893836      36.893836    
  30600000   0.37905942    -8.0241622     -7.4555811      1.938688       50218.233      36.893836      36.893836      36.893836    
  30700000   0.38095965    -8.0212906     -7.4498592      1.9664952      50218.233      36.893836      36.893836      36.893836    
  30800000   0.38146305    -8.0213412     -7.4491547      1.9616057      50218.233      36.893836      36.893836      36.893836    
  30900000   0.37988915    -8.0185778     -7.4487522      1.9910502      50218.233      36.893836      36.893836      36.893836    
  31000000   0.37957075    -8.0213668     -7.4520188      1.9721352      50218.233      36.893836      36.893836      36.893836    
  31100000   0.37897902    -8.0184854     -7.4500249      1.9717915      50218.233      36.893836      36.893836      36.893836    
  31200000   0.38012873    -8.0211713     -7.4509863      1.9584494      50218.233      36.893836      36.893836      36.893836    
  31300000   0.37887334    -8.0199156     -7.4516136      1.979757       50218.233      36.893836      36.893836      36.893836    
  31400000   0.37848311    -8.0184469     -7.4507303      1.9841618      50218.233      36.893836      36.893836      36.893836    
  31500000   0.38100697    -8.0184474     -7.4469451      1.9888783      50218.233      36.893836      36.893836      36.893836    
  31600000   0.3790433     -8.019534      -7.4509771      1.9794795      50218.233      36.893836      36.893836      36.893836    
  31700000   0.37819304    -8.0185403     -7.4512588      1.9788127      50218.233      36.893836      36.893836      36.893836    
  31800000   0.37849974    -8.0200439     -7.4523024      1.9701822      50218.233      36.893836      36.893836      36.893836    
  31900000   0.38059483    -8.0214946     -7.4506105      1.964352       50218.233      36.893836      36.893836      36.893836    
  32000000   0.38193022    -8.01865       -7.4457628      1.9877722      50218.233      36.893836      36.893836      36.893836    
  32100000   0.37930663    -8.0192652     -7.4503133      1.9794006      50218.233      36.893836      36.893836      36.893836    
  32200000   0.38043922    -8.0204998     -7.4498491      1.9664237      50218.233      36.893836      36.893836      36.893836    
  32300000   0.38117789    -8.0174521     -7.4456934      1.9922946      50218.233      36.893836      36.893836      36.893836    
  32400000   0.38035226    -8.0195309     -7.4490107      1.9760968      50218.233      36.893836      36.893836      36.893836    
  32500000   0.38069017    -8.0222859     -7.4512587      1.9535878      50218.233      36.893836      36.893836      36.893836    
  32600000   0.37728525    -8.0204222     -7.4545024      1.9715843      50218.233      36.893836      36.893836      36.893836    
  32700000   0.37986123    -8.0198614     -7.4500776      1.980436       50218.233      36.893836      36.893836      36.893836    
  32800000   0.37901126    -8.0237055     -7.4551967      1.936141       50218.233      36.893836      36.893836      36.893836    
  32900000   0.38071344    -8.0197173     -7.4486553      1.9869201      50218.233      36.893836      36.893836      36.893836    
  33000000   0.37981995    -8.0221531     -7.4524313      1.953432       50218.233      36.893836      36.893836      36.893836    
  33100000   0.3807765     -8.0193099     -7.4481533      1.9824979      50218.233      36.893836      36.893836      36.893836    
  33200000   0.37982361    -8.0167505     -7.4470232      2.0032002      50218.233      36.893836      36.893836      36.893836    
  33300000   0.37939145    -8.0233624     -7.4542833      1.956137       50218.233      36.893836      36.893836      36.893836    
  33400000   0.3811439     -8.0208955     -7.4491878      1.9719646      50218.233      36.893836      36.893836      36.893836    
  33500000   0.37897891    -8.0186196     -7.4501593      1.9754938      50218.233      36.893836      36.893836      36.893836    
  33600000   0.37933137    -8.0220134     -7.4530244      1.9624662      50218.233      36.893836      36.893836      36.893836    
  33700000   0.37734991    -8.0185927     -7.4525759      1.9796091      50218.233      36.893836      36.893836      36.893836    
  33800000   0.38063013    -8.0182346     -7.4472975      1.9847156      50218.233      36.893836      36.893836      36.893836    
  33900000   0.38062806    -8.0211083     -7.4501744      1.9667965      50218.233      36.893836      36.893836      36.893836    
  34000000   0.37911519    -8.0191967     -7.450532       1.9829524      50218.233      36.893836      36.893836      36.893836    
  34100000   0.38091961    -8.0216739     -7.4503026      1.9593814      50218.233      36.893836      36.893836      36.893836    
  34200000   0.38043776    -8.0226939     -7.4520454      1.951547       50218.233      36.893836      36.893836      36.893836    
  34300000   0.37749734    -8.0209795     -7.4547416      1.9634954      50218.233      36.893836      36.893836      36.893836    
  34400000   0.37989787    -8.0214117     -7.451573       1.9697587      50218.233      36.893836      36.893836      36.893836    
  34500000   0.38104229    -8.0216288     -7.4500735      1.9653055      50218.233      36.893836      36.893836      36.893836    
  34600000   0.37998196    -8.0213063     -7.4513415      1.9623809      50218.233      36.893836      36.893836      36.893836    
  34700000   0.37877083    -8.0233388     -7.4551907      1.9500518      50218.233      36.893836      36.893836      36.893836    
  34800000   0.37922211    -8.0223301     -7.4535051      1.9606578      50218.233      36.893836      36.893836      36.893836    
  34900000   0.3802377     -8.0208433     -7.4504948      1.9705661      50218.233      36.893836      36.893836      36.893836    
  35000000   0.37927694    -8.0228748     -7.4539675      1.9519642      50218.233      36.893836      36.893836      36.893836    
  35100000   0.37875187    -8.0209089     -7.4527892      1.9748764      50218.233      36.893836      36.893836      36.893836    
  35200000   0.38024077    -8.0234779     -7.4531249      1.9519865      50218.233      36.893836      36.893836      36.893836    
  35300000   0.37986026    -8.0193158     -7.4495336      1.977589       50218.233      36.893836      36.893836      36.893836    
  35400000   0.37814226    -8.0231599     -7.4559546      1.9454638      50218.233      36.893836      36.893836      36.893836    
  35500000   0.38085968    -8.0221274     -7.450846       1.9620655      50218.233      36.893836      36.893836      36.893836    
  35600000   0.38075031    -8.0195618     -7.4484444      1.9773194      50218.233      36.893836      36.893836      36.893836    
  35700000   0.38026768    -8.0200467     -7.4496533      1.965689       50218.233      36.893836      36.893836      36.893836    
  35800000   0.37862804    -8.0196791     -7.4517452      1.9680498      50218.233      36.893836      36.893836      36.893836    
  35900000   0.38031859    -8.0215159     -7.4510461      1.9598292      50218.233      36.893836      36.893836      36.893836    
  36000000   0.37836857    -8.0210505     -7.4535057      1.9574506      50218.233      36.893836      36.893836      36.893836    
  36100000   0.38049305    -8.0182384     -7.447507       1.9791794      50218.233      36.893836      36.893836      36.893836    
  36200000   0.38003688    -8.0199275     -7.4498803      1.9620131      50218.233      36.893836      36.893836      36.893836    
  36300000   0.3790112     -8.0183633     -7.4498546      1.9912871      50218.233      36.893836      36.893836      36.893836    
  36400000   0.38100349    -8.0212317     -7.4497346      1.9624225      50218.233      36.893836      36.893836      36.893836    
  36500000   0.37963393    -8.0244318     -7.454989       1.9357372      50218.233      36.893836      36.893836      36.893836    
  36600000   0.38164171    -8.0186977     -7.4462433      1.9825213      50218.233      36.893836      36.893836      36.893836    
  36700000   0.37871568    -8.0215482     -7.4534828      1.9599628      50218.233      36.893836      36.893836      36.893836    
  36800000   0.38042998    -8.0227268     -7.4520899      1.9534492      50218.233      36.893836      36.893836      36.893836    
  36900000   0.37994918    -8.0214882     -7.4515725      1.9560062      50218.233      36.893836      36.893836      36.893836    
  37000000   0.38008727    -8.0202588     -7.450136       1.9688426      50218.233      36.893836      36.893836      36.893836    
  37100000   0.3800259     -8.0236691     -7.4536384      1.941531       50218.233      36.893836      36.893836      36.893836    
  37200000   0.38011026    -8.0193813     -7.449224       1.9795104      50218.233      36.893836      36.893836      36.893836    
  37300000   0.38049537    -8.0226861     -7.4519511      1.9677197      50218.233      36.893836      36.893836      36.893836    
  37400000   0.37835844    -8.0210399     -7.4535103      1.9615083      50218.233      36.893836      36.893836      36.893836    
  37500000   0.38204196    -8.0205613     -7.4475065      1.968322       50218.233      36.893836      36.893836      36.893836    
  37600000   0.3805487     -8.0201375     -7.4493226      1.9738676      50218.233      36.893836      36.893836      36.893836    
  37700000   0.38169109    -8.0201593     -7.4476308      1.9757813      50218.233      36.893836      36.893836      36.893836    
  37800000   0.3773983     -8.0241993     -7.4581099      1.9369498      50218.233      36.893836      36.893836      36.893836    
  37900000   0.37882803    -8.0197899     -7.4515559      1.9726997      50218.233      36.893836      36.893836      36.893836    
  38000000   0.37989377    -8.0203282     -7.4504956      1.9716458      50218.233      36.893836      36.893836      36.893836    
  38100000   0.38141754    -8.0217818     -7.4496637      1.9566652      50218.233      36.893836      36.893836      36.893836    
  38200000   0.38102406    -8.0186665     -7.4471385      1.9921936      50218.233      36.893836      36.893836      36.893836    
  38300000   0.37789533    -8.018633      -7.451798       1.9744148      50218.233      36.893836      36.893836      36.893836    
  38400000   0.38003825    -8.0205394     -7.4504901      1.9641196      50218.233      36.893836      36.893836      36.893836    
  38500000   0.38072865    -8.0207912     -7.4497064      1.9658059      50218.233      36.893836      36.893836      36.893836    
  38600000   0.38050596    -8.0212594     -7.4505086      1.9643786      50218.233      36.893836      36.893836      36.893836    
  38700000   0.38109549    -8.0194168     -7.4477817      1.971816       50218.233      36.893836      36.893836      36.893836    
  38800000   0.37954201    -8.0214909     -7.4521859      1.9648449      50218.233      36.893836      36.893836      36.893836    
  38900000   0.38135232    -8.0215251     -7.4495048      1.9656356      50218.233      36.893836      36.893836      36.893836    
  39000000   0.37799831    -8.0227868     -7.4557974      1.9555141      50218.233      36.893836      36.893836      36.893836    
  39100000   0.3808047     -8.0198148     -7.4486159      1.9766667      50218.233      36.893836      36.893836      36.893836    
  39200000   0.3822754     -8.0210911     -7.4476861      1.967519       50218.233      36.893836      36.893836      36.893836    
  39300000   0.38051343    -8.0207418     -7.4499798      1.9655667      50218.233      36.893836      36.893836      36.893836    
  39400000   0.3788882     -8.022246      -7.4539218      1.9503616      50218.233      36.893836      36.893836      36.893836    
  39500000   0.37956809    -8.0204515     -7.4511074      1.9683599      50218.233      36.893836      36.893836      36.893836    
  39600000   0.38085925    -8.0227512     -7.4514705      1.945166       50218.233      36.893836      36.893836      36.893836    
  39700000   0.37945991    -8.0203261     -7.4511443      1.9676328      50218.233      36.893836      36.893836      36.893836    
  39800000   0.38087527    -8.0226508     -7.451346       1.9423936      50218.233      36.893836      36.893836      36.893836    
  39900000   0.38064221    -8.0206496     -7.4496944      1.9712666      50218.233      36.893836      36.893836      36.893836    
  40000000   0.38013364    -8.0210258     -7.4508335      1.9641862      50218.233      36.893836      36.893836      36.893836    
  40100000   0.38185585    -8.0258614     -7.4530858      1.9262463      50218.233      36.893836      36.893836      36.893836    
  40200000   0.38064564    -8.0206375     -7.4496771      1.9686046      50218.233      36.893836      36.893836      36.893836    
  40300000   0.3796529     -8.0218706     -7.4523994      1.9611303      50218.233      36.893836      36.893836      36.893836    
  40400000   0.38024069    -8.0198545     -7.4495016      1.968445       50218.233      36.893836      36.893836      36.893836    
  40500000   0.37880234    -8.0225149     -7.4543195      1.9521222      50218.233      36.893836      36.893836      36.893836    
  40600000   0.38163596    -8.020732      -7.4482862      1.9623279      50218.233      36.893836      36.893836      36.893836    
  40700000   0.37985895    -8.0243086     -7.4545283      1.9390184      50218.233      36.893836      36.893836      36.893836    
  40800000   0.37930647    -8.0254885     -7.4565369      1.9339503      50218.233      36.893836      36.893836      36.893836    
  40900000   0.38006434    -8.021495      -7.4514066      1.9579878      50218.233      36.893836      36.893836      36.893836    
  41000000   0.37970662    -8.0235023     -7.4539505      1.9430413      50218.233      36.893836      36.893836      36.893836    
  41100000   0.38007546    -8.0201597     -7.4500546      1.969652       50218.233      36.893836      36.893836      36.893836    
  41200000   0.38043722    -8.0186533     -7.4480056      1.9827087      50218.233      36.893836      36.893836      36.893836    
  41300000   0.38011528    -8.0203209     -7.4501561      1.9819813      50218.233      36.893836      36.893836      36.893836    
  41400000   0.3790364     -8.0201044     -7.4515578      1.9776208      50218.233      36.893836      36.893836      36.893836    
  41500000   0.37910746    -8.0249517     -7.4562986      1.928719       50218.233      36.893836      36.893836      36.893836    
  41600000   0.38056061    -8.021118      -7.4502852      1.9662831      50218.233      36.893836      36.893836      36.893836    
  41700000   0.37894175    -8.0199282     -7.4515236      1.9702097      50218.233      36.893836      36.893836      36.893836    
  41800000   0.38032155    -8.0218425     -7.4513683      1.9551595      50218.233      36.893836      36.893836      36.893836    
  41900000   0.38145954    -8.0219241     -7.4497429      1.9561615      50218.233      36.893836      36.893836      36.893836    
  42000000   0.38016402    -8.016652      -7.4464141      1.9999018      50218.233      36.893836      36.893836      36.893836    
  42100000   0.38054374    -8.0219337     -7.4511262      1.9619147      50218.233      36.893836      36.893836      36.893836    
  42200000   0.38226401    -8.0160434     -7.4426555      1.9938499      50218.233      36.893836      36.893836      36.893836    
  42300000   0.38162235    -8.0174082     -7.4449828      1.9921417      50218.233      36.893836      36.893836      36.893836    
  42400000   0.37915736    -8.0213221     -7.4525942      1.9623426      50218.233      36.893836      36.893836      36.893836    
  42500000   0.37971439    -8.0226148     -7.4530513      1.9494351      50218.233      36.893836      36.893836      36.893836    
  42600000   0.38242705    -8.0216687     -7.4480363      1.9638795      50218.233      36.893836      36.893836      36.893836    
  42700000   0.37976756    -8.0235492     -7.453906       1.9492215      50218.233      36.893836      36.893836      36.893836    
  42800000   0.38085218    -8.0190116     -7.4477415      1.9824409      50218.233      36.893836      36.893836      36.893836    
  42900000   0.38163722    -8.0181028     -7.4456551      1.9796258      50218.233      36.893836      36.893836      36.893836    
  43000000   0.37983147    -8.0207431     -7.451004       1.9646466      50218.233      36.893836      36.893836      36.893836    
  43100000   0.38138923    -8.0155276     -7.4434519      2.0104565      50218.233      36.893836      36.893836      36.893836    
  43200000   0.38081311    -8.021842      -7.4506305      1.9685305      50218.233      36.893836      36.893836      36.893836    
  43300000   0.3806299     -8.015586      -7.4446493      2.0058066      50218.233      36.893836      36.893836      36.893836    
  43400000   0.37935787    -8.0232186     -7.4541899      1.9461943      50218.233      36.893836      36.893836      36.893836    
  43500000   0.37947077    -8.0178204     -7.4486223      1.9868773      50218.233      36.893836      36.893836      36.893836    
  43600000   0.38073754    -8.0195145     -7.4484163      1.9771115      50218.233      36.893836      36.893836      36.893836    
  43700000   0.37999678    -8.0236584     -7.4536714      1.9465129      50218.233      36.893836      36.893836      36.893836    
  43800000   0.38019598    -8.0221051     -7.4518193      1.9594586      50218.233      36.893836      36.893836      36.893836    
  43900000   0.38200704    -8.0202605     -7.4472581      1.9722112      50218.233      36.893836      36.893836      36.893836    
  44000000   0.38007248    -8.0211853     -7.4510847      1.9655725      50218.233      36.893836      36.893836      36.893836    
  44100000   0.3811991     -8.0247827     -7.4529922      1.9387235      50218.233      36.893836      36.893836      36.893836    
  44200000   0.37954168    -8.0200306     -7.4507262      1.9752833      50218.233      36.893836      36.893836      36.893836    
  44300000   0.37990748    -8.0209262     -7.4510731      1.9652633      50218.233      36.893836      36.893836      36.893836    
  44400000   0.38007613    -8.0238284     -7.4537223      1.9448808      50218.233      36.893836      36.893836      36.893836    
  44500000   0.38019604    -8.0194842     -7.4491983      1.9744227      50218.233      36.893836      36.893836      36.893836    
  44600000   0.38011349    -8.0221662     -7.4520041      1.9497129      50218.233      36.893836      36.893836      36.893836    
  44700000   0.38146242    -8.0223542     -7.4501688      1.9627094      50218.233      36.893836      36.893836      36.893836    
  44800000   0.37902645    -8.0205705     -7.4520389      1.9745987      50218.233      36.893836      36.893836      36.893836    
  44900000   0.38048743    -8.0203555     -7.4496325      1.9676476      50218.233      36.893836      36.893836      36.893836    
  45000000   0.38036732    -8.0203632     -7.4498203      1.9703217      50218.233      36.893836      36.893836      36.893836    
  45100000   0.3783144     -8.0212354     -7.4537719      1.9617068      50218.233      36.893836      36.893836      36.893836    
  45200000   0.38088836    -8.020921      -7.4495966      1.9715889      50218.233      36.893836      36.893836      36.893836    
  45300000   0.37822357    -8.022432      -7.4551047      1.9508346      50218.233      36.893836      36.893836      36.893836    
  45400000   0.38204882    -8.0219021     -7.448837       1.959877       50218.233      36.893836      36.893836      36.893836    
  45500000   0.37878401    -8.0208036     -7.4526356      1.9585495      50218.233      36.893836      36.893836      36.893836    
  45600000   0.37811587    -8.0213161     -7.4541504      1.9597774      50218.233      36.893836      36.893836      36.893836    
  45700000   0.3803463     -8.0205401     -7.4500288      1.9653311      50218.233      36.893836      36.893836      36.893836    
  45800000   0.38022813    -8.0194794     -7.4491453      1.9749981      50218.233      36.893836      36.893836      36.893836    
  45900000   0.38131962    -8.0177169     -7.4457456      1.998443       50218.233      36.893836      36.893836      36.893836    
  46000000   0.37845094    -8.0206655     -7.4529971      1.974507       50218.233      36.893836      36.893836      36.893836    
  46100000   0.3804865     -8.0203865     -7.4496648      1.965829       50218.233      36.893836      36.893836      36.893836    
  46200000   0.38132676    -8.01929       -7.447308       1.9745634      50218.233      36.893836      36.893836      36.893836    
  46300000   0.37828888    -8.0218423     -7.454417       1.9466427      50218.233      36.893836      36.893836      36.893836    
  46400000   0.37864228    -8.0205174     -7.4525621      1.9637095      50218.233      36.893836      36.893836      36.893836    
  46500000   0.3797879     -8.0205482     -7.4508745      1.976687       50218.233      36.893836      36.893836      36.893836    
  46600000   0.38128204    -8.019598      -7.4476831      1.9650666      50218.233      36.893836      36.893836      36.893836    
  46700000   0.38007036    -8.0209861     -7.4508887      1.969194       50218.233      36.893836      36.893836      36.893836    
  46800000   0.38075053    -8.020264      -7.4491463      1.9714917      50218.233      36.893836      36.893836      36.893836    
  46900000   0.38152631    -8.0225884     -7.4503071      1.956725       50218.233      36.893836      36.893836      36.893836    
  47000000   0.38050401    -8.0166702     -7.4459223      1.9970211      50218.233      36.893836      36.893836      36.893836    
  47100000   0.38052408    -8.0191373     -7.4483593      1.9854373      50218.233      36.893836      36.893836      36.893836    
  47200000   0.38106663    -8.0216233     -7.4500315      1.9658342      50218.233      36.893836      36.893836      36.893836    
  47300000   0.37934488    -8.0191783     -7.4501691      1.9735161      50218.233      36.893836      36.893836      36.893836    
  47400000   0.38045724    -8.019725      -7.4490473      1.9675283      50218.233      36.893836      36.893836      36.893836    
  47500000   0.38051674    -8.0179114     -7.4471444      1.9918437      50218.233      36.893836      36.893836      36.893836    
  47600000   0.37865616    -8.0195053     -7.4515291      1.9779491      50218.233      36.893836      36.893836      36.893836    
  47700000   0.37826032    -8.0217157     -7.4543332      1.9602237      50218.233      36.893836      36.893836      36.893836    
  47800000   0.38002429    -8.0174958     -7.4474675      1.9909616      50218.233      36.893836      36.893836      36.893836    
  47900000   0.38065661    -8.0192123     -7.4482355      1.9740561      50218.233      36.893836      36.893836      36.893836    
  48000000   0.3787473     -8.018779      -7.4506661      1.9867682      50218.233      36.893836      36.893836      36.893836    
  48100000   0.38107143    -8.017642      -7.446043       1.9884229      50218.233      36.893836      36.893836      36.893836    
  48200000   0.37923414    -8.0208572     -7.4520141      1.9665024      50218.233      36.893836      36.893836      36.893836    
  48300000   0.38032726    -8.0219973     -7.4515145      1.9579172      50218.233      36.893836      36.893836      36.893836    
  48400000   0.37933396    -8.0182852     -7.4492924      1.9800416      50218.233      36.893836      36.893836      36.893836    
  48500000   0.37896429    -8.0212176     -7.4527792      1.9563103      50218.233      36.893836      36.893836      36.893836    
  48600000   0.37954067    -8.0208008     -7.4514979      1.9653205      50218.233      36.893836      36.893836      36.893836    
  48700000   0.38037006    -8.0206195     -7.4500725      1.9719792      50218.233      36.893836      36.893836      36.893836    
  48800000   0.38065075    -8.0201561     -7.4491881      1.970937       50218.233      36.893836      36.893836      36.893836    
  48900000   0.37993658    -8.022741      -7.4528442      1.950438       50218.233      36.893836      36.893836      36.893836    
  49000000   0.37909332    -8.0195618     -7.4509299      1.9698919      50218.233      36.893836      36.893836      36.893836    
  49100000   0.38049144    -8.021893      -7.451164       1.9740922      50218.233      36.893836      36.893836      36.893836    
  49200000   0.37791487    -8.0201696     -7.4533054      1.9766949      50218.233      36.893836      36.893836      36.893836    
  49300000   0.38010102    -8.0211258     -7.4509823      1.956921       50218.233      36.893836      36.893836      36.893836    
  49400000   0.37944273    -8.0226838     -7.4535278      1.9562438      50218.233      36.893836      36.893836      36.893836    
  49500000   0.37872595    -8.0237693     -7.4556885      1.9432325      50218.233      36.893836      36.893836      36.893836    
  49600000   0.38056869    -8.0223308     -7.4514858      1.9624464      50218.233      36.893836      36.893836      36.893836    
  49700000   0.38055583    -8.0204372     -7.4496115      1.9638838      50218.233      36.893836      36.893836      36.893836    
  49800000   0.37970057    -8.0195118     -7.449969       1.9697157      50218.233      36.893836      36.893836      36.893836    
  49900000   0.3793158     -8.0210065     -7.4520409      1.9648297      50218.233      36.893836      36.893836      36.893836    
  50000000   0.37944469    -8.0214287     -7.4522697      1.9694458      50218.233      36.893836      36.893836      36.893836    
Loop time of 68496.8 on 5 procs for 50000000 steps with 70304 atoms

Performance: 630686.399 tau/day, 729.961 timesteps/s, 51.319 Matom-step/s
94.9% CPU use with 5 MPI tasks x 1 OpenMP threads

MPI task timing breakdown:
Section |  min time  |  avg time  |  max time  |%varavg| %total
---------------------------------------------------------------
Pair    | 18932      | 24520      | 30436      |2551.6 | 35.80
Neigh   | 201.2      | 216.55     | 235.59     |  86.5 |  0.32
Comm    | 10855      | 10916      | 10963      |  33.2 | 15.94
Output  | 0.089989   | 0.092869   | 0.09752    |   0.8 |  0.00
Modify  | 23435      | 29352      | 34995      |2329.5 | 42.85
Other   |            | 3492       |            |       |  5.10

Nlocal:        14060.8 ave       14099 max       14027 min
Histogram: 2 0 0 0 0 0 2 0 0 1
Nghost:        18750.8 ave       18809 max       18725 min
Histogram: 2 1 1 0 0 0 0 0 0 1
Neighs:              0 ave           0 max           0 min
Histogram: 5 0 0 0 0 0 0 0 0 0

Total # of neighbors = 0
Ave neighs/atom = 0
Neighbor list builds = 9158818
Dangerous builds = 0
clear
OMP_NUM_THREADS environment is not set. Defaulting to 1 thread. (src/comm.cpp:98)
  using 1 OpenMP thread(s) per MPI task
package gpu 0
jump dms360.lmp

variable T equal 360
# T = 1000* (temp in LJ unit)
variable f equal 100000
log log.${T}
log log.360
