variable TLJ equal (${T}/1000)
variable TLJ equal (530/1000)
variable NCyle equal 5
variable iStep equal (${f})
variable iStep equal (100000)
variable dumpStep equal (${f}*100)
variable dumpStep equal (100000*100)
variable runStep equal (${f}*100*${NCyle})
variable runStep equal (100000*100*${NCyle})
variable runStep equal (100000*100*5)

units       lj
atom_style  atomic
dimension 3
boundary     p p p
pair_style  lj/cut 2.5
read_data  ../data/T${T}.dat
read_data  ../data/T530.dat
Reading data file ...
  orthogonal box = (0.97250269 0.97250269 0.97250269) to (37.866338 37.866338 37.866338)
  1 by 1 by 5 MPI processor grid
  reading atoms ...
  70304 atoms
  reading velocities ...
  70304 velocities
  read_data CPU = 0.251 seconds
change_box all triclinic
Changing box ...
  triclinic box = (0.97250269 0.97250269 0.97250269) to (37.866338 37.866338 37.866338) with tilt (0 0 0)
mass 1 1
mass 2 1
pair_modify shift yes
pair_coeff  1 1 1 1
pair_coeff  1 2 1.5 0.8
pair_coeff  2 2 0.5 0.88


timestep 0.01
thermo ${iStep}
thermo 100000
reset_timestep 0
thermo_style custom step temp pe etotal press vol lx ly lz
fix             1 all nvt temp ${TLJ}  ${TLJ}  0.1
fix             1 all nvt temp 0.53  ${TLJ}  0.1
fix             1 all nvt temp 0.53  0.53  0.1
thermo_modify flush yes

fix dsf all deform 1 xy  wiggle 0.5  ${f}   units box
fix dsf all deform 1 xy  wiggle 0.5  100000   units box
fix ps1 all ave/time 1 1 ${iStep} c_thermo_press[1] c_thermo_press[2]  c_thermo_press[3] c_thermo_press[4]  c_thermo_press[5] c_thermo_press[6]  file  stress.${T}
fix ps1 all ave/time 1 1 100000 c_thermo_press[1] c_thermo_press[2]  c_thermo_press[3] c_thermo_press[4]  c_thermo_press[5] c_thermo_press[6]  file  stress.${T}
fix ps1 all ave/time 1 1 100000 c_thermo_press[1] c_thermo_press[2]  c_thermo_press[3] c_thermo_press[4]  c_thermo_press[5] c_thermo_press[6]  file  stress.530
dump            1 all custom ${dumpStep} dump.${T} id type x y z
dump            1 all custom 10000000 dump.${T} id type x y z
dump            1 all custom 10000000 dump.530 id type x y z
dump_modify 1 sort id
fix nodrift all momentum 1  linear 1 1 1
fix com_seed all recenter INIT INIT INIT shift all
run ${runStep}
run 50000000
Generated 0 of 1 mixed pair_coeff terms from geometric mixing rule
Per MPI rank memory allocation (min/avg/max) = 6.664 | 8.017 | 8.922 Mbytes
   Step          Temp          PotEng         TotEng         Press          Volume           Lx             Ly             Lz      
         0   0.53158081    -7.7646825     -6.9673226      4.0761466      50218.233      36.893836      36.893836      36.893836    
    100000   0.529392      -7.7500341     -6.9559574      4.1750029      50218.233      36.893836      36.893836      36.893836    
    200000   0.52816874    -7.7542053     -6.9619634      4.1574037      50218.233      36.893836      36.893836      36.893836    
    300000   0.53116707    -7.7548792     -6.9581399      4.145412       50218.233      36.893836      36.893836      36.893836    
    400000   0.52917463    -7.7494437     -6.955693       4.1835228      50218.233      36.893836      36.893836      36.893836    
    500000   0.52950965    -7.7444011     -6.9501479      4.2116265      50218.233      36.893836      36.893836      36.893836    
    600000   0.52952791    -7.7499395     -6.955659       4.1819408      50218.233      36.893836      36.893836      36.893836    
    700000   0.53048207    -7.752167      -6.9564553      4.1603218      50218.233      36.893836      36.893836      36.893836    
    800000   0.52757056    -7.7500272     -6.9586826      4.1796209      50218.233      36.893836      36.893836      36.893836    
    900000   0.5289672     -7.7457652     -6.9523257      4.211343       50218.233      36.893836      36.893836      36.893836    
   1000000   0.52770733    -7.746722      -6.9551723      4.2028285      50218.233      36.893836      36.893836      36.893836    
   1100000   0.52884753    -7.7508937     -6.9576337      4.1665788      50218.233      36.893836      36.893836      36.893836    
   1200000   0.53294123    -7.7489526     -6.9495521      4.1908252      50218.233      36.893836      36.893836      36.893836    
   1300000   0.53095322    -7.751354      -6.9549355      4.1716431      50218.233      36.893836      36.893836      36.893836    
   1400000   0.53111578    -7.7473245     -6.9506621      4.2009044      50218.233      36.893836      36.893836      36.893836    
   1500000   0.52806597    -7.7509672     -6.9588795      4.1648945      50218.233      36.893836      36.893836      36.893836    
   1600000   0.52981911    -7.7516312     -6.9569138      4.1655296      50218.233      36.893836      36.893836      36.893836    
   1700000   0.53048857    -7.7466411     -6.9509195      4.1934747      50218.233      36.893836      36.893836      36.893836    
   1800000   0.53041656    -7.7474233     -6.9518097      4.1897692      50218.233      36.893836      36.893836      36.893836    
   1900000   0.52983009    -7.7532577     -6.9585238      4.1670942      50218.233      36.893836      36.893836      36.893836    
   2000000   0.52965232    -7.7530581     -6.9585909      4.1753901      50218.233      36.893836      36.893836      36.893836    
   2100000   0.52877328    -7.743151      -6.9500024      4.2318328      50218.233      36.893836      36.893836      36.893836    
   2200000   0.52849957    -7.7467588     -6.9540207      4.2071892      50218.233      36.893836      36.893836      36.893836    
   2300000   0.53183434    -7.7504565     -6.9527163      4.1778313      50218.233      36.893836      36.893836      36.893836    
   2400000   0.52959535    -7.7530912     -6.9587095      4.1546565      50218.233      36.893836      36.893836      36.893836    
   2500000   0.52984765    -7.7464494     -6.9516892      4.1922975      50218.233      36.893836      36.893836      36.893836    
   2600000   0.5323757     -7.7450634     -6.9465112      4.219771       50218.233      36.893836      36.893836      36.893836    
   2700000   0.52994892    -7.7492857     -6.9543737      4.1905118      50218.233      36.893836      36.893836      36.893836    
   2800000   0.53021637    -7.7509552     -6.955642       4.1810493      50218.233      36.893836      36.893836      36.893836    
   2900000   0.53196797    -7.7472747     -6.9493341      4.1951061      50218.233      36.893836      36.893836      36.893836    
   3000000   0.53156726    -7.7550655     -6.9577259      4.1426341      50218.233      36.893836      36.893836      36.893836    
   3100000   0.52955115    -7.7568496     -6.9625342      4.1205802      50218.233      36.893836      36.893836      36.893836    
   3200000   0.52813933    -7.7570549     -6.9648572      4.1304163      50218.233      36.893836      36.893836      36.893836    
   3300000   0.5336185     -7.7550544     -6.9546381      4.1430503      50218.233      36.893836      36.893836      36.893836    
   3400000   0.52813848    -7.7532219     -6.9610254      4.1478671      50218.233      36.893836      36.893836      36.893836    
   3500000   0.52989993    -7.752865      -6.9580264      4.1622973      50218.233      36.893836      36.893836      36.893836    
   3600000   0.53222936    -7.7514078     -6.9530751      4.1655399      50218.233      36.893836      36.893836      36.893836    
   3700000   0.52823952    -7.7490397     -6.9566917      4.1827253      50218.233      36.893836      36.893836      36.893836    
   3800000   0.52849104    -7.748927      -6.9562017      4.1917845      50218.233      36.893836      36.893836      36.893836    
   3900000   0.52735651    -7.7552196     -6.9641961      4.1247962      50218.233      36.893836      36.893836      36.893836    
   4000000   0.52691078    -7.7498245     -6.9594696      4.1723796      50218.233      36.893836      36.893836      36.893836    
   4100000   0.53106092    -7.7539205     -6.9573405      4.1452446      50218.233      36.893836      36.893836      36.893836    
   4200000   0.52711226    -7.7493927     -6.9587356      4.1845294      50218.233      36.893836      36.893836      36.893836    
   4300000   0.53136838    -7.7548255     -6.9577843      4.1539436      50218.233      36.893836      36.893836      36.893836    
   4400000   0.53101326    -7.7497272     -6.9532187      4.1852895      50218.233      36.893836      36.893836      36.893836    
   4500000   0.53281623    -7.7486814     -6.9494684      4.2017704      50218.233      36.893836      36.893836      36.893836    
   4600000   0.52811295    -7.7473873     -6.9552292      4.195612       50218.233      36.893836      36.893836      36.893836    
   4700000   0.53221566    -7.7484576     -6.9501454      4.1937264      50218.233      36.893836      36.893836      36.893836    
   4800000   0.52958768    -7.747276      -6.9529057      4.2131958      50218.233      36.893836      36.893836      36.893836    
   4900000   0.5296493     -7.7460412     -6.9515786      4.2065714      50218.233      36.893836      36.893836      36.893836    
   5000000   0.53231983    -7.7484198     -6.9499514      4.19052        50218.233      36.893836      36.893836      36.893836    
   5100000   0.52925913    -7.7500382     -6.9561608      4.1842292      50218.233      36.893836      36.893836      36.893836    
   5200000   0.52653769    -7.7519339     -6.9621386      4.1568714      50218.233      36.893836      36.893836      36.893836    
   5300000   0.52917726    -7.7527973     -6.9590427      4.1556317      50218.233      36.893836      36.893836      36.893836    
   5400000   0.53053319    -7.7445898     -6.9488013      4.2071413      50218.233      36.893836      36.893836      36.893836    
   5500000   0.52780109    -7.7461576     -6.9544673      4.204573       50218.233      36.893836      36.893836      36.893836    
   5600000   0.5300989     -7.743296      -6.948159       4.220266       50218.233      36.893836      36.893836      36.893836    
   5700000   0.5282348     -7.7530481     -6.9607072      4.148409       50218.233      36.893836      36.893836      36.893836    
   5800000   0.52978092    -7.7476608     -6.9530007      4.191917       50218.233      36.893836      36.893836      36.893836    
   5900000   0.53043552    -7.7515886     -6.9559466      4.1630532      50218.233      36.893836      36.893836      36.893836    
   6000000   0.53016987    -7.7469184     -6.9516749      4.1943216      50218.233      36.893836      36.893836      36.893836    
   6100000   0.5294314     -7.747063      -6.9529272      4.1930364      50218.233      36.893836      36.893836      36.893836    
   6200000   0.5301943     -7.7458734     -6.9505932      4.2073017      50218.233      36.893836      36.893836      36.893836    
   6300000   0.52911058    -7.7528942     -6.9592396      4.1502389      50218.233      36.893836      36.893836      36.893836    
   6400000   0.53111282    -7.7501102     -6.9534523      4.1845539      50218.233      36.893836      36.893836      36.893836    
   6500000   0.52732455    -7.7510173     -6.9600417      4.1685477      50218.233      36.893836      36.893836      36.893836    
   6600000   0.52920981    -7.7514278     -6.9576244      4.1650953      50218.233      36.893836      36.893836      36.893836    
   6700000   0.53205697    -7.7479331     -6.949859       4.1917455      50218.233      36.893836      36.893836      36.893836    
   6800000   0.52954957    -7.753019      -6.958706       4.143532       50218.233      36.893836      36.893836      36.893836    
   6900000   0.5318036     -7.7501435     -6.9524494      4.1801768      50218.233      36.893836      36.893836      36.893836    
   7000000   0.52984534    -7.7472362     -6.9524795      4.1926321      50218.233      36.893836      36.893836      36.893836    
   7100000   0.53283463    -7.7475046     -6.948264       4.204757       50218.233      36.893836      36.893836      36.893836    
   7200000   0.53260813    -7.751828      -6.9529272      4.1760635      50218.233      36.893836      36.893836      36.893836    
   7300000   0.52968366    -7.7521086     -6.9575945      4.1485625      50218.233      36.893836      36.893836      36.893836    
   7400000   0.53005033    -7.7499169     -6.9548527      4.1657726      50218.233      36.893836      36.893836      36.893836    
   7500000   0.52963586    -7.7514823     -6.9570398      4.1646198      50218.233      36.893836      36.893836      36.893836    
   7600000   0.53073218    -7.7515769     -6.95549        4.1599992      50218.233      36.893836      36.893836      36.893836    
   7700000   0.53001751    -7.7487803     -6.9537654      4.1683245      50218.233      36.893836      36.893836      36.893836    
   7800000   0.53120836    -7.7449711     -6.9481699      4.2162014      50218.233      36.893836      36.893836      36.893836    
   7900000   0.53017584    -7.7526215     -6.957369       4.1572758      50218.233      36.893836      36.893836      36.893836    
   8000000   0.52906453    -7.752171      -6.9585855      4.1744403      50218.233      36.893836      36.893836      36.893836    
   8100000   0.53084159    -7.7524776     -6.9562266      4.1761047      50218.233      36.893836      36.893836      36.893836    
   8200000   0.5288941     -7.7550877     -6.9617578      4.1251326      50218.233      36.893836      36.893836      36.893836    
   8300000   0.53093367    -7.7499643     -6.9535752      4.1841059      50218.233      36.893836      36.893836      36.893836    
   8400000   0.52853749    -7.7467244     -6.9539294      4.1971265      50218.233      36.893836      36.893836      36.893836    
   8500000   0.5301105     -7.749789      -6.9546345      4.1714545      50218.233      36.893836      36.893836      36.893836    
   8600000   0.52972949    -7.751315      -6.9567321      4.1717618      50218.233      36.893836      36.893836      36.893836    
   8700000   0.52880654    -7.7493792     -6.9561807      4.1838912      50218.233      36.893836      36.893836      36.893836    
   8800000   0.53118954    -7.7494811     -6.9527081      4.1855501      50218.233      36.893836      36.893836      36.893836    
   8900000   0.52708732    -7.7453066     -6.9546869      4.205411       50218.233      36.893836      36.893836      36.893836    
   9000000   0.53114763    -7.7496642     -6.9529541      4.1970409      50218.233      36.893836      36.893836      36.893836    
   9100000   0.52934173    -7.753558      -6.9595567      4.1534227      50218.233      36.893836      36.893836      36.893836    
   9200000   0.52951347    -7.7498812     -6.9556223      4.1769552      50218.233      36.893836      36.893836      36.893836    
   9300000   0.52859485    -7.7489022     -6.9560212      4.1867932      50218.233      36.893836      36.893836      36.893836    
   9400000   0.52956439    -7.7479961     -6.9536608      4.191153       50218.233      36.893836      36.893836      36.893836    
   9500000   0.53046559    -7.7494831     -6.953796       4.1826064      50218.233      36.893836      36.893836      36.893836    
   9600000   0.53003703    -7.7495083     -6.9544641      4.1810781      50218.233      36.893836      36.893836      36.893836    
   9700000   0.52712891    -7.7559278     -6.9652456      4.1437116      50218.233      36.893836      36.893836      36.893836    
   9800000   0.52685868    -7.7498806     -6.9596038      4.1631331      50218.233      36.893836      36.893836      36.893836    
   9900000   0.53103033    -7.7465013     -6.9499671      4.1981688      50218.233      36.893836      36.893836      36.893836    
  10000000   0.53093936    -7.7554849     -6.9590872      4.1330845      50218.233      36.893836      36.893836      36.893836    
  10100000   0.53058919    -7.7561607     -6.9602882      4.1360179      50218.233      36.893836      36.893836      36.893836    
  10200000   0.53056948    -7.7510079     -6.955165       4.1715031      50218.233      36.893836      36.893836      36.893836    
  10300000   0.52572544    -7.756329      -6.9677521      4.1225525      50218.233      36.893836      36.893836      36.893836    
  10400000   0.52857589    -7.7436474     -6.9507948      4.2287163      50218.233      36.893836      36.893836      36.893836    
  10500000   0.53052517    -7.7496654     -6.9538889      4.1882006      50218.233      36.893836      36.893836      36.893836    
  10600000   0.52857746    -7.7505917     -6.9577368      4.1832004      50218.233      36.893836      36.893836      36.893836    
  10700000   0.53279332    -7.7464254     -6.9472468      4.19928        50218.233      36.893836      36.893836      36.893836    
  10800000   0.53264792    -7.7517677     -6.9528072      4.1587917      50218.233      36.893836      36.893836      36.893836    
  10900000   0.52953216    -7.7477949     -6.953508       4.1846502      50218.233      36.893836      36.893836      36.893836    
  11000000   0.5279695     -7.7526746     -6.9607316      4.16151        50218.233      36.893836      36.893836      36.893836    
  11100000   0.53316468    -7.7487026     -6.9489669      4.1943299      50218.233      36.893836      36.893836      36.893836    
  11200000   0.53012442    -7.7488889     -6.9537136      4.19192        50218.233      36.893836      36.893836      36.893836    
  11300000   0.5282663     -7.7503194     -6.9579312      4.1770654      50218.233      36.893836      36.893836      36.893836    
  11400000   0.53073886    -7.7482274     -6.9521304      4.2047673      50218.233      36.893836      36.893836      36.893836    
  11500000   0.5320549     -7.749358      -6.951287       4.1925668      50218.233      36.893836      36.893836      36.893836    
  11600000   0.52831313    -7.7488794     -6.956421       4.1813496      50218.233      36.893836      36.893836      36.893836    
  11700000   0.52985708    -7.7512778     -6.9565035      4.1718268      50218.233      36.893836      36.893836      36.893836    
  11800000   0.53029258    -7.7524408     -6.9570133      4.1517026      50218.233      36.893836      36.893836      36.893836    
  11900000   0.53204349    -7.7469772     -6.9489233      4.1976435      50218.233      36.893836      36.893836      36.893836    
  12000000   0.52926478    -7.7542023     -6.9603164      4.1470529      50218.233      36.893836      36.893836      36.893836    
  12100000   0.53148153    -7.7476418     -6.9504308      4.180299       50218.233      36.893836      36.893836      36.893836    
  12200000   0.53011004    -7.7502087     -6.955055       4.1797005      50218.233      36.893836      36.893836      36.893836    
  12300000   0.52881758    -7.7488292     -6.9556141      4.1782595      50218.233      36.893836      36.893836      36.893836    
  12400000   0.53071085    -7.7495031     -6.9534481      4.1819517      50218.233      36.893836      36.893836      36.893836    
  12500000   0.53004791    -7.7502126     -6.9551521      4.1748872      50218.233      36.893836      36.893836      36.893836    
  12600000   0.53455693    -7.7517396     -6.9499156      4.1668178      50218.233      36.893836      36.893836      36.893836    
  12700000   0.52911539    -7.7541343     -6.9604725      4.1598236      50218.233      36.893836      36.893836      36.893836    
  12800000   0.52933906    -7.750567      -6.9565697      4.1810474      50218.233      36.893836      36.893836      36.893836    
  12900000   0.52989158    -7.7496597     -6.9548337      4.1871787      50218.233      36.893836      36.893836      36.893836    
  13000000   0.53544491    -7.7470566     -6.9439006      4.2106837      50218.233      36.893836      36.893836      36.893836    
  13100000   0.52977513    -7.7526918     -6.9580404      4.1552143      50218.233      36.893836      36.893836      36.893836    
  13200000   0.52882398    -7.7480343     -6.9548097      4.197427       50218.233      36.893836      36.893836      36.893836    
  13300000   0.53074346    -7.7438743     -6.9477704      4.208175       50218.233      36.893836      36.893836      36.893836    
  13400000   0.52765703    -7.7492533     -6.9577791      4.1832226      50218.233      36.893836      36.893836      36.893836    
  13500000   0.53194015    -7.7502189     -6.95232        4.1773685      50218.233      36.893836      36.893836      36.893836    
  13600000   0.53008715    -7.7507421     -6.9556227      4.1707229      50218.233      36.893836      36.893836      36.893836    
  13700000   0.53042699    -7.7455462     -6.949917       4.2027529      50218.233      36.893836      36.893836      36.893836    
  13800000   0.53048797    -7.7441154     -6.9483948      4.2253436      50218.233      36.893836      36.893836      36.893836    
  13900000   0.52700358    -7.7451515     -6.9546573      4.1999889      50218.233      36.893836      36.893836      36.893836    
  14000000   0.53140224    -7.7497204     -6.9526284      4.1755067      50218.233      36.893836      36.893836      36.893836    
  14100000   0.53041476    -7.748106      -6.9524951      4.1916506      50218.233      36.893836      36.893836      36.893836    
  14200000   0.52927135    -7.74883       -6.9549342      4.1886435      50218.233      36.893836      36.893836      36.893836    
  14300000   0.52503817    -7.7420866     -6.9545405      4.2251579      50218.233      36.893836      36.893836      36.893836    
  14400000   0.52891707    -7.7490894     -6.9557251      4.1964098      50218.233      36.893836      36.893836      36.893836    
  14500000   0.52849304    -7.748828      -6.9560997      4.18108        50218.233      36.893836      36.893836      36.893836    
  14600000   0.53049462    -7.7449611     -6.9492305      4.2140314      50218.233      36.893836      36.893836      36.893836    
  14700000   0.52902356    -7.7464463     -6.9529223      4.1994652      50218.233      36.893836      36.893836      36.893836    
  14800000   0.53153583    -7.7466366     -6.9493442      4.2023946      50218.233      36.893836      36.893836      36.893836    
  14900000   0.52920157    -7.7530598     -6.9592687      4.1513188      50218.233      36.893836      36.893836      36.893836    
  15000000   0.52997773    -7.7471017     -6.9521464      4.1956518      50218.233      36.893836      36.893836      36.893836    
  15100000   0.53055309    -7.748559      -6.9527407      4.1813375      50218.233      36.893836      36.893836      36.893836    
  15200000   0.53162136    -7.7443388     -6.9469182      4.228381       50218.233      36.893836      36.893836      36.893836    
  15300000   0.5300109     -7.7504614     -6.9554563      4.1810742      50218.233      36.893836      36.893836      36.893836    
  15400000   0.53012391    -7.7511468     -6.9559723      4.1786504      50218.233      36.893836      36.893836      36.893836    
  15500000   0.53223513    -7.7467561     -6.9484147      4.2041871      50218.233      36.893836      36.893836      36.893836    
  15600000   0.52993804    -7.7487715     -6.9538757      4.183713       50218.233      36.893836      36.893836      36.893836    
  15700000   0.52923361    -7.7423979     -6.9485588      4.2344369      50218.233      36.893836      36.893836      36.893836    
  15800000   0.53001972    -7.7467325     -6.9517142      4.1915373      50218.233      36.893836      36.893836      36.893836    
  15900000   0.53055719    -7.7490915     -6.953267       4.1802973      50218.233      36.893836      36.893836      36.893836    
  16000000   0.530347      -7.7478886     -6.9523794      4.2057051      50218.233      36.893836      36.893836      36.893836    
  16100000   0.53151197    -7.7556766     -6.9584199      4.1402557      50218.233      36.893836      36.893836      36.893836    
  16200000   0.52762548    -7.752285      -6.9608581      4.1730428      50218.233      36.893836      36.893836      36.893836    
  16300000   0.52704168    -7.7509428     -6.9603915      4.1684455      50218.233      36.893836      36.893836      36.893836    
  16400000   0.52863281    -7.7484038     -6.9554658      4.1906695      50218.233      36.893836      36.893836      36.893836    
  16500000   0.53100938    -7.7493517     -6.9528489      4.1767941      50218.233      36.893836      36.893836      36.893836    
  16600000   0.53212906    -7.7486614     -6.9504791      4.1887032      50218.233      36.893836      36.893836      36.893836    
  16700000   0.53004261    -7.7481608     -6.9531082      4.1986636      50218.233      36.893836      36.893836      36.893836    
  16800000   0.52997929    -7.746137      -6.9511793      4.1844789      50218.233      36.893836      36.893836      36.893836    
  16900000   0.53256475    -7.7560545     -6.9572187      4.1339429      50218.233      36.893836      36.893836      36.893836    
  17000000   0.53036204    -7.7557773     -6.9602455      4.1328734      50218.233      36.893836      36.893836      36.893836    
  17100000   0.53266452    -7.754181      -6.9551956      4.1424087      50218.233      36.893836      36.893836      36.893836    
  17200000   0.52903076    -7.7536748     -6.9601399      4.1602763      50218.233      36.893836      36.893836      36.893836    
  17300000   0.53264734    -7.7483426     -6.9493829      4.1995806      50218.233      36.893836      36.893836      36.893836    
  17400000   0.5323558     -7.749513      -6.9509907      4.1985001      50218.233      36.893836      36.893836      36.893836    
  17500000   0.52827617    -7.7531637     -6.9607607      4.1561158      50218.233      36.893836      36.893836      36.893836    
  17600000   0.5300752     -7.75192       -6.9568186      4.1681456      50218.233      36.893836      36.893836      36.893836    
  17700000   0.5281907     -7.7537949     -6.9615201      4.1648557      50218.233      36.893836      36.893836      36.893836    
  17800000   0.53016548    -7.7486752     -6.9534383      4.1802471      50218.233      36.893836      36.893836      36.893836    
  17900000   0.52777025    -7.7497746     -6.9581305      4.1885812      50218.233      36.893836      36.893836      36.893836    
  18000000   0.52888212    -7.7479717     -6.9546598      4.19738        50218.233      36.893836      36.893836      36.893836    
  18100000   0.52943036    -7.7525475     -6.9584133      4.1583783      50218.233      36.893836      36.893836      36.893836    
  18200000   0.52951163    -7.75362       -6.9593639      4.1445093      50218.233      36.893836      36.893836      36.893836    
  18300000   0.53263074    -7.7504496     -6.9515149      4.1767905      50218.233      36.893836      36.893836      36.893836    
  18400000   0.53152497    -7.751179      -6.9539029      4.1684848      50218.233      36.893836      36.893836      36.893836    
  18500000   0.53003468    -7.7527107     -6.95767        4.1588766      50218.233      36.893836      36.893836      36.893836    
  18600000   0.5298726     -7.7496078     -6.9548103      4.1689479      50218.233      36.893836      36.893836      36.893836    
  18700000   0.5291017     -7.7495024     -6.9558612      4.1712975      50218.233      36.893836      36.893836      36.893836    
  18800000   0.52820726    -7.7506123     -6.9583127      4.1504317      50218.233      36.893836      36.893836      36.893836    
  18900000   0.53062394    -7.7510382     -6.9551136      4.1638089      50218.233      36.893836      36.893836      36.893836    
  19000000   0.53210155    -7.7458421     -6.9477012      4.2112779      50218.233      36.893836      36.893836      36.893836    
  19100000   0.5286107     -7.7495121     -6.9566073      4.1798131      50218.233      36.893836      36.893836      36.893836    
  19200000   0.53114092    -7.7508238     -6.9541238      4.1744339      50218.233      36.893836      36.893836      36.893836    
  19300000   0.52992548    -7.7507173     -6.9558404      4.1727743      50218.233      36.893836      36.893836      36.893836    
  19400000   0.527036      -7.7474195     -6.9568767      4.1915785      50218.233      36.893836      36.893836      36.893836    
  19500000   0.53222658    -7.748797      -6.9504684      4.1883184      50218.233      36.893836      36.893836      36.893836    
  19600000   0.52628015    -7.7525789     -6.9631699      4.142458       50218.233      36.893836      36.893836      36.893836    
  19700000   0.52979219    -7.7487784     -6.9541014      4.1869448      50218.233      36.893836      36.893836      36.893836    
  19800000   0.5314034     -7.7487062     -6.9516124      4.1789887      50218.233      36.893836      36.893836      36.893836    
  19900000   0.52864711    -7.7510693     -6.9581099      4.1736428      50218.233      36.893836      36.893836      36.893836    
  20000000   0.53221534    -7.7482238     -6.9499121      4.2004494      50218.233      36.893836      36.893836      36.893836    
  20100000   0.53019272    -7.7499735     -6.9546958      4.1861557      50218.233      36.893836      36.893836      36.893836    
  20200000   0.53063831    -7.7487238     -6.9527777      4.1976002      50218.233      36.893836      36.893836      36.893836    
  20300000   0.53033571    -7.7514032     -6.9559109      4.1622842      50218.233      36.893836      36.893836      36.893836    
  20400000   0.53215874    -7.7487881     -6.9505614      4.1925407      50218.233      36.893836      36.893836      36.893836    
  20500000   0.52757335    -7.7474874     -6.9561386      4.1899255      50218.233      36.893836      36.893836      36.893836    
  20600000   0.52873095    -7.7494699     -6.9563847      4.1897787      50218.233      36.893836      36.893836      36.893836    
  20700000   0.52989588    -7.7519639     -6.9571314      4.1631315      50218.233      36.893836      36.893836      36.893836    
  20800000   0.53106336    -7.7484241     -6.9518404      4.1871725      50218.233      36.893836      36.893836      36.893836    
  20900000   0.52943574    -7.7476492     -6.9535069      4.1902841      50218.233      36.893836      36.893836      36.893836    
  21000000   0.526319      -7.7491018     -6.9596346      4.1734477      50218.233      36.893836      36.893836      36.893836    
  21100000   0.53174606    -7.7485424     -6.9509347      4.1885545      50218.233      36.893836      36.893836      36.893836    
  21200000   0.5288541     -7.7482789     -6.955009       4.1942901      50218.233      36.893836      36.893836      36.893836    
  21300000   0.52988383    -7.7477085     -6.952894       4.1946503      50218.233      36.893836      36.893836      36.893836    
  21400000   0.52887421    -7.7409405     -6.9476404      4.2439686      50218.233      36.893836      36.893836      36.893836    
  21500000   0.53012533    -7.7476735     -6.9524968      4.2064753      50218.233      36.893836      36.893836      36.893836    
  21600000   0.52840276    -7.7443163     -6.9517235      4.2271932      50218.233      36.893836      36.893836      36.893836    
  21700000   0.53264814    -7.746993      -6.9480322      4.1967924      50218.233      36.893836      36.893836      36.893836    
  21800000   0.52786771    -7.7473261     -6.9555358      4.1903479      50218.233      36.893836      36.893836      36.893836    
  21900000   0.53126155    -7.7449086     -6.9480276      4.2238226      50218.233      36.893836      36.893836      36.893836    
  22000000   0.53182629    -7.7493593     -6.9516312      4.1879202      50218.233      36.893836      36.893836      36.893836    
  22100000   0.5317008     -7.7452311     -6.9476913      4.2083227      50218.233      36.893836      36.893836      36.893836    
  22200000   0.52928205    -7.7468608     -6.9529491      4.1975775      50218.233      36.893836      36.893836      36.893836    
  22300000   0.52977232    -7.7500223     -6.9553752      4.1716127      50218.233      36.893836      36.893836      36.893836    
  22400000   0.52930863    -7.7435786     -6.9496269      4.2315415      50218.233      36.893836      36.893836      36.893836    
  22500000   0.53024634    -7.7503617     -6.9550036      4.1657839      50218.233      36.893836      36.893836      36.893836    
  22600000   0.5283415     -7.7474929     -6.954992       4.1892713      50218.233      36.893836      36.893836      36.893836    
  22700000   0.52854173    -7.7456104     -6.9528091      4.2048872      50218.233      36.893836      36.893836      36.893836    
  22800000   0.53117395    -7.7488164     -6.9520668      4.1876858      50218.233      36.893836      36.893836      36.893836    
  22900000   0.53209655    -7.7531255     -6.9549921      4.1543001      50218.233      36.893836      36.893836      36.893836    
  23000000   0.52937418    -7.7493462     -6.9552963      4.1667605      50218.233      36.893836      36.893836      36.893836    
  23100000   0.5307632     -7.747315      -6.9511815      4.195559       50218.233      36.893836      36.893836      36.893836    
  23200000   0.52803491    -7.7500775     -6.9580365      4.1816105      50218.233      36.893836      36.893836      36.893836    
  23300000   0.5271172     -7.7411079     -6.9504434      4.2427095      50218.233      36.893836      36.893836      36.893836    
  23400000   0.53091592    -7.7461063     -6.9497438      4.188087       50218.233      36.893836      36.893836      36.893836    
  23500000   0.52961413    -7.7460087     -6.9515988      4.2003475      50218.233      36.893836      36.893836      36.893836    
  23600000   0.53067023    -7.7431229     -6.9471288      4.2226097      50218.233      36.893836      36.893836      36.893836    
  23700000   0.52783894    -7.7451329     -6.9533857      4.2113591      50218.233      36.893836      36.893836      36.893836    
  23800000   0.52754459    -7.7440041     -6.9526985      4.2229767      50218.233      36.893836      36.893836      36.893836    
  23900000   0.53247553    -7.7493955     -6.9506935      4.1819915      50218.233      36.893836      36.893836      36.893836    
  24000000   0.5303979     -7.7475235     -6.951938       4.1972057      50218.233      36.893836      36.893836      36.893836    
  24100000   0.53055852    -7.7452934     -6.9494669      4.2065957      50218.233      36.893836      36.893836      36.893836    
  24200000   0.5302975     -7.7432622     -6.9478273      4.2263255      50218.233      36.893836      36.893836      36.893836    
  24300000   0.52973622    -7.7479323     -6.9533392      4.1974356      50218.233      36.893836      36.893836      36.893836    
  24400000   0.53048698    -7.7469751     -6.951256       4.1902213      50218.233      36.893836      36.893836      36.893836    
  24500000   0.53240125    -7.7514984     -6.9529078      4.1653774      50218.233      36.893836      36.893836      36.893836    
  24600000   0.53383572    -7.7451418     -6.9443996      4.2281171      50218.233      36.893836      36.893836      36.893836    
  24700000   0.53077648    -7.7493334     -6.95318        4.1833577      50218.233      36.893836      36.893836      36.893836    
  24800000   0.5290226     -7.7453377     -6.9518151      4.2098913      50218.233      36.893836      36.893836      36.893836    
  24900000   0.52986675    -7.7445779     -6.949789       4.2216832      50218.233      36.893836      36.893836      36.893836    
  25000000   0.52835881    -7.7522847     -6.9597578      4.1486491      50218.233      36.893836      36.893836      36.893836    
  25100000   0.52971781    -7.7476655     -6.9531001      4.1929987      50218.233      36.893836      36.893836      36.893836    
  25200000   0.52838188    -7.7496345     -6.957073       4.1765518      50218.233      36.893836      36.893836      36.893836    
  25300000   0.53043207    -7.7454977     -6.9498609      4.2155537      50218.233      36.893836      36.893836      36.893836    
  25400000   0.52716607    -7.7453222     -6.9545843      4.2183787      50218.233      36.893836      36.893836      36.893836    
  25500000   0.52717681    -7.7473247     -6.9565707      4.1934503      50218.233      36.893836      36.893836      36.893836    
  25600000   0.53025431    -7.749788      -6.9544179      4.1828063      50218.233      36.893836      36.893836      36.893836    
  25700000   0.53064876    -7.7510335     -6.9550717      4.1582151      50218.233      36.893836      36.893836      36.893836    
  25800000   0.52769623    -7.7486891     -6.957156       4.1807185      50218.233      36.893836      36.893836      36.893836    
  25900000   0.52895476    -7.7530441     -6.9596232      4.1643209      50218.233      36.893836      36.893836      36.893836    
  26000000   0.52954003    -7.7541531     -6.9598544      4.1498769      50218.233      36.893836      36.893836      36.893836    
  26100000   0.52776084    -7.7448829     -6.9532529      4.2228363      50218.233      36.893836      36.893836      36.893836    
  26200000   0.53156051    -7.7503942     -6.9530648      4.1782954      50218.233      36.893836      36.893836      36.893836    
  26300000   0.52697345    -7.7544511     -6.9640021      4.1434378      50218.233      36.893836      36.893836      36.893836    
  26400000   0.53227147    -7.7523216     -6.9539258      4.1520169      50218.233      36.893836      36.893836      36.893836    
  26500000   0.53130858    -7.7513344     -6.9543829      4.1866455      50218.233      36.893836      36.893836      36.893836    
  26600000   0.53031068    -7.7453452     -6.9498905      4.1973162      50218.233      36.893836      36.893836      36.893836    
  26700000   0.53216477    -7.7526419     -6.9544061      4.170443       50218.233      36.893836      36.893836      36.893836    
  26800000   0.52816528    -7.7484008     -6.9561642      4.1860164      50218.233      36.893836      36.893836      36.893836    
  26900000   0.53181819    -7.7490389     -6.9513229      4.1900908      50218.233      36.893836      36.893836      36.893836    
  27000000   0.52996574    -7.7461385     -6.9512012      4.2147439      50218.233      36.893836      36.893836      36.893836    
  27100000   0.53325871    -7.7492358     -6.9493591      4.188641       50218.233      36.893836      36.893836      36.893836    
  27200000   0.52766904    -7.7487481     -6.9572558      4.1749985      50218.233      36.893836      36.893836      36.893836    
  27300000   0.53025392    -7.7522017     -6.9568322      4.1560823      50218.233      36.893836      36.893836      36.893836    
  27400000   0.53114254    -7.7516103     -6.9549078      4.1800848      50218.233      36.893836      36.893836      36.893836    
  27500000   0.52898275    -7.7477382     -6.9542753      4.1899987      50218.233      36.893836      36.893836      36.893836    
  27600000   0.53222254    -7.7520715     -6.9537491      4.1632567      50218.233      36.893836      36.893836      36.893836    
  27700000   0.53202862    -7.7529714     -6.9549398      4.1652494      50218.233      36.893836      36.893836      36.893836    
  27800000   0.52877623    -7.7547315     -6.9615785      4.1422777      50218.233      36.893836      36.893836      36.893836    
  27900000   0.53185093    -7.7512289     -6.9534638      4.1768126      50218.233      36.893836      36.893836      36.893836    
  28000000   0.52926053    -7.7519974     -6.9581179      4.1634912      50218.233      36.893836      36.893836      36.893836    
  28100000   0.53064876    -7.7516098     -6.955648       4.1682082      50218.233      36.893836      36.893836      36.893836    
  28200000   0.52807622    -7.7496439     -6.9575408      4.183779       50218.233      36.893836      36.893836      36.893836    
  28300000   0.53326921    -7.7519269     -6.9520344      4.1788078      50218.233      36.893836      36.893836      36.893836    
  28400000   0.52794416    -7.7542608     -6.9623558      4.1337105      50218.233      36.893836      36.893836      36.893836    
  28500000   0.52855184    -7.7568703     -6.9640538      4.1202469      50218.233      36.893836      36.893836      36.893836    
  28600000   0.52831607    -7.7487129     -6.95625        4.1826005      50218.233      36.893836      36.893836      36.893836    
  28700000   0.52903311    -7.7450883     -6.9515499      4.2145508      50218.233      36.893836      36.893836      36.893836    
  28800000   0.53090634    -7.7543685     -6.9580203      4.142802       50218.233      36.893836      36.893836      36.893836    
  28900000   0.53021014    -7.7515907     -6.9562868      4.1658613      50218.233      36.893836      36.893836      36.893836    
  29000000   0.52554791    -7.7500428     -6.9617321      4.1662037      50218.233      36.893836      36.893836      36.893836    
  29100000   0.53062539    -7.7487723     -6.9528456      4.1827662      50218.233      36.893836      36.893836      36.893836    
  29200000   0.5295148     -7.7504733     -6.9562124      4.1617397      50218.233      36.893836      36.893836      36.893836    
  29300000   0.52846259    -7.7557589     -6.9630763      4.1428962      50218.233      36.893836      36.893836      36.893836    
  29400000   0.53022211    -7.7505231     -6.9552012      4.1677505      50218.233      36.893836      36.893836      36.893836    
  29500000   0.52940332    -7.7523316     -6.9582379      4.1625912      50218.233      36.893836      36.893836      36.893836    
  29600000   0.52795331    -7.755765      -6.9638463      4.1273772      50218.233      36.893836      36.893836      36.893836    
  29700000   0.52982678    -7.752079      -6.9573502      4.1611071      50218.233      36.893836      36.893836      36.893836    
  29800000   0.53160036    -7.7519487     -6.9545595      4.1591342      50218.233      36.893836      36.893836      36.893836    
  29900000   0.52706182    -7.7541956     -6.9636141      4.1451761      50218.233      36.893836      36.893836      36.893836    
  30000000   0.53114935    -7.7449172     -6.9482045      4.2165457      50218.233      36.893836      36.893836      36.893836    
  30100000   0.52613049    -7.7458407     -6.9566562      4.2079918      50218.233      36.893836      36.893836      36.893836    
  30200000   0.52864591    -7.7491071     -6.9561495      4.1804953      50218.233      36.893836      36.893836      36.893836    
  30300000   0.52757523    -7.7459893     -6.9546377      4.2093166      50218.233      36.893836      36.893836      36.893836    
  30400000   0.52955815    -7.748086      -6.9537601      4.2002901      50218.233      36.893836      36.893836      36.893836    
  30500000   0.53008802    -7.7487605     -6.9536398      4.1872572      50218.233      36.893836      36.893836      36.893836    
  30600000   0.5305027     -7.7426629     -6.9469202      4.2195527      50218.233      36.893836      36.893836      36.893836    
  30700000   0.52945656    -7.7472828     -6.9531092      4.1907027      50218.233      36.893836      36.893836      36.893836    
  30800000   0.53263289    -7.7476449     -6.9487069      4.1935144      50218.233      36.893836      36.893836      36.893836    
  30900000   0.52970069    -7.7499988     -6.955459       4.1631714      50218.233      36.893836      36.893836      36.893836    
  31000000   0.52621983    -7.7557071     -6.9663886      4.1365445      50218.233      36.893836      36.893836      36.893836    
  31100000   0.53041799    -7.7530192     -6.9574035      4.1688367      50218.233      36.893836      36.893836      36.893836    
  31200000   0.52823597    -7.7464826     -6.9541399      4.1901069      50218.233      36.893836      36.893836      36.893836    
  31300000   0.53072395    -7.7504522     -6.9543776      4.1762428      50218.233      36.893836      36.893836      36.893836    
  31400000   0.53128554    -7.7531569     -6.9562399      4.1690703      50218.233      36.893836      36.893836      36.893836    
  31500000   0.53081729    -7.7424817     -6.9462671      4.2245791      50218.233      36.893836      36.893836      36.893836    
  31600000   0.53142589    -7.7493028     -6.9521753      4.187092       50218.233      36.893836      36.893836      36.893836    
  31700000   0.52723435    -7.7528945     -6.9620542      4.1501771      50218.233      36.893836      36.893836      36.893836    
  31800000   0.53015467    -7.7523209     -6.9571003      4.1672484      50218.233      36.893836      36.893836      36.893836    
  31900000   0.52787756    -7.7487887     -6.9569837      4.1852298      50218.233      36.893836      36.893836      36.893836    
  32000000   0.53034011    -7.7499428     -6.954444       4.1780734      50218.233      36.893836      36.893836      36.893836    
  32100000   0.5298958     -7.7457765     -6.9509441      4.2221338      50218.233      36.893836      36.893836      36.893836    
  32200000   0.52929572    -7.7514557     -6.9575234      4.1543262      50218.233      36.893836      36.893836      36.893836    
  32300000   0.53277911    -7.7425258     -6.9433685      4.2488185      50218.233      36.893836      36.893836      36.893836    
  32400000   0.52917814    -7.7438149     -6.950059       4.2153343      50218.233      36.893836      36.893836      36.893836    
  32500000   0.53149618    -7.743285      -6.9460521      4.2290339      50218.233      36.893836      36.893836      36.893836    
  32600000   0.52916331    -7.7516445     -6.9579108      4.1581474      50218.233      36.893836      36.893836      36.893836    
  32700000   0.52881063    -7.7493655     -6.9561609      4.1812015      50218.233      36.893836      36.893836      36.893836    
  32800000   0.53025237    -7.7475529     -6.9521857      4.2093752      50218.233      36.893836      36.893836      36.893836    
  32900000   0.53128283    -7.7439053     -6.9469924      4.2250031      50218.233      36.893836      36.893836      36.893836    
  33000000   0.52880179    -7.7484046     -6.9552132      4.1824141      50218.233      36.893836      36.893836      36.893836    
  33100000   0.5298477     -7.7496355     -6.9548753      4.1774555      50218.233      36.893836      36.893836      36.893836    
  33200000   0.52688213    -7.7549773     -6.9646654      4.145747       50218.233      36.893836      36.893836      36.893836    
  33300000   0.53103487    -7.7491958     -6.9526548      4.1817999      50218.233      36.893836      36.893836      36.893836    
  33400000   0.53035955    -7.744388      -6.94886        4.2176233      50218.233      36.893836      36.893836      36.893836    
  33500000   0.53217862    -7.7470957     -6.9488392      4.2098391      50218.233      36.893836      36.893836      36.893836    
  33600000   0.5297056     -7.7468879     -6.9523408      4.202188       50218.233      36.893836      36.893836      36.893836    
  33700000   0.52876265    -7.7471712     -6.9540385      4.2123022      50218.233      36.893836      36.893836      36.893836    
  33800000   0.53079068    -7.7440353     -6.9478606      4.2262503      50218.233      36.893836      36.893836      36.893836    
  33900000   0.52666991    -7.7494868     -6.9594932      4.1828905      50218.233      36.893836      36.893836      36.893836    
  34000000   0.53222077    -7.7483191     -6.9499993      4.2034365      50218.233      36.893836      36.893836      36.893836    
  34100000   0.52763676    -7.7461288     -6.9546849      4.2026135      50218.233      36.893836      36.893836      36.893836    
  34200000   0.53148447    -7.7495875     -6.9523722      4.1772001      50218.233      36.893836      36.893836      36.893836    
  34300000   0.53370211    -7.7425853     -6.9420435      4.2483195      50218.233      36.893836      36.893836      36.893836    
  34400000   0.53091965    -7.7482571     -6.9518889      4.1966089      50218.233      36.893836      36.893836      36.893836    
  34500000   0.52730053    -7.7465022     -6.9555627      4.1953033      50218.233      36.893836      36.893836      36.893836    
  34600000   0.52846304    -7.7463337     -6.9536505      4.2061134      50218.233      36.893836      36.893836      36.893836    
  34700000   0.52966615    -7.7454901     -6.9510022      4.2063796      50218.233      36.893836      36.893836      36.893836    
  34800000   0.53177965    -7.7491837     -6.9515255      4.1944025      50218.233      36.893836      36.893836      36.893836    
  34900000   0.52931559    -7.7524524     -6.9584903      4.1519155      50218.233      36.893836      36.893836      36.893836    
  35000000   0.52910507    -7.7496913     -6.956045       4.1779         50218.233      36.893836      36.893836      36.893836    
  35100000   0.52956664    -7.7504725     -6.9561338      4.1699541      50218.233      36.893836      36.893836      36.893836    
  35200000   0.52793279    -7.7503172     -6.9584293      4.1716608      50218.233      36.893836      36.893836      36.893836    
  35300000   0.52967838    -7.7472322     -6.9527259      4.2032172      50218.233      36.893836      36.893836      36.893836    
  35400000   0.53011915    -7.7540063     -6.9588388      4.1609377      50218.233      36.893836      36.893836      36.893836    
  35500000   0.53306736    -7.7504408     -6.9508511      4.1719881      50218.233      36.893836      36.893836      36.893836    
  35600000   0.5285689     -7.7480675     -6.9552255      4.1918835      50218.233      36.893836      36.893836      36.893836    
  35700000   0.52804515    -7.7475251     -6.9554686      4.1833173      50218.233      36.893836      36.893836      36.893836    
  35800000   0.5293359     -7.746303      -6.9523105      4.2043718      50218.233      36.893836      36.893836      36.893836    
  35900000   0.53058699    -7.7439945     -6.9481253      4.2416641      50218.233      36.893836      36.893836      36.893836    
  36000000   0.53091032    -7.7452703     -6.9489161      4.2176172      50218.233      36.893836      36.893836      36.893836    
  36100000   0.52704842    -7.742247      -6.9516856      4.2325244      50218.233      36.893836      36.893836      36.893836    
  36200000   0.53023857    -7.7504001     -6.9550536      4.1795789      50218.233      36.893836      36.893836      36.893836    
  36300000   0.52858578    -7.7503853     -6.9575179      4.1747714      50218.233      36.893836      36.893836      36.893836    
  36400000   0.53008852    -7.7461843     -6.9510628      4.2011131      50218.233      36.893836      36.893836      36.893836    
  36500000   0.53100468    -7.7507611     -6.9542654      4.1695491      50218.233      36.893836      36.893836      36.893836    
  36600000   0.53088068    -7.7502748     -6.9539651      4.1823332      50218.233      36.893836      36.893836      36.893836    
  36700000   0.52665743    -7.7496037     -6.9596288      4.1821694      50218.233      36.893836      36.893836      36.893836    
  36800000   0.53182442    -7.7482513     -6.950526       4.187636       50218.233      36.893836      36.893836      36.893836    
  36900000   0.53024996    -7.7517217     -6.956358       4.1680833      50218.233      36.893836      36.893836      36.893836    
  37000000   0.52932142    -7.7496446     -6.9556738      4.1701526      50218.233      36.893836      36.893836      36.893836    
  37100000   0.52898427    -7.7537775     -6.9603124      4.1430921      50218.233      36.893836      36.893836      36.893836    
  37200000   0.52843683    -7.7464842     -6.9538403      4.2060026      50218.233      36.893836      36.893836      36.893836    
  37300000   0.53142045    -7.7515732     -6.9544539      4.1673688      50218.233      36.893836      36.893836      36.893836    
  37400000   0.5281393     -7.7502564     -6.9580587      4.174977       50218.233      36.893836      36.893836      36.893836    
  37500000   0.5283329     -7.7502864     -6.9577983      4.1625856      50218.233      36.893836      36.893836      36.893836    
  37600000   0.5305612     -7.7475592     -6.9517287      4.1950318      50218.233      36.893836      36.893836      36.893836    
  37700000   0.52997582    -7.7570085     -6.9620561      4.1195892      50218.233      36.893836      36.893836      36.893836    
  37800000   0.5287617     -7.7491027     -6.9559715      4.1859876      50218.233      36.893836      36.893836      36.893836    
  37900000   0.53206859    -7.7511461     -6.9530546      4.1680911      50218.233      36.893836      36.893836      36.893836    
  38000000   0.52909032    -7.7542637     -6.9606395      4.1519695      50218.233      36.893836      36.893836      36.893836    
  38100000   0.53144031    -7.7483533     -6.9512042      4.1954595      50218.233      36.893836      36.893836      36.893836    
  38200000   0.52955908    -7.7478812     -6.9535539      4.1955867      50218.233      36.893836      36.893836      36.893836    
  38300000   0.52858198    -7.7492349     -6.9563732      4.1733674      50218.233      36.893836      36.893836      36.893836    
  38400000   0.53267804    -7.7525979     -6.9535922      4.163315       50218.233      36.893836      36.893836      36.893836    
  38500000   0.53002604    -7.749237      -6.9542093      4.1816215      50218.233      36.893836      36.893836      36.893836    
  38600000   0.52956826    -7.7460966     -6.9517555      4.1960282      50218.233      36.893836      36.893836      36.893836    
  38700000   0.52885549    -7.746312      -6.95304        4.1969586      50218.233      36.893836      36.893836      36.893836    
  38800000   0.52958323    -7.7478756     -6.9535121      4.1827478      50218.233      36.893836      36.893836      36.893836    
  38900000   0.52799394    -7.7466075     -6.9546279      4.1857461      50218.233      36.893836      36.893836      36.893836    
  39000000   0.52876547    -7.749542      -6.9564051      4.1810573      50218.233      36.893836      36.893836      36.893836    
  39100000   0.53183538    -7.74654       -6.9487983      4.2053048      50218.233      36.893836      36.893836      36.893836    
  39200000   0.52910634    -7.7490328     -6.9553846      4.2001509      50218.233      36.893836      36.893836      36.893836    
  39300000   0.53060813    -7.7478828     -6.9519819      4.2050797      50218.233      36.893836      36.893836      36.893836    
  39400000   0.53038291    -7.7529362     -6.9573732      4.1742577      50218.233      36.893836      36.893836      36.893836    
  39500000   0.52732792    -7.7468668     -6.9558862      4.1979317      50218.233      36.893836      36.893836      36.893836    
  39600000   0.53022934    -7.7482002     -6.9528675      4.1928241      50218.233      36.893836      36.893836      36.893836    
  39700000   0.5305838     -7.7470809     -6.9512165      4.1947252      50218.233      36.893836      36.893836      36.893836    
  39800000   0.53287977    -7.7472632     -6.9479549      4.1926593      50218.233      36.893836      36.893836      36.893836    
  39900000   0.53121749    -7.7532526     -6.9564377      4.1551416      50218.233      36.893836      36.893836      36.893836    
  40000000   0.52899684    -7.7492536     -6.9557697      4.1922846      50218.233      36.893836      36.893836      36.893836    
  40100000   0.52956685    -7.7555528     -6.9612139      4.1309616      50218.233      36.893836      36.893836      36.893836    
  40200000   0.53095169    -7.7521366     -6.9557204      4.1578588      50218.233      36.893836      36.893836      36.893836    
  40300000   0.52993794    -7.7513887     -6.9564931      4.1687732      50218.233      36.893836      36.893836      36.893836    
  40400000   0.52926836    -7.7532345     -6.9593433      4.1497263      50218.233      36.893836      36.893836      36.893836    
  40500000   0.53184332    -7.7542655     -6.9565119      4.1482969      50218.233      36.893836      36.893836      36.893836    
  40600000   0.53319012    -7.7448678     -6.945094       4.2211193      50218.233      36.893836      36.893836      36.893836    
  40700000   0.53124056    -7.7498479     -6.9529984      4.1704046      50218.233      36.893836      36.893836      36.893836    
  40800000   0.52809246    -7.7487179     -6.9565905      4.1897975      50218.233      36.893836      36.893836      36.893836    
  40900000   0.53270313    -7.7486706     -6.9496273      4.1978438      50218.233      36.893836      36.893836      36.893836    
  41000000   0.53061868    -7.7457384     -6.9498217      4.2047106      50218.233      36.893836      36.893836      36.893836    
  41100000   0.52804672    -7.7486904     -6.9566315      4.1876707      50218.233      36.893836      36.893836      36.893836    
  41200000   0.52990162    -7.7499891     -6.955148       4.1841635      50218.233      36.893836      36.893836      36.893836    
  41300000   0.52766774    -7.7469692     -6.9554789      4.1815215      50218.233      36.893836      36.893836      36.893836    
  41400000   0.52867599    -7.7479466     -6.9549439      4.1734919      50218.233      36.893836      36.893836      36.893836    
  41500000   0.52611379    -7.7523772     -6.9632177      4.1482412      50218.233      36.893836      36.893836      36.893836    
  41600000   0.53083351    -7.7548131     -6.9585742      4.1419798      50218.233      36.893836      36.893836      36.893836    
  41700000   0.53361259    -7.7476314     -6.9472239      4.2060785      50218.233      36.893836      36.893836      36.893836    
  41800000   0.52654816    -7.752201      -6.96239        4.1591447      50218.233      36.893836      36.893836      36.893836    
  41900000   0.53028911    -7.748333      -6.9529106      4.1827554      50218.233      36.893836      36.893836      36.893836    
  42000000   0.53485487    -7.748741      -6.9464701      4.1887833      50218.233      36.893836      36.893836      36.893836    
  42100000   0.52876336    -7.7471198     -6.9539861      4.1871236      50218.233      36.893836      36.893836      36.893836    
  42200000   0.53130157    -7.7511532     -6.9542121      4.1650276      50218.233      36.893836      36.893836      36.893836    
  42300000   0.53313456    -7.7426304     -6.9429399      4.2396406      50218.233      36.893836      36.893836      36.893836    
  42400000   0.52958952    -7.7447027     -6.9503298      4.2154063      50218.233      36.893836      36.893836      36.893836    
  42500000   0.52960438    -7.7364637     -6.9420684      4.2723948      50218.233      36.893836      36.893836      36.893836    
  42600000   0.53131219    -7.7489799     -6.9520229      4.1849961      50218.233      36.893836      36.893836      36.893836    
  42700000   0.53044623    -7.7499383     -6.9542803      4.1733426      50218.233      36.893836      36.893836      36.893836    
  42800000   0.53047263    -7.7454734     -6.9497758      4.2206567      50218.233      36.893836      36.893836      36.893836    
  42900000   0.52815651    -7.7471308     -6.9549073      4.1947433      50218.233      36.893836      36.893836      36.893836    
  43000000   0.52697396    -7.7462319     -6.9557822      4.2216211      50218.233      36.893836      36.893836      36.893836    
  43100000   0.52798613    -7.749133      -6.9571651      4.1825411      50218.233      36.893836      36.893836      36.893836    
  43200000   0.52657915    -7.7497261     -6.9598686      4.1656335      50218.233      36.893836      36.893836      36.893836    
  43300000   0.5309657     -7.7496868     -6.9532496      4.1778377      50218.233      36.893836      36.893836      36.893836    
  43400000   0.53048098    -7.7485259     -6.9528157      4.1949454      50218.233      36.893836      36.893836      36.893836    
  43500000   0.52985791    -7.7461314     -6.9513558      4.1964185      50218.233      36.893836      36.893836      36.893836    
  43600000   0.53026658    -7.7462935     -6.950905       4.210226       50218.233      36.893836      36.893836      36.893836    
  43700000   0.52802745    -7.7441286     -6.9520987      4.225039       50218.233      36.893836      36.893836      36.893836    
  43800000   0.5314939     -7.7478228     -6.9505933      4.1895975      50218.233      36.893836      36.893836      36.893836    
  43900000   0.52809833    -7.7457602     -6.953624       4.2095805      50218.233      36.893836      36.893836      36.893836    
  44000000   0.52862266    -7.7465704     -6.9536477      4.1956414      50218.233      36.893836      36.893836      36.893836    
  44100000   0.5290308     -7.751817      -6.958282       4.1533007      50218.233      36.893836      36.893836      36.893836    
  44200000   0.52856693    -7.7462068     -6.9533677      4.2098669      50218.233      36.893836      36.893836      36.893836    
  44300000   0.53082235    -7.7516547     -6.9554325      4.1728253      50218.233      36.893836      36.893836      36.893836    
  44400000   0.52773554    -7.7491763     -6.9575842      4.1649308      50218.233      36.893836      36.893836      36.893836    
  44500000   0.52665396    -7.7489668     -6.9589971      4.1855022      50218.233      36.893836      36.893836      36.893836    
  44600000   0.5301937     -7.7507619     -6.9554826      4.1747635      50218.233      36.893836      36.893836      36.893836    
  44700000   0.53305906    -7.7502499     -6.9506727      4.1960582      50218.233      36.893836      36.893836      36.893836    
  44800000   0.52965885    -7.7530876     -6.9586106      4.1597745      50218.233      36.893836      36.893836      36.893836    
  44900000   0.52882738    -7.749794      -6.9565642      4.176011       50218.233      36.893836      36.893836      36.893836    
  45000000   0.53173095    -7.7505945     -6.9530094      4.1862913      50218.233      36.893836      36.893836      36.893836    
  45100000   0.53027095    -7.7433233     -6.9479282      4.2337315      50218.233      36.893836      36.893836      36.893836    
  45200000   0.52904389    -7.7474258     -6.9538713      4.202433       50218.233      36.893836      36.893836      36.893836    
  45300000   0.53173689    -7.7472615     -6.9496675      4.1966075      50218.233      36.893836      36.893836      36.893836    
  45400000   0.52881307    -7.7475449     -6.9543366      4.1875373      50218.233      36.893836      36.893836      36.893836    
  45500000   0.53108601    -7.7525931     -6.9559754      4.1612862      50218.233      36.893836      36.893836      36.893836    
  45600000   0.53033385    -7.750939      -6.9554496      4.1613893      50218.233      36.893836      36.893836      36.893836    
  45700000   0.52970647    -7.7500784     -6.95553        4.1791113      50218.233      36.893836      36.893836      36.893836    
  45800000   0.52822777    -7.7531315     -6.9608012      4.1447504      50218.233      36.893836      36.893836      36.893836    
  45900000   0.5318447     -7.7507431     -6.9529874      4.1774477      50218.233      36.893836      36.893836      36.893836    
  46000000   0.52922489    -7.7449043     -6.9510782      4.2142111      50218.233      36.893836      36.893836      36.893836    
  46100000   0.53174124    -7.7471459     -6.9495454      4.2025452      50218.233      36.893836      36.893836      36.893836    
  46200000   0.53414227    -7.7530656     -6.9518636      4.1504537      50218.233      36.893836      36.893836      36.893836    
  46300000   0.53093246    -7.7482955     -6.9519082      4.1870043      50218.233      36.893836      36.893836      36.893836    
  46400000   0.52681255    -7.747665      -6.9574575      4.1866303      50218.233      36.893836      36.893836      36.893836    
  46500000   0.52967984    -7.7442212     -6.9497128      4.2229979      50218.233      36.893836      36.893836      36.893836    
  46600000   0.52985038    -7.7510544     -6.9562901      4.1626061      50218.233      36.893836      36.893836      36.893836    
  46700000   0.53230698    -7.7503428     -6.9518936      4.1804694      50218.233      36.893836      36.893836      36.893836    
  46800000   0.53107493    -7.746952      -6.9503509      4.2070476      50218.233      36.893836      36.893836      36.893836    
  46900000   0.52968187    -7.7455819     -6.9510704      4.2088846      50218.233      36.893836      36.893836      36.893836    
  47000000   0.53038023    -7.7427922     -6.9472331      4.24011        50218.233      36.893836      36.893836      36.893836    
  47100000   0.52966728    -7.7420068     -6.9475172      4.240699       50218.233      36.893836      36.893836      36.893836    
  47200000   0.53061195    -7.7458927     -6.9499861      4.2108891      50218.233      36.893836      36.893836      36.893836    
  47300000   0.52859767    -7.7441138     -6.9512286      4.2210523      50218.233      36.893836      36.893836      36.893836    
  47400000   0.52978741    -7.7459202     -6.9512504      4.2138178      50218.233      36.893836      36.893836      36.893836    
  47500000   0.52830326    -7.7484715     -6.9560279      4.1805029      50218.233      36.893836      36.893836      36.893836    
  47600000   0.53156879    -7.7502929     -6.9529511      4.1908619      50218.233      36.893836      36.893836      36.893836    
  47700000   0.52898506    -7.7533854     -6.9599191      4.1520437      50218.233      36.893836      36.893836      36.893836    
  47800000   0.52874673    -7.7477287     -6.9546199      4.2054768      50218.233      36.893836      36.893836      36.893836    
  47900000   0.52772213    -7.7512639     -6.9596919      4.1690662      50218.233      36.893836      36.893836      36.893836    
  48000000   0.53087273    -7.7485315     -6.9522337      4.1860455      50218.233      36.893836      36.893836      36.893836    
  48100000   0.53214985    -7.7508869     -6.9526735      4.1719096      50218.233      36.893836      36.893836      36.893836    
  48200000   0.53048011    -7.7446684     -6.9489595      4.2386826      50218.233      36.893836      36.893836      36.893836    
  48300000   0.52557448    -7.7500812     -6.9617307      4.1689985      50218.233      36.893836      36.893836      36.893836    
  48400000   0.52904356    -7.7508965     -6.9573424      4.1821366      50218.233      36.893836      36.893836      36.893836    
  48500000   0.53014552    -7.7441734     -6.9489665      4.2403841      50218.233      36.893836      36.893836      36.893836    
  48600000   0.53037211    -7.7476268     -6.95208        4.2039097      50218.233      36.893836      36.893836      36.893836    
  48700000   0.53221575    -7.7486441     -6.9503318      4.1999829      50218.233      36.893836      36.893836      36.893836    
  48800000   0.52987557    -7.7509415     -6.9561395      4.1688956      50218.233      36.893836      36.893836      36.893836    
  48900000   0.52670656    -7.7530757     -6.9630271      4.1466424      50218.233      36.893836      36.893836      36.893836    
  49000000   0.5281585     -7.7544854     -6.9622589      4.1390767      50218.233      36.893836      36.893836      36.893836    
  49100000   0.53009611    -7.7521134     -6.9569805      4.1579142      50218.233      36.893836      36.893836      36.893836    
  49200000   0.52888191    -7.7524804     -6.9591688      4.1623643      50218.233      36.893836      36.893836      36.893836    
  49300000   0.52908144    -7.7513208     -6.9577099      4.1749485      50218.233      36.893836      36.893836      36.893836    
  49400000   0.52951801    -7.7490231     -6.9547574      4.1888842      50218.233      36.893836      36.893836      36.893836    
  49500000   0.52992173    -7.7541317     -6.9592604      4.1512219      50218.233      36.893836      36.893836      36.893836    
  49600000   0.53168398    -7.7491877     -6.951673       4.1862414      50218.233      36.893836      36.893836      36.893836    
  49700000   0.52987926    -7.7527914     -6.9579838      4.1643891      50218.233      36.893836      36.893836      36.893836    
  49800000   0.52886252    -7.7499067     -6.9566242      4.178884       50218.233      36.893836      36.893836      36.893836    
  49900000   0.52885973    -7.7536523     -6.960374       4.1574769      50218.233      36.893836      36.893836      36.893836    
  50000000   0.52702421    -7.7501117     -6.9595866      4.1708767      50218.233      36.893836      36.893836      36.893836    
Loop time of 79187 on 5 procs for 50000000 steps with 70304 atoms

Performance: 545544.178 tau/day, 631.417 timesteps/s, 44.391 Matom-step/s
94.7% CPU use with 5 MPI tasks x 1 OpenMP threads

MPI task timing breakdown:
Section |  min time  |  avg time  |  max time  |%varavg| %total
---------------------------------------------------------------
Pair    | 29317      | 31249      | 34900      |1120.1 | 39.46
Neigh   | 261.99     | 274.06     | 282.68     |  46.5 |  0.35
Comm    | 11755      | 11946      | 12075      | 108.7 | 15.09
Output  | 0.090672   | 0.094231   | 0.099722   |   1.0 |  0.00
Modify  | 27770      | 31653      | 33438      |1172.6 | 39.97
Other   |            | 4064       |            |       |  5.13

Nlocal:        14060.8 ave       14120 max       14028 min
Histogram: 1 2 0 0 1 0 0 0 0 1
Nghost:        18750.4 ave       18835 max       18649 min
Histogram: 1 0 0 1 1 0 0 0 0 2
Neighs:              0 ave           0 max           0 min
Histogram: 5 0 0 0 0 0 0 0 0 0

Total # of neighbors = 0
Ave neighs/atom = 0
Neighbor list builds = 10491718
Dangerous builds = 0
clear
OMP_NUM_THREADS environment is not set. Defaulting to 1 thread. (src/comm.cpp:98)
  using 1 OpenMP thread(s) per MPI task
package gpu 0
jump dms510.lmp

variable T equal 510
# T = 1000* (temp in LJ unit)
variable f equal 100000
log log.${T}
log log.510
