variable TLJ equal (${T}/1000)
variable TLJ equal (280/1000)
variable NCyle equal 5
variable iStep equal (${f})
variable iStep equal (100000)
variable dumpStep equal (${f}*100)
variable dumpStep equal (100000*100)
variable runStep equal (${f}*100*${NCyle})
variable runStep equal (100000*100*${NCyle})
variable runStep equal (100000*100*5)

units       lj
atom_style  atomic
dimension 3
boundary     p p p
pair_style  lj/cut 2.5
read_data  ../data/T${T}.dat
read_data  ../data/T280.dat
Reading data file ...
  orthogonal box = (0.97250269 0.97250269 0.97250269) to (37.866338 37.866338 37.866338)
  1 by 1 by 5 MPI processor grid
  reading atoms ...
  70304 atoms
  reading velocities ...
  70304 velocities
  read_data CPU = 0.209 seconds
change_box all triclinic
Changing box ...
  triclinic box = (0.97250269 0.97250269 0.97250269) to (37.866338 37.866338 37.866338) with tilt (0 0 0)
mass 1 1
mass 2 1
pair_modify shift yes
pair_coeff  1 1 1 1
pair_coeff  1 2 1.5 0.8
pair_coeff  2 2 0.5 0.88


timestep 0.01
thermo ${iStep}
thermo 100000
reset_timestep 0
thermo_style custom step temp pe etotal press vol lx ly lz
fix             1 all nvt temp ${TLJ}  ${TLJ}  0.1
fix             1 all nvt temp 0.28  ${TLJ}  0.1
fix             1 all nvt temp 0.28  0.28  0.1
thermo_modify flush yes

fix dsf all deform 1 xy  wiggle 0.5  ${f}   units box
fix dsf all deform 1 xy  wiggle 0.5  100000   units box
fix ps1 all ave/time 1 1 ${iStep} c_thermo_press[1] c_thermo_press[2]  c_thermo_press[3] c_thermo_press[4]  c_thermo_press[5] c_thermo_press[6]  file  stress.${T}
fix ps1 all ave/time 1 1 100000 c_thermo_press[1] c_thermo_press[2]  c_thermo_press[3] c_thermo_press[4]  c_thermo_press[5] c_thermo_press[6]  file  stress.${T}
fix ps1 all ave/time 1 1 100000 c_thermo_press[1] c_thermo_press[2]  c_thermo_press[3] c_thermo_press[4]  c_thermo_press[5] c_thermo_press[6]  file  stress.280
dump            1 all custom ${dumpStep} dump.${T} id type x y z
dump            1 all custom 10000000 dump.${T} id type x y z
dump            1 all custom 10000000 dump.280 id type x y z
dump_modify 1 sort id
fix nodrift all momentum 1  linear 1 1 1
fix com_seed all recenter INIT INIT INIT shift all
run ${runStep}
run 50000000
Generated 0 of 1 mixed pair_coeff terms from geometric mixing rule
Per MPI rank memory allocation (min/avg/max) = 8.915 | 8.919 | 8.922 Mbytes
   Step          Temp          PotEng         TotEng         Press          Volume           Lx             Ly             Lz      
         0   0.2807277     -8.167219      -7.7461335      0.74754833     50218.233      36.893836      36.893836      36.893836    
    100000   0.28000437    -8.1675418     -7.7475412      0.73968777     50218.233      36.893836      36.893836      36.893836    
    200000   0.27973145    -8.1675777     -7.7479864      0.74260565     50218.233      36.893836      36.893836      36.893836    
    300000   0.28052091    -8.1652258     -7.7444504      0.753111       50218.233      36.893836      36.893836      36.893836    
    400000   0.27800963    -8.1654986     -7.7484901      0.74948456     50218.233      36.893836      36.893836      36.893836    
    500000   0.27945583    -8.1646627     -7.7454849      0.75598101     50218.233      36.893836      36.893836      36.893836    
    600000   0.28010567    -8.1647986     -7.7446461      0.76003369     50218.233      36.893836      36.893836      36.893836    
    700000   0.28044379    -8.1649302     -7.7442705      0.75500458     50218.233      36.893836      36.893836      36.893836    
    800000   0.27996909    -8.1645181     -7.7445704      0.75572509     50218.233      36.893836      36.893836      36.893836    
    900000   0.27948803    -8.1672568     -7.7480307      0.74256805     50218.233      36.893836      36.893836      36.893836    
   1000000   0.28181054    -8.1678099     -7.7451001      0.73508237     50218.233      36.893836      36.893836      36.893836    
   1100000   0.28069022    -8.165209      -7.7441796      0.74606297     50218.233      36.893836      36.893836      36.893836    
   1200000   0.27897441    -8.1613896     -7.742934       0.78066486     50218.233      36.893836      36.893836      36.893836    
   1300000   0.28117398    -8.164543      -7.742788       0.76048544     50218.233      36.893836      36.893836      36.893836    
   1400000   0.28015326    -8.1627697     -7.7425458      0.77160774     50218.233      36.893836      36.893836      36.893836    
   1500000   0.28010971    -8.1669037     -7.7467451      0.74250809     50218.233      36.893836      36.893836      36.893836    
   1600000   0.28093752    -8.1628152     -7.7414149      0.77515721     50218.233      36.893836      36.893836      36.893836    
   1700000   0.2798693     -8.1630438     -7.7432458      0.77299753     50218.233      36.893836      36.893836      36.893836    
   1800000   0.2772965     -8.1637788     -7.7478399      0.76369407     50218.233      36.893836      36.893836      36.893836    
   1900000   0.27944253    -8.1631919     -7.7440341      0.7657382      50218.233      36.893836      36.893836      36.893836    
   2000000   0.27987193    -8.1649204     -7.7451184      0.75655173     50218.233      36.893836      36.893836      36.893836    
   2100000   0.27973554    -8.1631642     -7.7435669      0.7746159      50218.233      36.893836      36.893836      36.893836    
   2200000   0.28026054    -8.1662495     -7.7458646      0.74060153     50218.233      36.893836      36.893836      36.893836    
   2300000   0.27994342    -8.1629364     -7.7430272      0.78286049     50218.233      36.893836      36.893836      36.893836    
   2400000   0.27821567    -8.1631858     -7.7458682      0.77122955     50218.233      36.893836      36.893836      36.893836    
   2500000   0.28081692    -8.163186      -7.7419666      0.77421732     50218.233      36.893836      36.893836      36.893836    
   2600000   0.28097809    -8.1657575     -7.7442964      0.74266774     50218.233      36.893836      36.893836      36.893836    
   2700000   0.27968868    -8.1650087     -7.7454817      0.75739954     50218.233      36.893836      36.893836      36.893836    
   2800000   0.28070901    -8.1629434     -7.7418858      0.77906327     50218.233      36.893836      36.893836      36.893836    
   2900000   0.28197815    -8.1642253     -7.7412641      0.76243442     50218.233      36.893836      36.893836      36.893836    
   3000000   0.28045043    -8.164728      -7.7440584      0.7598915      50218.233      36.893836      36.893836      36.893836    
   3100000   0.28069124    -8.1642913     -7.7432605      0.75765898     50218.233      36.893836      36.893836      36.893836    
   3200000   0.28010219    -8.1650269     -7.7448796      0.76031742     50218.233      36.893836      36.893836      36.893836    
   3300000   0.27958586    -8.1633907     -7.7440178      0.76506977     50218.233      36.893836      36.893836      36.893836    
   3400000   0.28028852    -8.1653094     -7.7448826      0.75998289     50218.233      36.893836      36.893836      36.893836    
   3500000   0.27925702    -8.1634738     -7.7445942      0.76263933     50218.233      36.893836      36.893836      36.893836    
   3600000   0.27817331    -8.1640281     -7.7467741      0.75365366     50218.233      36.893836      36.893836      36.893836    
   3700000   0.27937562    -8.1634448     -7.7443873      0.76807905     50218.233      36.893836      36.893836      36.893836    
   3800000   0.28121181    -8.1667511     -7.7449393      0.74530754     50218.233      36.893836      36.893836      36.893836    
   3900000   0.28185834    -8.1655148     -7.7427333      0.75842058     50218.233      36.893836      36.893836      36.893836    
   4000000   0.27970222    -8.1662659     -7.7467186      0.74189299     50218.233      36.893836      36.893836      36.893836    
   4100000   0.28055609    -8.1631447     -7.7423165      0.76936382     50218.233      36.893836      36.893836      36.893836    
   4200000   0.27913541    -8.1673029     -7.7486058      0.72889322     50218.233      36.893836      36.893836      36.893836    
   4300000   0.27985455    -8.1639297     -7.7441538      0.76406758     50218.233      36.893836      36.893836      36.893836    
   4400000   0.28045456    -8.1656785     -7.7450026      0.75765506     50218.233      36.893836      36.893836      36.893836    
   4500000   0.27948636    -8.1659591     -7.7467355      0.74583193     50218.233      36.893836      36.893836      36.893836    
   4600000   0.27865115    -8.1665347     -7.748564       0.74515373     50218.233      36.893836      36.893836      36.893836    
   4700000   0.28024783    -8.1647803     -7.7444146      0.7516398      50218.233      36.893836      36.893836      36.893836    
   4800000   0.27898776    -8.1651054     -7.7466297      0.74776058     50218.233      36.893836      36.893836      36.893836    
   4900000   0.2800756     -8.1648822     -7.7447748      0.75713663     50218.233      36.893836      36.893836      36.893836    
   5000000   0.28064148    -8.1654503     -7.7444941      0.74983676     50218.233      36.893836      36.893836      36.893836    
   5100000   0.280346      -8.1666382     -7.7461252      0.75237741     50218.233      36.893836      36.893836      36.893836    
   5200000   0.27972731    -8.1677183     -7.7481334      0.73812833     50218.233      36.893836      36.893836      36.893836    
   5300000   0.27913192    -8.1659359     -7.747244       0.74508119     50218.233      36.893836      36.893836      36.893836    
   5400000   0.27867202    -8.1632977     -7.7452957      0.76683855     50218.233      36.893836      36.893836      36.893836    
   5500000   0.27977818    -8.1669412     -7.7472799      0.74650197     50218.233      36.893836      36.893836      36.893836    
   5600000   0.27953544    -8.1657901     -7.7464929      0.75189431     50218.233      36.893836      36.893836      36.893836    
   5700000   0.27998162    -8.1653987     -7.7454322      0.74741613     50218.233      36.893836      36.893836      36.893836    
   5800000   0.28034176    -8.1677491     -7.7472424      0.73373578     50218.233      36.893836      36.893836      36.893836    
   5900000   0.27986557    -8.1664246     -7.7466322      0.74458913     50218.233      36.893836      36.893836      36.893836    
   6000000   0.28011915    -8.1654327     -7.7452599      0.7594325      50218.233      36.893836      36.893836      36.893836    
   6100000   0.28011473    -8.1676873     -7.7475212      0.72633626     50218.233      36.893836      36.893836      36.893836    
   6200000   0.28177138    -8.1647231     -7.742072       0.75256513     50218.233      36.893836      36.893836      36.893836    
   6300000   0.28015406    -8.1623363     -7.7421112      0.77906148     50218.233      36.893836      36.893836      36.893836    
   6400000   0.2807715     -8.165399      -7.7442477      0.75138482     50218.233      36.893836      36.893836      36.893836    
   6500000   0.27966558    -8.1626566     -7.7431642      0.77023051     50218.233      36.893836      36.893836      36.893836    
   6600000   0.28043926    -8.1656594     -7.7450065      0.75294587     50218.233      36.893836      36.893836      36.893836    
   6700000   0.2793713     -8.1653104     -7.7462594      0.75055545     50218.233      36.893836      36.893836      36.893836    
   6800000   0.28018891    -8.1649076     -7.7446302      0.76209212     50218.233      36.893836      36.893836      36.893836    
   6900000   0.28086254    -8.1647352     -7.7434474      0.7563002      50218.233      36.893836      36.893836      36.893836    
   7000000   0.27975713    -8.1642396     -7.7446099      0.76353208     50218.233      36.893836      36.893836      36.893836    
   7100000   0.279589      -8.1644315     -7.7450539      0.76317752     50218.233      36.893836      36.893836      36.893836    
   7200000   0.28020487    -8.1651089     -7.7448076      0.75355482     50218.233      36.893836      36.893836      36.893836    
   7300000   0.28035169    -8.1654313     -7.7449097      0.74977597     50218.233      36.893836      36.893836      36.893836    
   7400000   0.28216947    -8.1667905     -7.7435423      0.7452186      50218.233      36.893836      36.893836      36.893836    
   7500000   0.2801621     -8.1655781     -7.7453409      0.74585039     50218.233      36.893836      36.893836      36.893836    
   7600000   0.27934039    -8.1643443     -7.7453397      0.76138468     50218.233      36.893836      36.893836      36.893836    
   7700000   0.27942105    -8.1631948     -7.7440692      0.77017598     50218.233      36.893836      36.893836      36.893836    
   7800000   0.28069647    -8.165629      -7.7445903      0.7578083      50218.233      36.893836      36.893836      36.893836    
   7900000   0.28027259    -8.1650797     -7.7446768      0.76085094     50218.233      36.893836      36.893836      36.893836    
   8000000   0.28028487    -8.1650965     -7.7446752      0.76504077     50218.233      36.893836      36.893836      36.893836    
   8100000   0.279968      -8.1669251     -7.7469791      0.7368235      50218.233      36.893836      36.893836      36.893836    
   8200000   0.27972551    -8.1661314     -7.7465491      0.74898903     50218.233      36.893836      36.893836      36.893836    
   8300000   0.2806201     -8.1663555     -7.7454313      0.74216921     50218.233      36.893836      36.893836      36.893836    
   8400000   0.27918245    -8.1645782     -7.7458105      0.76634901     50218.233      36.893836      36.893836      36.893836    
   8500000   0.27945003    -8.1651013     -7.7459322      0.76800911     50218.233      36.893836      36.893836      36.893836    
   8600000   0.28249271    -8.1639596     -7.7402265      0.77726668     50218.233      36.893836      36.893836      36.893836    
   8700000   0.28071504    -8.1663462     -7.7452796      0.75137153     50218.233      36.893836      36.893836      36.893836    
   8800000   0.28008549    -8.1651949     -7.7450726      0.76106405     50218.233      36.893836      36.893836      36.893836    
   8900000   0.28047575    -8.165812      -7.7451044      0.74637601     50218.233      36.893836      36.893836      36.893836    
   9000000   0.28157068    -8.1666192     -7.7442692      0.74185773     50218.233      36.893836      36.893836      36.893836    
   9100000   0.28009133    -8.1643199     -7.7441889      0.76152465     50218.233      36.893836      36.893836      36.893836    
   9200000   0.27935467    -8.1656497     -7.7466237      0.74995785     50218.233      36.893836      36.893836      36.893836    
   9300000   0.28078606    -8.1665579     -7.7453848      0.7432956      50218.233      36.893836      36.893836      36.893836    
   9400000   0.27912234    -8.1649924     -7.7463149      0.75845659     50218.233      36.893836      36.893836      36.893836    
   9500000   0.28013155    -8.1654774     -7.745286       0.75346103     50218.233      36.893836      36.893836      36.893836    
   9600000   0.27848881    -8.1655123     -7.747785       0.74414978     50218.233      36.893836      36.893836      36.893836    
   9700000   0.28027114    -8.16748       -7.7470792      0.73689465     50218.233      36.893836      36.893836      36.893836    
   9800000   0.27954242    -8.165873      -7.7465653      0.73905903     50218.233      36.893836      36.893836      36.893836    
   9900000   0.28064867    -8.167059      -7.746092       0.73584726     50218.233      36.893836      36.893836      36.893836    
  10000000   0.28028926    -8.167712      -7.7472841      0.74403986     50218.233      36.893836      36.893836      36.893836    
  10100000   0.28101447    -8.1673809     -7.7458652      0.74268618     50218.233      36.893836      36.893836      36.893836    
  10200000   0.27939845    -8.1650566     -7.7459649      0.75609314     50218.233      36.893836      36.893836      36.893836    
  10300000   0.27993744    -8.1637703     -7.7438701      0.7695022      50218.233      36.893836      36.893836      36.893836    
  10400000   0.27972163    -8.1664768     -7.7469003      0.75104755     50218.233      36.893836      36.893836      36.893836    
  10500000   0.28001237    -8.1645141     -7.7445016      0.76283786     50218.233      36.893836      36.893836      36.893836    
  10600000   0.28072556    -8.1667244     -7.7456421      0.74763791     50218.233      36.893836      36.893836      36.893836    
  10700000   0.2801189     -8.1672793     -7.747107       0.74209247     50218.233      36.893836      36.893836      36.893836    
  10800000   0.27957346    -8.1649643     -7.7456101      0.7629675      50218.233      36.893836      36.893836      36.893836    
  10900000   0.28055499    -8.1647048     -7.7438783      0.75804219     50218.233      36.893836      36.893836      36.893836    
  11000000   0.28020094    -8.1637074     -7.7434119      0.77129211     50218.233      36.893836      36.893836      36.893836    
  11100000   0.27922095    -8.1660195     -7.7471941      0.74985846     50218.233      36.893836      36.893836      36.893836    
  11200000   0.28037713    -8.165086      -7.7445263      0.75758289     50218.233      36.893836      36.893836      36.893836    
  11300000   0.28037412    -8.163938      -7.7433828      0.76910783     50218.233      36.893836      36.893836      36.893836    
  11400000   0.27827286    -8.1661564     -7.7487531      0.7413486      50218.233      36.893836      36.893836      36.893836    
  11500000   0.28031617    -8.1653272     -7.7448589      0.75720066     50218.233      36.893836      36.893836      36.893836    
  11600000   0.28215424    -8.1655777     -7.7423523      0.75833398     50218.233      36.893836      36.893836      36.893836    
  11700000   0.28150649    -8.1635702     -7.7413165      0.76999531     50218.233      36.893836      36.893836      36.893836    
  11800000   0.28011768    -8.1648691     -7.7446985      0.75370501     50218.233      36.893836      36.893836      36.893836    
  11900000   0.27969122    -8.1639927     -7.7444618      0.75701378     50218.233      36.893836      36.893836      36.893836    
  12000000   0.27885727    -8.1654588     -7.7471789      0.75869144     50218.233      36.893836      36.893836      36.893836    
  12100000   0.27954943    -8.1640949     -7.7447767      0.76571472     50218.233      36.893836      36.893836      36.893836    
  12200000   0.27893848    -8.1632382     -7.7448365      0.7663931      50218.233      36.893836      36.893836      36.893836    
  12300000   0.27842485    -8.1648228     -7.7471915      0.75132321     50218.233      36.893836      36.893836      36.893836    
  12400000   0.27926705    -8.1657514     -7.7468568      0.75123291     50218.233      36.893836      36.893836      36.893836    
  12500000   0.2798898     -8.1651458     -7.7453171      0.75681769     50218.233      36.893836      36.893836      36.893836    
  12600000   0.28060643    -8.1659681     -7.7450645      0.75289743     50218.233      36.893836      36.893836      36.893836    
  12700000   0.27916523    -8.1640645     -7.7453226      0.76086306     50218.233      36.893836      36.893836      36.893836    
  12800000   0.28157986    -8.163787      -7.7414232      0.76714969     50218.233      36.893836      36.893836      36.893836    
  12900000   0.27907555    -8.1636797     -7.7450724      0.76530962     50218.233      36.893836      36.893836      36.893836    
  13000000   0.27952689    -8.1663547     -7.7470703      0.74377481     50218.233      36.893836      36.893836      36.893836    
  13100000   0.28005671    -8.1646834     -7.7446043      0.75756046     50218.233      36.893836      36.893836      36.893836    
  13200000   0.28044954    -8.1680846     -7.7474163      0.72637307     50218.233      36.893836      36.893836      36.893836    
  13300000   0.27981218    -8.1647809     -7.7450686      0.75381234     50218.233      36.893836      36.893836      36.893836    
  13400000   0.27877862    -8.1649507     -7.7467887      0.75193176     50218.233      36.893836      36.893836      36.893836    
  13500000   0.28029614    -8.1633995     -7.7429613      0.76419179     50218.233      36.893836      36.893836      36.893836    
  13600000   0.28014221    -8.1659724     -7.7457651      0.74819809     50218.233      36.893836      36.893836      36.893836    
  13700000   0.28064603    -8.1644621     -7.743499       0.75821322     50218.233      36.893836      36.893836      36.893836    
  13800000   0.27942264    -8.1638895     -7.7447615      0.76332179     50218.233      36.893836      36.893836      36.893836    
  13900000   0.27912097    -8.1660984     -7.7474229      0.74718559     50218.233      36.893836      36.893836      36.893836    
  14000000   0.27931526    -8.1650311     -7.7460642      0.75888947     50218.233      36.893836      36.893836      36.893836    
  14100000   0.27973167    -8.1646624     -7.7450708      0.75695334     50218.233      36.893836      36.893836      36.893836    
  14200000   0.27853133    -8.1646545     -7.7468635      0.75948128     50218.233      36.893836      36.893836      36.893836    
  14300000   0.27947035    -8.1648772     -7.7456776      0.76406483     50218.233      36.893836      36.893836      36.893836    
  14400000   0.2805796     -8.1673914     -7.746528       0.73461516     50218.233      36.893836      36.893836      36.893836    
  14500000   0.27869919    -8.1676789     -7.7496361      0.73451068     50218.233      36.893836      36.893836      36.893836    
  14600000   0.27991159    -8.1671258     -7.7472644      0.73590224     50218.233      36.893836      36.893836      36.893836    
  14700000   0.28110888    -8.1667569     -7.7450996      0.74703134     50218.233      36.893836      36.893836      36.893836    
  14800000   0.27921059    -8.164888      -7.7460781      0.74992271     50218.233      36.893836      36.893836      36.893836    
  14900000   0.27986814    -8.1659777     -7.7461814      0.75485351     50218.233      36.893836      36.893836      36.893836    
  15000000   0.27962894    -8.1651664     -7.7457289      0.75959951     50218.233      36.893836      36.893836      36.893836    
  15100000   0.28096576    -8.1661221     -7.7446794      0.74742154     50218.233      36.893836      36.893836      36.893836    
  15200000   0.28019779    -8.1655728     -7.7452821      0.7564265      50218.233      36.893836      36.893836      36.893836    
  15300000   0.28055111    -8.165574      -7.7447533      0.74802774     50218.233      36.893836      36.893836      36.893836    
  15400000   0.27997617    -8.1653018     -7.7453435      0.75515712     50218.233      36.893836      36.893836      36.893836    
  15500000   0.27954216    -8.1658329     -7.7465257      0.75272111     50218.233      36.893836      36.893836      36.893836    
  15600000   0.28022862    -8.16663       -7.7462931      0.74112767     50218.233      36.893836      36.893836      36.893836    
  15700000   0.2790779     -8.1670418     -7.7484309      0.74030989     50218.233      36.893836      36.893836      36.893836    
  15800000   0.28015717    -8.1670698     -7.74684        0.74398023     50218.233      36.893836      36.893836      36.893836    
  15900000   0.28112452    -8.1645217     -7.7428409      0.76186093     50218.233      36.893836      36.893836      36.893836    
  16000000   0.28164364    -8.1649599     -7.7425005      0.75606697     50218.233      36.893836      36.893836      36.893836    
  16100000   0.28081372    -8.1625916     -7.741377       0.77319636     50218.233      36.893836      36.893836      36.893836    
  16200000   0.28080716    -8.16453       -7.7433252      0.75912238     50218.233      36.893836      36.893836      36.893836    
  16300000   0.28133688    -8.1644368     -7.7424375      0.76204246     50218.233      36.893836      36.893836      36.893836    
  16400000   0.28060786    -8.1640863     -7.7431805      0.76221181     50218.233      36.893836      36.893836      36.893836    
  16500000   0.27915753    -8.1668676     -7.7481372      0.74021287     50218.233      36.893836      36.893836      36.893836    
  16600000   0.27978038    -8.1650254     -7.7453608      0.75837217     50218.233      36.893836      36.893836      36.893836    
  16700000   0.28059011    -8.1658468     -7.7449676      0.75440806     50218.233      36.893836      36.893836      36.893836    
  16800000   0.28073514    -8.1644067     -7.7433099      0.75768966     50218.233      36.893836      36.893836      36.893836    
  16900000   0.28049222    -8.1642249     -7.7434926      0.76264125     50218.233      36.893836      36.893836      36.893836    
  17000000   0.27878723    -8.161494      -7.7433192      0.78028769     50218.233      36.893836      36.893836      36.893836    
  17100000   0.27929352    -8.1662406     -7.7473063      0.74361051     50218.233      36.893836      36.893836      36.893836    
  17200000   0.27989217    -8.1661087     -7.7462764      0.73856859     50218.233      36.893836      36.893836      36.893836    
  17300000   0.28096747    -8.1653968     -7.7439516      0.75424194     50218.233      36.893836      36.893836      36.893836    
  17400000   0.27972678    -8.161864      -7.7422798      0.78302497     50218.233      36.893836      36.893836      36.893836    
  17500000   0.2799035     -8.165211      -7.7453617      0.7513205      50218.233      36.893836      36.893836      36.893836    
  17600000   0.27974398    -8.1636723     -7.7440623      0.76653082     50218.233      36.893836      36.893836      36.893836    
  17700000   0.27862758    -8.1660901     -7.7481547      0.75043149     50218.233      36.893836      36.893836      36.893836    
  17800000   0.27955234    -8.1668943     -7.7475718      0.74027694     50218.233      36.893836      36.893836      36.893836    
  17900000   0.27971726    -8.166858      -7.7472881      0.74107931     50218.233      36.893836      36.893836      36.893836    
  18000000   0.28063411    -8.1654454     -7.7445002      0.75471294     50218.233      36.893836      36.893836      36.893836    
  18100000   0.2790451     -8.1656344     -7.7470727      0.75250082     50218.233      36.893836      36.893836      36.893836    
  18200000   0.27968518    -8.1656912     -7.7461694      0.74648815     50218.233      36.893836      36.893836      36.893836    
  18300000   0.27949821    -8.1632542     -7.7440128      0.77548465     50218.233      36.893836      36.893836      36.893836    
  18400000   0.27894899    -8.162157      -7.7437394      0.77804321     50218.233      36.893836      36.893836      36.893836    
  18500000   0.28004426    -8.1657512     -7.7456908      0.74936674     50218.233      36.893836      36.893836      36.893836    
  18600000   0.27875699    -8.1646966     -7.7465671      0.76886677     50218.233      36.893836      36.893836      36.893836    
  18700000   0.28017705    -8.1661811     -7.7459215      0.75651861     50218.233      36.893836      36.893836      36.893836    
  18800000   0.28011114    -8.1629797     -7.742819       0.78298957     50218.233      36.893836      36.893836      36.893836    
  18900000   0.28123516    -8.1639825     -7.7421358      0.76443079     50218.233      36.893836      36.893836      36.893836    
  19000000   0.27988994    -8.1675614     -7.7477324      0.73983371     50218.233      36.893836      36.893836      36.893836    
  19100000   0.27946914    -8.1674684     -7.7482707      0.74320011     50218.233      36.893836      36.893836      36.893836    
  19200000   0.27982996    -8.1646582     -7.7449192      0.76012981     50218.233      36.893836      36.893836      36.893836    
  19300000   0.28087184    -8.1643033     -7.7430015      0.76760006     50218.233      36.893836      36.893836      36.893836    
  19400000   0.28064607    -8.1641646     -7.7432015      0.76188428     50218.233      36.893836      36.893836      36.893836    
  19500000   0.28044862    -8.166991      -7.7463241      0.74158514     50218.233      36.893836      36.893836      36.893836    
  19600000   0.27958458    -8.1669648     -7.7475939      0.74119393     50218.233      36.893836      36.893836      36.893836    
  19700000   0.28089092    -8.1674432     -7.7461128      0.74259975     50218.233      36.893836      36.893836      36.893836    
  19800000   0.28282395    -8.165291      -7.7410612      0.76326507     50218.233      36.893836      36.893836      36.893836    
  19900000   0.2812517     -8.165492      -7.7436204      0.75017578     50218.233      36.893836      36.893836      36.893836    
  20000000   0.27914634    -8.1660208     -7.7473073      0.74025289     50218.233      36.893836      36.893836      36.893836    
  20100000   0.28123593    -8.1701103     -7.7482624      0.72104301     50218.233      36.893836      36.893836      36.893836    
  20200000   0.28028901    -8.1652466     -7.7448191      0.75307368     50218.233      36.893836      36.893836      36.893836    
  20300000   0.27984968    -8.1682065     -7.748438       0.72761221     50218.233      36.893836      36.893836      36.893836    
  20400000   0.2795009     -8.1681883     -7.7489429      0.72966391     50218.233      36.893836      36.893836      36.893836    
  20500000   0.27955269    -8.1653789     -7.7460559      0.76104583     50218.233      36.893836      36.893836      36.893836    
  20600000   0.28113628    -8.165772      -7.7440736      0.75503361     50218.233      36.893836      36.893836      36.893836    
  20700000   0.27916889    -8.1632758     -7.7445284      0.77107173     50218.233      36.893836      36.893836      36.893836    
  20800000   0.27969219    -8.1641378     -7.7446055      0.77354714     50218.233      36.893836      36.893836      36.893836    
  20900000   0.28030617    -8.1666715     -7.7462182      0.74749056     50218.233      36.893836      36.893836      36.893836    
  21000000   0.28047351    -8.1671214     -7.7464171      0.74106681     50218.233      36.893836      36.893836      36.893836    
  21100000   0.2783384     -8.1649619     -7.7474603      0.76039026     50218.233      36.893836      36.893836      36.893836    
  21200000   0.27884323    -8.1645957     -7.7463368      0.75770017     50218.233      36.893836      36.893836      36.893836    
  21300000   0.28004569    -8.1676488     -7.7475863      0.74366282     50218.233      36.893836      36.893836      36.893836    
  21400000   0.28109111    -8.1665236     -7.7448929      0.74826909     50218.233      36.893836      36.893836      36.893836    
  21500000   0.28060572    -8.1647786     -7.743876       0.75995315     50218.233      36.893836      36.893836      36.893836    
  21600000   0.28048024    -8.1652282     -7.7445139      0.75000479     50218.233      36.893836      36.893836      36.893836    
  21700000   0.28032982    -8.1658216     -7.7453328      0.74933273     50218.233      36.893836      36.893836      36.893836    
  21800000   0.28124632    -8.1636451     -7.7417816      0.78186176     50218.233      36.893836      36.893836      36.893836    
  21900000   0.27912415    -8.1652852     -7.746605       0.75639301     50218.233      36.893836      36.893836      36.893836    
  22000000   0.28188394    -8.1654795     -7.7426596      0.75754974     50218.233      36.893836      36.893836      36.893836    
  22100000   0.27868459    -8.1668432     -7.7488223      0.74193664     50218.233      36.893836      36.893836      36.893836    
  22200000   0.28017467    -8.1630414     -7.7427854      0.7799663      50218.233      36.893836      36.893836      36.893836    
  22300000   0.28034896    -8.1638595     -7.743342       0.76293426     50218.233      36.893836      36.893836      36.893836    
  22400000   0.27903541    -8.1640087     -7.7454616      0.76140877     50218.233      36.893836      36.893836      36.893836    
  22500000   0.27998644    -8.1652942     -7.7453205      0.75919397     50218.233      36.893836      36.893836      36.893836    
  22600000   0.27992692    -8.1655127     -7.7456283      0.75280407     50218.233      36.893836      36.893836      36.893836    
  22700000   0.27962644    -8.1647583     -7.7453246      0.75455568     50218.233      36.893836      36.893836      36.893836    
  22800000   0.2798026     -8.1637298     -7.7440319      0.76116702     50218.233      36.893836      36.893836      36.893836    
  22900000   0.27876011    -8.1617339     -7.7435997      0.7824402      50218.233      36.893836      36.893836      36.893836    
  23000000   0.28042096    -8.1650473     -7.7444218      0.75982523     50218.233      36.893836      36.893836      36.893836    
  23100000   0.27930255    -8.163259      -7.7443111      0.76552673     50218.233      36.893836      36.893836      36.893836    
  23200000   0.28045319    -8.1650607     -7.7443869      0.75611588     50218.233      36.893836      36.893836      36.893836    
  23300000   0.27826536    -8.1644379     -7.7470458      0.75884258     50218.233      36.893836      36.893836      36.893836    
  23400000   0.27916172    -8.1652604     -7.7465238      0.75559537     50218.233      36.893836      36.893836      36.893836    
  23500000   0.2795073     -8.1633388     -7.7440838      0.77077364     50218.233      36.893836      36.893836      36.893836    
  23600000   0.27911773    -8.1660153     -7.7473446      0.74573606     50218.233      36.893836      36.893836      36.893836    
  23700000   0.28048052    -8.167385      -7.7466702      0.73860221     50218.233      36.893836      36.893836      36.893836    
  23800000   0.28002663    -8.1684373     -7.7484033      0.73392984     50218.233      36.893836      36.893836      36.893836    
  23900000   0.2816629     -8.1640964     -7.741608       0.7706834      50218.233      36.893836      36.893836      36.893836    
  24000000   0.28134131    -8.167679      -7.7456731      0.7407692      50218.233      36.893836      36.893836      36.893836    
  24100000   0.28084648    -8.1655657     -7.744302       0.75241678     50218.233      36.893836      36.893836      36.893836    
  24200000   0.28046311    -8.1661308     -7.7454421      0.75089339     50218.233      36.893836      36.893836      36.893836    
  24300000   0.280246      -8.1655457     -7.7451827      0.75230622     50218.233      36.893836      36.893836      36.893836    
  24400000   0.28140334    -8.1637523     -7.7416533      0.76425523     50218.233      36.893836      36.893836      36.893836    
  24500000   0.28002431    -8.1680295     -7.747999       0.73438735     50218.233      36.893836      36.893836      36.893836    
  24600000   0.27937123    -8.1661197     -7.7470688      0.75007843     50218.233      36.893836      36.893836      36.893836    
  24700000   0.2796956     -8.1648861     -7.7453487      0.75582197     50218.233      36.893836      36.893836      36.893836    
  24800000   0.2795433     -8.1654219     -7.7461129      0.74575716     50218.233      36.893836      36.893836      36.893836    
  24900000   0.28002192    -8.1661528     -7.7461259      0.75715781     50218.233      36.893836      36.893836      36.893836    
  25000000   0.28038315    -8.166941      -7.7463722      0.74633637     50218.233      36.893836      36.893836      36.893836    
  25100000   0.28183479    -8.1657166     -7.7429704      0.75478463     50218.233      36.893836      36.893836      36.893836    
  25200000   0.2807275     -8.1669149     -7.7458296      0.7397873      50218.233      36.893836      36.893836      36.893836    
  25300000   0.27922784    -8.1648897     -7.7460539      0.75843314     50218.233      36.893836      36.893836      36.893836    
  25400000   0.27949582    -8.1677378     -7.7485         0.73385152     50218.233      36.893836      36.893836      36.893836    
  25500000   0.27989981    -8.1658633     -7.7460195      0.75015051     50218.233      36.893836      36.893836      36.893836    
  25600000   0.279706      -8.1659056     -7.7463526      0.75060885     50218.233      36.893836      36.893836      36.893836    
  25700000   0.28024119    -8.164319      -7.7439632      0.75686545     50218.233      36.893836      36.893836      36.893836    
  25800000   0.28012069    -8.1622828     -7.7421078      0.7766374      50218.233      36.893836      36.893836      36.893836    
  25900000   0.28249207    -8.1647541     -7.741022       0.75631305     50218.233      36.893836      36.893836      36.893836    
  26000000   0.28008974    -8.16571       -7.7455813      0.75111858     50218.233      36.893836      36.893836      36.893836    
  26100000   0.28005241    -8.165901      -7.7458284      0.74976677     50218.233      36.893836      36.893836      36.893836    
  26200000   0.27950902    -8.1650016     -7.745744       0.76417524     50218.233      36.893836      36.893836      36.893836    
  26300000   0.27950813    -8.1643652     -7.745109       0.76277882     50218.233      36.893836      36.893836      36.893836    
  26400000   0.27893688    -8.1631901     -7.7447907      0.75985366     50218.233      36.893836      36.893836      36.893836    
  26500000   0.2809175     -8.1639773     -7.7426071      0.76483197     50218.233      36.893836      36.893836      36.893836    
  26600000   0.28041612    -8.1648225     -7.7442043      0.76088197     50218.233      36.893836      36.893836      36.893836    
  26700000   0.27921497    -8.1659195     -7.747103       0.74679606     50218.233      36.893836      36.893836      36.893836    
  26800000   0.27937981    -8.1651871     -7.7461233      0.75065894     50218.233      36.893836      36.893836      36.893836    
  26900000   0.28113389    -8.1663318     -7.7446369      0.75513109     50218.233      36.893836      36.893836      36.893836    
  27000000   0.28066907    -8.163957      -7.7429594      0.7602002      50218.233      36.893836      36.893836      36.893836    
  27100000   0.27957464    -8.1645952     -7.7452392      0.75598516     50218.233      36.893836      36.893836      36.893836    
  27200000   0.28004217    -8.1660058     -7.7459485      0.74101526     50218.233      36.893836      36.893836      36.893836    
  27300000   0.27901013    -8.1643339     -7.7458247      0.75606015     50218.233      36.893836      36.893836      36.893836    
  27400000   0.27921681    -8.1646455     -7.7458263      0.76494895     50218.233      36.893836      36.893836      36.893836    
  27500000   0.27975452    -8.1645515     -7.7449257      0.7586811      50218.233      36.893836      36.893836      36.893836    
  27600000   0.28093708    -8.1647422     -7.7433426      0.7572989      50218.233      36.893836      36.893836      36.893836    
  27700000   0.27986761    -8.1638799     -7.7440845      0.76673048     50218.233      36.893836      36.893836      36.893836    
  27800000   0.27936929    -8.1641985     -7.7451506      0.75988842     50218.233      36.893836      36.893836      36.893836    
  27900000   0.27920919    -8.1632867     -7.7444788      0.76493604     50218.233      36.893836      36.893836      36.893836    
  28000000   0.27821013    -8.1657228     -7.7484136      0.74903364     50218.233      36.893836      36.893836      36.893836    
  28100000   0.27969084    -8.163863      -7.7443327      0.76702966     50218.233      36.893836      36.893836      36.893836    
  28200000   0.27925129    -8.1632863     -7.7444153      0.77424999     50218.233      36.893836      36.893836      36.893836    
  28300000   0.27900958    -8.1657631     -7.7472547      0.74685383     50218.233      36.893836      36.893836      36.893836    
  28400000   0.28039953    -8.1659626     -7.7453693      0.75514964     50218.233      36.893836      36.893836      36.893836    
  28500000   0.27923201    -8.1638542     -7.7450122      0.76155801     50218.233      36.893836      36.893836      36.893836    
  28600000   0.27966641    -8.1643853     -7.7448916      0.76423192     50218.233      36.893836      36.893836      36.893836    
  28700000   0.27966785    -8.1682568     -7.748761       0.73465442     50218.233      36.893836      36.893836      36.893836    
  28800000   0.28173171    -8.1642657     -7.7416742      0.76977862     50218.233      36.893836      36.893836      36.893836    
  28900000   0.28010612    -8.1660052     -7.745852       0.75230047     50218.233      36.893836      36.893836      36.893836    
  29000000   0.28119326    -8.1645922     -7.7428083      0.75533336     50218.233      36.893836      36.893836      36.893836    
  29100000   0.28099618    -8.1655357     -7.7440474      0.74479378     50218.233      36.893836      36.893836      36.893836    
  29200000   0.27948184    -8.1659662     -7.7467494      0.74435528     50218.233      36.893836      36.893836      36.893836    
  29300000   0.27942791    -8.1655812     -7.7464453      0.75378408     50218.233      36.893836      36.893836      36.893836    
  29400000   0.27962615    -8.1666084     -7.7471751      0.74026253     50218.233      36.893836      36.893836      36.893836    
  29500000   0.27968161    -8.1683421     -7.7488257      0.73281262     50218.233      36.893836      36.893836      36.893836    
  29600000   0.28087475    -8.1642103     -7.7429041      0.76237386     50218.233      36.893836      36.893836      36.893836    
  29700000   0.28131416    -8.1657217     -7.7437565      0.74995749     50218.233      36.893836      36.893836      36.893836    
  29800000   0.28189865    -8.16567       -7.742828       0.74833863     50218.233      36.893836      36.893836      36.893836    
  29900000   0.27852318    -8.1668598     -7.749081       0.74590296     50218.233      36.893836      36.893836      36.893836    
  30000000   0.28085045    -8.1665606     -7.7452909      0.75044987     50218.233      36.893836      36.893836      36.893836    
  30100000   0.27935668    -8.1651465     -7.7461174      0.75864283     50218.233      36.893836      36.893836      36.893836    
  30200000   0.27999086    -8.1654104     -7.7454301      0.75380159     50218.233      36.893836      36.893836      36.893836    
  30300000   0.28150485    -8.1660731     -7.7438218      0.75848899     50218.233      36.893836      36.893836      36.893836    
  30400000   0.27895096    -8.1662476     -7.7478271      0.75137014     50218.233      36.893836      36.893836      36.893836    
  30500000   0.28186699    -8.1679856     -7.7451911      0.73721295     50218.233      36.893836      36.893836      36.893836    
  30600000   0.2818083     -8.1649885     -7.7422821      0.76174141     50218.233      36.893836      36.893836      36.893836    
  30700000   0.27819911    -8.1663683     -7.7490755      0.74184937     50218.233      36.893836      36.893836      36.893836    
  30800000   0.27945292    -8.1668543     -7.7476809      0.73285291     50218.233      36.893836      36.893836      36.893836    
  30900000   0.27798083    -8.1657347     -7.7487693      0.7471538      50218.233      36.893836      36.893836      36.893836    
  31000000   0.28118005    -8.1654273     -7.7436632      0.75415104     50218.233      36.893836      36.893836      36.893836    
  31100000   0.28031102    -8.1647351     -7.7442745      0.7656265      50218.233      36.893836      36.893836      36.893836    
  31200000   0.27942132    -8.1678594     -7.7487333      0.74457664     50218.233      36.893836      36.893836      36.893836    
  31300000   0.27843484    -8.1679147     -7.7502684      0.73173971     50218.233      36.893836      36.893836      36.893836    
  31400000   0.28052654    -8.1668704     -7.7460866      0.74572689     50218.233      36.893836      36.893836      36.893836    
  31500000   0.27997388    -8.1641824     -7.7442276      0.76711354     50218.233      36.893836      36.893836      36.893836    
  31600000   0.27878399    -8.1670007     -7.7488306      0.74614074     50218.233      36.893836      36.893836      36.893836    
  31700000   0.27959224    -8.1641629     -7.7447805      0.76800238     50218.233      36.893836      36.893836      36.893836    
  31800000   0.27951068    -8.1647033     -7.7454432      0.75431617     50218.233      36.893836      36.893836      36.893836    
  31900000   0.28179024    -8.1633006     -7.7406212      0.77043728     50218.233      36.893836      36.893836      36.893836    
  32000000   0.27878971    -8.1665903     -7.7484117      0.73847786     50218.233      36.893836      36.893836      36.893836    
  32100000   0.27973467    -8.1627724     -7.7431764      0.76446858     50218.233      36.893836      36.893836      36.893836    
  32200000   0.27909611    -8.1665317     -7.7478935      0.75077896     50218.233      36.893836      36.893836      36.893836    
  32300000   0.2783357     -8.1640939     -7.7465963      0.76166615     50218.233      36.893836      36.893836      36.893836    
  32400000   0.27969302    -8.1662097     -7.7466761      0.74664406     50218.233      36.893836      36.893836      36.893836    
  32500000   0.28113872    -8.1631347     -7.7414327      0.76774802     50218.233      36.893836      36.893836      36.893836    
  32600000   0.2799358     -8.1639183     -7.7440206      0.76826704     50218.233      36.893836      36.893836      36.893836    
  32700000   0.27866798    -8.1644514     -7.7464554      0.75387058     50218.233      36.893836      36.893836      36.893836    
  32800000   0.28026364    -8.1654459     -7.7450565      0.75428831     50218.233      36.893836      36.893836      36.893836    
  32900000   0.27945147    -8.1646191     -7.7454478      0.75550794     50218.233      36.893836      36.893836      36.893836    
  33000000   0.27882943    -8.1649447     -7.7467065      0.75773937     50218.233      36.893836      36.893836      36.893836    
  33100000   0.27992084    -8.1667051     -7.7468298      0.7536119      50218.233      36.893836      36.893836      36.893836    
  33200000   0.2790881     -8.1628239     -7.7441977      0.77011758     50218.233      36.893836      36.893836      36.893836    
  33300000   0.27973279    -8.1646255     -7.7450323      0.76334577     50218.233      36.893836      36.893836      36.893836    
  33400000   0.28231828    -8.163221      -7.7397496      0.7775291      50218.233      36.893836      36.893836      36.893836    
  33500000   0.27858622    -8.1658216     -7.7479482      0.74717347     50218.233      36.893836      36.893836      36.893836    
  33600000   0.27974923    -8.165039      -7.7454211      0.7540203      50218.233      36.893836      36.893836      36.893836    
  33700000   0.28187473    -8.166112      -7.7433059      0.75299671     50218.233      36.893836      36.893836      36.893836    
  33800000   0.28016617    -8.165318      -7.7450747      0.74954142     50218.233      36.893836      36.893836      36.893836    
  33900000   0.27975009    -8.1658262     -7.7462071      0.75679232     50218.233      36.893836      36.893836      36.893836    
  34000000   0.2797097     -8.1668174     -7.7472588      0.74519591     50218.233      36.893836      36.893836      36.893836    
  34100000   0.28048861    -8.1654332     -7.7447062      0.75441956     50218.233      36.893836      36.893836      36.893836    
  34200000   0.28101429    -8.1666093     -7.7450939      0.75038378     50218.233      36.893836      36.893836      36.893836    
  34300000   0.28050703    -8.1665337     -7.7457791      0.75586587     50218.233      36.893836      36.893836      36.893836    
  34400000   0.28065254    -8.16468       -7.7437071      0.76194566     50218.233      36.893836      36.893836      36.893836    
  34500000   0.27988675    -8.1646899     -7.7448658      0.77003606     50218.233      36.893836      36.893836      36.893836    
  34600000   0.27995538    -8.1669736     -7.7470465      0.73975041     50218.233      36.893836      36.893836      36.893836    
  34700000   0.28051547    -8.1674276     -7.7466604      0.72893278     50218.233      36.893836      36.893836      36.893836    
  34800000   0.2795565     -8.1676652     -7.7483364      0.73138161     50218.233      36.893836      36.893836      36.893836    
  34900000   0.27991883    -8.1681197     -7.7482475      0.72901442     50218.233      36.893836      36.893836      36.893836    
  35000000   0.28139581    -8.1659125     -7.7438248      0.74966162     50218.233      36.893836      36.893836      36.893836    
  35100000   0.28098722    -8.1649718     -7.7434969      0.75755205     50218.233      36.893836      36.893836      36.893836    
  35200000   0.27831344    -8.1653639     -7.7478997      0.74976691     50218.233      36.893836      36.893836      36.893836    
  35300000   0.28035921    -8.1673011     -7.7467683      0.73956528     50218.233      36.893836      36.893836      36.893836    
  35400000   0.2794906     -8.1661302     -7.7469003      0.74367383     50218.233      36.893836      36.893836      36.893836    
  35500000   0.2797572     -8.1668714     -7.7472416      0.74687326     50218.233      36.893836      36.893836      36.893836    
  35600000   0.28110644    -8.1665237     -7.74487        0.74734729     50218.233      36.893836      36.893836      36.893836    
  35700000   0.27971964    -8.1676243     -7.7480508      0.73313575     50218.233      36.893836      36.893836      36.893836    
  35800000   0.28043523    -8.1635582     -7.7429114      0.77245435     50218.233      36.893836      36.893836      36.893836    
  35900000   0.28076613    -8.1657229     -7.7445797      0.75450639     50218.233      36.893836      36.893836      36.893836    
  36000000   0.2795868     -8.1661157     -7.7467414      0.7443249      50218.233      36.893836      36.893836      36.893836    
  36100000   0.27893258    -8.1644298     -7.7460369      0.75816285     50218.233      36.893836      36.893836      36.893836    
  36200000   0.27900124    -8.1636545     -7.7451586      0.75675329     50218.233      36.893836      36.893836      36.893836    
  36300000   0.2805701     -8.1638965     -7.7430474      0.75908551     50218.233      36.893836      36.893836      36.893836    
  36400000   0.28031653    -8.1639102     -7.7434414      0.76885338     50218.233      36.893836      36.893836      36.893836    
  36500000   0.28199397    -8.1658499     -7.742865       0.75799864     50218.233      36.893836      36.893836      36.893836    
  36600000   0.28084751    -8.1656855     -7.7444202      0.75678596     50218.233      36.893836      36.893836      36.893836    
  36700000   0.27924733    -8.1656852     -7.7468202      0.74868101     50218.233      36.893836      36.893836      36.893836    
  36800000   0.28059758    -8.1665744     -7.745684       0.74383201     50218.233      36.893836      36.893836      36.893836    
  36900000   0.2803321     -8.1654227     -7.7449305      0.74908076     50218.233      36.893836      36.893836      36.893836    
  37000000   0.28128877    -8.1641371     -7.74221        0.76413746     50218.233      36.893836      36.893836      36.893836    
  37100000   0.28039591    -8.1629736     -7.7423857      0.76269433     50218.233      36.893836      36.893836      36.893836    
  37200000   0.28074233    -8.165264      -7.7441565      0.75455412     50218.233      36.893836      36.893836      36.893836    
  37300000   0.27931607    -8.1638455     -7.7448774      0.76279099     50218.233      36.893836      36.893836      36.893836    
  37400000   0.27976309    -8.1637676     -7.7441289      0.75934802     50218.233      36.893836      36.893836      36.893836    
  37500000   0.28018249    -8.1660166     -7.7457488      0.74704323     50218.233      36.893836      36.893836      36.893836    
  37600000   0.27947626    -8.1639125     -7.7447041      0.76481549     50218.233      36.893836      36.893836      36.893836    
  37700000   0.28104765    -8.1664932     -7.7449277      0.73519723     50218.233      36.893836      36.893836      36.893836    
  37800000   0.28002073    -8.1652847     -7.7452596      0.75401353     50218.233      36.893836      36.893836      36.893836    
  37900000   0.27979413    -8.1644133     -7.744728       0.76378826     50218.233      36.893836      36.893836      36.893836    
  38000000   0.28061903    -8.1638339     -7.7429113      0.76665497     50218.233      36.893836      36.893836      36.893836    
  38100000   0.279524      -8.1646445     -7.7453645      0.75912759     50218.233      36.893836      36.893836      36.893836    
  38200000   0.27936968    -8.1677722     -7.7487236      0.72843833     50218.233      36.893836      36.893836      36.893836    
  38300000   0.28136402    -8.1647639     -7.7427238      0.75379781     50218.233      36.893836      36.893836      36.893836    
  38400000   0.28148648    -8.1648826     -7.7426589      0.7596562      50218.233      36.893836      36.893836      36.893836    
  38500000   0.28160069    -8.1671249     -7.7447299      0.7478692      50218.233      36.893836      36.893836      36.893836    
  38600000   0.2789198     -8.1641938     -7.7458201      0.75328883     50218.233      36.893836      36.893836      36.893836    
  38700000   0.2798221     -8.1662084     -7.7464813      0.74679679     50218.233      36.893836      36.893836      36.893836    
  38800000   0.2793771     -8.164252      -7.7451923      0.75648678     50218.233      36.893836      36.893836      36.893836    
  38900000   0.28064851    -8.1649299     -7.7439631      0.75489762     50218.233      36.893836      36.893836      36.893836    
  39000000   0.27994869    -8.1652962     -7.7453792      0.75252991     50218.233      36.893836      36.893836      36.893836    
  39100000   0.27857349    -8.166237      -7.7483827      0.74855448     50218.233      36.893836      36.893836      36.893836    
  39200000   0.28204372    -8.1649299     -7.7418703      0.75519212     50218.233      36.893836      36.893836      36.893836    
  39300000   0.28008438    -8.1678181     -7.7476975      0.73406411     50218.233      36.893836      36.893836      36.893836    
  39400000   0.28055393    -8.1658691     -7.7450442      0.74816845     50218.233      36.893836      36.893836      36.893836    
  39500000   0.2813329     -8.1663111     -7.7443178      0.74720296     50218.233      36.893836      36.893836      36.893836    
  39600000   0.27988855    -8.1668299     -7.747003       0.74023115     50218.233      36.893836      36.893836      36.893836    
  39700000   0.27909718    -8.1663228     -7.747683       0.7418016      50218.233      36.893836      36.893836      36.893836    
  39800000   0.27991487    -8.1676355     -7.7477692      0.73229141     50218.233      36.893836      36.893836      36.893836    
  39900000   0.2791134     -8.1655104     -7.7468463      0.75290835     50218.233      36.893836      36.893836      36.893836    
  40000000   0.28062205    -8.1665572     -7.7456301      0.74131659     50218.233      36.893836      36.893836      36.893836    
  40100000   0.27913024    -8.1634536     -7.7447642      0.76802897     50218.233      36.893836      36.893836      36.893836    
  40200000   0.27945978    -8.1648305     -7.7456468      0.75981292     50218.233      36.893836      36.893836      36.893836    
  40300000   0.27947919    -8.167482      -7.7482692      0.74349401     50218.233      36.893836      36.893836      36.893836    
  40400000   0.27869351    -8.1683623     -7.750328       0.73247003     50218.233      36.893836      36.893836      36.893836    
  40500000   0.27986313    -8.1679617     -7.748173       0.73390122     50218.233      36.893836      36.893836      36.893836    
  40600000   0.27839068    -8.1657145     -7.7481344      0.74769112     50218.233      36.893836      36.893836      36.893836    
  40700000   0.28240672    -8.1679419     -7.7443379      0.73716714     50218.233      36.893836      36.893836      36.893836    
  40800000   0.27949995    -8.1644043     -7.7451603      0.76446257     50218.233      36.893836      36.893836      36.893836    
  40900000   0.28004275    -8.1646211     -7.744563       0.76239098     50218.233      36.893836      36.893836      36.893836    
  41000000   0.28091206    -8.1656735     -7.7443114      0.75542507     50218.233      36.893836      36.893836      36.893836    
  41100000   0.27977578    -8.1669534     -7.7472957      0.73900713     50218.233      36.893836      36.893836      36.893836    
  41200000   0.28068439    -8.164243      -7.7432224      0.76481634     50218.233      36.893836      36.893836      36.893836    
  41300000   0.27936205    -8.1652479     -7.7462108      0.75673949     50218.233      36.893836      36.893836      36.893836    
  41400000   0.28050549    -8.1653971     -7.7446448      0.75630293     50218.233      36.893836      36.893836      36.893836    
  41500000   0.27838155    -8.1651214     -7.747555       0.7563606      50218.233      36.893836      36.893836      36.893836    
  41600000   0.2797262     -8.1654314     -7.7458481      0.75253392     50218.233      36.893836      36.893836      36.893836    
  41700000   0.28047253    -8.1667693     -7.7460665      0.74228154     50218.233      36.893836      36.893836      36.893836    
  41800000   0.28040151    -8.1664692     -7.745873       0.74632627     50218.233      36.893836      36.893836      36.893836    
  41900000   0.27793041    -8.1643126     -7.7474229      0.75616183     50218.233      36.893836      36.893836      36.893836    
  42000000   0.27983452    -8.1640817     -7.7443359      0.75811565     50218.233      36.893836      36.893836      36.893836    
  42100000   0.27766335    -8.1666315     -7.7501424      0.74459342     50218.233      36.893836      36.893836      36.893836    
  42200000   0.28053788    -8.1625171     -7.7417162      0.767364       50218.233      36.893836      36.893836      36.893836    
  42300000   0.28065639    -8.1646906     -7.743712       0.76549304     50218.233      36.893836      36.893836      36.893836    
  42400000   0.27985873    -8.164456      -7.7446739      0.76050654     50218.233      36.893836      36.893836      36.893836    
  42500000   0.28121172    -8.16503       -7.7432185      0.75967135     50218.233      36.893836      36.893836      36.893836    
  42600000   0.28114484    -8.1652279     -7.7435166      0.75358183     50218.233      36.893836      36.893836      36.893836    
  42700000   0.28069668    -8.1659279     -7.7448889      0.75016364     50218.233      36.893836      36.893836      36.893836    
  42800000   0.2800826     -8.1655714     -7.7454535      0.75701971     50218.233      36.893836      36.893836      36.893836    
  42900000   0.28068932    -8.1658127     -7.7447847      0.76059499     50218.233      36.893836      36.893836      36.893836    
  43000000   0.27966633    -8.16286       -7.7433665      0.77171628     50218.233      36.893836      36.893836      36.893836    
  43100000   0.27930232    -8.1641777     -7.7452302      0.75535419     50218.233      36.893836      36.893836      36.893836    
  43200000   0.27949118    -8.1645132     -7.7452824      0.76081502     50218.233      36.893836      36.893836      36.893836    
  43300000   0.28037171    -8.1650213     -7.7444698      0.75532548     50218.233      36.893836      36.893836      36.893836    
  43400000   0.28103187    -8.1651935     -7.7436517      0.75722519     50218.233      36.893836      36.893836      36.893836    
  43500000   0.28134235    -8.1666715     -7.7446639      0.74324395     50218.233      36.893836      36.893836      36.893836    
  43600000   0.28104746    -8.1653934     -7.7438282      0.76011842     50218.233      36.893836      36.893836      36.893836    
  43700000   0.28064292    -8.1640122     -7.7430538      0.7627863      50218.233      36.893836      36.893836      36.893836    
  43800000   0.27869792    -8.165264      -7.7472231      0.75067681     50218.233      36.893836      36.893836      36.893836    
  43900000   0.28023861    -8.1641332     -7.7437812      0.7631208      50218.233      36.893836      36.893836      36.893836    
  44000000   0.2804256     -8.1636078     -7.7429753      0.7696981      50218.233      36.893836      36.893836      36.893836    
  44100000   0.28103906    -8.1650997     -7.7435471      0.75694519     50218.233      36.893836      36.893836      36.893836    
  44200000   0.28131041    -8.1627006     -7.740741       0.7749655      50218.233      36.893836      36.893836      36.893836    
  44300000   0.27996262    -8.1641122     -7.7441742      0.76600732     50218.233      36.893836      36.893836      36.893836    
  44400000   0.28003797    -8.1632214     -7.7431704      0.76354985     50218.233      36.893836      36.893836      36.893836    
  44500000   0.28076881    -8.1670429     -7.7458957      0.74744174     50218.233      36.893836      36.893836      36.893836    
  44600000   0.28009126    -8.1656012     -7.7454703      0.74706405     50218.233      36.893836      36.893836      36.893836    
  44700000   0.28028985    -8.1666041     -7.7461753      0.74875025     50218.233      36.893836      36.893836      36.893836    
  44800000   0.28026027    -8.1644016     -7.7440172      0.75264734     50218.233      36.893836      36.893836      36.893836    
  44900000   0.28055532    -8.16767       -7.746843       0.73449267     50218.233      36.893836      36.893836      36.893836    
  45000000   0.28143635    -8.1670723     -7.7449238      0.74587772     50218.233      36.893836      36.893836      36.893836    
  45100000   0.28011137    -8.1675405     -7.7473795      0.73685386     50218.233      36.893836      36.893836      36.893836    
  45200000   0.28010926    -8.166252      -7.7460941      0.74357783     50218.233      36.893836      36.893836      36.893836    
  45300000   0.2783376     -8.1689518     -7.7514514      0.71491427     50218.233      36.893836      36.893836      36.893836    
  45400000   0.27896637    -8.1634483     -7.7450047      0.7647486      50218.233      36.893836      36.893836      36.893836    
  45500000   0.28084417    -8.165586      -7.7443257      0.7572237      50218.233      36.893836      36.893836      36.893836    
  45600000   0.27967173    -8.1654248     -7.7459232      0.75320353     50218.233      36.893836      36.893836      36.893836    
  45700000   0.28003209    -8.1669459     -7.7469038      0.73650255     50218.233      36.893836      36.893836      36.893836    
  45800000   0.27978158    -8.1659215     -7.7462551      0.74977769     50218.233      36.893836      36.893836      36.893836    
  45900000   0.281642      -8.1663139     -7.7438569      0.7538221      50218.233      36.893836      36.893836      36.893836    
  46000000   0.27897841    -8.1652576     -7.7467959      0.75819933     50218.233      36.893836      36.893836      36.893836    
  46100000   0.27873463    -8.1659675     -7.7478715      0.74845044     50218.233      36.893836      36.893836      36.893836    
  46200000   0.27992348    -8.1639453     -7.7440661      0.76209218     50218.233      36.893836      36.893836      36.893836    
  46300000   0.2808617     -8.1637898     -7.7425032      0.76347132     50218.233      36.893836      36.893836      36.893836    
  46400000   0.27969041    -8.1643936     -7.7448639      0.76703139     50218.233      36.893836      36.893836      36.893836    
  46500000   0.28053688    -8.1642787     -7.7434793      0.76005001     50218.233      36.893836      36.893836      36.893836    
  46600000   0.27970923    -8.1651215     -7.7455637      0.7598429      50218.233      36.893836      36.893836      36.893836    
  46700000   0.28038409    -8.1651805     -7.7446104      0.75008119     50218.233      36.893836      36.893836      36.893836    
  46800000   0.28008554    -8.1656223     -7.7455         0.74755447     50218.233      36.893836      36.893836      36.893836    
  46900000   0.28023261    -8.1658632     -7.7455203      0.7461955      50218.233      36.893836      36.893836      36.893836    
  47000000   0.28087408    -8.1640427     -7.7427376      0.76023135     50218.233      36.893836      36.893836      36.893836    
  47100000   0.28134026    -8.16423       -7.7422256      0.76279379     50218.233      36.893836      36.893836      36.893836    
  47200000   0.28020076    -8.1618876     -7.7415924      0.77660733     50218.233      36.893836      36.893836      36.893836    
  47300000   0.28006096    -8.1637701     -7.7436846      0.76472317     50218.233      36.893836      36.893836      36.893836    
  47400000   0.27953056    -8.1648259     -7.745536       0.76109073     50218.233      36.893836      36.893836      36.893836    
  47500000   0.27974268    -8.1653876     -7.7457795      0.75449073     50218.233      36.893836      36.893836      36.893836    
  47600000   0.28002317    -8.1640939     -7.7440652      0.76359067     50218.233      36.893836      36.893836      36.893836    
  47700000   0.28143849    -8.1636723     -7.7415205      0.76228482     50218.233      36.893836      36.893836      36.893836    
  47800000   0.27922519    -8.163281      -7.7444492      0.77156876     50218.233      36.893836      36.893836      36.893836    
  47900000   0.27942741    -8.1643836     -7.7452484      0.74603034     50218.233      36.893836      36.893836      36.893836    
  48000000   0.28003839    -8.1654131     -7.7453615      0.75512454     50218.233      36.893836      36.893836      36.893836    
  48100000   0.28120982    -8.1647259     -7.7429172      0.75908191     50218.233      36.893836      36.893836      36.893836    
  48200000   0.27928228    -8.1633892     -7.7444717      0.7675833      50218.233      36.893836      36.893836      36.893836    
  48300000   0.27949335    -8.1668752     -7.7476412      0.74180605     50218.233      36.893836      36.893836      36.893836    
  48400000   0.28107845    -8.1649627     -7.743351       0.76126826     50218.233      36.893836      36.893836      36.893836    
  48500000   0.28012189    -8.1663332     -7.7461564      0.74320021     50218.233      36.893836      36.893836      36.893836    
  48600000   0.2800601     -8.1638489     -7.7437647      0.76186806     50218.233      36.893836      36.893836      36.893836    
  48700000   0.27989296    -8.1674997     -7.7476662      0.74352768     50218.233      36.893836      36.893836      36.893836    
  48800000   0.28121964    -8.1663051     -7.7444817      0.74311552     50218.233      36.893836      36.893836      36.893836    
  48900000   0.27934407    -8.1647116     -7.7457014      0.7578853      50218.233      36.893836      36.893836      36.893836    
  49000000   0.28005822    -8.1646804     -7.744599       0.76731055     50218.233      36.893836      36.893836      36.893836    
  49100000   0.27781899    -8.1649487     -7.7482261      0.75106576     50218.233      36.893836      36.893836      36.893836    
  49200000   0.27975829    -8.1667625     -7.7471311      0.74902714     50218.233      36.893836      36.893836      36.893836    
  49300000   0.27957199    -8.1646561     -7.7453041      0.75863358     50218.233      36.893836      36.893836      36.893836    
  49400000   0.2801973     -8.1643539     -7.744064       0.76711022     50218.233      36.893836      36.893836      36.893836    
  49500000   0.27942545    -8.1679227     -7.7487905      0.74311813     50218.233      36.893836      36.893836      36.893836    
  49600000   0.27995736    -8.1633141     -7.7433841      0.77016228     50218.233      36.893836      36.893836      36.893836    
  49700000   0.27964232    -8.1658041     -7.7463466      0.75095746     50218.233      36.893836      36.893836      36.893836    
  49800000   0.28100071    -8.1669292     -7.7454341      0.75218838     50218.233      36.893836      36.893836      36.893836    
  49900000   0.28082193    -8.1660173     -7.7447904      0.74196661     50218.233      36.893836      36.893836      36.893836    
  50000000   0.27893608    -8.167016      -7.7486178      0.74072556     50218.233      36.893836      36.893836      36.893836    
Loop time of 74358.5 on 5 procs for 50000000 steps with 70304 atoms

Performance: 580969.544 tau/day, 672.418 timesteps/s, 47.274 Matom-step/s
94.9% CPU use with 5 MPI tasks x 1 OpenMP threads

MPI task timing breakdown:
Section |  min time  |  avg time  |  max time  |%varavg| %total
---------------------------------------------------------------
Pair    | 24068      | 29236      | 33266      |1901.4 | 39.32
Neigh   | 180.35     | 187.21     | 195.05     |  39.7 |  0.25
Comm    | 10675      | 10726      | 10828      |  53.6 | 14.43
Output  | 0.090165   | 0.093378   | 0.099371   |   1.1 |  0.00
Modify  | 26544      | 30595      | 35834      |1858.2 | 41.14
Other   |            | 3614       |            |       |  4.86

Nlocal:        14060.8 ave       14126 max       14017 min
Histogram: 1 1 1 0 0 0 1 0 0 1
Nghost:          18752 ave       18803 max       18720 min
Histogram: 1 2 0 0 0 0 1 0 0 1
Neighs:              0 ave           0 max           0 min
Histogram: 5 0 0 0 0 0 0 0 0 0

Total # of neighbors = 0
Ave neighs/atom = 0
Neighbor list builds = 7888911
Dangerous builds = 0
clear
OMP_NUM_THREADS environment is not set. Defaulting to 1 thread. (src/comm.cpp:98)
  using 1 OpenMP thread(s) per MPI task
package gpu 0
jump dms260.lmp

variable T equal 260
# T = 1000* (temp in LJ unit)
variable f equal 100000
log log.${T}
log log.260
