variable TLJ equal (${T}/1000)
variable TLJ equal (500/1000)
variable NCyle equal 5
variable iStep equal (${f})
variable iStep equal (100000)
variable dumpStep equal (${f}*100)
variable dumpStep equal (100000*100)
variable runStep equal (${f}*100*${NCyle})
variable runStep equal (100000*100*${NCyle})
variable runStep equal (100000*100*5)

units       lj
atom_style  atomic
dimension 3
boundary     p p p
pair_style  lj/cut 2.5
read_data  ../data/T${T}.dat
read_data  ../data/T500.dat
Reading data file ...
  orthogonal box = (0.97250269 0.97250269 0.97250269) to (37.866338 37.866338 37.866338)
  1 by 1 by 5 MPI processor grid
  reading atoms ...
  70304 atoms
  reading velocities ...
  70304 velocities
  read_data CPU = 0.260 seconds
change_box all triclinic
Changing box ...
  triclinic box = (0.97250269 0.97250269 0.97250269) to (37.866338 37.866338 37.866338) with tilt (0 0 0)
mass 1 1
mass 2 1
pair_modify shift yes
pair_coeff  1 1 1 1
pair_coeff  1 2 1.5 0.8
pair_coeff  2 2 0.5 0.88


timestep 0.01
thermo ${iStep}
thermo 100000
reset_timestep 0
thermo_style custom step temp pe etotal press vol lx ly lz
fix             1 all nvt temp ${TLJ}  ${TLJ}  0.1
fix             1 all nvt temp 0.5  ${TLJ}  0.1
fix             1 all nvt temp 0.5  0.5  0.1
thermo_modify flush yes

fix dsf all deform 1 xy  wiggle 0.5  ${f}   units box
fix dsf all deform 1 xy  wiggle 0.5  100000   units box
fix ps1 all ave/time 1 1 ${iStep} c_thermo_press[1] c_thermo_press[2]  c_thermo_press[3] c_thermo_press[4]  c_thermo_press[5] c_thermo_press[6]  file  stress.${T}
fix ps1 all ave/time 1 1 100000 c_thermo_press[1] c_thermo_press[2]  c_thermo_press[3] c_thermo_press[4]  c_thermo_press[5] c_thermo_press[6]  file  stress.${T}
fix ps1 all ave/time 1 1 100000 c_thermo_press[1] c_thermo_press[2]  c_thermo_press[3] c_thermo_press[4]  c_thermo_press[5] c_thermo_press[6]  file  stress.500
dump            1 all custom ${dumpStep} dump.${T} id type x y z
dump            1 all custom 10000000 dump.${T} id type x y z
dump            1 all custom 10000000 dump.500 id type x y z
dump_modify 1 sort id
fix nodrift all momentum 1  linear 1 1 1
fix com_seed all recenter INIT INIT INIT shift all
run ${runStep}
run 50000000
Generated 0 of 1 mixed pair_coeff terms from geometric mixing rule
Per MPI rank memory allocation (min/avg/max) = 6.67 | 8.472 | 8.928 Mbytes
   Step          Temp          PotEng         TotEng         Press          Volume           Lx             Ly             Lz      
         0   0.50192821    -7.8229874     -7.0701058      3.605369       50218.233      36.893836      36.893836      36.893836    
    100000   0.50010925    -7.8138118     -7.0636586      3.6654067      50218.233      36.893836      36.893836      36.893836    
    200000   0.49845174    -7.8144822     -7.0668152      3.6573821      50218.233      36.893836      36.893836      36.893836    
    300000   0.49957492    -7.812288      -7.0629363      3.6835055      50218.233      36.893836      36.893836      36.893836    
    400000   0.49890516    -7.8129306     -7.0645835      3.6643676      50218.233      36.893836      36.893836      36.893836    
    500000   0.49920492    -7.8160391     -7.0672424      3.653896       50218.233      36.893836      36.893836      36.893836    
    600000   0.49858637    -7.8133764     -7.0655074      3.6687742      50218.233      36.893836      36.893836      36.893836    
    700000   0.4989746     -7.8142073     -7.065756       3.6548965      50218.233      36.893836      36.893836      36.893836    
    800000   0.49845599    -7.8146992     -7.0670259      3.6523296      50218.233      36.893836      36.893836      36.893836    
    900000   0.50072504    -7.8109776     -7.0599007      3.6785382      50218.233      36.893836      36.893836      36.893836    
   1000000   0.49863859    -7.8127858     -7.0648386      3.6714467      50218.233      36.893836      36.893836      36.893836    
   1100000   0.50151474    -7.8145629     -7.0623015      3.6674358      50218.233      36.893836      36.893836      36.893836    
   1200000   0.50321992    -7.8120415     -7.0572224      3.6843506      50218.233      36.893836      36.893836      36.893836    
   1300000   0.50001792    -7.8104349     -7.0604187      3.6862636      50218.233      36.893836      36.893836      36.893836    
   1400000   0.49846668    -7.8131527     -7.0654633      3.6698934      50218.233      36.893836      36.893836      36.893836    
   1500000   0.50113469    -7.8108454     -7.059154       3.6951944      50218.233      36.893836      36.893836      36.893836    
   1600000   0.49996125    -7.8092467     -7.0593155      3.7022972      50218.233      36.893836      36.893836      36.893836    
   1700000   0.50032401    -7.8115958     -7.0611205      3.6885292      50218.233      36.893836      36.893836      36.893836    
   1800000   0.49947996    -7.8124354     -7.0632262      3.6818376      50218.233      36.893836      36.893836      36.893836    
   1900000   0.49893101    -7.8147917     -7.0664058      3.6645529      50218.233      36.893836      36.893836      36.893836    
   2000000   0.49928967    -7.8148545     -7.0659306      3.6632534      50218.233      36.893836      36.893836      36.893836    
   2100000   0.50105889    -7.8108422     -7.0592646      3.6842497      50218.233      36.893836      36.893836      36.893836    
   2200000   0.50087056    -7.8096187     -7.0583235      3.7000089      50218.233      36.893836      36.893836      36.893836    
   2300000   0.50029172    -7.8084428     -7.0580159      3.7069265      50218.233      36.893836      36.893836      36.893836    
   2400000   0.50181855    -7.8097194     -7.0570022      3.7028806      50218.233      36.893836      36.893836      36.893836    
   2500000   0.50043583    -7.8132579     -7.0626149      3.6758727      50218.233      36.893836      36.893836      36.893836    
   2600000   0.50019025    -7.8179305     -7.0676558      3.6231673      50218.233      36.893836      36.893836      36.893836    
   2700000   0.49857703    -7.8141344     -7.0662795      3.6558369      50218.233      36.893836      36.893836      36.893836    
   2800000   0.49780167    -7.8142335     -7.0675417      3.6645373      50218.233      36.893836      36.893836      36.893836    
   2900000   0.49744236    -7.8139114     -7.0677585      3.6643499      50218.233      36.893836      36.893836      36.893836    
   3000000   0.50077987    -7.8140984     -7.0629393      3.6692649      50218.233      36.893836      36.893836      36.893836    
   3100000   0.49905979    -7.8150605     -7.0664815      3.672079       50218.233      36.893836      36.893836      36.893836    
   3200000   0.50078582    -7.8149226     -7.0637546      3.6516585      50218.233      36.893836      36.893836      36.893836    
   3300000   0.50055884    -7.814809      -7.0639814      3.6692377      50218.233      36.893836      36.893836      36.893836    
   3400000   0.50023959    -7.8130146     -7.0626659      3.6749421      50218.233      36.893836      36.893836      36.893836    
   3500000   0.49944444    -7.8167029     -7.0675468      3.6364914      50218.233      36.893836      36.893836      36.893836    
   3600000   0.49968966    -7.8145444     -7.0650205      3.6488243      50218.233      36.893836      36.893836      36.893836    
   3700000   0.49852629    -7.8184653     -7.0706865      3.6257354      50218.233      36.893836      36.893836      36.893836    
   3800000   0.50054931    -7.8177945     -7.0669812      3.6251828      50218.233      36.893836      36.893836      36.893836    
   3900000   0.50202651    -7.8121768     -7.0591477      3.6803715      50218.233      36.893836      36.893836      36.893836    
   4000000   0.49981918    -7.814633      -7.0649149      3.6663608      50218.233      36.893836      36.893836      36.893836    
   4100000   0.50083932    -7.8124861     -7.0612378      3.678292       50218.233      36.893836      36.893836      36.893836    
   4200000   0.49895007    -7.8126628     -7.0642483      3.6716449      50218.233      36.893836      36.893836      36.893836    
   4300000   0.49785419    -7.8123573     -7.0655867      3.6682203      50218.233      36.893836      36.893836      36.893836    
   4400000   0.49658439    -7.8190076     -7.0741416      3.6145421      50218.233      36.893836      36.893836      36.893836    
   4500000   0.49986109    -7.8135508     -7.0637698      3.668703       50218.233      36.893836      36.893836      36.893836    
   4600000   0.49917444    -7.8183152     -7.0695642      3.6364985      50218.233      36.893836      36.893836      36.893836    
   4700000   0.50048314    -7.8192367     -7.0685227      3.6307684      50218.233      36.893836      36.893836      36.893836    
   4800000   0.50220806    -7.818083      -7.0647817      3.6231683      50218.233      36.893836      36.893836      36.893836    
   4900000   0.50050479    -7.817914      -7.0671675      3.6318987      50218.233      36.893836      36.893836      36.893836    
   5000000   0.5006712     -7.8142506     -7.0632545      3.6512872      50218.233      36.893836      36.893836      36.893836    
   5100000   0.50061544    -7.814689      -7.0637765      3.6637452      50218.233      36.893836      36.893836      36.893836    
   5200000   0.49862583    -7.8188191     -7.070891       3.6257071      50218.233      36.893836      36.893836      36.893836    
   5300000   0.50038402    -7.8171396     -7.0665743      3.6462704      50218.233      36.893836      36.893836      36.893836    
   5400000   0.50059249    -7.8155908     -7.0647127      3.6631979      50218.233      36.893836      36.893836      36.893836    
   5500000   0.5010296     -7.8153522     -7.0638185      3.6514086      50218.233      36.893836      36.893836      36.893836    
   5600000   0.5012653     -7.8144505     -7.0625632      3.6590247      50218.233      36.893836      36.893836      36.893836    
   5700000   0.50042474    -7.8140263     -7.0633998      3.6549588      50218.233      36.893836      36.893836      36.893836    
   5800000   0.50045661    -7.8141841     -7.0635099      3.661371       50218.233      36.893836      36.893836      36.893836    
   5900000   0.49815426    -7.8127255     -7.0655047      3.6780921      50218.233      36.893836      36.893836      36.893836    
   6000000   0.49907352    -7.8145168     -7.0659172      3.6622663      50218.233      36.893836      36.893836      36.893836    
   6100000   0.50020674    -7.8148874     -7.064588       3.6694925      50218.233      36.893836      36.893836      36.893836    
   6200000   0.49867515    -7.8207897     -7.0727876      3.6289898      50218.233      36.893836      36.893836      36.893836    
   6300000   0.49849912    -7.8140213     -7.0662833      3.6504949      50218.233      36.893836      36.893836      36.893836    
   6400000   0.49948116    -7.8159974     -7.0667864      3.6544957      50218.233      36.893836      36.893836      36.893836    
   6500000   0.49871396    -7.81273       -7.0646697      3.6772245      50218.233      36.893836      36.893836      36.893836    
   6600000   0.49961967    -7.8131235     -7.0637047      3.6600057      50218.233      36.893836      36.893836      36.893836    
   6700000   0.49810788    -7.8162046     -7.0690534      3.6451892      50218.233      36.893836      36.893836      36.893836    
   6800000   0.50216317    -7.8135762     -7.0603422      3.6841906      50218.233      36.893836      36.893836      36.893836    
   6900000   0.5001051     -7.8135265     -7.0633796      3.6614404      50218.233      36.893836      36.893836      36.893836    
   7000000   0.50177424    -7.8167811     -7.0641305      3.6436094      50218.233      36.893836      36.893836      36.893836    
   7100000   0.50012615    -7.8139581     -7.0637796      3.6715882      50218.233      36.893836      36.893836      36.893836    
   7200000   0.5014663     -7.8130229     -7.0608342      3.6723608      50218.233      36.893836      36.893836      36.893836    
   7300000   0.50064389    -7.8166241     -7.0656689      3.653525       50218.233      36.893836      36.893836      36.893836    
   7400000   0.49808789    -7.812539      -7.0654178      3.6690978      50218.233      36.893836      36.893836      36.893836    
   7500000   0.50184967    -7.821499      -7.0687352      3.6178066      50218.233      36.893836      36.893836      36.893836    
   7600000   0.50091667    -7.8147129     -7.0633485      3.6660854      50218.233      36.893836      36.893836      36.893836    
   7700000   0.50138358    -7.8159642     -7.0638996      3.6457148      50218.233      36.893836      36.893836      36.893836    
   7800000   0.50373043    -7.8182736     -7.0626888      3.6337395      50218.233      36.893836      36.893836      36.893836    
   7900000   0.49821008    -7.8162671     -7.0689626      3.6525471      50218.233      36.893836      36.893836      36.893836    
   8000000   0.5033445     -7.8166459     -7.0616399      3.6576852      50218.233      36.893836      36.893836      36.893836    
   8100000   0.49967219    -7.8129326     -7.063435       3.6781156      50218.233      36.893836      36.893836      36.893836    
   8200000   0.50164711    -7.8155347     -7.0630748      3.6594876      50218.233      36.893836      36.893836      36.893836    
   8300000   0.49937961    -7.8199452     -7.0708865      3.6128552      50218.233      36.893836      36.893836      36.893836    
   8400000   0.50369489    -7.8178928     -7.0623612      3.6429864      50218.233      36.893836      36.893836      36.893836    
   8500000   0.50094573    -7.8203317     -7.0689238      3.6172715      50218.233      36.893836      36.893836      36.893836    
   8600000   0.50057942    -7.8139132     -7.0630547      3.6688259      50218.233      36.893836      36.893836      36.893836    
   8700000   0.49821227    -7.8159968     -7.0686891      3.636281       50218.233      36.893836      36.893836      36.893836    
   8800000   0.50118393    -7.8120636     -7.0602984      3.678532       50218.233      36.893836      36.893836      36.893836    
   8900000   0.49902375    -7.8165232     -7.0679982      3.6405713      50218.233      36.893836      36.893836      36.893836    
   9000000   0.49897133    -7.8144766     -7.0660302      3.6544865      50218.233      36.893836      36.893836      36.893836    
   9100000   0.49998527    -7.8158425     -7.0658753      3.66249        50218.233      36.893836      36.893836      36.893836    
   9200000   0.50072321    -7.8176206     -7.0665465      3.6417881      50218.233      36.893836      36.893836      36.893836    
   9300000   0.49855891    -7.8112289     -7.0634012      3.6902825      50218.233      36.893836      36.893836      36.893836    
   9400000   0.50020593    -7.8124629     -7.0621647      3.6721749      50218.233      36.893836      36.893836      36.893836    
   9500000   0.50096937    -7.8152537     -7.0638103      3.6551832      50218.233      36.893836      36.893836      36.893836    
   9600000   0.49830253    -7.8172212     -7.069778       3.6367353      50218.233      36.893836      36.893836      36.893836    
   9700000   0.50135767    -7.8182602     -7.0662344      3.6357016      50218.233      36.893836      36.893836      36.893836    
   9800000   0.49863701    -7.816627      -7.0686821      3.6365537      50218.233      36.893836      36.893836      36.893836    
   9900000   0.49994394    -7.8178146     -7.0679094      3.6287897      50218.233      36.893836      36.893836      36.893836    
  10000000   0.5021621     -7.8167173     -7.0634849      3.6521873      50218.233      36.893836      36.893836      36.893836    
  10100000   0.49806869    -7.8107064     -7.063614       3.6775224      50218.233      36.893836      36.893836      36.893836    
  10200000   0.49915635    -7.8134628     -7.064739       3.6672903      50218.233      36.893836      36.893836      36.893836    
  10300000   0.49881712    -7.814568      -7.066353       3.6517113      50218.233      36.893836      36.893836      36.893836    
  10400000   0.50164125    -7.8148781     -7.0624269      3.6547623      50218.233      36.893836      36.893836      36.893836    
  10500000   0.50085765    -7.8146932     -7.0634174      3.6588824      50218.233      36.893836      36.893836      36.893836    
  10600000   0.49956286    -7.8156569     -7.0663233      3.6555529      50218.233      36.893836      36.893836      36.893836    
  10700000   0.50033803    -7.8136541     -7.0631577      3.6558969      50218.233      36.893836      36.893836      36.893836    
  10800000   0.5010877     -7.8160904     -7.0644696      3.6357741      50218.233      36.893836      36.893836      36.893836    
  10900000   0.49959464    -7.81224       -7.0628587      3.6718379      50218.233      36.893836      36.893836      36.893836    
  11000000   0.49869174    -7.8134014     -7.0653744      3.6557585      50218.233      36.893836      36.893836      36.893836    
  11100000   0.50249376    -7.8131746     -7.0594447      3.6675998      50218.233      36.893836      36.893836      36.893836    
  11200000   0.50090349    -7.8132448     -7.0619003      3.6706923      50218.233      36.893836      36.893836      36.893836    
  11300000   0.49829084    -7.8130064     -7.0655807      3.6683247      50218.233      36.893836      36.893836      36.893836    
  11400000   0.50014323    -7.8147611     -7.0645569      3.6461662      50218.233      36.893836      36.893836      36.893836    
  11500000   0.50114607    -7.8141578     -7.0624494      3.6497184      50218.233      36.893836      36.893836      36.893836    
  11600000   0.50003648    -7.8125298     -7.0624858      3.6768927      50218.233      36.893836      36.893836      36.893836    
  11700000   0.50041442    -7.8135069     -7.062896       3.6635959      50218.233      36.893836      36.893836      36.893836    
  11800000   0.49942735    -7.812063      -7.0629327      3.6748307      50218.233      36.893836      36.893836      36.893836    
  11900000   0.49942726    -7.8128893     -7.063759       3.6679912      50218.233      36.893836      36.893836      36.893836    
  12000000   0.50032094    -7.813285      -7.0628143      3.6691348      50218.233      36.893836      36.893836      36.893836    
  12100000   0.50003322    -7.8073312     -7.0572921      3.7064953      50218.233      36.893836      36.893836      36.893836    
  12200000   0.49764353    -7.8145493     -7.0680946      3.6498761      50218.233      36.893836      36.893836      36.893836    
  12300000   0.50055855    -7.8144663     -7.0636391      3.6553338      50218.233      36.893836      36.893836      36.893836    
  12400000   0.50078529    -7.8137319     -7.0625646      3.6627338      50218.233      36.893836      36.893836      36.893836    
  12500000   0.49904452    -7.8114716     -7.0629155      3.6696765      50218.233      36.893836      36.893836      36.893836    
  12600000   0.50162194    -7.8111947     -7.0587725      3.6853663      50218.233      36.893836      36.893836      36.893836    
  12700000   0.50035488    -7.8176428     -7.0671212      3.6350098      50218.233      36.893836      36.893836      36.893836    
  12800000   0.50214696    -7.8156521     -7.0624423      3.652257       50218.233      36.893836      36.893836      36.893836    
  12900000   0.50067443    -7.8122694     -7.0612685      3.6663864      50218.233      36.893836      36.893836      36.893836    
  13000000   0.50021703    -7.8109452     -7.0606303      3.6924016      50218.233      36.893836      36.893836      36.893836    
  13100000   0.50110741    -7.8148981     -7.0632477      3.6666553      50218.233      36.893836      36.893836      36.893836    
  13200000   0.49884805    -7.8167717     -7.0685102      3.6417907      50218.233      36.893836      36.893836      36.893836    
  13300000   0.50023652    -7.8123461     -7.062002       3.6709155      50218.233      36.893836      36.893836      36.893836    
  13400000   0.50147303    -7.8134827     -7.0612838      3.6661689      50218.233      36.893836      36.893836      36.893836    
  13500000   0.4998336     -7.814499      -7.0647593      3.666467       50218.233      36.893836      36.893836      36.893836    
  13600000   0.50139126    -7.8125631     -7.0604869      3.6757969      50218.233      36.893836      36.893836      36.893836    
  13700000   0.49929124    -7.8156974     -7.0667712      3.6382857      50218.233      36.893836      36.893836      36.893836    
  13800000   0.4983038     -7.8111595     -7.0637144      3.6772042      50218.233      36.893836      36.893836      36.893836    
  13900000   0.49753805    -7.8120166     -7.0657201      3.6766916      50218.233      36.893836      36.893836      36.893836    
  14000000   0.49928134    -7.8186516     -7.0697403      3.6263506      50218.233      36.893836      36.893836      36.893836    
  14100000   0.50060096    -7.8138099     -7.0629191      3.6580427      50218.233      36.893836      36.893836      36.893836    
  14200000   0.49735243    -7.8150802     -7.0690622      3.642138       50218.233      36.893836      36.893836      36.893836    
  14300000   0.49961769    -7.8144344     -7.0650186      3.6551568      50218.233      36.893836      36.893836      36.893836    
  14400000   0.50010189    -7.8168096     -7.0666675      3.639678       50218.233      36.893836      36.893836      36.893836    
  14500000   0.49691372    -7.812019      -7.066659       3.6629296      50218.233      36.893836      36.893836      36.893836    
  14600000   0.50160469    -7.8100006     -7.0576042      3.6989925      50218.233      36.893836      36.893836      36.893836    
  14700000   0.49998724    -7.8109974     -7.0610272      3.6859183      50218.233      36.893836      36.893836      36.893836    
  14800000   0.49986233    -7.8152731     -7.0654903      3.6644418      50218.233      36.893836      36.893836      36.893836    
  14900000   0.50029654    -7.8150311     -7.064597       3.6519375      50218.233      36.893836      36.893836      36.893836    
  15000000   0.50090415    -7.8115029     -7.0601574      3.6830748      50218.233      36.893836      36.893836      36.893836    
  15100000   0.49947829    -7.8132506     -7.0640438      3.6839797      50218.233      36.893836      36.893836      36.893836    
  15200000   0.50207918    -7.821662      -7.0685539      3.6129015      50218.233      36.893836      36.893836      36.893836    
  15300000   0.49754546    -7.8168783     -7.0705707      3.6232084      50218.233      36.893836      36.893836      36.893836    
  15400000   0.49841913    -7.8164826     -7.0688645      3.638562       50218.233      36.893836      36.893836      36.893836    
  15500000   0.49924171    -7.815164      -7.0663121      3.6577699      50218.233      36.893836      36.893836      36.893836    
  15600000   0.49987127    -7.8132025     -7.0634063      3.66659        50218.233      36.893836      36.893836      36.893836    
  15700000   0.49734233    -7.8121532     -7.0661503      3.6739728      50218.233      36.893836      36.893836      36.893836    
  15800000   0.49949737    -7.8144288     -7.0651934      3.6580987      50218.233      36.893836      36.893836      36.893836    
  15900000   0.49809073    -7.8160809     -7.0689554      3.647602       50218.233      36.893836      36.893836      36.893836    
  16000000   0.49922098    -7.8114479     -7.0626271      3.690052       50218.233      36.893836      36.893836      36.893836    
  16100000   0.49917957    -7.8124586     -7.0636999      3.6756408      50218.233      36.893836      36.893836      36.893836    
  16200000   0.50270714    -7.8098267     -7.0557767      3.7054581      50218.233      36.893836      36.893836      36.893836    
  16300000   0.49957949    -7.8152716     -7.065913       3.6528168      50218.233      36.893836      36.893836      36.893836    
  16400000   0.49870377    -7.8134657     -7.0654207      3.6700266      50218.233      36.893836      36.893836      36.893836    
  16500000   0.50195371    -7.8141643     -7.0612445      3.6686401      50218.233      36.893836      36.893836      36.893836    
  16600000   0.49813125    -7.8178233     -7.070637       3.6376317      50218.233      36.893836      36.893836      36.893836    
  16700000   0.4997926     -7.8178845     -7.0682063      3.6170676      50218.233      36.893836      36.893836      36.893836    
  16800000   0.49918324    -7.8168323     -7.068068       3.6318686      50218.233      36.893836      36.893836      36.893836    
  16900000   0.49953833    -7.818626      -7.0693292      3.6398629      50218.233      36.893836      36.893836      36.893836    
  17000000   0.49926059    -7.8139687     -7.0650885      3.6651934      50218.233      36.893836      36.893836      36.893836    
  17100000   0.50167835    -7.815986      -7.0634792      3.6536157      50218.233      36.893836      36.893836      36.893836    
  17200000   0.50091993    -7.8153681     -7.0639989      3.657861       50218.233      36.893836      36.893836      36.893836    
  17300000   0.49729283    -7.8162828     -7.0703541      3.6411341      50218.233      36.893836      36.893836      36.893836    
  17400000   0.49949795    -7.8177786     -7.0685424      3.6403016      50218.233      36.893836      36.893836      36.893836    
  17500000   0.49995635    -7.8165416     -7.0666178      3.648718       50218.233      36.893836      36.893836      36.893836    
  17600000   0.500146      -7.8161104     -7.065902       3.6532048      50218.233      36.893836      36.893836      36.893836    
  17700000   0.49898553    -7.8150617     -7.066594       3.6435974      50218.233      36.893836      36.893836      36.893836    
  17800000   0.50149571    -7.8186583     -7.0664255      3.6165538      50218.233      36.893836      36.893836      36.893836    
  17900000   0.49944351    -7.8137143     -7.0645597      3.6683505      50218.233      36.893836      36.893836      36.893836    
  18000000   0.50068717    -7.8156719     -7.0646519      3.643269       50218.233      36.893836      36.893836      36.893836    
  18100000   0.50328335    -7.8156692     -7.0607549      3.6710613      50218.233      36.893836      36.893836      36.893836    
  18200000   0.5022481     -7.8184146     -7.0650532      3.6197848      50218.233      36.893836      36.893836      36.893836    
  18300000   0.50157633    -7.8173892     -7.0650354      3.6348035      50218.233      36.893836      36.893836      36.893836    
  18400000   0.50015799    -7.8186003     -7.0683739      3.6262477      50218.233      36.893836      36.893836      36.893836    
  18500000   0.49904746    -7.8157259     -7.0671654      3.6526291      50218.233      36.893836      36.893836      36.893836    
  18600000   0.50135718    -7.8192992     -7.0672742      3.6280507      50218.233      36.893836      36.893836      36.893836    
  18700000   0.50002816    -7.8200513     -7.0700198      3.6197895      50218.233      36.893836      36.893836      36.893836    
  18800000   0.49956788    -7.8186198     -7.0692786      3.6249694      50218.233      36.893836      36.893836      36.893836    
  18900000   0.5002664     -7.8175117     -7.0671228      3.6299238      50218.233      36.893836      36.893836      36.893836    
  19000000   0.50194928    -7.8160774     -7.0631642      3.64475        50218.233      36.893836      36.893836      36.893836    
  19100000   0.50053278    -7.8148516     -7.0640632      3.6501774      50218.233      36.893836      36.893836      36.893836    
  19200000   0.49969011    -7.8184126     -7.0688881      3.6376949      50218.233      36.893836      36.893836      36.893836    
  19300000   0.49957236    -7.8161135     -7.0667656      3.6349641      50218.233      36.893836      36.893836      36.893836    
  19400000   0.49881402    -7.8177552     -7.0695448      3.6230356      50218.233      36.893836      36.893836      36.893836    
  19500000   0.5003491     -7.820262      -7.069749       3.6211936      50218.233      36.893836      36.893836      36.893836    
  19600000   0.5005382     -7.8185988     -7.0678022      3.6308635      50218.233      36.893836      36.893836      36.893836    
  19700000   0.50023718    -7.8192123     -7.0688672      3.6202426      50218.233      36.893836      36.893836      36.893836    
  19800000   0.49957934    -7.8207349     -7.0713766      3.6046373      50218.233      36.893836      36.893836      36.893836    
  19900000   0.50070994    -7.8155716     -7.0645173      3.6527169      50218.233      36.893836      36.893836      36.893836    
  20000000   0.50156853    -7.8231006     -7.0707585      3.5913338      50218.233      36.893836      36.893836      36.893836    
  20100000   0.49930516    -7.811329      -7.0623819      3.6749863      50218.233      36.893836      36.893836      36.893836    
  20200000   0.50122033    -7.8136252     -7.0618054      3.6612808      50218.233      36.893836      36.893836      36.893836    
  20300000   0.5021982     -7.8194511     -7.0661645      3.6208138      50218.233      36.893836      36.893836      36.893836    
  20400000   0.49985285    -7.8182736     -7.068505       3.6335796      50218.233      36.893836      36.893836      36.893836    
  20500000   0.50079733    -7.8162146     -7.0650293      3.643557       50218.233      36.893836      36.893836      36.893836    
  20600000   0.50084474    -7.8171454     -7.0658889      3.6470954      50218.233      36.893836      36.893836      36.893836    
  20700000   0.50024268    -7.8191192     -7.0687658      3.6360722      50218.233      36.893836      36.893836      36.893836    
  20800000   0.50128203    -7.8147641     -7.0628518      3.6519597      50218.233      36.893836      36.893836      36.893836    
  20900000   0.49906047    -7.8182494     -7.0696693      3.6234521      50218.233      36.893836      36.893836      36.893836    
  21000000   0.50064537    -7.8170419     -7.0660845      3.6425339      50218.233      36.893836      36.893836      36.893836    
  21100000   0.4995632     -7.8159016     -7.0665675      3.6431114      50218.233      36.893836      36.893836      36.893836    
  21200000   0.50035529    -7.816474      -7.0659517      3.6429985      50218.233      36.893836      36.893836      36.893836    
  21300000   0.49957628    -7.818031      -7.0686772      3.6218666      50218.233      36.893836      36.893836      36.893836    
  21400000   0.49902136    -7.8136608     -7.0651394      3.6685335      50218.233      36.893836      36.893836      36.893836    
  21500000   0.50085897    -7.8231421     -7.0718643      3.591437       50218.233      36.893836      36.893836      36.893836    
  21600000   0.50097427    -7.817772      -7.0663213      3.6215104      50218.233      36.893836      36.893836      36.893836    
  21700000   0.50071675    -7.8161531     -7.0650886      3.6485987      50218.233      36.893836      36.893836      36.893836    
  21800000   0.50289319    -7.819008      -7.0646789      3.6336794      50218.233      36.893836      36.893836      36.893836    
  21900000   0.50181118    -7.8171076     -7.0644015      3.6469401      50218.233      36.893836      36.893836      36.893836    
  22000000   0.49688739    -7.817904      -7.0725836      3.623819       50218.233      36.893836      36.893836      36.893836    
  22100000   0.49850152    -7.8162184     -7.0684767      3.6395258      50218.233      36.893836      36.893836      36.893836    
  22200000   0.49947272    -7.8216284     -7.07243        3.6112196      50218.233      36.893836      36.893836      36.893836    
  22300000   0.49974468    -7.8193921     -7.0697857      3.6310345      50218.233      36.893836      36.893836      36.893836    
  22400000   0.50111001    -7.8197487     -7.0680944      3.6211373      50218.233      36.893836      36.893836      36.893836    
  22500000   0.50223815    -7.8178244     -7.0644779      3.6409176      50218.233      36.893836      36.893836      36.893836    
  22600000   0.49889501    -7.8155484     -7.0672165      3.6392184      50218.233      36.893836      36.893836      36.893836    
  22700000   0.5000996     -7.8151632     -7.0650245      3.658274       50218.233      36.893836      36.893836      36.893836    
  22800000   0.4992691     -7.8179862     -7.0690933      3.6355523      50218.233      36.893836      36.893836      36.893836    
  22900000   0.49672552    -7.8161484     -7.0710707      3.6371615      50218.233      36.893836      36.893836      36.893836    
  23000000   0.49737533    -7.813562      -7.0675096      3.6692489      50218.233      36.893836      36.893836      36.893836    
  23100000   0.50143726    -7.8183625     -7.0662173      3.6346827      50218.233      36.893836      36.893836      36.893836    
  23200000   0.49931829    -7.8154865     -7.0665197      3.656939       50218.233      36.893836      36.893836      36.893836    
  23300000   0.4967326     -7.8169567     -7.0718684      3.6419573      50218.233      36.893836      36.893836      36.893836    
  23400000   0.49845128    -7.814572      -7.0669057      3.6556795      50218.233      36.893836      36.893836      36.893836    
  23500000   0.50034684    -7.8215573     -7.0710477      3.6061137      50218.233      36.893836      36.893836      36.893836    
  23600000   0.50175995    -7.8171105     -7.0644812      3.6338763      50218.233      36.893836      36.893836      36.893836    
  23700000   0.49975384    -7.8209524     -7.0713323      3.6116632      50218.233      36.893836      36.893836      36.893836    
  23800000   0.49923124    -7.8190479     -7.0702117      3.6321244      50218.233      36.893836      36.893836      36.893836    
  23900000   0.49828505    -7.8176492     -7.0702322      3.6383661      50218.233      36.893836      36.893836      36.893836    
  24000000   0.49851995    -7.8143517     -7.0665824      3.660808       50218.233      36.893836      36.893836      36.893836    
  24100000   0.50041606    -7.8161873     -7.0655739      3.64367        50218.233      36.893836      36.893836      36.893836    
  24200000   0.49814585    -7.8205607     -7.0733526      3.6101639      50218.233      36.893836      36.893836      36.893836    
  24300000   0.49877449    -7.8169679     -7.0688168      3.630573       50218.233      36.893836      36.893836      36.893836    
  24400000   0.50095824    -7.8195527     -7.0681261      3.617454       50218.233      36.893836      36.893836      36.893836    
  24500000   0.49955977    -7.8221029     -7.0727739      3.6014957      50218.233      36.893836      36.893836      36.893836    
  24600000   0.50131021    -7.8198404     -7.0678858      3.6139634      50218.233      36.893836      36.893836      36.893836    
  24700000   0.49930897    -7.8196453     -7.0706925      3.6097811      50218.233      36.893836      36.893836      36.893836    
  24800000   0.50098432    -7.8189747     -7.0675089      3.630788       50218.233      36.893836      36.893836      36.893836    
  24900000   0.50017567    -7.819797      -7.0695442      3.6216061      50218.233      36.893836      36.893836      36.893836    
  25000000   0.49794284    -7.8188915     -7.0719879      3.6325763      50218.233      36.893836      36.893836      36.893836    
  25100000   0.49808233    -7.8232162     -7.0761033      3.5927501      50218.233      36.893836      36.893836      36.893836    
  25200000   0.49991983    -7.8180827     -7.0682136      3.6405463      50218.233      36.893836      36.893836      36.893836    
  25300000   0.50316512    -7.8214076     -7.0666707      3.5990904      50218.233      36.893836      36.893836      36.893836    
  25400000   0.49872097    -7.8209547     -7.0728839      3.6017546      50218.233      36.893836      36.893836      36.893836    
  25500000   0.49847175    -7.814837      -7.06714        3.65997        50218.233      36.893836      36.893836      36.893836    
  25600000   0.500603      -7.8175217     -7.0666279      3.6295629      50218.233      36.893836      36.893836      36.893836    
  25700000   0.50174529    -7.8172737     -7.0646665      3.6476172      50218.233      36.893836      36.893836      36.893836    
  25800000   0.49999492    -7.8208922     -7.0709105      3.6150332      50218.233      36.893836      36.893836      36.893836    
  25900000   0.49971609    -7.8172458     -7.0676823      3.6406663      50218.233      36.893836      36.893836      36.893836    
  26000000   0.50020518    -7.8175209     -7.0672238      3.6400697      50218.233      36.893836      36.893836      36.893836    
  26100000   0.49932843    -7.8232422     -7.0742602      3.6022628      50218.233      36.893836      36.893836      36.893836    
  26200000   0.49723594    -7.8215705     -7.0757272      3.5964354      50218.233      36.893836      36.893836      36.893836    
  26300000   0.49780927    -7.8168719     -7.0701686      3.6329947      50218.233      36.893836      36.893836      36.893836    
  26400000   0.50139413    -7.8193288     -7.0672483      3.6345665      50218.233      36.893836      36.893836      36.893836    
  26500000   0.49900045    -7.8194698     -7.0709798      3.6378669      50218.233      36.893836      36.893836      36.893836    
  26600000   0.49962186    -7.8119477     -7.0625256      3.6891439      50218.233      36.893836      36.893836      36.893836    
  26700000   0.5021141     -7.8183917     -7.0652312      3.6407162      50218.233      36.893836      36.893836      36.893836    
  26800000   0.49984186    -7.8152502     -7.065498       3.6440391      50218.233      36.893836      36.893836      36.893836    
  26900000   0.49824232    -7.8162975     -7.0689447      3.6518212      50218.233      36.893836      36.893836      36.893836    
  27000000   0.50368018    -7.8212618     -7.0657523      3.6229109      50218.233      36.893836      36.893836      36.893836    
  27100000   0.50159474    -7.8198752     -7.0674938      3.6342855      50218.233      36.893836      36.893836      36.893836    
  27200000   0.49898584    -7.8162274     -7.0677593      3.6425302      50218.233      36.893836      36.893836      36.893836    
  27300000   0.49897576    -7.8188529     -7.0703999      3.6297181      50218.233      36.893836      36.893836      36.893836    
  27400000   0.49939916    -7.8164269     -7.0673388      3.6558942      50218.233      36.893836      36.893836      36.893836    
  27500000   0.50063267    -7.8165487     -7.0656104      3.6446162      50218.233      36.893836      36.893836      36.893836    
  27600000   0.49714356    -7.812682      -7.0669773      3.6691339      50218.233      36.893836      36.893836      36.893836    
  27700000   0.49940204    -7.8207726     -7.0716802      3.6117867      50218.233      36.893836      36.893836      36.893836    
  27800000   0.49967022    -7.8233398     -7.0738451      3.5905116      50218.233      36.893836      36.893836      36.893836    
  27900000   0.49890523    -7.8204374     -7.0720902      3.6239792      50218.233      36.893836      36.893836      36.893836    
  28000000   0.50116787    -7.8201116     -7.0683705      3.621191       50218.233      36.893836      36.893836      36.893836    
  28100000   0.49755261    -7.8174034     -7.0710851      3.6341211      50218.233      36.893836      36.893836      36.893836    
  28200000   0.49871826    -7.8179746     -7.0699079      3.637161       50218.233      36.893836      36.893836      36.893836    
  28300000   0.49978677    -7.8137969     -7.0641274      3.6660819      50218.233      36.893836      36.893836      36.893836    
  28400000   0.49885313    -7.8217285     -7.0734595      3.6042046      50218.233      36.893836      36.893836      36.893836    
  28500000   0.49996191    -7.8213546     -7.0714224      3.6072702      50218.233      36.893836      36.893836      36.893836    
  28600000   0.49841179    -7.8184816     -7.0708745      3.6297412      50218.233      36.893836      36.893836      36.893836    
  28700000   0.49953057    -7.822379      -7.0730938      3.5929822      50218.233      36.893836      36.893836      36.893836    
  28800000   0.50063753    -7.8209158     -7.0699702      3.6190078      50218.233      36.893836      36.893836      36.893836    
  28900000   0.49940956    -7.8113563     -7.0622526      3.6827109      50218.233      36.893836      36.893836      36.893836    
  29000000   0.50222058    -7.8186984     -7.0653782      3.6310651      50218.233      36.893836      36.893836      36.893836    
  29100000   0.50093898    -7.8157402     -7.0643424      3.6487843      50218.233      36.893836      36.893836      36.893836    
  29200000   0.50039757    -7.8151953     -7.0646096      3.6512411      50218.233      36.893836      36.893836      36.893836    
  29300000   0.50115151    -7.814822      -7.0631054      3.6624         50218.233      36.893836      36.893836      36.893836    
  29400000   0.4991873     -7.814441      -7.0656708      3.6606477      50218.233      36.893836      36.893836      36.893836    
  29500000   0.50093157    -7.8172094     -7.0658227      3.6303056      50218.233      36.893836      36.893836      36.893836    
  29600000   0.49825146    -7.8172987     -7.0699322      3.63401        50218.233      36.893836      36.893836      36.893836    
  29700000   0.49890166    -7.8138518     -7.06551        3.6596102      50218.233      36.893836      36.893836      36.893836    
  29800000   0.50170849    -7.8157995     -7.0632475      3.6474585      50218.233      36.893836      36.893836      36.893836    
  29900000   0.50073475    -7.8165074     -7.065416       3.6460715      50218.233      36.893836      36.893836      36.893836    
  30000000   0.50368873    -7.8171993     -7.0616769      3.6379688      50218.233      36.893836      36.893836      36.893836    
  30100000   0.50133943    -7.8184353     -7.0664368      3.6275711      50218.233      36.893836      36.893836      36.893836    
  30200000   0.49837924    -7.8118448     -7.0642866      3.6778794      50218.233      36.893836      36.893836      36.893836    
  30300000   0.49942007    -7.8143226     -7.0652032      3.6587536      50218.233      36.893836      36.893836      36.893836    
  30400000   0.50001127    -7.8163398     -7.0663335      3.6580215      50218.233      36.893836      36.893836      36.893836    
  30500000   0.50285301    -7.8182072     -7.0639384      3.6386795      50218.233      36.893836      36.893836      36.893836    
  30600000   0.49726342    -7.8135957     -7.0677112      3.6569942      50218.233      36.893836      36.893836      36.893836    
  30700000   0.49914007    -7.819717      -7.0710176      3.6165166      50218.233      36.893836      36.893836      36.893836    
  30800000   0.50039821    -7.8195939     -7.0690073      3.6246869      50218.233      36.893836      36.893836      36.893836    
  30900000   0.49906123    -7.8191302     -7.070549       3.6207912      50218.233      36.893836      36.893836      36.893836    
  31000000   0.49970459    -7.8198849     -7.0703386      3.6223452      50218.233      36.893836      36.893836      36.893836    
  31100000   0.4972538     -7.8150165     -7.0691464      3.6417542      50218.233      36.893836      36.893836      36.893836    
  31200000   0.49976855    -7.8187776     -7.0691354      3.6200536      50218.233      36.893836      36.893836      36.893836    
  31300000   0.50012132    -7.8146954     -7.0645241      3.6340001      50218.233      36.893836      36.893836      36.893836    
  31400000   0.49580469    -7.8179691     -7.0742726      3.6199135      50218.233      36.893836      36.893836      36.893836    
  31500000   0.50044045    -7.8164747     -7.0658247      3.6315035      50218.233      36.893836      36.893836      36.893836    
  31600000   0.50256049    -7.8168621     -7.0630321      3.6401794      50218.233      36.893836      36.893836      36.893836    
  31700000   0.50043324    -7.8199074     -7.0692682      3.6256265      50218.233      36.893836      36.893836      36.893836    
  31800000   0.50105773    -7.8176616     -7.0660857      3.6305365      50218.233      36.893836      36.893836      36.893836    
  31900000   0.49995478    -7.8168694     -7.0669479      3.6454716      50218.233      36.893836      36.893836      36.893836    
  32000000   0.49994206    -7.8173447     -7.0674423      3.6308208      50218.233      36.893836      36.893836      36.893836    
  32100000   0.49889616    -7.8174583     -7.0691247      3.6303656      50218.233      36.893836      36.893836      36.893836    
  32200000   0.49924223    -7.8181651     -7.0693124      3.6162205      50218.233      36.893836      36.893836      36.893836    
  32300000   0.50247779    -7.8158871     -7.0621811      3.6566879      50218.233      36.893836      36.893836      36.893836    
  32400000   0.49919172    -7.8193803     -7.0706034      3.6301676      50218.233      36.893836      36.893836      36.893836    
  32500000   0.49967818    -7.8180429     -7.0685363      3.6287303      50218.233      36.893836      36.893836      36.893836    
  32600000   0.50083224    -7.8206795     -7.0694418      3.6119346      50218.233      36.893836      36.893836      36.893836    
  32700000   0.50179697    -7.8161522     -7.0634675      3.6481832      50218.233      36.893836      36.893836      36.893836    
  32800000   0.50398237    -7.8199022     -7.0639394      3.6168518      50218.233      36.893836      36.893836      36.893836    
  32900000   0.50101564    -7.8208863     -7.0693735      3.6195155      50218.233      36.893836      36.893836      36.893836    
  33000000   0.50146591    -7.8171217     -7.0649335      3.6295316      50218.233      36.893836      36.893836      36.893836    
  33100000   0.50340988    -7.821191      -7.0660869      3.609323       50218.233      36.893836      36.893836      36.893836    
  33200000   0.50097033    -7.8174505     -7.0660057      3.6334966      50218.233      36.893836      36.893836      36.893836    
  33300000   0.49919366    -7.8161221     -7.0673423      3.6452882      50218.233      36.893836      36.893836      36.893836    
  33400000   0.49701412    -7.8170708     -7.0715602      3.6253656      50218.233      36.893836      36.893836      36.893836    
  33500000   0.50122489    -7.8184279     -7.0666012      3.6259375      50218.233      36.893836      36.893836      36.893836    
  33600000   0.49947817    -7.8122461     -7.0630395      3.6792185      50218.233      36.893836      36.893836      36.893836    
  33700000   0.49904824    -7.8140768     -7.0655151      3.6568081      50218.233      36.893836      36.893836      36.893836    
  33800000   0.50190985    -7.8188891     -7.0660351      3.6312877      50218.233      36.893836      36.893836      36.893836    
  33900000   0.49878906    -7.8160013     -7.0678284      3.6344768      50218.233      36.893836      36.893836      36.893836    
  34000000   0.49798566    -7.815971      -7.0690031      3.6452545      50218.233      36.893836      36.893836      36.893836    
  34100000   0.49808704    -7.8203956     -7.0732757      3.6039554      50218.233      36.893836      36.893836      36.893836    
  34200000   0.49905675    -7.8177828     -7.0692083      3.6267085      50218.233      36.893836      36.893836      36.893836    
  34300000   0.49886317    -7.8148214     -7.0665373      3.6417164      50218.233      36.893836      36.893836      36.893836    
  34400000   0.50135952    -7.8204588     -7.0684302      3.6216959      50218.233      36.893836      36.893836      36.893836    
  34500000   0.49941394    -7.822371      -7.0732607      3.6012368      50218.233      36.893836      36.893836      36.893836    
  34600000   0.49934386    -7.8184958     -7.0694906      3.6209287      50218.233      36.893836      36.893836      36.893836    
  34700000   0.50178914    -7.8173728     -7.0646998      3.6399792      50218.233      36.893836      36.893836      36.893836    
  34800000   0.49786386    -7.8179616     -7.0711764      3.6376609      50218.233      36.893836      36.893836      36.893836    
  34900000   0.50223587    -7.8173378     -7.0639947      3.6463067      50218.233      36.893836      36.893836      36.893836    
  35000000   0.49862012    -7.8182227     -7.0703031      3.6302916      50218.233      36.893836      36.893836      36.893836    
  35100000   0.49825075    -7.8159301     -7.0685646      3.6492378      50218.233      36.893836      36.893836      36.893836    
  35200000   0.49991438    -7.816858      -7.0669971      3.6484313      50218.233      36.893836      36.893836      36.893836    
  35300000   0.49882537    -7.8186753     -7.0704479      3.6242745      50218.233      36.893836      36.893836      36.893836    
  35400000   0.50038445    -7.8165125     -7.0659465      3.6521341      50218.233      36.893836      36.893836      36.893836    
  35500000   0.5012438     -7.814378      -7.062523       3.6648117      50218.233      36.893836      36.893836      36.893836    
  35600000   0.49937291    -7.816506      -7.0674573      3.6527449      50218.233      36.893836      36.893836      36.893836    
  35700000   0.5011662     -7.8192134     -7.0674748      3.6271819      50218.233      36.893836      36.893836      36.893836    
  35800000   0.50015788    -7.815696      -7.0654699      3.647849       50218.233      36.893836      36.893836      36.893836    
  35900000   0.49727622    -7.8141036     -7.0681999      3.6491573      50218.233      36.893836      36.893836      36.893836    
  36000000   0.50112078    -7.8157429     -7.0640724      3.6567622      50218.233      36.893836      36.893836      36.893836    
  36100000   0.50067935    -7.8159097     -7.0649014      3.6402063      50218.233      36.893836      36.893836      36.893836    
  36200000   0.49884196    -7.8169076     -7.0686553      3.6436412      50218.233      36.893836      36.893836      36.893836    
  36300000   0.49861516    -7.8153682     -7.0674561      3.6591769      50218.233      36.893836      36.893836      36.893836    
  36400000   0.49981713    -7.8181643     -7.0684493      3.6287078      50218.233      36.893836      36.893836      36.893836    
  36500000   0.4980816     -7.8182058     -7.071094       3.6304201      50218.233      36.893836      36.893836      36.893836    
  36600000   0.502392      -7.8117633     -7.058186       3.6834139      50218.233      36.893836      36.893836      36.893836    
  36700000   0.49923688    -7.8158469     -7.0670023      3.6479487      50218.233      36.893836      36.893836      36.893836    
  36800000   0.49971416    -7.8197342     -7.0701736      3.628106       50218.233      36.893836      36.893836      36.893836    
  36900000   0.50016258    -7.8149376     -7.0647044      3.6505198      50218.233      36.893836      36.893836      36.893836    
  37000000   0.4993357     -7.8164239     -7.067431       3.6515458      50218.233      36.893836      36.893836      36.893836    
  37100000   0.50152473    -7.8201323     -7.0678559      3.6350367      50218.233      36.893836      36.893836      36.893836    
  37200000   0.49973609    -7.8165369     -7.0669434      3.644564       50218.233      36.893836      36.893836      36.893836    
  37300000   0.50024569    -7.8166276     -7.0662697      3.6491377      50218.233      36.893836      36.893836      36.893836    
  37400000   0.50110261    -7.8156768     -7.0640336      3.6596113      50218.233      36.893836      36.893836      36.893836    
  37500000   0.50160139    -7.8124256     -7.0600342      3.6810691      50218.233      36.893836      36.893836      36.893836    
  37600000   0.50142769    -7.8188145     -7.0666837      3.6249529      50218.233      36.893836      36.893836      36.893836    
  37700000   0.50008616    -7.8184674     -7.0683488      3.6301152      50218.233      36.893836      36.893836      36.893836    
  37800000   0.49817773    -7.8155278     -7.0682719      3.6494444      50218.233      36.893836      36.893836      36.893836    
  37900000   0.5002468     -7.8188112     -7.0684517      3.6277911      50218.233      36.893836      36.893836      36.893836    
  38000000   0.50359009    -7.8152443     -7.0598699      3.665723       50218.233      36.893836      36.893836      36.893836    
  38100000   0.50178091    -7.8170608     -7.0644001      3.646458       50218.233      36.893836      36.893836      36.893836    
  38200000   0.50069571    -7.8211534     -7.0701205      3.618091       50218.233      36.893836      36.893836      36.893836    
  38300000   0.49999952    -7.8186191     -7.0686305      3.6440387      50218.233      36.893836      36.893836      36.893836    
  38400000   0.50028249    -7.8140679     -7.0636549      3.6598591      50218.233      36.893836      36.893836      36.893836    
  38500000   0.50341195    -7.8208478     -7.0657406      3.6196252      50218.233      36.893836      36.893836      36.893836    
  38600000   0.4999645     -7.814063      -7.0641269      3.6687519      50218.233      36.893836      36.893836      36.893836    
  38700000   0.49783024    -7.8162305     -7.0694957      3.6428812      50218.233      36.893836      36.893836      36.893836    
  38800000   0.50204033    -7.8192422     -7.0661924      3.6324677      50218.233      36.893836      36.893836      36.893836    
  38900000   0.50001944    -7.818194      -7.0681755      3.6409491      50218.233      36.893836      36.893836      36.893836    
  39000000   0.50092931    -7.8170278     -7.0656446      3.6363154      50218.233      36.893836      36.893836      36.893836    
  39100000   0.49917139    -7.8189677     -7.0702213      3.6269638      50218.233      36.893836      36.893836      36.893836    
  39200000   0.5011526     -7.82119       -7.0694718      3.6109738      50218.233      36.893836      36.893836      36.893836    
  39300000   0.50048282    -7.8177379     -7.0670243      3.6448281      50218.233      36.893836      36.893836      36.893836    
  39400000   0.49969714    -7.8217391     -7.072204       3.6052642      50218.233      36.893836      36.893836      36.893836    
  39500000   0.49779038    -7.8176667     -7.0709918      3.6339918      50218.233      36.893836      36.893836      36.893836    
  39600000   0.50282066    -7.8157346     -7.0615144      3.6505106      50218.233      36.893836      36.893836      36.893836    
  39700000   0.50061171    -7.8165917     -7.0656848      3.6425327      50218.233      36.893836      36.893836      36.893836    
  39800000   0.49738357    -7.8154152     -7.0693505      3.6482933      50218.233      36.893836      36.893836      36.893836    
  39900000   0.49909049    -7.8187034     -7.0700784      3.620424       50218.233      36.893836      36.893836      36.893836    
  40000000   0.50111954    -7.8195548     -7.0678862      3.6180722      50218.233      36.893836      36.893836      36.893836    
  40100000   0.49752437    -7.8172033     -7.0709273      3.6425467      50218.233      36.893836      36.893836      36.893836    
  40200000   0.49685416    -7.8213685     -7.0760979      3.5983113      50218.233      36.893836      36.893836      36.893836    
  40300000   0.50180538    -7.8115165     -7.0588191      3.6776909      50218.233      36.893836      36.893836      36.893836    
  40400000   0.50047032    -7.8201069     -7.0694121      3.612382       50218.233      36.893836      36.893836      36.893836    
  40500000   0.49925495    -7.8178891     -7.0690173      3.623652       50218.233      36.893836      36.893836      36.893836    
  40600000   0.4993497     -7.8168292     -7.0678153      3.6383664      50218.233      36.893836      36.893836      36.893836    
  40700000   0.4990848     -7.8178743     -7.0692578      3.6329339      50218.233      36.893836      36.893836      36.893836    
  40800000   0.5018177     -7.8190604     -7.0663445      3.6243136      50218.233      36.893836      36.893836      36.893836    
  40900000   0.50012911    -7.8165726     -7.0663896      3.6319811      50218.233      36.893836      36.893836      36.893836    
  41000000   0.50154615    -7.8169909     -7.0646824      3.6372449      50218.233      36.893836      36.893836      36.893836    
  41100000   0.50048466    -7.8138304     -7.0631141      3.6677885      50218.233      36.893836      36.893836      36.893836    
  41200000   0.50033698    -7.8165559     -7.0660611      3.6419657      50218.233      36.893836      36.893836      36.893836    
  41300000   0.50004885    -7.8160508     -7.0659882      3.6576655      50218.233      36.893836      36.893836      36.893836    
  41400000   0.498488      -7.8145318     -7.0668104      3.6671007      50218.233      36.893836      36.893836      36.893836    
  41500000   0.49953628    -7.8140173     -7.0647235      3.6569721      50218.233      36.893836      36.893836      36.893836    
  41600000   0.50236915    -7.8172414     -7.0636984      3.6369706      50218.233      36.893836      36.893836      36.893836    
  41700000   0.50163598    -7.8188302     -7.0663869      3.635128       50218.233      36.893836      36.893836      36.893836    
  41800000   0.49849215    -7.8176427     -7.0699151      3.6318894      50218.233      36.893836      36.893836      36.893836    
  41900000   0.49822057    -7.8170543     -7.0697341      3.6369813      50218.233      36.893836      36.893836      36.893836    
  42000000   0.50044166    -7.8153186     -7.0646668      3.6457166      50218.233      36.893836      36.893836      36.893836    
  42100000   0.49947673    -7.8153045     -7.0661001      3.6475192      50218.233      36.893836      36.893836      36.893836    
  42200000   0.49658037    -7.8138911     -7.0690312      3.6559213      50218.233      36.893836      36.893836      36.893836    
  42300000   0.49979238    -7.8135498     -7.0638719      3.665936       50218.233      36.893836      36.893836      36.893836    
  42400000   0.5002278     -7.8148029     -7.0644719      3.6478442      50218.233      36.893836      36.893836      36.893836    
  42500000   0.50074427    -7.8191558     -7.06805        3.6214348      50218.233      36.893836      36.893836      36.893836    
  42600000   0.49843613    -7.8151546     -7.0675111      3.6488175      50218.233      36.893836      36.893836      36.893836    
  42700000   0.49961919    -7.8125908     -7.0631727      3.6726879      50218.233      36.893836      36.893836      36.893836    
  42800000   0.50040323    -7.8200473     -7.0694532      3.6232762      50218.233      36.893836      36.893836      36.893836    
  42900000   0.49945587    -7.8143351     -7.0651619      3.6565885      50218.233      36.893836      36.893836      36.893836    
  43000000   0.50130634    -7.8196885     -7.0677397      3.6338516      50218.233      36.893836      36.893836      36.893836    
  43100000   0.50017104    -7.8173662     -7.0671203      3.6389542      50218.233      36.893836      36.893836      36.893836    
  43200000   0.50311989    -7.8184107     -7.0637416      3.6245389      50218.233      36.893836      36.893836      36.893836    
  43300000   0.50115418    -7.8165633     -7.0648427      3.6517882      50218.233      36.893836      36.893836      36.893836    
  43400000   0.4992685     -7.8194342     -7.0705421      3.6249118      50218.233      36.893836      36.893836      36.893836    
  43500000   0.50018033    -7.8194265     -7.0691667      3.6237941      50218.233      36.893836      36.893836      36.893836    
  43600000   0.50087122    -7.8156476     -7.0643514      3.6549505      50218.233      36.893836      36.893836      36.893836    
  43700000   0.50169488    -7.8162553     -7.0637237      3.6525189      50218.233      36.893836      36.893836      36.893836    
  43800000   0.50009103    -7.8203847     -7.0702589      3.6141225      50218.233      36.893836      36.893836      36.893836    
  43900000   0.50011355    -7.8213478     -7.0711881      3.6028839      50218.233      36.893836      36.893836      36.893836    
  44000000   0.50013033    -7.816698      -7.0665132      3.6447647      50218.233      36.893836      36.893836      36.893836    
  44100000   0.50086416    -7.8199839     -7.0686984      3.6220328      50218.233      36.893836      36.893836      36.893836    
  44200000   0.50093468    -7.8159026     -7.0645112      3.6536721      50218.233      36.893836      36.893836      36.893836    
  44300000   0.50028269    -7.8221344     -7.0717211      3.6008995      50218.233      36.893836      36.893836      36.893836    
  44400000   0.49955514    -7.81925       -7.0699279      3.6232924      50218.233      36.893836      36.893836      36.893836    
  44500000   0.49938289    -7.8150313     -7.0659676      3.6532513      50218.233      36.893836      36.893836      36.893836    
  44600000   0.50301062    -7.8145181     -7.0600129      3.6625748      50218.233      36.893836      36.893836      36.893836    
  44700000   0.49994658    -7.8155696     -7.0656604      3.654398       50218.233      36.893836      36.893836      36.893836    
  44800000   0.50034763    -7.8168617     -7.0663509      3.6413791      50218.233      36.893836      36.893836      36.893836    
  44900000   0.4997153     -7.8175671     -7.0680048      3.6330425      50218.233      36.893836      36.893836      36.893836    
  45000000   0.50059662    -7.8176192     -7.0667349      3.6399348      50218.233      36.893836      36.893836      36.893836    
  45100000   0.50171413    -7.817431      -7.0648705      3.6560638      50218.233      36.893836      36.893836      36.893836    
  45200000   0.49808395    -7.8133183     -7.066203       3.6711787      50218.233      36.893836      36.893836      36.893836    
  45300000   0.49906168    -7.8185738     -7.0699919      3.6204505      50218.233      36.893836      36.893836      36.893836    
  45400000   0.49834936    -7.8180239     -7.0705105      3.6289235      50218.233      36.893836      36.893836      36.893836    
  45500000   0.50122965    -7.8152565     -7.0634227      3.6563648      50218.233      36.893836      36.893836      36.893836    
  45600000   0.5007481     -7.8173525     -7.066241       3.6392085      50218.233      36.893836      36.893836      36.893836    
  45700000   0.5031697     -7.8212457     -7.0665019      3.6114041      50218.233      36.893836      36.893836      36.893836    
  45800000   0.49796946    -7.8177345     -7.0707909      3.6294417      50218.233      36.893836      36.893836      36.893836    
  45900000   0.49988989    -7.8201456     -7.0703214      3.6169614      50218.233      36.893836      36.893836      36.893836    
  46000000   0.50140884    -7.8201229     -7.0680204      3.6213682      50218.233      36.893836      36.893836      36.893836    
  46100000   0.50139014    -7.8177531     -7.0656785      3.6244722      50218.233      36.893836      36.893836      36.893836    
  46200000   0.4999956     -7.8170825     -7.0670997      3.6406563      50218.233      36.893836      36.893836      36.893836    
  46300000   0.49761152    -7.8171238     -7.0707171      3.6442887      50218.233      36.893836      36.893836      36.893836    
  46400000   0.49893661    -7.8187796     -7.0703853      3.6244771      50218.233      36.893836      36.893836      36.893836    
  46500000   0.50132231    -7.8224438     -7.0704711      3.600066       50218.233      36.893836      36.893836      36.893836    
  46600000   0.50092197    -7.8205192     -7.0691469      3.6236213      50218.233      36.893836      36.893836      36.893836    
  46700000   0.49795259    -7.818483      -7.0715648      3.6341893      50218.233      36.893836      36.893836      36.893836    
  46800000   0.50096423    -7.8164975     -7.0650618      3.6369793      50218.233      36.893836      36.893836      36.893836    
  46900000   0.49824827    -7.8185171     -7.0711553      3.6230281      50218.233      36.893836      36.893836      36.893836    
  47000000   0.49921259    -7.8180846     -7.0692763      3.6261202      50218.233      36.893836      36.893836      36.893836    
  47100000   0.50092487    -7.8163332     -7.0649566      3.6508714      50218.233      36.893836      36.893836      36.893836    
  47200000   0.49763693    -7.8159362     -7.0694914      3.6372263      50218.233      36.893836      36.893836      36.893836    
  47300000   0.49966269    -7.8109617     -7.0614783      3.671831       50218.233      36.893836      36.893836      36.893836    
  47400000   0.49900582    -7.8172494     -7.0687514      3.6366781      50218.233      36.893836      36.893836      36.893836    
  47500000   0.50002715    -7.814346      -7.064316       3.6595438      50218.233      36.893836      36.893836      36.893836    
  47600000   0.50092333    -7.8157534     -7.0643791      3.6484287      50218.233      36.893836      36.893836      36.893836    
  47700000   0.50103719    -7.8132375     -7.0616924      3.675535       50218.233      36.893836      36.893836      36.893836    
  47800000   0.49837887    -7.8203611     -7.0728034      3.6128978      50218.233      36.893836      36.893836      36.893836    
  47900000   0.50034106    -7.8137796     -7.0632787      3.6633616      50218.233      36.893836      36.893836      36.893836    
  48000000   0.50189088    -7.8195237     -7.0666981      3.6279867      50218.233      36.893836      36.893836      36.893836    
  48100000   0.50205063    -7.8115661     -7.0585008      3.6894455      50218.233      36.893836      36.893836      36.893836    
  48200000   0.49903046    -7.8184427     -7.0699076      3.6414406      50218.233      36.893836      36.893836      36.893836    
  48300000   0.49938816    -7.8185371     -7.0694655      3.6226668      50218.233      36.893836      36.893836      36.893836    
  48400000   0.50003634    -7.8231534     -7.0731096      3.5941085      50218.233      36.893836      36.893836      36.893836    
  48500000   0.5033861     -7.8164583     -7.0613899      3.6530422      50218.233      36.893836      36.893836      36.893836    
  48600000   0.50001103    -7.8154404     -7.0654345      3.6575391      50218.233      36.893836      36.893836      36.893836    
  48700000   0.50128994    -7.816469      -7.0645448      3.6498403      50218.233      36.893836      36.893836      36.893836    
  48800000   0.50103465    -7.816978      -7.0654367      3.6559696      50218.233      36.893836      36.893836      36.893836    
  48900000   0.49913192    -7.819327      -7.0706398      3.6284644      50218.233      36.893836      36.893836      36.893836    
  49000000   0.49910733    -7.8182995     -7.0696492      3.6298451      50218.233      36.893836      36.893836      36.893836    
  49100000   0.49807387    -7.8204604     -7.0733602      3.6178481      50218.233      36.893836      36.893836      36.893836    
  49200000   0.50313653    -7.8197342     -7.0650401      3.6249326      50218.233      36.893836      36.893836      36.893836    
  49300000   0.5043139     -7.8172163     -7.0607562      3.6571988      50218.233      36.893836      36.893836      36.893836    
  49400000   0.50302847    -7.8186862     -7.0641543      3.643929       50218.233      36.893836      36.893836      36.893836    
  49500000   0.49683008    -7.8162858     -7.0710512      3.6433702      50218.233      36.893836      36.893836      36.893836    
  49600000   0.50322513    -7.8171795     -7.0623526      3.6561607      50218.233      36.893836      36.893836      36.893836    
  49700000   0.49904821    -7.8186191     -7.0700574      3.6328513      50218.233      36.893836      36.893836      36.893836    
  49800000   0.50150741    -7.81662       -7.0643696      3.6507014      50218.233      36.893836      36.893836      36.893836    
  49900000   0.49859221    -7.8155163     -7.0676386      3.6567955      50218.233      36.893836      36.893836      36.893836    
  50000000   0.49769766    -7.8157869     -7.069251       3.6436026      50218.233      36.893836      36.893836      36.893836    
Loop time of 82110.9 on 5 procs for 50000000 steps with 70304 atoms

Performance: 526117.494 tau/day, 608.932 timesteps/s, 42.810 Matom-step/s
94.8% CPU use with 5 MPI tasks x 1 OpenMP threads

MPI task timing breakdown:
Section |  min time  |  avg time  |  max time  |%varavg| %total
---------------------------------------------------------------
Pair    | 28580      | 32524      | 37193      |1642.4 | 39.61
Neigh   | 274.08     | 289.74     | 310.89     |  70.7 |  0.35
Comm    | 12328      | 12382      | 12489      |  51.7 | 15.08
Output  | 0.091201   | 0.0951     | 0.1015     |   1.2 |  0.00
Modify  | 27956      | 32518      | 36565      |1653.8 | 39.60
Other   |            | 4398       |            |       |  5.36

Nlocal:        14060.8 ave       14093 max       14015 min
Histogram: 1 0 0 1 0 0 1 0 0 2
Nghost:          18754 ave       18835 max       18680 min
Histogram: 1 1 0 0 1 0 0 0 1 1
Neighs:              0 ave           0 max           0 min
Histogram: 5 0 0 0 0 0 0 0 0 0

Total # of neighbors = 0
Ave neighs/atom = 0
Neighbor list builds = 10232743
Dangerous builds = 0
clear
OMP_NUM_THREADS environment is not set. Defaulting to 1 thread. (src/comm.cpp:98)
  using 1 OpenMP thread(s) per MPI task
package gpu 0
jump dms480.lmp

variable T equal 480
# T = 1000* (temp in LJ unit)
variable f equal 100000
log log.${T}
log log.480
