variable TLJ equal (${T}/1000)
variable TLJ equal (495/1000)
variable NCyle equal 5
variable iStep equal (${f})
variable iStep equal (100000)
variable dumpStep equal (${f}*100)
variable dumpStep equal (100000*100)
variable runStep equal (${f}*100*${NCyle})
variable runStep equal (100000*100*${NCyle})
variable runStep equal (100000*100*5)

units       lj
atom_style  atomic
dimension 3
boundary     p p p
pair_style  lj/cut 2.5
read_data  ../data/T${T}.dat
read_data  ../data/T495.dat
Reading data file ...
  orthogonal box = (0.97250269 0.97250269 0.97250269) to (37.866338 37.866338 37.866338)
  1 by 1 by 5 MPI processor grid
  reading atoms ...
  70304 atoms
  reading velocities ...
  70304 velocities
  read_data CPU = 0.466 seconds
change_box all triclinic
Changing box ...
  triclinic box = (0.97250269 0.97250269 0.97250269) to (37.866338 37.866338 37.866338) with tilt (0 0 0)
mass 1 1
mass 2 1
pair_modify shift yes
pair_coeff  1 1 1 1
pair_coeff  1 2 1.5 0.8
pair_coeff  2 2 0.5 0.88


timestep 0.01
thermo ${iStep}
thermo 100000
reset_timestep 0
thermo_style custom step temp pe etotal press vol lx ly lz
fix             1 all nvt temp ${TLJ}  ${TLJ}  0.1
fix             1 all nvt temp 0.495  ${TLJ}  0.1
fix             1 all nvt temp 0.495  0.495  0.1
thermo_modify flush yes

fix dsf all deform 1 xy  wiggle 0.5  ${f}   units box
fix dsf all deform 1 xy  wiggle 0.5  100000   units box
fix ps1 all ave/time 1 1 ${iStep} c_thermo_press[1] c_thermo_press[2]  c_thermo_press[3] c_thermo_press[4]  c_thermo_press[5] c_thermo_press[6]  file  stress.${T}
fix ps1 all ave/time 1 1 100000 c_thermo_press[1] c_thermo_press[2]  c_thermo_press[3] c_thermo_press[4]  c_thermo_press[5] c_thermo_press[6]  file  stress.${T}
fix ps1 all ave/time 1 1 100000 c_thermo_press[1] c_thermo_press[2]  c_thermo_press[3] c_thermo_press[4]  c_thermo_press[5] c_thermo_press[6]  file  stress.495
dump            1 all custom ${dumpStep} dump.${T} id type x y z
dump            1 all custom 10000000 dump.${T} id type x y z
dump            1 all custom 10000000 dump.495 id type x y z
dump_modify 1 sort id
fix nodrift all momentum 1  linear 1 1 1
fix com_seed all recenter INIT INIT INIT shift all
run ${runStep}
run 50000000
Generated 0 of 1 mixed pair_coeff terms from geometric mixing rule
Per MPI rank memory allocation (min/avg/max) = 8.911 | 8.918 | 8.922 Mbytes
   Step          Temp          PotEng         TotEng         Press          Volume           Lx             Ly             Lz      
         0   0.49689135    -7.8369053     -7.0915789      3.4963649      50218.233      36.893836      36.893836      36.893836    
    100000   0.4936737     -7.8265203     -7.0860203      3.5589901      50218.233      36.893836      36.893836      36.893836    
    200000   0.49402467    -7.8241901     -7.0831636      3.5694844      50218.233      36.893836      36.893836      36.893836    
    300000   0.49721121    -7.821021      -7.0752148      3.6084566      50218.233      36.893836      36.893836      36.893836    
    400000   0.49794357    -7.8229507     -7.076046       3.581507       50218.233      36.893836      36.893836      36.893836    
    500000   0.4954631     -7.8245147     -7.0813306      3.5819881      50218.233      36.893836      36.893836      36.893836    
    600000   0.49631377    -7.8210931     -7.076633       3.5989488      50218.233      36.893836      36.893836      36.893836    
    700000   0.49316505    -7.8241568     -7.0844198      3.575677       50218.233      36.893836      36.893836      36.893836    
    800000   0.4993887     -7.8257301     -7.0766577      3.5739816      50218.233      36.893836      36.893836      36.893836    
    900000   0.49533752    -7.8217593     -7.0787636      3.5937049      50218.233      36.893836      36.893836      36.893836    
   1000000   0.49183607    -7.8238519     -7.0861083      3.5821828      50218.233      36.893836      36.893836      36.893836    
   1100000   0.49366931    -7.82641       -7.0859166      3.5604041      50218.233      36.893836      36.893836      36.893836    
   1200000   0.49427841    -7.825887      -7.0844799      3.5615051      50218.233      36.893836      36.893836      36.893836    
   1300000   0.49786019    -7.8292791     -7.0824994      3.542035       50218.233      36.893836      36.893836      36.893836    
   1400000   0.49415814    -7.8284963     -7.0872696      3.548302       50218.233      36.893836      36.893836      36.893836    
   1500000   0.49419206    -7.8210082     -7.0797306      3.6019513      50218.233      36.893836      36.893836      36.893836    
   1600000   0.49517826    -7.8245802     -7.0818234      3.5675921      50218.233      36.893836      36.893836      36.893836    
   1700000   0.49414454    -7.8230723     -7.0818661      3.5822587      50218.233      36.893836      36.893836      36.893836    
   1800000   0.49332013    -7.8257683     -7.0857986      3.5704578      50218.233      36.893836      36.893836      36.893836    
   1900000   0.49605238    -7.8247365     -7.0806685      3.5793769      50218.233      36.893836      36.893836      36.893836    
   2000000   0.49562641    -7.8213872     -7.0779582      3.6049545      50218.233      36.893836      36.893836      36.893836    
   2100000   0.49651718    -7.8264796     -7.0817144      3.569572       50218.233      36.893836      36.893836      36.893836    
   2200000   0.49385864    -7.8239832     -7.0832058      3.5769594      50218.233      36.893836      36.893836      36.893836    
   2300000   0.49267587    -7.8246514     -7.0856481      3.5741321      50218.233      36.893836      36.893836      36.893836    
   2400000   0.49478279    -7.8311655     -7.0890019      3.5261398      50218.233      36.893836      36.893836      36.893836    
   2500000   0.4965567     -7.8287841     -7.0839597      3.5545671      50218.233      36.893836      36.893836      36.893836    
   2600000   0.49492737    -7.826373      -7.0839925      3.5698076      50218.233      36.893836      36.893836      36.893836    
   2700000   0.49406545    -7.828644      -7.0875563      3.5527474      50218.233      36.893836      36.893836      36.893836    
   2800000   0.49387129    -7.823049      -7.0822526      3.5852767      50218.233      36.893836      36.893836      36.893836    
   2900000   0.49404323    -7.8300083     -7.088954       3.5374164      50218.233      36.893836      36.893836      36.893836    
   3000000   0.49374922    -7.8246557     -7.0840424      3.580987       50218.233      36.893836      36.893836      36.893836    
   3100000   0.49672777    -7.8313331     -7.0862521      3.534337       50218.233      36.893836      36.893836      36.893836    
   3200000   0.4965587     -7.823811      -7.0789836      3.5845438      50218.233      36.893836      36.893836      36.893836    
   3300000   0.49509804    -7.8290496     -7.0864131      3.5541397      50218.233      36.893836      36.893836      36.893836    
   3400000   0.49504286    -7.8263748     -7.0838211      3.5682468      50218.233      36.893836      36.893836      36.893836    
   3500000   0.49551596    -7.8263071     -7.0830437      3.5664973      50218.233      36.893836      36.893836      36.893836    
   3600000   0.49739164    -7.8288095     -7.0827327      3.5464422      50218.233      36.893836      36.893836      36.893836    
   3700000   0.49682544    -7.8281414     -7.0829139      3.5517774      50218.233      36.893836      36.893836      36.893836    
   3800000   0.49488899    -7.8263083     -7.0839853      3.5685526      50218.233      36.893836      36.893836      36.893836    
   3900000   0.49698773    -7.8242104     -7.0787394      3.58736        50218.233      36.893836      36.893836      36.893836    
   4000000   0.49474424    -7.8248215     -7.0827157      3.5853487      50218.233      36.893836      36.893836      36.893836    
   4100000   0.49407464    -7.8254166     -7.0843152      3.5647143      50218.233      36.893836      36.893836      36.893836    
   4200000   0.49510367    -7.8324424     -7.0897975      3.5232431      50218.233      36.893836      36.893836      36.893836    
   4300000   0.49445955    -7.8274853     -7.0858065      3.5520114      50218.233      36.893836      36.893836      36.893836    
   4400000   0.49274512    -7.8181122     -7.079005       3.6215023      50218.233      36.893836      36.893836      36.893836    
   4500000   0.49575108    -7.8236072     -7.0799911      3.5986313      50218.233      36.893836      36.893836      36.893836    
   4600000   0.49600704    -7.8266272     -7.0826272      3.5749697      50218.233      36.893836      36.893836      36.893836    
   4700000   0.49305647    -7.8241467     -7.0845725      3.5798812      50218.233      36.893836      36.893836      36.893836    
   4800000   0.49596758    -7.8250632     -7.0811224      3.5888403      50218.233      36.893836      36.893836      36.893836    
   4900000   0.49507187    -7.8296719     -7.0870747      3.5390768      50218.233      36.893836      36.893836      36.893836    
   5000000   0.49461476    -7.8300005     -7.0880889      3.5449751      50218.233      36.893836      36.893836      36.893836    
   5100000   0.49206894    -7.8264921     -7.0883992      3.5572614      50218.233      36.893836      36.893836      36.893836    
   5200000   0.49332995    -7.8256049     -7.0856205      3.5669543      50218.233      36.893836      36.893836      36.893836    
   5300000   0.49676546    -7.8231572     -7.0780196      3.586702       50218.233      36.893836      36.893836      36.893836    
   5400000   0.49372322    -7.8261833     -7.085609       3.565418       50218.233      36.893836      36.893836      36.893836    
   5500000   0.49512684    -7.8232316     -7.0805519      3.5862333      50218.233      36.893836      36.893836      36.893836    
   5600000   0.49518643    -7.8213865     -7.0786174      3.5853933      50218.233      36.893836      36.893836      36.893836    
   5700000   0.49500699    -7.8252354     -7.0827355      3.5750184      50218.233      36.893836      36.893836      36.893836    
   5800000   0.49604699    -7.825955      -7.0818951      3.5719658      50218.233      36.893836      36.893836      36.893836    
   5900000   0.49383756    -7.8276529     -7.0869071      3.5513498      50218.233      36.893836      36.893836      36.893836    
   6000000   0.49601011    -7.8263751     -7.0823705      3.5656552      50218.233      36.893836      36.893836      36.893836    
   6100000   0.49643361    -7.821957      -7.0773171      3.6000936      50218.233      36.893836      36.893836      36.893836    
   6200000   0.49498021    -7.8216854     -7.0792257      3.5875692      50218.233      36.893836      36.893836      36.893836    
   6300000   0.49400493    -7.8261082     -7.0851113      3.5667247      50218.233      36.893836      36.893836      36.893836    
   6400000   0.49690921    -7.8271998     -7.0818466      3.5771149      50218.233      36.893836      36.893836      36.893836    
   6500000   0.49847001    -7.8217114     -7.074017       3.6052501      50218.233      36.893836      36.893836      36.893836    
   6600000   0.49409205    -7.8304649     -7.0893373      3.5278143      50218.233      36.893836      36.893836      36.893836    
   6700000   0.495482      -7.8268196     -7.0836072      3.5589122      50218.233      36.893836      36.893836      36.893836    
   6800000   0.49264084    -7.8270295     -7.0880788      3.5571402      50218.233      36.893836      36.893836      36.893836    
   6900000   0.49595202    -7.8251698     -7.0812524      3.5845341      50218.233      36.893836      36.893836      36.893836    
   7000000   0.49554487    -7.8253999     -7.0820931      3.5754836      50218.233      36.893836      36.893836      36.893836    
   7100000   0.49441515    -7.8228282     -7.0812161      3.5942125      50218.233      36.893836      36.893836      36.893836    
   7200000   0.49453744    -7.8275271     -7.0857315      3.5590825      50218.233      36.893836      36.893836      36.893836    
   7300000   0.49516939    -7.8277311     -7.0849875      3.5670143      50218.233      36.893836      36.893836      36.893836    
   7400000   0.49556222    -7.8302569     -7.0869241      3.5268799      50218.233      36.893836      36.893836      36.893836    
   7500000   0.49209635    -7.8307269     -7.0925929      3.5341429      50218.233      36.893836      36.893836      36.893836    
   7600000   0.49368207    -7.8290654     -7.0885528      3.5431713      50218.233      36.893836      36.893836      36.893836    
   7700000   0.49391384    -7.8331694     -7.0923092      3.5133014      50218.233      36.893836      36.893836      36.893836    
   7800000   0.49580835    -7.8241704     -7.0804684      3.5894529      50218.233      36.893836      36.893836      36.893836    
   7900000   0.49242011    -7.8311998     -7.0925802      3.510114       50218.233      36.893836      36.893836      36.893836    
   8000000   0.49718901    -7.8277581     -7.0819852      3.5554886      50218.233      36.893836      36.893836      36.893836    
   8100000   0.49214367    -7.8309394     -7.0927344      3.5181319      50218.233      36.893836      36.893836      36.893836    
   8200000   0.49494959    -7.8301213     -7.0877074      3.5410913      50218.233      36.893836      36.893836      36.893836    
   8300000   0.49235291    -7.8318251     -7.0933062      3.5152275      50218.233      36.893836      36.893836      36.893836    
   8400000   0.49495427    -7.828275      -7.0858542      3.5462053      50218.233      36.893836      36.893836      36.893836    
   8500000   0.49329561    -7.8323144     -7.0923815      3.5104239      50218.233      36.893836      36.893836      36.893836    
   8600000   0.49485979    -7.8234653     -7.0811862      3.5817453      50218.233      36.893836      36.893836      36.893836    
   8700000   0.49654075    -7.8242436     -7.0794431      3.5893669      50218.233      36.893836      36.893836      36.893836    
   8800000   0.49356133    -7.8249483     -7.0846168      3.5772079      50218.233      36.893836      36.893836      36.893836    
   8900000   0.49513087    -7.828257      -7.0855713      3.5422691      50218.233      36.893836      36.893836      36.893836    
   9000000   0.49417765    -7.8246442     -7.0833883      3.5705638      50218.233      36.893836      36.893836      36.893836    
   9100000   0.49605944    -7.823594      -7.0795154      3.5773287      50218.233      36.893836      36.893836      36.893836    
   9200000   0.49525452    -7.8237053     -7.080834       3.5737647      50218.233      36.893836      36.893836      36.893836    
   9300000   0.49364671    -7.8259582     -7.0854986      3.5549491      50218.233      36.893836      36.893836      36.893836    
   9400000   0.49480693    -7.8186323     -7.0764324      3.6185662      50218.233      36.893836      36.893836      36.893836    
   9500000   0.49464049    -7.8231364     -7.0811863      3.5846424      50218.233      36.893836      36.893836      36.893836    
   9600000   0.49669945    -7.823227      -7.0781885      3.5893684      50218.233      36.893836      36.893836      36.893836    
   9700000   0.49480669    -7.8251167     -7.0829172      3.5737458      50218.233      36.893836      36.893836      36.893836    
   9800000   0.49437742    -7.8230612     -7.0815057      3.5900583      50218.233      36.893836      36.893836      36.893836    
   9900000   0.494375      -7.8235475     -7.0819955      3.589045       50218.233      36.893836      36.893836      36.893836    
  10000000   0.4944441     -7.8256508     -7.0839952      3.5837964      50218.233      36.893836      36.893836      36.893836    
  10100000   0.49549221    -7.8222966     -7.0790689      3.6000905      50218.233      36.893836      36.893836      36.893836    
  10200000   0.49422791    -7.8251054     -7.0837741      3.5751842      50218.233      36.893836      36.893836      36.893836    
  10300000   0.49573466    -7.8193678     -7.0757764      3.6165998      50218.233      36.893836      36.893836      36.893836    
  10400000   0.49508376    -7.8207796     -7.0781645      3.6117595      50218.233      36.893836      36.893836      36.893836    
  10500000   0.4926758     -7.8212014     -7.0821982      3.5956364      50218.233      36.893836      36.893836      36.893836    
  10600000   0.49467606    -7.8235838     -7.0815803      3.5960842      50218.233      36.893836      36.893836      36.893836    
  10700000   0.49597352    -7.8218105     -7.0778608      3.5986674      50218.233      36.893836      36.893836      36.893836    
  10800000   0.49326692    -7.8241219     -7.084232       3.5833683      50218.233      36.893836      36.893836      36.893836    
  10900000   0.49248603    -7.8221491     -7.0834306      3.5936085      50218.233      36.893836      36.893836      36.893836    
  11000000   0.4966256     -7.8222663     -7.0773385      3.600818       50218.233      36.893836      36.893836      36.893836    
  11100000   0.49420887    -7.8229701     -7.0816673      3.58839        50218.233      36.893836      36.893836      36.893836    
  11200000   0.4968266     -7.8248667     -7.0796374      3.5792747      50218.233      36.893836      36.893836      36.893836    
  11300000   0.49495315    -7.8202339     -7.0778147      3.6149458      50218.233      36.893836      36.893836      36.893836    
  11400000   0.49391822    -7.8233692     -7.0825024      3.5775964      50218.233      36.893836      36.893836      36.893836    
  11500000   0.49394672    -7.8247212     -7.0838117      3.5657397      50218.233      36.893836      36.893836      36.893836    
  11600000   0.49558077    -7.8236721     -7.0803115      3.577315       50218.233      36.893836      36.893836      36.893836    
  11700000   0.49366047    -7.8220105     -7.0815303      3.6035378      50218.233      36.893836      36.893836      36.893836    
  11800000   0.49600022    -7.8225339     -7.0785441      3.6032434      50218.233      36.893836      36.893836      36.893836    
  11900000   0.49593156    -7.8263389     -7.0824522      3.5576887      50218.233      36.893836      36.893836      36.893836    
  12000000   0.49501957    -7.8272159     -7.0846971      3.5596034      50218.233      36.893836      36.893836      36.893836    
  12100000   0.49677033    -7.8247378     -7.0795929      3.5882342      50218.233      36.893836      36.893836      36.893836    
  12200000   0.49639564    -7.8284121     -7.0838292      3.5623532      50218.233      36.893836      36.893836      36.893836    
  12300000   0.49328597    -7.8278868     -7.0879684      3.5529621      50218.233      36.893836      36.893836      36.893836    
  12400000   0.49783179    -7.8294592     -7.0827221      3.5405835      50218.233      36.893836      36.893836      36.893836    
  12500000   0.49470615    -7.8265188     -7.0844702      3.5636261      50218.233      36.893836      36.893836      36.893836    
  12600000   0.49646678    -7.8273816     -7.082692       3.563128       50218.233      36.893836      36.893836      36.893836    
  12700000   0.49561263    -7.8236954     -7.0802871      3.5894773      50218.233      36.893836      36.893836      36.893836    
  12800000   0.49267853    -7.8268374     -7.0878301      3.5782474      50218.233      36.893836      36.893836      36.893836    
  12900000   0.49420999    -7.8230866     -7.0817822      3.5849261      50218.233      36.893836      36.893836      36.893836    
  13000000   0.49648533    -7.8278878     -7.0831704      3.5438154      50218.233      36.893836      36.893836      36.893836    
  13100000   0.49493715    -7.8255033     -7.0831082      3.5814248      50218.233      36.893836      36.893836      36.893836    
  13200000   0.49617628    -7.8275207     -7.0832669      3.5581034      50218.233      36.893836      36.893836      36.893836    
  13300000   0.49604852    -7.8274309     -7.0833687      3.5618149      50218.233      36.893836      36.893836      36.893836    
  13400000   0.49466317    -7.8196259     -7.0776417      3.615205       50218.233      36.893836      36.893836      36.893836    
  13500000   0.49811747    -7.8305064     -7.0833409      3.5469904      50218.233      36.893836      36.893836      36.893836    
  13600000   0.49686942    -7.8249166     -7.0796231      3.5759281      50218.233      36.893836      36.893836      36.893836    
  13700000   0.49199264    -7.8231494     -7.085171       3.5818798      50218.233      36.893836      36.893836      36.893836    
  13800000   0.49589578    -7.8251315     -7.0812985      3.5836861      50218.233      36.893836      36.893836      36.893836    
  13900000   0.49772016    -7.8270638     -7.0804942      3.563786       50218.233      36.893836      36.893836      36.893836    
  14000000   0.49448165    -7.830058      -7.0883461      3.5334367      50218.233      36.893836      36.893836      36.893836    
  14100000   0.49444137    -7.8200966     -7.0784451      3.6141985      50218.233      36.893836      36.893836      36.893836    
  14200000   0.49578234    -7.8274456     -7.0837826      3.5621123      50218.233      36.893836      36.893836      36.893836    
  14300000   0.49327417    -7.832238      -7.0923373      3.5174788      50218.233      36.893836      36.893836      36.893836    
  14400000   0.49349463    -7.829116      -7.0888846      3.5392418      50218.233      36.893836      36.893836      36.893836    
  14500000   0.49591051    -7.8316617     -7.0878065      3.5230206      50218.233      36.893836      36.893836      36.893836    
  14600000   0.49614035    -7.8271786     -7.0829787      3.5663281      50218.233      36.893836      36.893836      36.893836    
  14700000   0.49490938    -7.8267332     -7.0843797      3.5528283      50218.233      36.893836      36.893836      36.893836    
  14800000   0.49626904    -7.826414      -7.0820211      3.5703191      50218.233      36.893836      36.893836      36.893836    
  14900000   0.49597846    -7.8221876     -7.0782305      3.6060679      50218.233      36.893836      36.893836      36.893836    
  15000000   0.49442138    -7.8299316     -7.0883101      3.5286379      50218.233      36.893836      36.893836      36.893836    
  15100000   0.4976403     -7.8244449     -7.077995       3.5781275      50218.233      36.893836      36.893836      36.893836    
  15200000   0.49318647    -7.8287531     -7.0889839      3.5380312      50218.233      36.893836      36.893836      36.893836    
  15300000   0.49795595    -7.8287022     -7.0817789      3.5497142      50218.233      36.893836      36.893836      36.893836    
  15400000   0.4935235     -7.8277438     -7.0874691      3.5422544      50218.233      36.893836      36.893836      36.893836    
  15500000   0.49592837    -7.8283823     -7.0845003      3.5478251      50218.233      36.893836      36.893836      36.893836    
  15600000   0.4929855     -7.8298363     -7.0903686      3.5314394      50218.233      36.893836      36.893836      36.893836    
  15700000   0.49531474    -7.8220832     -7.0791216      3.5818206      50218.233      36.893836      36.893836      36.893836    
  15800000   0.4938381     -7.8252964     -7.0845498      3.5561656      50218.233      36.893836      36.893836      36.893836    
  15900000   0.49511931    -7.8255226     -7.0828542      3.558507       50218.233      36.893836      36.893836      36.893836    
  16000000   0.49599325    -7.8251402     -7.0811609      3.5674436      50218.233      36.893836      36.893836      36.893836    
  16100000   0.49586572    -7.8319111     -7.0881231      3.5158422      50218.233      36.893836      36.893836      36.893836    
  16200000   0.49666091    -7.8294767     -7.084496       3.5392899      50218.233      36.893836      36.893836      36.893836    
  16300000   0.4949043     -7.8286276     -7.0862817      3.5403623      50218.233      36.893836      36.893836      36.893836    
  16400000   0.49471064    -7.8250696     -7.0830141      3.5572988      50218.233      36.893836      36.893836      36.893836    
  16500000   0.49444258    -7.8253797     -7.0837264      3.5668741      50218.233      36.893836      36.893836      36.893836    
  16600000   0.49452477    -7.8261842     -7.0844076      3.5634605      50218.233      36.893836      36.893836      36.893836    
  16700000   0.49652601    -7.8248028     -7.0800243      3.572847       50218.233      36.893836      36.893836      36.893836    
  16800000   0.49549316    -7.8299663     -7.0867371      3.5348974      50218.233      36.893836      36.893836      36.893836    
  16900000   0.49575072    -7.8254239     -7.0818084      3.5811968      50218.233      36.893836      36.893836      36.893836    
  17000000   0.49542875    -7.8266151     -7.0834825      3.5652273      50218.233      36.893836      36.893836      36.893836    
  17100000   0.49593017    -7.8226974     -7.0788127      3.590218       50218.233      36.893836      36.893836      36.893836    
  17200000   0.49446638    -7.8272371     -7.0855481      3.5488435      50218.233      36.893836      36.893836      36.893836    
  17300000   0.49389415    -7.8288368     -7.0880061      3.5447482      50218.233      36.893836      36.893836      36.893836    
  17400000   0.49522251    -7.82554       -7.0827168      3.5629473      50218.233      36.893836      36.893836      36.893836    
  17500000   0.49710894    -7.825715      -7.0800622      3.584007       50218.233      36.893836      36.893836      36.893836    
  17600000   0.49504949    -7.8279207     -7.085357       3.5483794      50218.233      36.893836      36.893836      36.893836    
  17700000   0.49578494    -7.8250155     -7.0813487      3.5785315      50218.233      36.893836      36.893836      36.893836    
  17800000   0.49420228    -7.8258071     -7.0845143      3.5751098      50218.233      36.893836      36.893836      36.893836    
  17900000   0.49541167    -7.8317408     -7.0886338      3.5308042      50218.233      36.893836      36.893836      36.893836    
  18000000   0.4951673     -7.826799      -7.0840586      3.5596432      50218.233      36.893836      36.893836      36.893836    
  18100000   0.49756969    -7.8227407     -7.0763968      3.6002429      50218.233      36.893836      36.893836      36.893836    
  18200000   0.49331536    -7.8242714     -7.0843089      3.5694688      50218.233      36.893836      36.893836      36.893836    
  18300000   0.49382152    -7.8220616     -7.0813399      3.5998731      50218.233      36.893836      36.893836      36.893836    
  18400000   0.49506236    -7.8261864     -7.0836035      3.5755015      50218.233      36.893836      36.893836      36.893836    
  18500000   0.49678172    -7.8258667     -7.0807047      3.5625716      50218.233      36.893836      36.893836      36.893836    
  18600000   0.49560266    -7.8245565     -7.0811631      3.5746594      50218.233      36.893836      36.893836      36.893836    
  18700000   0.49624797    -7.827171      -7.0828096      3.5635637      50218.233      36.893836      36.893836      36.893836    
  18800000   0.49587076    -7.823719      -7.0799235      3.5785884      50218.233      36.893836      36.893836      36.893836    
  18900000   0.49575395    -7.8251582     -7.0815378      3.5712175      50218.233      36.893836      36.893836      36.893836    
  19000000   0.49372789    -7.8216839     -7.0811026      3.6059742      50218.233      36.893836      36.893836      36.893836    
  19100000   0.49598599    -7.8273685     -7.0834001      3.5733689      50218.233      36.893836      36.893836      36.893836    
  19200000   0.49300429    -7.8259129     -7.086417       3.5725456      50218.233      36.893836      36.893836      36.893836    
  19300000   0.49623736    -7.8246308     -7.0802853      3.576306       50218.233      36.893836      36.893836      36.893836    
  19400000   0.49276581    -7.8240752     -7.084937       3.5778121      50218.233      36.893836      36.893836      36.893836    
  19500000   0.49765643    -7.8258097     -7.0793356      3.5580953      50218.233      36.893836      36.893836      36.893836    
  19600000   0.4966656     -7.8256068     -7.080619       3.5826883      50218.233      36.893836      36.893836      36.893836    
  19700000   0.49079226    -7.8239088     -7.0877309      3.5740378      50218.233      36.893836      36.893836      36.893836    
  19800000   0.49492643    -7.8276112     -7.0852321      3.5463527      50218.233      36.893836      36.893836      36.893836    
  19900000   0.49467698    -7.8254171     -7.0834122      3.5625665      50218.233      36.893836      36.893836      36.893836    
  20000000   0.4971998     -7.8245307     -7.0787416      3.5769488      50218.233      36.893836      36.893836      36.893836    
  20100000   0.49479197    -7.8288145     -7.0866371      3.5503467      50218.233      36.893836      36.893836      36.893836    
  20200000   0.49325848    -7.8264301     -7.0865529      3.5623712      50218.233      36.893836      36.893836      36.893836    
  20300000   0.49589807    -7.8220924     -7.0782559      3.5998179      50218.233      36.893836      36.893836      36.893836    
  20400000   0.49840556    -7.8228459     -7.0752482      3.5855604      50218.233      36.893836      36.893836      36.893836    
  20500000   0.49275807    -7.8244511     -7.0853245      3.567412       50218.233      36.893836      36.893836      36.893836    
  20600000   0.49354164    -7.8259959     -7.085694       3.5748674      50218.233      36.893836      36.893836      36.893836    
  20700000   0.49675541    -7.8242527     -7.0791302      3.5766041      50218.233      36.893836      36.893836      36.893836    
  20800000   0.49574613    -7.8286611     -7.0850525      3.5450775      50218.233      36.893836      36.893836      36.893836    
  20900000   0.49510063    -7.8278901     -7.0852497      3.5529301      50218.233      36.893836      36.893836      36.893836    
  21000000   0.49406709    -7.8215174     -7.0804273      3.5945343      50218.233      36.893836      36.893836      36.893836    
  21100000   0.49670419    -7.8288663     -7.0838206      3.5488367      50218.233      36.893836      36.893836      36.893836    
  21200000   0.49621       -7.8277814     -7.083477       3.5576776      50218.233      36.893836      36.893836      36.893836    
  21300000   0.49074765    -7.8242738     -7.0881628      3.5748102      50218.233      36.893836      36.893836      36.893836    
  21400000   0.49733254    -7.8263093     -7.0803211      3.5635141      50218.233      36.893836      36.893836      36.893836    
  21500000   0.49633415    -7.8263201     -7.0818294      3.5686626      50218.233      36.893836      36.893836      36.893836    
  21600000   0.49521527    -7.8225582     -7.0797458      3.5979462      50218.233      36.893836      36.893836      36.893836    
  21700000   0.49710753    -7.8250162     -7.0793655      3.5665491      50218.233      36.893836      36.893836      36.893836    
  21800000   0.49352747    -7.8272892     -7.0870085      3.5534825      50218.233      36.893836      36.893836      36.893836    
  21900000   0.49531977    -7.824342      -7.0813729      3.5821149      50218.233      36.893836      36.893836      36.893836    
  22000000   0.49674407    -7.8232629     -7.0781574      3.5881614      50218.233      36.893836      36.893836      36.893836    
  22100000   0.49603065    -7.8259999     -7.0819645      3.5745685      50218.233      36.893836      36.893836      36.893836    
  22200000   0.49319897    -7.8282249     -7.088437       3.5442855      50218.233      36.893836      36.893836      36.893836    
  22300000   0.49469756    -7.8334292     -7.0913934      3.5077183      50218.233      36.893836      36.893836      36.893836    
  22400000   0.4949385     -7.8229079     -7.0805107      3.5903847      50218.233      36.893836      36.893836      36.893836    
  22500000   0.49338738    -7.8203733     -7.0803028      3.6145368      50218.233      36.893836      36.893836      36.893836    
  22600000   0.49401777    -7.8229238     -7.0819077      3.5755375      50218.233      36.893836      36.893836      36.893836    
  22700000   0.49141571    -7.8284223     -7.0913092      3.5539356      50218.233      36.893836      36.893836      36.893836    
  22800000   0.49406172    -7.8242616     -7.0831795      3.582646       50218.233      36.893836      36.893836      36.893836    
  22900000   0.49421952    -7.8262301     -7.0849114      3.5668607      50218.233      36.893836      36.893836      36.893836    
  23000000   0.49506228    -7.8273891     -7.0848062      3.5538595      50218.233      36.893836      36.893836      36.893836    
  23100000   0.49832982    -7.8225329     -7.0750488      3.5887197      50218.233      36.893836      36.893836      36.893836    
  23200000   0.49237825    -7.8262794     -7.0877226      3.5631322      50218.233      36.893836      36.893836      36.893836    
  23300000   0.49471811    -7.825756      -7.0836894      3.5740828      50218.233      36.893836      36.893836      36.893836    
  23400000   0.49708699    -7.8252313     -7.0796114      3.5819185      50218.233      36.893836      36.893836      36.893836    
  23500000   0.49431416    -7.820664      -7.0792033      3.6029817      50218.233      36.893836      36.893836      36.893836    
  23600000   0.49565175    -7.8254978     -7.0820308      3.575143       50218.233      36.893836      36.893836      36.893836    
  23700000   0.49645261    -7.8256418     -7.0809734      3.5718118      50218.233      36.893836      36.893836      36.893836    
  23800000   0.4941684     -7.8249721     -7.08373        3.5623563      50218.233      36.893836      36.893836      36.893836    
  23900000   0.49847622    -7.8243664     -7.0766627      3.5800563      50218.233      36.893836      36.893836      36.893836    
  24000000   0.49443435    -7.8246932     -7.0830522      3.5792529      50218.233      36.893836      36.893836      36.893836    
  24100000   0.49271032    -7.8263359     -7.0872809      3.557824       50218.233      36.893836      36.893836      36.893836    
  24200000   0.49501703    -7.8242769     -7.0817619      3.5777459      50218.233      36.893836      36.893836      36.893836    
  24300000   0.49505819    -7.8294725     -7.0868958      3.535338       50218.233      36.893836      36.893836      36.893836    
  24400000   0.49692046    -7.8211368     -7.0757667      3.605917       50218.233      36.893836      36.893836      36.893836    
  24500000   0.49728275    -7.8236518     -7.0777383      3.5751089      50218.233      36.893836      36.893836      36.893836    
  24600000   0.49459005    -7.8306167     -7.0887422      3.5281133      50218.233      36.893836      36.893836      36.893836    
  24700000   0.49420809    -7.8260834     -7.0847818      3.5609093      50218.233      36.893836      36.893836      36.893836    
  24800000   0.49429369    -7.8246147     -7.0831847      3.5743808      50218.233      36.893836      36.893836      36.893836    
  24900000   0.49542659    -7.8242708     -7.0811415      3.5765488      50218.233      36.893836      36.893836      36.893836    
  25000000   0.49503709    -7.8257142     -7.0831691      3.5636333      50218.233      36.893836      36.893836      36.893836    
  25100000   0.49374625    -7.8278218     -7.0872129      3.5588203      50218.233      36.893836      36.893836      36.893836    
  25200000   0.49413411    -7.8260314     -7.0848407      3.5695652      50218.233      36.893836      36.893836      36.893836    
  25300000   0.49240937    -7.8282813     -7.0896777      3.5464382      50218.233      36.893836      36.893836      36.893836    
  25400000   0.49864754    -7.8241991     -7.0762384      3.5825067      50218.233      36.893836      36.893836      36.893836    
  25500000   0.49472049    -7.8249783     -7.0829081      3.5849278      50218.233      36.893836      36.893836      36.893836    
  25600000   0.4949629     -7.8239533     -7.0815195      3.5869735      50218.233      36.893836      36.893836      36.893836    
  25700000   0.49394918    -7.8281606     -7.0872474      3.5479613      50218.233      36.893836      36.893836      36.893836    
  25800000   0.49348741    -7.8272176     -7.086997       3.5679644      50218.233      36.893836      36.893836      36.893836    
  25900000   0.49472697    -7.8275399     -7.08546        3.5659605      50218.233      36.893836      36.893836      36.893836    
  26000000   0.49443901    -7.8257776     -7.0841296      3.5752838      50218.233      36.893836      36.893836      36.893836    
  26100000   0.49480169    -7.825371      -7.083179       3.5723164      50218.233      36.893836      36.893836      36.893836    
  26200000   0.49628826    -7.8238523     -7.0794305      3.5857018      50218.233      36.893836      36.893836      36.893836    
  26300000   0.49720686    -7.8334158     -7.0876161      3.5088559      50218.233      36.893836      36.893836      36.893836    
  26400000   0.49355318    -7.8245063     -7.084187       3.5756789      50218.233      36.893836      36.893836      36.893836    
  26500000   0.49339541    -7.8244693     -7.0843867      3.5784029      50218.233      36.893836      36.893836      36.893836    
  26600000   0.49446115    -7.823051      -7.0813698      3.5929241      50218.233      36.893836      36.893836      36.893836    
  26700000   0.49833587    -7.8257432     -7.07825        3.57647        50218.233      36.893836      36.893836      36.893836    
  26800000   0.49541589    -7.8277791     -7.0846658      3.5528431      50218.233      36.893836      36.893836      36.893836    
  26900000   0.49392417    -7.8283011     -7.0874254      3.553852       50218.233      36.893836      36.893836      36.893836    
  27000000   0.49390572    -7.8309077     -7.0900596      3.5352076      50218.233      36.893836      36.893836      36.893836    
  27100000   0.49564283    -7.8247851     -7.0813314      3.5795877      50218.233      36.893836      36.893836      36.893836    
  27200000   0.49401185    -7.8261591     -7.0851519      3.5586784      50218.233      36.893836      36.893836      36.893836    
  27300000   0.49524695    -7.8219239     -7.0790641      3.5999304      50218.233      36.893836      36.893836      36.893836    
  27400000   0.49330715    -7.8257831     -7.0858329      3.5712538      50218.233      36.893836      36.893836      36.893836    
  27500000   0.49546398    -7.8230084     -7.079823       3.5836468      50218.233      36.893836      36.893836      36.893836    
  27600000   0.49422971    -7.8229575     -7.0816235      3.5851649      50218.233      36.893836      36.893836      36.893836    
  27700000   0.49400073    -7.8281791     -7.0871885      3.5441209      50218.233      36.893836      36.893836      36.893836    
  27800000   0.49480973    -7.8228419     -7.0806379      3.5861171      50218.233      36.893836      36.893836      36.893836    
  27900000   0.49427771    -7.8241447     -7.0827386      3.5761185      50218.233      36.893836      36.893836      36.893836    
  28000000   0.49530319    -7.8244309     -7.0814867      3.5845461      50218.233      36.893836      36.893836      36.893836    
  28100000   0.49510973    -7.8297946     -7.0871406      3.5435558      50218.233      36.893836      36.893836      36.893836    
  28200000   0.49420899    -7.8278559     -7.086553       3.5544676      50218.233      36.893836      36.893836      36.893836    
  28300000   0.49925373    -7.8296932     -7.0808233      3.5410322      50218.233      36.893836      36.893836      36.893836    
  28400000   0.49517799    -7.8276017     -7.0848453      3.5447443      50218.233      36.893836      36.893836      36.893836    
  28500000   0.49757359    -7.8264715     -7.0801218      3.5630897      50218.233      36.893836      36.893836      36.893836    
  28600000   0.49620336    -7.8259787     -7.0816843      3.5600329      50218.233      36.893836      36.893836      36.893836    
  28700000   0.4949135     -7.8283481     -7.0859884      3.5450654      50218.233      36.893836      36.893836      36.893836    
  28800000   0.49571748    -7.8256455     -7.0820799      3.5655132      50218.233      36.893836      36.893836      36.893836    
  28900000   0.495001      -7.8241273     -7.0816364      3.5758647      50218.233      36.893836      36.893836      36.893836    
  29000000   0.49317511    -7.8267129     -7.0869607      3.5591791      50218.233      36.893836      36.893836      36.893836    
  29100000   0.4942933     -7.8231468     -7.0817174      3.580275       50218.233      36.893836      36.893836      36.893836    
  29200000   0.49717923    -7.8239323     -7.078174       3.580429       50218.233      36.893836      36.893836      36.893836    
  29300000   0.49455114    -7.8227787     -7.0809625      3.5776551      50218.233      36.893836      36.893836      36.893836    
  29400000   0.49562967    -7.8313304     -7.0878965      3.5232453      50218.233      36.893836      36.893836      36.893836    
  29500000   0.49478661    -7.8277062     -7.0855369      3.5515386      50218.233      36.893836      36.893836      36.893836    
  29600000   0.49326186    -7.8297354     -7.0898531      3.5371479      50218.233      36.893836      36.893836      36.893836    
  29700000   0.4938516     -7.8258812     -7.0851143      3.5714171      50218.233      36.893836      36.893836      36.893836    
  29800000   0.4982807     -7.8258851     -7.0784747      3.5582658      50218.233      36.893836      36.893836      36.893836    
  29900000   0.49521963    -7.8273879     -7.084569       3.5404276      50218.233      36.893836      36.893836      36.893836    
  30000000   0.49630311    -7.8243162     -7.0798722      3.5684943      50218.233      36.893836      36.893836      36.893836    
  30100000   0.49501034    -7.8253816     -7.0828767      3.5744235      50218.233      36.893836      36.893836      36.893836    
  30200000   0.49522745    -7.8263883     -7.0835577      3.5705826      50218.233      36.893836      36.893836      36.893836    
  30300000   0.4984142     -7.8239913     -7.0763806      3.572968       50218.233      36.893836      36.893836      36.893836    
  30400000   0.49313649    -7.8289302     -7.089236       3.5480832      50218.233      36.893836      36.893836      36.893836    
  30500000   0.49553837    -7.8258536     -7.0825566      3.5616699      50218.233      36.893836      36.893836      36.893836    
  30600000   0.49807083    -7.8275399     -7.0804442      3.5536598      50218.233      36.893836      36.893836      36.893836    
  30700000   0.49795186    -7.8275988     -7.0806816      3.5504517      50218.233      36.893836      36.893836      36.893836    
  30800000   0.49501439    -7.8268892     -7.0843782      3.5585332      50218.233      36.893836      36.893836      36.893836    
  30900000   0.49363153    -7.8304798     -7.090043       3.5364043      50218.233      36.893836      36.893836      36.893836    
  31000000   0.49396887    -7.8283557     -7.0874129      3.5424589      50218.233      36.893836      36.893836      36.893836    
  31100000   0.49728537    -7.8295312     -7.0836138      3.5437489      50218.233      36.893836      36.893836      36.893836    
  31200000   0.49437562    -7.8267881     -7.0852352      3.553232       50218.233      36.893836      36.893836      36.893836    
  31300000   0.49294511    -7.8279193     -7.0885122      3.5524171      50218.233      36.893836      36.893836      36.893836    
  31400000   0.49569454    -7.8296585     -7.0861272      3.5388481      50218.233      36.893836      36.893836      36.893836    
  31500000   0.49639366    -7.8294926     -7.0849127      3.5377601      50218.233      36.893836      36.893836      36.893836    
  31600000   0.49578846    -7.830487      -7.0868149      3.5284485      50218.233      36.893836      36.893836      36.893836    
  31700000   0.49410177    -7.8305566     -7.0894145      3.5306244      50218.233      36.893836      36.893836      36.893836    
  31800000   0.49415612    -7.8258275     -7.0846038      3.5722691      50218.233      36.893836      36.893836      36.893836    
  31900000   0.49433828    -7.8271012     -7.0856043      3.5517614      50218.233      36.893836      36.893836      36.893836    
  32000000   0.49584344    -7.8311137     -7.0873591      3.5381857      50218.233      36.893836      36.893836      36.893836    
  32100000   0.49492552    -7.8281277     -7.0857499      3.5426935      50218.233      36.893836      36.893836      36.893836    
  32200000   0.49543836    -7.8253278     -7.0821808      3.5712487      50218.233      36.893836      36.893836      36.893836    
  32300000   0.49612202    -7.8227291     -7.0785567      3.5837601      50218.233      36.893836      36.893836      36.893836    
  32400000   0.49681885    -7.8288813     -7.0836637      3.5575579      50218.233      36.893836      36.893836      36.893836    
  32500000   0.49470323    -7.8255264     -7.0834822      3.5697906      50218.233      36.893836      36.893836      36.893836    
  32600000   0.49082465    -7.8283008     -7.0920743      3.5446732      50218.233      36.893836      36.893836      36.893836    
  32700000   0.49542356    -7.8293526     -7.0862279      3.5538657      50218.233      36.893836      36.893836      36.893836    
  32800000   0.49554667    -7.8275551     -7.0842457      3.5632046      50218.233      36.893836      36.893836      36.893836    
  32900000   0.49418216    -7.833333      -7.0920703      3.5218032      50218.233      36.893836      36.893836      36.893836    
  33000000   0.49229988    -7.8291297     -7.0906904      3.5332215      50218.233      36.893836      36.893836      36.893836    
  33100000   0.4946732     -7.8305638     -7.0885646      3.5355851      50218.233      36.893836      36.893836      36.893836    
  33200000   0.49496601    -7.8285096     -7.0860712      3.544982       50218.233      36.893836      36.893836      36.893836    
  33300000   0.49573449    -7.8298001     -7.086209       3.5298967      50218.233      36.893836      36.893836      36.893836    
  33400000   0.49375012    -7.8261105     -7.0854958      3.558685       50218.233      36.893836      36.893836      36.893836    
  33500000   0.49652287    -7.8281696     -7.0833958      3.5569901      50218.233      36.893836      36.893836      36.893836    
  33600000   0.4946657     -7.8296642     -7.0876762      3.5436269      50218.233      36.893836      36.893836      36.893836    
  33700000   0.49385406    -7.8331814     -7.0924109      3.5189317      50218.233      36.893836      36.893836      36.893836    
  33800000   0.49303229    -7.8319034     -7.0923655      3.5180147      50218.233      36.893836      36.893836      36.893836    
  33900000   0.49648522    -7.8303523     -7.085635       3.5470196      50218.233      36.893836      36.893836      36.893836    
  34000000   0.49539639    -7.8334653     -7.0903813      3.5136333      50218.233      36.893836      36.893836      36.893836    
  34100000   0.49678107    -7.8275264     -7.0823654      3.5560971      50218.233      36.893836      36.893836      36.893836    
  34200000   0.49532103    -7.8298252     -7.0868542      3.5364082      50218.233      36.893836      36.893836      36.893836    
  34300000   0.49520954    -7.832265      -7.0894612      3.5299939      50218.233      36.893836      36.893836      36.893836    
  34400000   0.49503497    -7.8255751     -7.0830332      3.566679       50218.233      36.893836      36.893836      36.893836    
  34500000   0.49230116    -7.829162      -7.0907208      3.5457995      50218.233      36.893836      36.893836      36.893836    
  34600000   0.49479777    -7.8324204     -7.0902343      3.539121       50218.233      36.893836      36.893836      36.893836    
  34700000   0.49516049    -7.8298018     -7.0870716      3.5491487      50218.233      36.893836      36.893836      36.893836    
  34800000   0.49660631    -7.8304685     -7.0855697      3.5474023      50218.233      36.893836      36.893836      36.893836    
  34900000   0.49736441    -7.8298296     -7.0837936      3.550314       50218.233      36.893836      36.893836      36.893836    
  35000000   0.49598114    -7.8306042     -7.0866431      3.5326754      50218.233      36.893836      36.893836      36.893836    
  35100000   0.49459273    -7.828133      -7.0862544      3.5456146      50218.233      36.893836      36.893836      36.893836    
  35200000   0.49210105    -7.8322085     -7.0940674      3.5241247      50218.233      36.893836      36.893836      36.893836    
  35300000   0.49880367    -7.8265698     -7.078375       3.5681965      50218.233      36.893836      36.893836      36.893836    
  35400000   0.49547237    -7.8249792     -7.0817813      3.5744173      50218.233      36.893836      36.893836      36.893836    
  35500000   0.49554087    -7.8276076     -7.0843069      3.5570698      50218.233      36.893836      36.893836      36.893836    
  35600000   0.49386331    -7.8309742     -7.0901897      3.5312925      50218.233      36.893836      36.893836      36.893836    
  35700000   0.49401057    -7.8312624     -7.0902571      3.5246804      50218.233      36.893836      36.893836      36.893836    
  35800000   0.4937159     -7.8294626     -7.0888993      3.5353941      50218.233      36.893836      36.893836      36.893836    
  35900000   0.49396488    -7.8311352     -7.0901984      3.5354727      50218.233      36.893836      36.893836      36.893836    
  36000000   0.49875341    -7.831807      -7.0836876      3.5331857      50218.233      36.893836      36.893836      36.893836    
  36100000   0.49510313    -7.8304279     -7.0877837      3.5302349      50218.233      36.893836      36.893836      36.893836    
  36200000   0.49416249    -7.8313546     -7.0901214      3.5278817      50218.233      36.893836      36.893836      36.893836    
  36300000   0.4942549     -7.8308144     -7.0894426      3.5302761      50218.233      36.893836      36.893836      36.893836    
  36400000   0.49659614    -7.8306473     -7.0857637      3.5229743      50218.233      36.893836      36.893836      36.893836    
  36500000   0.49217563    -7.826037      -7.0877841      3.5754981      50218.233      36.893836      36.893836      36.893836    
  36600000   0.49450296    -7.829595      -7.0878512      3.5468131      50218.233      36.893836      36.893836      36.893836    
  36700000   0.49527585    -7.8300916     -7.0871884      3.5456948      50218.233      36.893836      36.893836      36.893836    
  36800000   0.49442831    -7.8303631     -7.0887312      3.5377675      50218.233      36.893836      36.893836      36.893836    
  36900000   0.49838498    -7.8290096     -7.0814427      3.5399894      50218.233      36.893836      36.893836      36.893836    
  37000000   0.4930227     -7.8315551     -7.0920316      3.5174452      50218.233      36.893836      36.893836      36.893836    
  37100000   0.49455259    -7.8296132     -7.0877949      3.5374411      50218.233      36.893836      36.893836      36.893836    
  37200000   0.4955846     -7.8299491     -7.0865828      3.5606418      50218.233      36.893836      36.893836      36.893836    
  37300000   0.49709505    -7.8305168     -7.0848848      3.5448637      50218.233      36.893836      36.893836      36.893836    
  37400000   0.49493863    -7.8341942     -7.0917968      3.5055525      50218.233      36.893836      36.893836      36.893836    
  37500000   0.4939551     -7.8300042     -7.0890821      3.5469369      50218.233      36.893836      36.893836      36.893836    
  37600000   0.49673262    -7.8362385     -7.0911502      3.4955138      50218.233      36.893836      36.893836      36.893836    
  37700000   0.49500035    -7.8295196     -7.0870296      3.5330513      50218.233      36.893836      36.893836      36.893836    
  37800000   0.49603479    -7.8312089     -7.0871673      3.547893       50218.233      36.893836      36.893836      36.893836    
  37900000   0.49513682    -7.8267408     -7.0840462      3.5632105      50218.233      36.893836      36.893836      36.893836    
  38000000   0.49498403    -7.8297956     -7.0873301      3.538266       50218.233      36.893836      36.893836      36.893836    
  38100000   0.49513998    -7.8290516     -7.0863522      3.5460186      50218.233      36.893836      36.893836      36.893836    
  38200000   0.4930585     -7.828257      -7.0886797      3.5393276      50218.233      36.893836      36.893836      36.893836    
  38300000   0.4915629     -7.8302745     -7.0929406      3.5207297      50218.233      36.893836      36.893836      36.893836    
  38400000   0.49683276    -7.8305586     -7.08532        3.5274475      50218.233      36.893836      36.893836      36.893836    
  38500000   0.49701042    -7.8288058     -7.0833008      3.541019       50218.233      36.893836      36.893836      36.893836    
  38600000   0.49562939    -7.8299126     -7.0864791      3.5430317      50218.233      36.893836      36.893836      36.893836    
  38700000   0.49486418    -7.8280229     -7.0857372      3.5537651      50218.233      36.893836      36.893836      36.893836    
  38800000   0.49382617    -7.8291878     -7.0884591      3.5476072      50218.233      36.893836      36.893836      36.893836    
  38900000   0.49836955    -7.8292151     -7.0816714      3.5535284      50218.233      36.893836      36.893836      36.893836    
  39000000   0.49649156    -7.826315      -7.0815882      3.5611672      50218.233      36.893836      36.893836      36.893836    
  39100000   0.49504709    -7.8302199     -7.0876598      3.5394049      50218.233      36.893836      36.893836      36.893836    
  39200000   0.49539331    -7.826741      -7.0836616      3.5671854      50218.233      36.893836      36.893836      36.893836    
  39300000   0.49692053    -7.8295853     -7.0842151      3.5423519      50218.233      36.893836      36.893836      36.893836    
  39400000   0.49482869    -7.8283046     -7.0860721      3.5526129      50218.233      36.893836      36.893836      36.893836    
  39500000   0.49593048    -7.8307604     -7.0868753      3.5398624      50218.233      36.893836      36.893836      36.893836    
  39600000   0.49734603    -7.8311149     -7.0851065      3.5282742      50218.233      36.893836      36.893836      36.893836    
  39700000   0.49659112    -7.8253256     -7.0804495      3.5825056      50218.233      36.893836      36.893836      36.893836    
  39800000   0.4950944     -7.8296483     -7.0870173      3.5416316      50218.233      36.893836      36.893836      36.893836    
  39900000   0.49567422    -7.8272284     -7.0837277      3.5648417      50218.233      36.893836      36.893836      36.893836    
  40000000   0.49366467    -7.8263338     -7.0858473      3.5647321      50218.233      36.893836      36.893836      36.893836    
  40100000   0.49590225    -7.8261852     -7.0823424      3.5706198      50218.233      36.893836      36.893836      36.893836    
  40200000   0.49377916    -7.8337575     -7.0930993      3.5134181      50218.233      36.893836      36.893836      36.893836    
  40300000   0.4941207     -7.8271676     -7.0859971      3.5634049      50218.233      36.893836      36.893836      36.893836    
  40400000   0.49462232    -7.8261124     -7.0841895      3.5635691      50218.233      36.893836      36.893836      36.893836    
  40500000   0.49484263    -7.8249752     -7.0827218      3.5707627      50218.233      36.893836      36.893836      36.893836    
  40600000   0.49578349    -7.8244888     -7.0808241      3.5728521      50218.233      36.893836      36.893836      36.893836    
  40700000   0.49655733    -7.8287396     -7.0839142      3.5594046      50218.233      36.893836      36.893836      36.893836    
  40800000   0.49385177    -7.827533      -7.0867659      3.5592393      50218.233      36.893836      36.893836      36.893836    
  40900000   0.49272394    -7.8289373     -7.0898619      3.531955       50218.233      36.893836      36.893836      36.893836    
  41000000   0.49676073    -7.8273867     -7.0822562      3.5595247      50218.233      36.893836      36.893836      36.893836    
  41100000   0.49350732    -7.8276955     -7.0874451      3.5591036      50218.233      36.893836      36.893836      36.893836    
  41200000   0.49578227    -7.8267694     -7.0831066      3.5618931      50218.233      36.893836      36.893836      36.893836    
  41300000   0.49760925    -7.8277906     -7.0813873      3.5547129      50218.233      36.893836      36.893836      36.893836    
  41400000   0.49592376    -7.8292593     -7.0853843      3.5448319      50218.233      36.893836      36.893836      36.893836    
  41500000   0.49615144    -7.8271512     -7.0829346      3.5690095      50218.233      36.893836      36.893836      36.893836    
  41600000   0.49544365    -7.8210944     -7.0779395      3.6100803      50218.233      36.893836      36.893836      36.893836    
  41700000   0.49603123    -7.8258275     -7.0817912      3.5835905      50218.233      36.893836      36.893836      36.893836    
  41800000   0.49531779    -7.8217802     -7.0788141      3.6069855      50218.233      36.893836      36.893836      36.893836    
  41900000   0.49677712    -7.8234166     -7.0782615      3.5946214      50218.233      36.893836      36.893836      36.893836    
  42000000   0.4957611     -7.8242818     -7.0806508      3.5876818      50218.233      36.893836      36.893836      36.893836    
  42100000   0.49487769    -7.8226939     -7.0803879      3.5972335      50218.233      36.893836      36.893836      36.893836    
  42200000   0.49486032    -7.8273676     -7.0850877      3.5664163      50218.233      36.893836      36.893836      36.893836    
  42300000   0.49422442    -7.8269505     -7.0856244      3.5656318      50218.233      36.893836      36.893836      36.893836    
  42400000   0.49517825    -7.83048       -7.0877232      3.5435702      50218.233      36.893836      36.893836      36.893836    
  42500000   0.49486114    -7.8303537     -7.0880725      3.5411918      50218.233      36.893836      36.893836      36.893836    
  42600000   0.49420247    -7.832072      -7.0907788      3.5163873      50218.233      36.893836      36.893836      36.893836    
  42700000   0.49470418    -7.8255643     -7.0835186      3.5768493      50218.233      36.893836      36.893836      36.893836    
  42800000   0.49430724    -7.826736      -7.0852857      3.5669623      50218.233      36.893836      36.893836      36.893836    
  42900000   0.49264054    -7.828494      -7.0895437      3.5482798      50218.233      36.893836      36.893836      36.893836    
  43000000   0.49392101    -7.826027      -7.085156       3.5575513      50218.233      36.893836      36.893836      36.893836    
  43100000   0.49507606    -7.8282099     -7.0856064      3.5554159      50218.233      36.893836      36.893836      36.893836    
  43200000   0.49713857    -7.8302328     -7.0845356      3.5283599      50218.233      36.893836      36.893836      36.893836    
  43300000   0.4961851     -7.825916      -7.081649       3.5671535      50218.233      36.893836      36.893836      36.893836    
  43400000   0.49538723    -7.8278025     -7.0847323      3.5545228      50218.233      36.893836      36.893836      36.893836    
  43500000   0.4958291     -7.8301169     -7.0863838      3.5323194      50218.233      36.893836      36.893836      36.893836    
  43600000   0.49428055    -7.8303141     -7.0889039      3.5258849      50218.233      36.893836      36.893836      36.893836    
  43700000   0.49713811    -7.8276881     -7.0819916      3.5648296      50218.233      36.893836      36.893836      36.893836    
  43800000   0.49369661    -7.8312646     -7.0907302      3.5311704      50218.233      36.893836      36.893836      36.893836    
  43900000   0.49254274    -7.829354      -7.0905504      3.5343531      50218.233      36.893836      36.893836      36.893836    
  44000000   0.49676556    -7.8323011     -7.0871633      3.5127847      50218.233      36.893836      36.893836      36.893836    
  44100000   0.49638916    -7.8284091     -7.0838359      3.5574722      50218.233      36.893836      36.893836      36.893836    
  44200000   0.49326709    -7.8284936     -7.0886034      3.5409471      50218.233      36.893836      36.893836      36.893836    
  44300000   0.4951528     -7.8295323     -7.0868136      3.5382209      50218.233      36.893836      36.893836      36.893836    
  44400000   0.49556615    -7.83247       -7.0891313      3.5287832      50218.233      36.893836      36.893836      36.893836    
  44500000   0.49400068    -7.8294374     -7.0884469      3.5403399      50218.233      36.893836      36.893836      36.893836    
  44600000   0.49400757    -7.8296506     -7.0886498      3.5392783      50218.233      36.893836      36.893836      36.893836    
  44700000   0.49689087    -7.8337197     -7.088394       3.5097433      50218.233      36.893836      36.893836      36.893836    
  44800000   0.49473709    -7.826348      -7.0842529      3.5580292      50218.233      36.893836      36.893836      36.893836    
  44900000   0.49625003    -7.8278535     -7.0834891      3.5565487      50218.233      36.893836      36.893836      36.893836    
  45000000   0.49430448    -7.8327528     -7.0913066      3.5283595      50218.233      36.893836      36.893836      36.893836    
  45100000   0.49401415    -7.830146      -7.0891354      3.5294706      50218.233      36.893836      36.893836      36.893836    
  45200000   0.49591474    -7.8290733     -7.0852117      3.5432786      50218.233      36.893836      36.893836      36.893836    
  45300000   0.49358907    -7.8317765     -7.0914034      3.5188217      50218.233      36.893836      36.893836      36.893836    
  45400000   0.49288423    -7.8320073     -7.0926915      3.5226879      50218.233      36.893836      36.893836      36.893836    
  45500000   0.49526496    -7.8271868     -7.0842999      3.5510629      50218.233      36.893836      36.893836      36.893836    
  45600000   0.49539928    -7.8319548     -7.0888665      3.5167066      50218.233      36.893836      36.893836      36.893836    
  45700000   0.49792608    -7.8285158     -7.0816373      3.5579655      50218.233      36.893836      36.893836      36.893836    
  45800000   0.49610675    -7.8299706     -7.085821       3.5329908      50218.233      36.893836      36.893836      36.893836    
  45900000   0.49208592    -7.8325306     -7.0944122      3.519013       50218.233      36.893836      36.893836      36.893836    
  46000000   0.49752024    -7.8294533     -7.0831835      3.5437767      50218.233      36.893836      36.893836      36.893836    
  46100000   0.49633621    -7.8289471     -7.0844534      3.5432152      50218.233      36.893836      36.893836      36.893836    
  46200000   0.49854848    -7.8235507     -7.0757386      3.5863984      50218.233      36.893836      36.893836      36.893836    
  46300000   0.49610822    -7.8302841     -7.0861323      3.5280491      50218.233      36.893836      36.893836      36.893836    
  46400000   0.4940823     -7.8266283     -7.0855154      3.562032       50218.233      36.893836      36.893836      36.893836    
  46500000   0.49406197    -7.8286532     -7.0875708      3.5433811      50218.233      36.893836      36.893836      36.893836    
  46600000   0.49192516    -7.8308093     -7.092932       3.5311488      50218.233      36.893836      36.893836      36.893836    
  46700000   0.4947357     -7.8284159     -7.0863229      3.5436125      50218.233      36.893836      36.893836      36.893836    
  46800000   0.49686915    -7.828419      -7.0831259      3.5451574      50218.233      36.893836      36.893836      36.893836    
  46900000   0.49449837    -7.8240014     -7.0822644      3.5827459      50218.233      36.893836      36.893836      36.893836    
  47000000   0.49437409    -7.830325      -7.0887744      3.5314588      50218.233      36.893836      36.893836      36.893836    
  47100000   0.49886091    -7.826967      -7.0786863      3.5666188      50218.233      36.893836      36.893836      36.893836    
  47200000   0.49337803    -7.8238133     -7.0837567      3.5823621      50218.233      36.893836      36.893836      36.893836    
  47300000   0.49447212    -7.82767       -7.0859724      3.5622354      50218.233      36.893836      36.893836      36.893836    
  47400000   0.49464592    -7.8265321     -7.0845738      3.5607732      50218.233      36.893836      36.893836      36.893836    
  47500000   0.4937316     -7.8262773     -7.0856905      3.5421336      50218.233      36.893836      36.893836      36.893836    
  47600000   0.4962001     -7.8290611     -7.0847716      3.537253       50218.233      36.893836      36.893836      36.893836    
  47700000   0.49786609    -7.8283792     -7.0815906      3.5423676      50218.233      36.893836      36.893836      36.893836    
  47800000   0.49846482    -7.8318646     -7.084178       3.5182632      50218.233      36.893836      36.893836      36.893836    
  47900000   0.4958625     -7.8295707     -7.0857875      3.5304232      50218.233      36.893836      36.893836      36.893836    
  48000000   0.49259628    -7.8276105     -7.0887266      3.5378258      50218.233      36.893836      36.893836      36.893836    
  48100000   0.49457145    -7.8321082     -7.0902616      3.5078854      50218.233      36.893836      36.893836      36.893836    
  48200000   0.49691898    -7.8296766     -7.0843087      3.5293673      50218.233      36.893836      36.893836      36.893836    
  48300000   0.49340324    -7.8268681     -7.0867738      3.5575237      50218.233      36.893836      36.893836      36.893836    
  48400000   0.4953244     -7.831913      -7.088937       3.5210595      50218.233      36.893836      36.893836      36.893836    
  48500000   0.49358939    -7.8310063     -7.0906328      3.5184582      50218.233      36.893836      36.893836      36.893836    
  48600000   0.49589421    -7.8309358     -7.087105       3.5327929      50218.233      36.893836      36.893836      36.893836    
  48700000   0.49503384    -7.8310189     -7.0884787      3.5236977      50218.233      36.893836      36.893836      36.893836    
  48800000   0.49683111    -7.8279074     -7.0826714      3.5664496      50218.233      36.893836      36.893836      36.893836    
  48900000   0.49550124    -7.8302577     -7.0870164      3.5250271      50218.233      36.893836      36.893836      36.893836    
  49000000   0.49401699    -7.8285821     -7.0875672      3.5343967      50218.233      36.893836      36.893836      36.893836    
  49100000   0.49473861    -7.8276734     -7.0855761      3.5439735      50218.233      36.893836      36.893836      36.893836    
  49200000   0.49749646    -7.8307125     -7.0844785      3.5375338      50218.233      36.893836      36.893836      36.893836    
  49300000   0.49721269    -7.8320729     -7.0862644      3.5235345      50218.233      36.893836      36.893836      36.893836    
  49400000   0.49795275    -7.8293993     -7.0824808      3.5418639      50218.233      36.893836      36.893836      36.893836    
  49500000   0.49592526    -7.8301392     -7.0862618      3.5401623      50218.233      36.893836      36.893836      36.893836    
  49600000   0.49651778    -7.82877       -7.0840039      3.5386305      50218.233      36.893836      36.893836      36.893836    
  49700000   0.49640565    -7.827727      -7.0831291      3.5585634      50218.233      36.893836      36.893836      36.893836    
  49800000   0.49719783    -7.8305426     -7.0847564      3.5368952      50218.233      36.893836      36.893836      36.893836    
  49900000   0.49502187    -7.8265318     -7.0840096      3.5743962      50218.233      36.893836      36.893836      36.893836    
  50000000   0.49353505    -7.8301206     -7.0898285      3.5241962      50218.233      36.893836      36.893836      36.893836    
Loop time of 78952.2 on 5 procs for 50000000 steps with 70304 atoms

Performance: 547166.837 tau/day, 633.295 timesteps/s, 44.523 Matom-step/s
94.6% CPU use with 5 MPI tasks x 1 OpenMP threads

MPI task timing breakdown:
Section |  min time  |  avg time  |  max time  |%varavg| %total
---------------------------------------------------------------
Pair    | 26919      | 31181      | 35717      |1707.5 | 39.49
Neigh   | 251.14     | 264.52     | 270.54     |  43.0 |  0.34
Comm    | 11666      | 11911      | 12146      | 153.5 | 15.09
Output  | 0.091098   | 0.094557   | 0.099988   |   1.0 |  0.00
Modify  | 26936      | 31621      | 35709      |1704.7 | 40.05
Other   |            | 3975       |            |       |  5.03

Nlocal:        14060.8 ave       14123 max       14033 min
Histogram: 2 1 0 0 1 0 0 0 0 1
Nghost:        18761.2 ave       18797 max       18736 min
Histogram: 2 0 0 0 1 1 0 0 0 1
Neighs:              0 ave           0 max           0 min
Histogram: 5 0 0 0 0 0 0 0 0 0

Total # of neighbors = 0
Ave neighs/atom = 0
Neighbor list builds = 10203185
Dangerous builds = 0
clear
OMP_NUM_THREADS environment is not set. Defaulting to 1 thread. (src/comm.cpp:98)
  using 1 OpenMP thread(s) per MPI task
package gpu 0
jump dms485.lmp

variable T equal 485
# T = 1000* (temp in LJ unit)
variable f equal 100000
log log.${T}
log log.485
