variable TLJ equal (${T}/1000)
variable TLJ equal (525/1000)
variable NCyle equal 5
variable iStep equal (${f})
variable iStep equal (100000)
variable dumpStep equal (${f}*100)
variable dumpStep equal (100000*100)
variable runStep equal (${f}*100*${NCyle})
variable runStep equal (100000*100*${NCyle})
variable runStep equal (100000*100*5)

units       lj
atom_style  atomic
dimension 3
boundary     p p p
pair_style  lj/cut 2.5
read_data  ../data/T${T}.dat
read_data  ../data/T525.dat
Reading data file ...
  orthogonal box = (0.97250269 0.97250269 0.97250269) to (37.866338 37.866338 37.866338)
  1 by 1 by 5 MPI processor grid
  reading atoms ...
  70304 atoms
  reading velocities ...
  70304 velocities
  read_data CPU = 0.257 seconds
change_box all triclinic
Changing box ...
  triclinic box = (0.97250269 0.97250269 0.97250269) to (37.866338 37.866338 37.866338) with tilt (0 0 0)
mass 1 1
mass 2 1
pair_modify shift yes
pair_coeff  1 1 1 1
pair_coeff  1 2 1.5 0.8
pair_coeff  2 2 0.5 0.88


timestep 0.01
thermo ${iStep}
thermo 100000
reset_timestep 0
thermo_style custom step temp pe etotal press vol lx ly lz
fix             1 all nvt temp ${TLJ}  ${TLJ}  0.1
fix             1 all nvt temp 0.525  ${TLJ}  0.1
fix             1 all nvt temp 0.525  0.525  0.1
thermo_modify flush yes

fix dsf all deform 1 xy  wiggle 0.5  ${f}   units box
fix dsf all deform 1 xy  wiggle 0.5  100000   units box
fix ps1 all ave/time 1 1 ${iStep} c_thermo_press[1] c_thermo_press[2]  c_thermo_press[3] c_thermo_press[4]  c_thermo_press[5] c_thermo_press[6]  file  stress.${T}
fix ps1 all ave/time 1 1 100000 c_thermo_press[1] c_thermo_press[2]  c_thermo_press[3] c_thermo_press[4]  c_thermo_press[5] c_thermo_press[6]  file  stress.${T}
fix ps1 all ave/time 1 1 100000 c_thermo_press[1] c_thermo_press[2]  c_thermo_press[3] c_thermo_press[4]  c_thermo_press[5] c_thermo_press[6]  file  stress.525
dump            1 all custom ${dumpStep} dump.${T} id type x y z
dump            1 all custom 10000000 dump.${T} id type x y z
dump            1 all custom 10000000 dump.525 id type x y z
dump_modify 1 sort id
fix nodrift all momentum 1  linear 1 1 1
fix com_seed all recenter INIT INIT INIT shift all
run ${runStep}
run 50000000
Generated 0 of 1 mixed pair_coeff terms from geometric mixing rule
Per MPI rank memory allocation (min/avg/max) = 8.913 | 8.92 | 8.927 Mbytes
   Step          Temp          PotEng         TotEng         Press          Volume           Lx             Ly             Lz      
         0   0.52697334    -7.7725012     -6.9820525      4.0039623      50218.233      36.893836      36.893836      36.893836    
    100000   0.52694894    -7.7637853     -6.9733731      4.0569714      50218.233      36.893836      36.893836      36.893836    
    200000   0.52541077    -7.7625362     -6.9744313      4.0782835      50218.233      36.893836      36.893836      36.893836    
    300000   0.52361439    -7.7594585     -6.9740481      4.1042279      50218.233      36.893836      36.893836      36.893836    
    400000   0.52559042    -7.75843       -6.9700556      4.1075116      50218.233      36.893836      36.893836      36.893836    
    500000   0.52204791    -7.7560768     -6.9730161      4.1290603      50218.233      36.893836      36.893836      36.893836    
    600000   0.52556457    -7.756399      -6.9680634      4.1243832      50218.233      36.893836      36.893836      36.893836    
    700000   0.52531552    -7.7584672     -6.9705051      4.1202962      50218.233      36.893836      36.893836      36.893836    
    800000   0.52511902    -7.7618018     -6.9741344      4.0877636      50218.233      36.893836      36.893836      36.893836    
    900000   0.52462729    -7.7593748     -6.972445       4.1011686      50218.233      36.893836      36.893836      36.893836    
   1000000   0.52951009    -7.7626993     -6.9684454      4.0846402      50218.233      36.893836      36.893836      36.893836    
   1100000   0.52409027    -7.7596365     -6.9735122      4.0959548      50218.233      36.893836      36.893836      36.893836    
   1200000   0.52340142    -7.7633684     -6.9782774      4.0638062      50218.233      36.893836      36.893836      36.893836    
   1300000   0.52424378    -7.7636407     -6.9772862      4.0672282      50218.233      36.893836      36.893836      36.893836    
   1400000   0.52425169    -7.7613117     -6.9749454      4.0863768      50218.233      36.893836      36.893836      36.893836    
   1500000   0.5255934     -7.7666737     -6.9782948      4.0526709      50218.233      36.893836      36.893836      36.893836    
   1600000   0.529718      -7.7658146     -6.9712489      4.0694032      50218.233      36.893836      36.893836      36.893836    
   1700000   0.5255079     -7.7617192     -6.9734685      4.0956478      50218.233      36.893836      36.893836      36.893836    
   1800000   0.5221901     -7.7621211     -6.9788471      4.0792671      50218.233      36.893836      36.893836      36.893836    
   1900000   0.52746308    -7.7639073     -6.9727239      4.0807114      50218.233      36.893836      36.893836      36.893836    
   2000000   0.52109527    -7.7613025     -6.9796708      4.0784296      50218.233      36.893836      36.893836      36.893836    
   2100000   0.5252436     -7.7645237     -6.9766695      4.0609827      50218.233      36.893836      36.893836      36.893836    
   2200000   0.52473017    -7.7626943     -6.9756103      4.0777073      50218.233      36.893836      36.893836      36.893836    
   2300000   0.52734398    -7.7687824     -6.9777777      4.0344791      50218.233      36.893836      36.893836      36.893836    
   2400000   0.52345051    -7.7651842     -6.9800196      4.0530004      50218.233      36.893836      36.893836      36.893836    
   2500000   0.52442334    -7.7661491     -6.9795253      4.0548728      50218.233      36.893836      36.893836      36.893836    
   2600000   0.52389864    -7.7641569     -6.9783201      4.053745       50218.233      36.893836      36.893836      36.893836    
   2700000   0.52521802    -7.7630891     -6.9752732      4.0736831      50218.233      36.893836      36.893836      36.893836    
   2800000   0.52439022    -7.7641038     -6.9775297      4.0605504      50218.233      36.893836      36.893836      36.893836    
   2900000   0.53006062    -7.7685451     -6.9734655      4.0329065      50218.233      36.893836      36.893836      36.893836    
   3000000   0.52412374    -7.7622265     -6.9760521      4.0923807      50218.233      36.893836      36.893836      36.893836    
   3100000   0.52315226    -7.7636738     -6.9789565      4.0706315      50218.233      36.893836      36.893836      36.893836    
   3200000   0.52438377    -7.764166      -6.9776016      4.0723937      50218.233      36.893836      36.893836      36.893836    
   3300000   0.52291313    -7.7680741     -6.9837156      4.0459623      50218.233      36.893836      36.893836      36.893836    
   3400000   0.52351879    -7.7654993     -6.9802323      4.061075       50218.233      36.893836      36.893836      36.893836    
   3500000   0.52541227    -7.767101      -6.9789938      4.0444021      50218.233      36.893836      36.893836      36.893836    
   3600000   0.52764844    -7.768407      -6.9769456      4.0480422      50218.233      36.893836      36.893836      36.893836    
   3700000   0.52756158    -7.7637361     -6.972405       4.0792277      50218.233      36.893836      36.893836      36.893836    
   3800000   0.52534705    -7.7657847     -6.9777753      4.0616112      50218.233      36.893836      36.893836      36.893836    
   3900000   0.52278119    -7.767385      -6.9832244      4.0238495      50218.233      36.893836      36.893836      36.893836    
   4000000   0.52683337    -7.7657202     -6.9754814      4.0511021      50218.233      36.893836      36.893836      36.893836    
   4100000   0.52510352    -7.7610069     -6.9733628      4.0911151      50218.233      36.893836      36.893836      36.893836    
   4200000   0.52830076    -7.7599742     -6.9675344      4.1113244      50218.233      36.893836      36.893836      36.893836    
   4300000   0.52231189    -7.7613913     -6.9779346      4.0882079      50218.233      36.893836      36.893836      36.893836    
   4400000   0.52654667    -7.7569471     -6.9671383      4.1254004      50218.233      36.893836      36.893836      36.893836    
   4500000   0.52334772    -7.7659855     -6.9809751      4.0420735      50218.233      36.893836      36.893836      36.893836    
   4600000   0.52484248    -7.7638904     -6.9766378      4.0692471      50218.233      36.893836      36.893836      36.893836    
   4700000   0.52561043    -7.761823      -6.9734186      4.0866161      50218.233      36.893836      36.893836      36.893836    
   4800000   0.52597416    -7.7660931     -6.9771431      4.0685029      50218.233      36.893836      36.893836      36.893836    
   4900000   0.5229047     -7.7656396     -6.9812938      4.055378       50218.233      36.893836      36.893836      36.893836    
   5000000   0.52339288    -7.7645656     -6.9794874      4.0480453      50218.233      36.893836      36.893836      36.893836    
   5100000   0.52490187    -7.76107       -6.9737284      4.0983017      50218.233      36.893836      36.893836      36.893836    
   5200000   0.52611905    -7.7602981     -6.9711308      4.1013407      50218.233      36.893836      36.893836      36.893836    
   5300000   0.52382018    -7.7600599     -6.9743408      4.10265        50218.233      36.893836      36.893836      36.893836    
   5400000   0.52403888    -7.7603501     -6.974303       4.0883084      50218.233      36.893836      36.893836      36.893836    
   5500000   0.52316196    -7.761781      -6.9770493      4.077236       50218.233      36.893836      36.893836      36.893836    
   5600000   0.52117842    -7.7659944     -6.9842379      4.0597632      50218.233      36.893836      36.893836      36.893836    
   5700000   0.52444235    -7.7602621     -6.9736098      4.1026145      50218.233      36.893836      36.893836      36.893836    
   5800000   0.52670055    -7.7604602     -6.9704206      4.0870465      50218.233      36.893836      36.893836      36.893836    
   5900000   0.52436129    -7.7617128     -6.9751821      4.089113       50218.233      36.893836      36.893836      36.893836    
   6000000   0.52703835    -7.7647686     -6.9742223      4.050449       50218.233      36.893836      36.893836      36.893836    
   6100000   0.52358954    -7.7602248     -6.9748516      4.0938031      50218.233      36.893836      36.893836      36.893836    
   6200000   0.52255771    -7.7638827     -6.9800573      4.0567868      50218.233      36.893836      36.893836      36.893836    
   6300000   0.5241909     -7.7676261     -6.9813509      4.0332701      50218.233      36.893836      36.893836      36.893836    
   6400000   0.52527021    -7.763098      -6.9752039      4.0791877      50218.233      36.893836      36.893836      36.893836    
   6500000   0.52716732    -7.7658038     -6.9750641      4.0545336      50218.233      36.893836      36.893836      36.893836    
   6600000   0.52661665    -7.7637917     -6.9738779      4.0820201      50218.233      36.893836      36.893836      36.893836    
   6700000   0.52810963    -7.7678972     -6.975744       4.050245       50218.233      36.893836      36.893836      36.893836    
   6800000   0.52473914    -7.7601605     -6.9730629      4.0917751      50218.233      36.893836      36.893836      36.893836    
   6900000   0.52492557    -7.7634314     -6.9760543      4.0678787      50218.233      36.893836      36.893836      36.893836    
   7000000   0.52366376    -7.7656953     -6.9802108      4.0522801      50218.233      36.893836      36.893836      36.893836    
   7100000   0.52327811    -7.760714      -6.975808       4.0817282      50218.233      36.893836      36.893836      36.893836    
   7200000   0.5213112     -7.7657302     -6.9837745      4.0435373      50218.233      36.893836      36.893836      36.893836    
   7300000   0.52472174    -7.7630185     -6.9759471      4.0827682      50218.233      36.893836      36.893836      36.893836    
   7400000   0.52445304    -7.7584057     -6.9717373      4.115999       50218.233      36.893836      36.893836      36.893836    
   7500000   0.52512665    -7.757446      -6.9697672      4.121906       50218.233      36.893836      36.893836      36.893836    
   7600000   0.52492006    -7.7624503     -6.9750814      4.0956288      50218.233      36.893836      36.893836      36.893836    
   7700000   0.52569175    -7.7672774     -6.978751       4.0557065      50218.233      36.893836      36.893836      36.893836    
   7800000   0.52423393    -7.7628925     -6.9765528      4.0790772      50218.233      36.893836      36.893836      36.893836    
   7900000   0.52448292    -7.7607726     -6.9740595      4.0928805      50218.233      36.893836      36.893836      36.893836    
   8000000   0.52611832    -7.7626763     -6.97351        4.0940069      50218.233      36.893836      36.893836      36.893836    
   8100000   0.52325693    -7.7608462     -6.975972       4.0923257      50218.233      36.893836      36.893836      36.893836    
   8200000   0.52568203    -7.7597369     -6.9712251      4.0893145      50218.233      36.893836      36.893836      36.893836    
   8300000   0.52579065    -7.7597621     -6.9710873      4.0977808      50218.233      36.893836      36.893836      36.893836    
   8400000   0.52596126    -7.7597504     -6.9708197      4.0958192      50218.233      36.893836      36.893836      36.893836    
   8500000   0.52364242    -7.7577922     -6.9723397      4.1102442      50218.233      36.893836      36.893836      36.893836    
   8600000   0.52438694    -7.756287      -6.9697178      4.1238623      50218.233      36.893836      36.893836      36.893836    
   8700000   0.52661979    -7.7647651     -6.9748467      4.0593334      50218.233      36.893836      36.893836      36.893836    
   8800000   0.52534766    -7.7612413     -6.973231       4.0803069      50218.233      36.893836      36.893836      36.893836    
   8900000   0.52331773    -7.7625236     -6.9775582      4.0730782      50218.233      36.893836      36.893836      36.893836    
   9000000   0.52219564    -7.7624432     -6.9791609      4.0679675      50218.233      36.893836      36.893836      36.893836    
   9100000   0.52679623    -7.7591078     -6.9689247      4.0921734      50218.233      36.893836      36.893836      36.893836    
   9200000   0.52664019    -7.7633377     -6.9733887      4.0843962      50218.233      36.893836      36.893836      36.893836    
   9300000   0.52890775    -7.759328      -6.9659777      4.1116506      50218.233      36.893836      36.893836      36.893836    
   9400000   0.52734176    -7.7557138     -6.9647124      4.1288921      50218.233      36.893836      36.893836      36.893836    
   9500000   0.5226886     -7.756451      -6.9724292      4.1169146      50218.233      36.893836      36.893836      36.893836    
   9600000   0.52538973    -7.7582064     -6.9701331      4.1108476      50218.233      36.893836      36.893836      36.893836    
   9700000   0.52444505    -7.7589837     -6.9723273      4.0958513      50218.233      36.893836      36.893836      36.893836    
   9800000   0.52336414    -7.7595644     -6.9745293      4.0915367      50218.233      36.893836      36.893836      36.893836    
   9900000   0.52623595    -7.7558976     -6.9665549      4.1324709      50218.233      36.893836      36.893836      36.893836    
  10000000   0.52513176    -7.7630414     -6.975355       4.0876425      50218.233      36.893836      36.893836      36.893836    
  10100000   0.52238942    -7.7638178     -6.9802449      4.0711978      50218.233      36.893836      36.893836      36.893836    
  10200000   0.52397186    -7.7591246     -6.973178       4.0975461      50218.233      36.893836      36.893836      36.893836    
  10300000   0.52342738    -7.7591627     -6.9740328      4.1031278      50218.233      36.893836      36.893836      36.893836    
  10400000   0.52152115    -7.7586644     -6.9763939      4.1081077      50218.233      36.893836      36.893836      36.893836    
  10500000   0.52469918    -7.7576435     -6.9706059      4.1144125      50218.233      36.893836      36.893836      36.893836    
  10600000   0.52664725    -7.7599243     -6.9699646      4.1054428      50218.233      36.893836      36.893836      36.893836    
  10700000   0.52451988    -7.7571897     -6.9704211      4.1088011      50218.233      36.893836      36.893836      36.893836    
  10800000   0.52385575    -7.7562463     -6.9704739      4.1229761      50218.233      36.893836      36.893836      36.893836    
  10900000   0.52399828    -7.7582653     -6.9722791      4.1068469      50218.233      36.893836      36.893836      36.893836    
  11000000   0.52360468    -7.7542606     -6.9688648      4.1442101      50218.233      36.893836      36.893836      36.893836    
  11100000   0.5270001     -7.7599074     -6.9694185      4.0997343      50218.233      36.893836      36.893836      36.893836    
  11200000   0.52316993    -7.7588857     -6.9741419      4.0993637      50218.233      36.893836      36.893836      36.893836    
  11300000   0.52313949    -7.7608645     -6.9761664      4.0848917      50218.233      36.893836      36.893836      36.893836    
  11400000   0.52522567    -7.7586309     -6.9708036      4.1037476      50218.233      36.893836      36.893836      36.893836    
  11500000   0.52327751    -7.7540697     -6.9691646      4.1347298      50218.233      36.893836      36.893836      36.893836    
  11600000   0.52364557    -7.7638722     -6.9784151      4.071755       50218.233      36.893836      36.893836      36.893836    
  11700000   0.52404218    -7.7589556     -6.9729035      4.0955855      50218.233      36.893836      36.893836      36.893836    
  11800000   0.52349739    -7.7647251     -6.9794902      4.0680093      50218.233      36.893836      36.893836      36.893836    
  11900000   0.52439955    -7.7628735     -6.9762854      4.067633       50218.233      36.893836      36.893836      36.893836    
  12000000   0.52505337    -7.7613937     -6.9738248      4.0998216      50218.233      36.893836      36.893836      36.893836    
  12100000   0.52276175    -7.7599909     -6.9758595      4.089046       50218.233      36.893836      36.893836      36.893836    
  12200000   0.5246323     -7.7587359     -6.9717986      4.1040409      50218.233      36.893836      36.893836      36.893836    
  12300000   0.52452862    -7.7662853     -6.9795035      4.0670748      50218.233      36.893836      36.893836      36.893836    
  12400000   0.52255691    -7.7621007     -6.9782765      4.0754355      50218.233      36.893836      36.893836      36.893836    
  12500000   0.52690615    -7.7547132     -6.9643652      4.1393974      50218.233      36.893836      36.893836      36.893836    
  12600000   0.52653313    -7.7579928     -6.9682043      4.1112026      50218.233      36.893836      36.893836      36.893836    
  12700000   0.52641255    -7.7578225     -6.968215       4.1144145      50218.233      36.893836      36.893836      36.893836    
  12800000   0.52383953    -7.7557162     -6.9699681      4.1297184      50218.233      36.893836      36.893836      36.893836    
  12900000   0.5263642     -7.7571641     -6.967629       4.1138358      50218.233      36.893836      36.893836      36.893836    
  13000000   0.52371866    -7.7535833     -6.9680165      4.1326325      50218.233      36.893836      36.893836      36.893836    
  13100000   0.52788607    -7.7614515     -6.9696336      4.0759834      50218.233      36.893836      36.893836      36.893836    
  13200000   0.52424207    -7.7552614     -6.9689095      4.1514608      50218.233      36.893836      36.893836      36.893836    
  13300000   0.52400814    -7.7520955     -6.9660945      4.1562459      50218.233      36.893836      36.893836      36.893836    
  13400000   0.52755291    -7.7598254     -6.9685073      4.0947607      50218.233      36.893836      36.893836      36.893836    
  13500000   0.52509214    -7.7616714     -6.9740444      4.0915775      50218.233      36.893836      36.893836      36.893836    
  13600000   0.52600347    -7.756629      -6.967635       4.1280984      50218.233      36.893836      36.893836      36.893836    
  13700000   0.52078921    -7.7526683     -6.9714956      4.1451135      50218.233      36.893836      36.893836      36.893836    
  13800000   0.52312181    -7.7598398     -6.9751682      4.079484       50218.233      36.893836      36.893836      36.893836    
  13900000   0.52627253    -7.7582356     -6.968838       4.1056736      50218.233      36.893836      36.893836      36.893836    
  14000000   0.52565362    -7.766666      -6.9781968      4.0427545      50218.233      36.893836      36.893836      36.893836    
  14100000   0.52326258    -7.7677846     -6.9829019      4.0434819      50218.233      36.893836      36.893836      36.893836    
  14200000   0.52470943    -7.7622565     -6.9752036      4.0757583      50218.233      36.893836      36.893836      36.893836    
  14300000   0.52696817    -7.766062      -6.975621       4.0569597      50218.233      36.893836      36.893836      36.893836    
  14400000   0.52559322    -7.7573147     -6.9689361      4.1217947      50218.233      36.893836      36.893836      36.893836    
  14500000   0.52377104    -7.761788      -6.9761426      4.0926069      50218.233      36.893836      36.893836      36.893836    
  14600000   0.52458824    -7.7616464     -6.9747752      4.0711108      50218.233      36.893836      36.893836      36.893836    
  14700000   0.5257269     -7.7651465     -6.9765674      4.0509609      50218.233      36.893836      36.893836      36.893836    
  14800000   0.52252091    -7.7597907     -6.9760205      4.0995437      50218.233      36.893836      36.893836      36.893836    
  14900000   0.52591596    -7.7628854     -6.9740227      4.0817053      50218.233      36.893836      36.893836      36.893836    
  15000000   0.5250776     -7.7604794     -6.9728742      4.0932976      50218.233      36.893836      36.893836      36.893836    
  15100000   0.52193058    -7.7674395     -6.9845548      4.0321998      50218.233      36.893836      36.893836      36.893836    
  15200000   0.52456683    -7.7587686     -6.9719295      4.1158407      50218.233      36.893836      36.893836      36.893836    
  15300000   0.52534702    -7.7557214     -6.967712       4.140863       50218.233      36.893836      36.893836      36.893836    
  15400000   0.52240481    -7.7571774     -6.9735813      4.1210453      50218.233      36.893836      36.893836      36.893836    
  15500000   0.52619108    -7.7602167     -6.9709413      4.1018119      50218.233      36.893836      36.893836      36.893836    
  15600000   0.52405748    -7.7556652     -6.9695902      4.1219621      50218.233      36.893836      36.893836      36.893836    
  15700000   0.52594774    -7.7561139     -6.9672035      4.1232706      50218.233      36.893836      36.893836      36.893836    
  15800000   0.52462083    -7.7572953     -6.9703752      4.1157164      50218.233      36.893836      36.893836      36.893836    
  15900000   0.52231975    -7.759329      -6.9758605      4.1027083      50218.233      36.893836      36.893836      36.893836    
  16000000   0.5260297     -7.7603147     -6.9712813      4.086679       50218.233      36.893836      36.893836      36.893836    
  16100000   0.52659495    -7.7602061     -6.9703249      4.0967444      50218.233      36.893836      36.893836      36.893836    
  16200000   0.52564146    -7.7560982     -6.9676473      4.1264706      50218.233      36.893836      36.893836      36.893836    
  16300000   0.52463318    -7.7633226     -6.976384       4.0694718      50218.233      36.893836      36.893836      36.893836    
  16400000   0.52288488    -7.7657519     -6.9814357      4.0479655      50218.233      36.893836      36.893836      36.893836    
  16500000   0.52382752    -7.7609724     -6.9752423      4.0854862      50218.233      36.893836      36.893836      36.893836    
  16600000   0.52417625    -7.7623906     -6.9761374      4.078195       50218.233      36.893836      36.893836      36.893836    
  16700000   0.52522629    -7.7563313     -6.9685031      4.1324255      50218.233      36.893836      36.893836      36.893836    
  16800000   0.52505143    -7.7595086     -6.9719426      4.10655        50218.233      36.893836      36.893836      36.893836    
  16900000   0.52718903    -7.758957      -6.9681847      4.1102602      50218.233      36.893836      36.893836      36.893836    
  17000000   0.52575189    -7.7588146     -6.970198       4.1162187      50218.233      36.893836      36.893836      36.893836    
  17100000   0.52467452    -7.758426      -6.9714254      4.1001462      50218.233      36.893836      36.893836      36.893836    
  17200000   0.52651932    -7.75574       -6.9659723      4.1353252      50218.233      36.893836      36.893836      36.893836    
  17300000   0.52556382    -7.7563854     -6.9680509      4.1253282      50218.233      36.893836      36.893836      36.893836    
  17400000   0.52446242    -7.7576492     -6.9709668      4.1113798      50218.233      36.893836      36.893836      36.893836    
  17500000   0.52319269    -7.7598882     -6.9751103      4.1027292      50218.233      36.893836      36.893836      36.893836    
  17600000   0.52480713    -7.7640947     -6.9768952      4.074338       50218.233      36.893836      36.893836      36.893836    
  17700000   0.52374164    -7.761525      -6.9759237      4.0837108      50218.233      36.893836      36.893836      36.893836    
  17800000   0.52420892    -7.7593617     -6.9730595      4.1045257      50218.233      36.893836      36.893836      36.893836    
  17900000   0.5230611     -7.7636424     -6.979062       4.0703181      50218.233      36.893836      36.893836      36.893836    
  18000000   0.52635311    -7.7551149     -6.9655965      4.1362298      50218.233      36.893836      36.893836      36.893836    
  18100000   0.52205391    -7.7618739     -6.9788042      4.0777036      50218.233      36.893836      36.893836      36.893836    
  18200000   0.52667142    -7.7621329     -6.972137       4.0811318      50218.233      36.893836      36.893836      36.893836    
  18300000   0.52446168    -7.7604967     -6.9738153      4.0885816      50218.233      36.893836      36.893836      36.893836    
  18400000   0.52467718    -7.7596884     -6.9726839      4.0897959      50218.233      36.893836      36.893836      36.893836    
  18500000   0.52428373    -7.7615549     -6.9751404      4.0877527      50218.233      36.893836      36.893836      36.893836    
  18600000   0.52654175    -7.7614366     -6.9716352      4.0799909      50218.233      36.893836      36.893836      36.893836    
  18700000   0.52459354    -7.7612664     -6.9743873      4.0773164      50218.233      36.893836      36.893836      36.893836    
  18800000   0.5233039     -7.7581977     -6.973253       4.0995035      50218.233      36.893836      36.893836      36.893836    
  18900000   0.52266918    -7.7614944     -6.9775018      4.0773254      50218.233      36.893836      36.893836      36.893836    
  19000000   0.5250869     -7.7607023     -6.9730832      4.0861287      50218.233      36.893836      36.893836      36.893836    
  19100000   0.52222812    -7.756759      -6.9734279      4.1218613      50218.233      36.893836      36.893836      36.893836    
  19200000   0.52416409    -7.7599598     -6.9737249      4.0965932      50218.233      36.893836      36.893836      36.893836    
  19300000   0.5265802     -7.7602746     -6.9704155      4.100269       50218.233      36.893836      36.893836      36.893836    
  19400000   0.52717604    -7.7583908     -6.967638       4.111681       50218.233      36.893836      36.893836      36.893836    
  19500000   0.5222687     -7.7565522     -6.9731603      4.115808       50218.233      36.893836      36.893836      36.893836    
  19600000   0.52467919    -7.7575908     -6.9705832      4.1128085      50218.233      36.893836      36.893836      36.893836    
  19700000   0.52410545    -7.7610033     -6.9748563      4.0929482      50218.233      36.893836      36.893836      36.893836    
  19800000   0.52343434    -7.7603964     -6.9752561      4.0829966      50218.233      36.893836      36.893836      36.893836    
  19900000   0.52818937    -7.7603392     -6.9680664      4.0950982      50218.233      36.893836      36.893836      36.893836    
  20000000   0.52503707    -7.7547604     -6.967216       4.1365038      50218.233      36.893836      36.893836      36.893836    
  20100000   0.52710696    -7.7551223     -6.9644731      4.1438057      50218.233      36.893836      36.893836      36.893836    
  20200000   0.51976176    -7.7591153     -6.9794838      4.0965997      50218.233      36.893836      36.893836      36.893836    
  20300000   0.52617784    -7.760238      -6.9709825      4.1047368      50218.233      36.893836      36.893836      36.893836    
  20400000   0.52483249    -7.7578823     -6.9706448      4.1165824      50218.233      36.893836      36.893836      36.893836    
  20500000   0.52346426    -7.7567577     -6.9715725      4.128159       50218.233      36.893836      36.893836      36.893836    
  20600000   0.52591384    -7.7638501     -6.9749905      4.0748523      50218.233      36.893836      36.893836      36.893836    
  20700000   0.52505325    -7.7612237     -6.9736551      4.0935301      50218.233      36.893836      36.893836      36.893836    
  20800000   0.52461566    -7.7595331     -6.9726208      4.0994397      50218.233      36.893836      36.893836      36.893836    
  20900000   0.52423382    -7.7622029     -6.9758634      4.0815889      50218.233      36.893836      36.893836      36.893836    
  21000000   0.52500099    -7.7646103     -6.97712        4.050365       50218.233      36.893836      36.893836      36.893836    
  21100000   0.52249936    -7.7630216     -6.9792837      4.0617987      50218.233      36.893836      36.893836      36.893836    
  21200000   0.52750236    -7.7567114     -6.9654691      4.1092984      50218.233      36.893836      36.893836      36.893836    
  21300000   0.52466238    -7.7597169     -6.9727345      4.0932622      50218.233      36.893836      36.893836      36.893836    
  21400000   0.52528479    -7.7599232     -6.9720072      4.1031249      50218.233      36.893836      36.893836      36.893836    
  21500000   0.52358066    -7.7598514     -6.9744916      4.0913037      50218.233      36.893836      36.893836      36.893836    
  21600000   0.52416986    -7.7618778     -6.9756342      4.0838054      50218.233      36.893836      36.893836      36.893836    
  21700000   0.52268086    -7.7563112     -6.972301       4.1286742      50218.233      36.893836      36.893836      36.893836    
  21800000   0.52534643    -7.7640817     -6.9760733      4.0815327      50218.233      36.893836      36.893836      36.893836    
  21900000   0.52953239    -7.7590275     -6.9647403      4.1051288      50218.233      36.893836      36.893836      36.893836    
  22000000   0.5258005     -7.7602811     -6.9715915      4.0890924      50218.233      36.893836      36.893836      36.893836    
  22100000   0.5237986     -7.7626578     -6.9769711      4.0857876      50218.233      36.893836      36.893836      36.893836    
  22200000   0.52673269    -7.7568709     -6.9667831      4.1233476      50218.233      36.893836      36.893836      36.893836    
  22300000   0.5222512     -7.7592842     -6.9759185      4.098665       50218.233      36.893836      36.893836      36.893836    
  22400000   0.52469538    -7.7563981     -6.9693662      4.1208469      50218.233      36.893836      36.893836      36.893836    
  22500000   0.52438999    -7.7557544     -6.9691807      4.1391469      50218.233      36.893836      36.893836      36.893836    
  22600000   0.52494359    -7.7589482     -6.971544       4.1215503      50218.233      36.893836      36.893836      36.893836    
  22700000   0.52669992    -7.7633245     -6.9732859      4.0777021      50218.233      36.893836      36.893836      36.893836    
  22800000   0.52413305    -7.7605234     -6.974335       4.0864842      50218.233      36.893836      36.893836      36.893836    
  22900000   0.527674      -7.7653715     -6.9738718      4.0736032      50218.233      36.893836      36.893836      36.893836    
  23000000   0.52517942    -7.7614858     -6.9737279      4.0899737      50218.233      36.893836      36.893836      36.893836    
  23100000   0.52653151    -7.7576724     -6.9678864      4.1022028      50218.233      36.893836      36.893836      36.893836    
  23200000   0.52372998    -7.7619968     -6.976413       4.078623       50218.233      36.893836      36.893836      36.893836    
  23300000   0.52577507    -7.7633513     -6.9746999      4.0684316      50218.233      36.893836      36.893836      36.893836    
  23400000   0.52732346    -7.7602689     -6.969295       4.1029126      50218.233      36.893836      36.893836      36.893836    
  23500000   0.52661231    -7.7626079     -6.9727006      4.0787481      50218.233      36.893836      36.893836      36.893836    
  23600000   0.5272712     -7.7613877     -6.9704921      4.0839756      50218.233      36.893836      36.893836      36.893836    
  23700000   0.52652387    -7.7599306     -6.970156       4.0997805      50218.233      36.893836      36.893836      36.893836    
  23800000   0.52654026    -7.7621946     -6.9723954      4.076788       50218.233      36.893836      36.893836      36.893836    
  23900000   0.52332434    -7.7610044     -6.9760291      4.0935573      50218.233      36.893836      36.893836      36.893836    
  24000000   0.52753285    -7.7603446     -6.9690566      4.1059598      50218.233      36.893836      36.893836      36.893836    
  24100000   0.52479858    -7.7602401     -6.9730534      4.0962426      50218.233      36.893836      36.893836      36.893836    
  24200000   0.52466443    -7.7594046     -6.9724191      4.1068285      50218.233      36.893836      36.893836      36.893836    
  24300000   0.52500466    -7.7556701     -6.9681743      4.1249558      50218.233      36.893836      36.893836      36.893836    
  24400000   0.52441735    -7.7573446     -6.9707298      4.1158438      50218.233      36.893836      36.893836      36.893836    
  24500000   0.5267751     -7.7561602     -6.9660088      4.1316403      50218.233      36.893836      36.893836      36.893836    
  24600000   0.52508509    -7.7589209     -6.9713045      4.1106642      50218.233      36.893836      36.893836      36.893836    
  24700000   0.52509462    -7.7591571     -6.9715263      4.1139493      50218.233      36.893836      36.893836      36.893836    
  24800000   0.52207584    -7.7586289     -6.9755263      4.1015644      50218.233      36.893836      36.893836      36.893836    
  24900000   0.52476894    -7.7641736     -6.9770314      4.0737955      50218.233      36.893836      36.893836      36.893836    
  25000000   0.52707308    -7.756702      -6.9661036      4.129902       50218.233      36.893836      36.893836      36.893836    
  25100000   0.528273      -7.758265      -6.9658668      4.1046778      50218.233      36.893836      36.893836      36.893836    
  25200000   0.52714129    -7.7610495     -6.9703488      4.1060028      50218.233      36.893836      36.893836      36.893836    
  25300000   0.52419542    -7.7597793     -6.9734973      4.1018293      50218.233      36.893836      36.893836      36.893836    
  25400000   0.52695747    -7.7602588     -6.9698338      4.100992       50218.233      36.893836      36.893836      36.893836    
  25500000   0.5252856     -7.761902      -6.9739848      4.0806215      50218.233      36.893836      36.893836      36.893836    
  25600000   0.52549071    -7.7648077     -6.9765828      4.0639813      50218.233      36.893836      36.893836      36.893836    
  25700000   0.5244047     -7.7665597     -6.9799638      4.0426494      50218.233      36.893836      36.893836      36.893836    
  25800000   0.52279216    -7.7608136     -6.9766365      4.0890698      50218.233      36.893836      36.893836      36.893836    
  25900000   0.52479355    -7.7615225     -6.9743434      4.0857003      50218.233      36.893836      36.893836      36.893836    
  26000000   0.52531866    -7.7577782     -6.9698115      4.1079604      50218.233      36.893836      36.893836      36.893836    
  26100000   0.52610134    -7.7633028     -6.974162       4.0674129      50218.233      36.893836      36.893836      36.893836    
  26200000   0.52167476    -7.7614916     -6.9789906      4.0863895      50218.233      36.893836      36.893836      36.893836    
  26300000   0.52587905    -7.7632178     -6.9744105      4.0669557      50218.233      36.893836      36.893836      36.893836    
  26400000   0.52708978    -7.7638396     -6.9732161      4.072009       50218.233      36.893836      36.893836      36.893836    
  26500000   0.52618563    -7.7609993     -6.9717321      4.0973268      50218.233      36.893836      36.893836      36.893836    
  26600000   0.5262        -7.76479       -6.9755012      4.0554921      50218.233      36.893836      36.893836      36.893836    
  26700000   0.52549968    -7.7588517     -6.9706134      4.0873564      50218.233      36.893836      36.893836      36.893836    
  26800000   0.52528326    -7.7577337     -6.96982        4.1216326      50218.233      36.893836      36.893836      36.893836    
  26900000   0.52495515    -7.7605295     -6.973108       4.0867579      50218.233      36.893836      36.893836      36.893836    
  27000000   0.52502373    -7.7604268     -6.9729024      4.0926447      50218.233      36.893836      36.893836      36.893836    
  27100000   0.52590307    -7.7595035     -6.9706601      4.1030729      50218.233      36.893836      36.893836      36.893836    
  27200000   0.52591714    -7.7588006     -6.9699361      4.1090621      50218.233      36.893836      36.893836      36.893836    
  27300000   0.52439336    -7.7619089     -6.97533        4.081971       50218.233      36.893836      36.893836      36.893836    
  27400000   0.52608511    -7.7621023     -6.9729858      4.0718896      50218.233      36.893836      36.893836      36.893836    
  27500000   0.52354655    -7.7601405     -6.9748319      4.0913214      50218.233      36.893836      36.893836      36.893836    
  27600000   0.52550888    -7.7640059     -6.9757538      4.0662873      50218.233      36.893836      36.893836      36.893836    
  27700000   0.52450909    -7.7672611     -6.9805087      4.0502748      50218.233      36.893836      36.893836      36.893836    
  27800000   0.52621136    -7.7669164     -6.9776106      4.0582199      50218.233      36.893836      36.893836      36.893836    
  27900000   0.5231981     -7.762859      -6.978073       4.0736795      50218.233      36.893836      36.893836      36.893836    
  28000000   0.52620308    -7.7621047     -6.9728113      4.0919671      50218.233      36.893836      36.893836      36.893836    
  28100000   0.52196245    -7.7654164     -6.9824838      4.0522957      50218.233      36.893836      36.893836      36.893836    
  28200000   0.52254636    -7.765084      -6.9812756      4.0611318      50218.233      36.893836      36.893836      36.893836    
  28300000   0.52312303    -7.7635304     -6.978857       4.0587686      50218.233      36.893836      36.893836      36.893836    
  28400000   0.52728459    -7.7629136     -6.971998       4.086203       50218.233      36.893836      36.893836      36.893836    
  28500000   0.52400043    -7.7621893     -6.9761998      4.0752918      50218.233      36.893836      36.893836      36.893836    
  28600000   0.52495299    -7.7541102     -6.9666919      4.1360294      50218.233      36.893836      36.893836      36.893836    
  28700000   0.52505911    -7.756708      -6.9691305      4.1241903      50218.233      36.893836      36.893836      36.893836    
  28800000   0.52417017    -7.7577648     -6.9715208      4.115639       50218.233      36.893836      36.893836      36.893836    
  28900000   0.52468304    -7.7582244     -6.971211       4.1117434      50218.233      36.893836      36.893836      36.893836    
  29000000   0.5247607     -7.7607926     -6.9736628      4.0864909      50218.233      36.893836      36.893836      36.893836    
  29100000   0.52507861    -7.7630737     -6.975467       4.0798168      50218.233      36.893836      36.893836      36.893836    
  29200000   0.52585101    -7.763439      -6.9746737      4.0805712      50218.233      36.893836      36.893836      36.893836    
  29300000   0.52746053    -7.760011      -6.9688315      4.1003603      50218.233      36.893836      36.893836      36.893836    
  29400000   0.52691159    -7.7592494     -6.9688933      4.1016369      50218.233      36.893836      36.893836      36.893836    
  29500000   0.52245343    -7.7588555     -6.9751865      4.1044181      50218.233      36.893836      36.893836      36.893836    
  29600000   0.52391994    -7.7621936     -6.9763249      4.0872731      50218.233      36.893836      36.893836      36.893836    
  29700000   0.52451463    -7.7566867     -6.969926       4.1295511      50218.233      36.893836      36.893836      36.893836    
  29800000   0.52366038    -7.7570282     -6.9715488      4.1163608      50218.233      36.893836      36.893836      36.893836    
  29900000   0.52566693    -7.7549617     -6.9664725      4.1381021      50218.233      36.893836      36.893836      36.893836    
  30000000   0.5242133     -7.7610351     -6.9747263      4.0900686      50218.233      36.893836      36.893836      36.893836    
  30100000   0.52722598    -7.7627206     -6.9718929      4.0781838      50218.233      36.893836      36.893836      36.893836    
  30200000   0.52734624    -7.7620608     -6.9710527      4.0845328      50218.233      36.893836      36.893836      36.893836    
  30300000   0.52696285    -7.7571083     -6.9666753      4.1234121      50218.233      36.893836      36.893836      36.893836    
  30400000   0.52225449    -7.7587593     -6.9753888      4.1083953      50218.233      36.893836      36.893836      36.893836    
  30500000   0.52447594    -7.7628239     -6.9761211      4.0793226      50218.233      36.893836      36.893836      36.893836    
  30600000   0.5265664     -7.7602017     -6.9703634      4.0892072      50218.233      36.893836      36.893836      36.893836    
  30700000   0.52802941    -7.7569901     -6.9649572      4.112437       50218.233      36.893836      36.893836      36.893836    
  30800000   0.52527459    -7.7600463     -6.9721456      4.1062549      50218.233      36.893836      36.893836      36.893836    
  30900000   0.52897573    -7.7555568     -6.9621045      4.135736       50218.233      36.893836      36.893836      36.893836    
  31000000   0.52475358    -7.7588052     -6.971686       4.1051061      50218.233      36.893836      36.893836      36.893836    
  31100000   0.52508992    -7.7576189     -6.9699952      4.0973305      50218.233      36.893836      36.893836      36.893836    
  31200000   0.52509734    -7.7563643     -6.9687295      4.1089057      50218.233      36.893836      36.893836      36.893836    
  31300000   0.52674193    -7.7641514     -6.9740497      4.0732173      50218.233      36.893836      36.893836      36.893836    
  31400000   0.52503444    -7.7547413     -6.9672008      4.1360612      50218.233      36.893836      36.893836      36.893836    
  31500000   0.52667464    -7.7585583     -6.9685576      4.1114681      50218.233      36.893836      36.893836      36.893836    
  31600000   0.52437783    -7.7650556     -6.9785         4.048823       50218.233      36.893836      36.893836      36.893836    
  31700000   0.52433011    -7.7580256     -6.9715416      4.1178081      50218.233      36.893836      36.893836      36.893836    
  31800000   0.52106629    -7.7603186     -6.9787303      4.0951887      50218.233      36.893836      36.893836      36.893836    
  31900000   0.52499376    -7.7595174     -6.972038       4.0982281      50218.233      36.893836      36.893836      36.893836    
  32000000   0.52530154    -7.7602909     -6.9723498      4.097727       50218.233      36.893836      36.893836      36.893836    
  32100000   0.52409506    -7.7564314     -6.9703         4.1194923      50218.233      36.893836      36.893836      36.893836    
  32200000   0.52416006    -7.7557788     -6.9695499      4.1156595      50218.233      36.893836      36.893836      36.893836    
  32300000   0.52581818    -7.7512878     -6.9625717      4.1575393      50218.233      36.893836      36.893836      36.893836    
  32400000   0.52334511    -7.7551039     -6.9700974      4.1237208      50218.233      36.893836      36.893836      36.893836    
  32500000   0.52243225    -7.7568284     -6.9731912      4.1070199      50218.233      36.893836      36.893836      36.893836    
  32600000   0.5259887     -7.7584666     -6.9694948      4.1119883      50218.233      36.893836      36.893836      36.893836    
  32700000   0.52319394    -7.7580204     -6.9732407      4.1067523      50218.233      36.893836      36.893836      36.893836    
  32800000   0.52454626    -7.7583604     -6.9715522      4.1006928      50218.233      36.893836      36.893836      36.893836    
  32900000   0.52640893    -7.7570726     -6.9674704      4.1144807      50218.233      36.893836      36.893836      36.893836    
  33000000   0.52480832    -7.7603379     -6.9731366      4.0864432      50218.233      36.893836      36.893836      36.893836    
  33100000   0.52730726    -7.7620255     -6.9710759      4.0912744      50218.233      36.893836      36.893836      36.893836    
  33200000   0.52326766    -7.7644083     -6.979518       4.0626003      50218.233      36.893836      36.893836      36.893836    
  33300000   0.52627351    -7.756271      -6.966872       4.13014        50218.233      36.893836      36.893836      36.893836    
  33400000   0.52392479    -7.7607348     -6.9748588      4.0869804      50218.233      36.893836      36.893836      36.893836    
  33500000   0.52722722    -7.7587827     -6.9679531      4.1088374      50218.233      36.893836      36.893836      36.893836    
  33600000   0.52133836    -7.7598413     -6.9778449      4.0977781      50218.233      36.893836      36.893836      36.893836    
  33700000   0.52512218    -7.7602153     -6.9725432      4.093119       50218.233      36.893836      36.893836      36.893836    
  33800000   0.52388073    -7.7609544     -6.9751445      4.0854861      50218.233      36.893836      36.893836      36.893836    
  33900000   0.52395649    -7.7586745     -6.972751       4.1050507      50218.233      36.893836      36.893836      36.893836    
  34000000   0.52572989    -7.7633106     -6.974727       4.0656232      50218.233      36.893836      36.893836      36.893836    
  34100000   0.52651326    -7.7591064     -6.9693477      4.1035136      50218.233      36.893836      36.893836      36.893836    
  34200000   0.52219938    -7.7561263     -6.9728384      4.1168597      50218.233      36.893836      36.893836      36.893836    
  34300000   0.52452155    -7.760477      -6.9737058      4.0943307      50218.233      36.893836      36.893836      36.893836    
  34400000   0.52489474    -7.7623858     -6.9750549      4.0796558      50218.233      36.893836      36.893836      36.893836    
  34500000   0.52712864    -7.7650336     -6.9743519      4.0646427      50218.233      36.893836      36.893836      36.893836    
  34600000   0.52291944    -7.7596221     -6.9752541      4.0914925      50218.233      36.893836      36.893836      36.893836    
  34700000   0.52640912    -7.7552806     -6.9656782      4.1215025      50218.233      36.893836      36.893836      36.893836    
  34800000   0.52539894    -7.7579892     -6.969902       4.1278201      50218.233      36.893836      36.893836      36.893836    
  34900000   0.52263594    -7.7583805     -6.9744377      4.1066175      50218.233      36.893836      36.893836      36.893836    
  35000000   0.52408127    -7.7548748     -6.9687641      4.1371056      50218.233      36.893836      36.893836      36.893836    
  35100000   0.52348293    -7.7566389     -6.9714257      4.1255121      50218.233      36.893836      36.893836      36.893836    
  35200000   0.52864742    -7.7524526     -6.9594927      4.1696914      50218.233      36.893836      36.893836      36.893836    
  35300000   0.52582699    -7.759551      -6.9708217      4.099494       50218.233      36.893836      36.893836      36.893836    
  35400000   0.52512446    -7.7604599     -6.9727844      4.1073772      50218.233      36.893836      36.893836      36.893836    
  35500000   0.52484239    -7.7585155     -6.9712632      4.1111976      50218.233      36.893836      36.893836      36.893836    
  35600000   0.52574376    -7.7580675     -6.9694631      4.1158526      50218.233      36.893836      36.893836      36.893836    
  35700000   0.52089466    -7.7572619     -6.975931       4.1111451      50218.233      36.893836      36.893836      36.893836    
  35800000   0.52323071    -7.7606013     -6.9757664      4.0963376      50218.233      36.893836      36.893836      36.893836    
  35900000   0.52088853    -7.7579502     -6.9766285      4.105129       50218.233      36.893836      36.893836      36.893836    
  36000000   0.52454856    -7.7570574     -6.9702458      4.1274211      50218.233      36.893836      36.893836      36.893836    
  36100000   0.52693217    -7.7538015     -6.9634145      4.1338902      50218.233      36.893836      36.893836      36.893836    
  36200000   0.52497609    -7.7565626     -6.9691096      4.123309       50218.233      36.893836      36.893836      36.893836    
  36300000   0.5263445     -7.7618718     -6.9723663      4.0886097      50218.233      36.893836      36.893836      36.893836    
  36400000   0.52484375    -7.7632139     -6.9759595      4.0713849      50218.233      36.893836      36.893836      36.893836    
  36500000   0.52610034    -7.7535673     -6.964428       4.1603021      50218.233      36.893836      36.893836      36.893836    
  36600000   0.52730726    -7.7543607     -6.963411       4.1462053      50218.233      36.893836      36.893836      36.893836    
  36700000   0.52197983    -7.7595487     -6.9765901      4.0827296      50218.233      36.893836      36.893836      36.893836    
  36800000   0.5246576     -7.7557884     -6.9688132      4.1176914      50218.233      36.893836      36.893836      36.893836    
  36900000   0.52607389    -7.7590469     -6.9699473      4.108488       50218.233      36.893836      36.893836      36.893836    
  37000000   0.52242018    -7.7603366     -6.9767175      4.084497       50218.233      36.893836      36.893836      36.893836    
  37100000   0.52562271    -7.7528082     -6.9643854      4.1437862      50218.233      36.893836      36.893836      36.893836    
  37200000   0.52534408    -7.7543176     -6.9663127      4.1338057      50218.233      36.893836      36.893836      36.893836    
  37300000   0.52487401    -7.7496147     -6.9623148      4.1631151      50218.233      36.893836      36.893836      36.893836    
  37400000   0.52470887    -7.756468      -6.9694159      4.1163374      50218.233      36.893836      36.893836      36.893836    
  37500000   0.52757208    -7.7548209     -6.9634741      4.1286366      50218.233      36.893836      36.893836      36.893836    
  37600000   0.52477663    -7.7596498     -6.9724961      4.0837574      50218.233      36.893836      36.893836      36.893836    
  37700000   0.52611766    -7.7590599     -6.9698946      4.1002845      50218.233      36.893836      36.893836      36.893836    
  37800000   0.52446264    -7.7577266     -6.9710438      4.1102251      50218.233      36.893836      36.893836      36.893836    
  37900000   0.52423406    -7.7625407     -6.9762008      4.0718158      50218.233      36.893836      36.893836      36.893836    
  38000000   0.5234142     -7.7580429     -6.9729328      4.1004669      50218.233      36.893836      36.893836      36.893836    
  38100000   0.52495724    -7.7608428     -6.9734181      4.081537       50218.233      36.893836      36.893836      36.893836    
  38200000   0.52452999    -7.7590847     -6.9723009      4.1032478      50218.233      36.893836      36.893836      36.893836    
  38300000   0.52326546    -7.7589857     -6.9740987      4.10731        50218.233      36.893836      36.893836      36.893836    
  38400000   0.52616011    -7.7627172     -6.9734883      4.0791378      50218.233      36.893836      36.893836      36.893836    
  38500000   0.52380785    -7.7585917     -6.9728911      4.1028755      50218.233      36.893836      36.893836      36.893836    
  38600000   0.52676956    -7.754284      -6.9641409      4.1465164      50218.233      36.893836      36.893836      36.893836    
  38700000   0.52110592    -7.7602928     -6.9786451      4.0903748      50218.233      36.893836      36.893836      36.893836    
  38800000   0.52550975    -7.7540747     -6.9658213      4.1393682      50218.233      36.893836      36.893836      36.893836    
  38900000   0.52068902    -7.7543009     -6.9732784      4.1260879      50218.233      36.893836      36.893836      36.893836    
  39000000   0.52579836    -7.7518604     -6.9631741      4.1574763      50218.233      36.893836      36.893836      36.893836    
  39100000   0.52657529    -7.7579257     -6.968074       4.1058504      50218.233      36.893836      36.893836      36.893836    
  39200000   0.52510908    -7.7597627     -6.9721103      4.0947885      50218.233      36.893836      36.893836      36.893836    
  39300000   0.52165196    -7.7595696     -6.9771028      4.0959191      50218.233      36.893836      36.893836      36.893836    
  39400000   0.52387326    -7.7610615     -6.9752628      4.0844971      50218.233      36.893836      36.893836      36.893836    
  39500000   0.52554697    -7.7587154     -6.9704062      4.0989348      50218.233      36.893836      36.893836      36.893836    
  39600000   0.52522366    -7.7572421     -6.9694179      4.1169524      50218.233      36.893836      36.893836      36.893836    
  39700000   0.52266448    -7.757722      -6.9737365      4.1064216      50218.233      36.893836      36.893836      36.893836    
  39800000   0.52544233    -7.7557131     -6.9675608      4.1285953      50218.233      36.893836      36.893836      36.893836    
  39900000   0.52597583    -7.7588199     -6.9698673      4.1070572      50218.233      36.893836      36.893836      36.893836    
  40000000   0.52690342    -7.759193      -6.9688491      4.1067486      50218.233      36.893836      36.893836      36.893836    
  40100000   0.52348874    -7.7544544     -6.9692324      4.1434146      50218.233      36.893836      36.893836      36.893836    
  40200000   0.52375181    -7.7588932     -6.9732767      4.1128799      50218.233      36.893836      36.893836      36.893836    
  40300000   0.52444054    -7.7546413     -6.9679917      4.1405728      50218.233      36.893836      36.893836      36.893836    
  40400000   0.52766547    -7.7594084     -6.9679214      4.1007831      50218.233      36.893836      36.893836      36.893836    
  40500000   0.52690463    -7.7598748     -6.9695291      4.1064927      50218.233      36.893836      36.893836      36.893836    
  40600000   0.52495637    -7.7575402     -6.9701169      4.1226239      50218.233      36.893836      36.893836      36.893836    
  40700000   0.52386842    -7.7549052     -6.9691137      4.1283631      50218.233      36.893836      36.893836      36.893836    
  40800000   0.52517537    -7.754265      -6.9665131      4.1338102      50218.233      36.893836      36.893836      36.893836    
  40900000   0.52619187    -7.7561875     -6.966911       4.1255525      50218.233      36.893836      36.893836      36.893836    
  41000000   0.52564827    -7.7539126     -6.9654514      4.1299122      50218.233      36.893836      36.893836      36.893836    
  41100000   0.52250749    -7.7604145     -6.9766644      4.0774287      50218.233      36.893836      36.893836      36.893836    
  41200000   0.525735      -7.7587371     -6.9701458      4.1176702      50218.233      36.893836      36.893836      36.893836    
  41300000   0.52654012    -7.7593359     -6.969537       4.0968212      50218.233      36.893836      36.893836      36.893836    
  41400000   0.52395991    -7.7617091     -6.9757804      4.0760764      50218.233      36.893836      36.893836      36.893836    
  41500000   0.52369166    -7.757758      -6.9722317      4.1216373      50218.233      36.893836      36.893836      36.893836    
  41600000   0.52511685    -7.7532549     -6.9655909      4.1508631      50218.233      36.893836      36.893836      36.893836    
  41700000   0.52479323    -7.758709      -6.9715303      4.1103503      50218.233      36.893836      36.893836      36.893836    
  41800000   0.52467988    -7.7584112     -6.9714026      4.105149       50218.233      36.893836      36.893836      36.893836    
  41900000   0.5267885     -7.7568076     -6.9666361      4.1352957      50218.233      36.893836      36.893836      36.893836    
  42000000   0.52546984    -7.7548093     -6.9666157      4.1297074      50218.233      36.893836      36.893836      36.893836    
  42100000   0.52481383    -7.7591637     -6.9719541      4.1021759      50218.233      36.893836      36.893836      36.893836    
  42200000   0.52328722    -7.7538531     -6.9689335      4.1398444      50218.233      36.893836      36.893836      36.893836    
  42300000   0.5252976     -7.7600296     -6.9720944      4.0961958      50218.233      36.893836      36.893836      36.893836    
  42400000   0.52487999    -7.7566251     -6.9693163      4.1312961      50218.233      36.893836      36.893836      36.893836    
  42500000   0.52468899    -7.7603206     -6.9732984      4.0819801      50218.233      36.893836      36.893836      36.893836    
  42600000   0.52493295    -7.7628928     -6.9755046      4.0765048      50218.233      36.893836      36.893836      36.893836    
  42700000   0.52443164    -7.761975      -6.9753388      4.0791476      50218.233      36.893836      36.893836      36.893836    
  42800000   0.52599011    -7.7574549     -6.968481       4.1147199      50218.233      36.893836      36.893836      36.893836    
  42900000   0.52529666    -7.753229      -6.9652952      4.1446082      50218.233      36.893836      36.893836      36.893836    
  43000000   0.52792109    -7.7533951     -6.9615247      4.1631255      50218.233      36.893836      36.893836      36.893836    
  43100000   0.52546141    -7.7564282     -6.9682473      4.1299807      50218.233      36.893836      36.893836      36.893836    
  43200000   0.52684942    -7.7580834     -6.9678205      4.1031328      50218.233      36.893836      36.893836      36.893836    
  43300000   0.5239114     -7.7576106     -6.9717547      4.11911        50218.233      36.893836      36.893836      36.893836    
  43400000   0.52656783    -7.7577356     -6.9678951      4.1196663      50218.233      36.893836      36.893836      36.893836    
  43500000   0.52382264    -7.7590619     -6.9733391      4.0963529      50218.233      36.893836      36.893836      36.893836    
  43600000   0.52472334    -7.7600794     -6.9730056      4.0830001      50218.233      36.893836      36.893836      36.893836    
  43700000   0.52608236    -7.7582211     -6.9691088      4.1191635      50218.233      36.893836      36.893836      36.893836    
  43800000   0.52465547    -7.7593216     -6.9723496      4.1083779      50218.233      36.893836      36.893836      36.893836    
  43900000   0.52161407    -7.7562918     -6.9738818      4.1389729      50218.233      36.893836      36.893836      36.893836    
  44000000   0.5232678     -7.756307      -6.9714165      4.1272305      50218.233      36.893836      36.893836      36.893836    
  44100000   0.52325258    -7.7587997     -6.973932       4.105637       50218.233      36.893836      36.893836      36.893836    
  44200000   0.52620219    -7.7598794     -6.9705873      4.112071       50218.233      36.893836      36.893836      36.893836    
  44300000   0.52423049    -7.7612486     -6.974914       4.0770094      50218.233      36.893836      36.893836      36.893836    
  44400000   0.52496301    -7.7565337     -6.9691004      4.1172071      50218.233      36.893836      36.893836      36.893836    
  44500000   0.52587355    -7.7555021     -6.966703       4.1205822      50218.233      36.893836      36.893836      36.893836    
  44600000   0.5241525     -7.7559773     -6.9697598      4.1271783      50218.233      36.893836      36.893836      36.893836    
  44700000   0.52452334    -7.7550607     -6.9682869      4.1314053      50218.233      36.893836      36.893836      36.893836    
  44800000   0.52447478    -7.7576351     -6.9709341      4.1101002      50218.233      36.893836      36.893836      36.893836    
  44900000   0.52340393    -7.7533198     -6.968225       4.1463047      50218.233      36.893836      36.893836      36.893836    
  45000000   0.52570787    -7.7534186     -6.964868       4.1542411      50218.233      36.893836      36.893836      36.893836    
  45100000   0.52479279    -7.7571968     -6.9700189      4.1235219      50218.233      36.893836      36.893836      36.893836    
  45200000   0.52561132    -7.7594526     -6.9710468      4.0949473      50218.233      36.893836      36.893836      36.893836    
  45300000   0.5258362     -7.7606535     -6.9719104      4.0866664      50218.233      36.893836      36.893836      36.893836    
  45400000   0.52586154    -7.7604238     -6.9716427      4.0976406      50218.233      36.893836      36.893836      36.893836    
  45500000   0.52492989    -7.7563271     -6.9689435      4.1243457      50218.233      36.893836      36.893836      36.893836    
  45600000   0.52416116    -7.7632938     -6.9770632      4.0719462      50218.233      36.893836      36.893836      36.893836    
  45700000   0.52466488    -7.7597187     -6.9727326      4.1038461      50218.233      36.893836      36.893836      36.893836    
  45800000   0.52639878    -7.7603005     -6.9707136      4.1012788      50218.233      36.893836      36.893836      36.893836    
  45900000   0.52495803    -7.7579573     -6.9705315      4.106238       50218.233      36.893836      36.893836      36.893836    
  46000000   0.5232467     -7.7647019     -6.979843       4.0541614      50218.233      36.893836      36.893836      36.893836    
  46100000   0.52421695    -7.7598769     -6.9735626      4.0897593      50218.233      36.893836      36.893836      36.893836    
  46200000   0.52681153    -7.7637489     -6.9735429      4.0725155      50218.233      36.893836      36.893836      36.893836    
  46300000   0.52542845    -7.7589785     -6.9708471      4.1187669      50218.233      36.893836      36.893836      36.893836    
  46400000   0.52556313    -7.7590262     -6.9706928      4.1011652      50218.233      36.893836      36.893836      36.893836    
  46500000   0.52555189    -7.7597076     -6.9713909      4.0980869      50218.233      36.893836      36.893836      36.893836    
  46600000   0.52512857    -7.7586381     -6.9709565      4.0994352      50218.233      36.893836      36.893836      36.893836    
  46700000   0.5265427     -7.7613806     -6.9715778      4.0831746      50218.233      36.893836      36.893836      36.893836    
  46800000   0.52494053    -7.7636923     -6.9762927      4.0761947      50218.233      36.893836      36.893836      36.893836    
  46900000   0.52214145    -7.7641925     -6.9809915      4.0616737      50218.233      36.893836      36.893836      36.893836    
  47000000   0.52877123    -7.7633683     -6.9702227      4.0694351      50218.233      36.893836      36.893836      36.893836    
  47100000   0.52686989    -7.7611285     -6.9708349      4.0901958      50218.233      36.893836      36.893836      36.893836    
  47200000   0.52524574    -7.7641748     -6.9763174      4.0717664      50218.233      36.893836      36.893836      36.893836    
  47300000   0.52453367    -7.7608047     -6.9740154      4.0891878      50218.233      36.893836      36.893836      36.893836    
  47400000   0.52461669    -7.7652747     -6.9783608      4.0491539      50218.233      36.893836      36.893836      36.893836    
  47500000   0.52518122    -7.7642935     -6.9765329      4.0681336      50218.233      36.893836      36.893836      36.893836    
  47600000   0.52574967    -7.7595642     -6.9709509      4.0944074      50218.233      36.893836      36.893836      36.893836    
  47700000   0.52461899    -7.7593519     -6.9724346      4.0999479      50218.233      36.893836      36.893836      36.893836    
  47800000   0.52478918    -7.7631422     -6.9759696      4.0797508      50218.233      36.893836      36.893836      36.893836    
  47900000   0.52394937    -7.7660967     -6.9801838      4.0573874      50218.233      36.893836      36.893836      36.893836    
  48000000   0.52371878    -7.7611145     -6.9755475      4.0712673      50218.233      36.893836      36.893836      36.893836    
  48100000   0.5279389     -7.7622258     -6.9703287      4.0897094      50218.233      36.893836      36.893836      36.893836    
  48200000   0.52544554    -7.7608244     -6.9726673      4.0996764      50218.233      36.893836      36.893836      36.893836    
  48300000   0.52305267    -7.7610109     -6.976443       4.0814819      50218.233      36.893836      36.893836      36.893836    
  48400000   0.52499512    -7.7661043     -6.9786229      4.048153       50218.233      36.893836      36.893836      36.893836    
  48500000   0.52578826    -7.763219      -6.9745478      4.0741373      50218.233      36.893836      36.893836      36.893836    
  48600000   0.52160334    -7.7606599     -6.978266       4.089858       50218.233      36.893836      36.893836      36.893836    
  48700000   0.52483619    -7.7590333     -6.9717902      4.1073542      50218.233      36.893836      36.893836      36.893836    
  48800000   0.52702726    -7.7611187     -6.9705891      4.0932877      50218.233      36.893836      36.893836      36.893836    
  48900000   0.52560775    -7.7576649     -6.9692645      4.1073623      50218.233      36.893836      36.893836      36.893836    
  49000000   0.52605441    -7.7548178     -6.9657474      4.134777       50218.233      36.893836      36.893836      36.893836    
  49100000   0.52360771    -7.755978      -6.9705777      4.1289302      50218.233      36.893836      36.893836      36.893836    
  49200000   0.52420978    -7.7584575     -6.972154       4.1044311      50218.233      36.893836      36.893836      36.893836    
  49300000   0.524619      -7.7559726     -6.9690553      4.1268267      50218.233      36.893836      36.893836      36.893836    
  49400000   0.52653835    -7.7634584     -6.9736621      4.0744304      50218.233      36.893836      36.893836      36.893836    
  49500000   0.52469463    -7.7542445     -6.9672137      4.1403177      50218.233      36.893836      36.893836      36.893836    
  49600000   0.52434271    -7.7562791     -6.9697762      4.1272238      50218.233      36.893836      36.893836      36.893836    
  49700000   0.5245282     -7.758343      -6.9715619      4.1018315      50218.233      36.893836      36.893836      36.893836    
  49800000   0.52682337    -7.7628426     -6.9726188      4.0943405      50218.233      36.893836      36.893836      36.893836    
  49900000   0.52562153    -7.7604563     -6.9720352      4.0954436      50218.233      36.893836      36.893836      36.893836    
  50000000   0.52240751    -7.7627214     -6.9791213      4.078672       50218.233      36.893836      36.893836      36.893836    
Loop time of 79430 on 5 procs for 50000000 steps with 70304 atoms

Performance: 543874.839 tau/day, 629.485 timesteps/s, 44.255 Matom-step/s
94.5% CPU use with 5 MPI tasks x 1 OpenMP threads

MPI task timing breakdown:
Section |  min time  |  avg time  |  max time  |%varavg| %total
---------------------------------------------------------------
Pair    | 27684      | 30645      | 32529      | 999.9 | 38.58
Neigh   | 263.43     | 273.3      | 287.5      |  52.9 |  0.34
Comm    | 11954      | 12108      | 12184      |  72.0 | 15.24
Output  | 0.090971   | 0.094776   | 0.10081    |   1.1 |  0.00
Modify  | 30469      | 32376      | 35556      |1032.4 | 40.76
Other   |            | 4028       |            |       |  5.07

Nlocal:        14060.8 ave       14106 max       14024 min
Histogram: 1 1 0 0 0 2 0 0 0 1
Nghost:          18723 ave       18744 max       18689 min
Histogram: 1 0 0 0 0 1 1 0 1 1
Neighs:              0 ave           0 max           0 min
Histogram: 5 0 0 0 0 0 0 0 0 0

Total # of neighbors = 0
Ave neighs/atom = 0
Neighbor list builds = 10437371
Dangerous builds = 0
clear
OMP_NUM_THREADS environment is not set. Defaulting to 1 thread. (src/comm.cpp:98)
  using 1 OpenMP thread(s) per MPI task
package gpu 0
jump dms515.lmp

variable T equal 515
# T = 1000* (temp in LJ unit)
variable f equal 100000
log log.${T}
log log.515
