variable TLJ equal (${T}/1000)
variable TLJ equal (260/1000)
variable NCyle equal 5
variable iStep equal (${f})
variable iStep equal (100000)
variable dumpStep equal (${f}*100)
variable dumpStep equal (100000*100)
variable runStep equal (${f}*100*${NCyle})
variable runStep equal (100000*100*${NCyle})
variable runStep equal (100000*100*5)

units       lj
atom_style  atomic
dimension 3
boundary     p p p
pair_style  lj/cut 2.5
read_data  ../data/T${T}.dat
read_data  ../data/T260.dat
Reading data file ...
  orthogonal box = (0.97250269 0.97250269 0.97250269) to (37.866338 37.866338 37.866338)
  1 by 1 by 5 MPI processor grid
  reading atoms ...
  70304 atoms
  reading velocities ...
  70304 velocities
  read_data CPU = 0.215 seconds
change_box all triclinic
Changing box ...
  triclinic box = (0.97250269 0.97250269 0.97250269) to (37.866338 37.866338 37.866338) with tilt (0 0 0)
mass 1 1
mass 2 1
pair_modify shift yes
pair_coeff  1 1 1 1
pair_coeff  1 2 1.5 0.8
pair_coeff  2 2 0.5 0.88


timestep 0.01
thermo ${iStep}
thermo 100000
reset_timestep 0
thermo_style custom step temp pe etotal press vol lx ly lz
fix             1 all nvt temp ${TLJ}  ${TLJ}  0.1
fix             1 all nvt temp 0.26  ${TLJ}  0.1
fix             1 all nvt temp 0.26  0.26  0.1
thermo_modify flush yes

fix dsf all deform 1 xy  wiggle 0.5  ${f}   units box
fix dsf all deform 1 xy  wiggle 0.5  100000   units box
fix ps1 all ave/time 1 1 ${iStep} c_thermo_press[1] c_thermo_press[2]  c_thermo_press[3] c_thermo_press[4]  c_thermo_press[5] c_thermo_press[6]  file  stress.${T}
fix ps1 all ave/time 1 1 100000 c_thermo_press[1] c_thermo_press[2]  c_thermo_press[3] c_thermo_press[4]  c_thermo_press[5] c_thermo_press[6]  file  stress.${T}
fix ps1 all ave/time 1 1 100000 c_thermo_press[1] c_thermo_press[2]  c_thermo_press[3] c_thermo_press[4]  c_thermo_press[5] c_thermo_press[6]  file  stress.260
dump            1 all custom ${dumpStep} dump.${T} id type x y z
dump            1 all custom 10000000 dump.${T} id type x y z
dump            1 all custom 10000000 dump.260 id type x y z
dump_modify 1 sort id
fix nodrift all momentum 1  linear 1 1 1
fix com_seed all recenter INIT INIT INIT shift all
run ${runStep}
run 50000000
Generated 0 of 1 mixed pair_coeff terms from geometric mixing rule
Per MPI rank memory allocation (min/avg/max) = 8.916 | 8.92 | 8.925 Mbytes
   Step          Temp          PotEng         TotEng         Press          Volume           Lx             Ly             Lz      
         0   0.25969774    -8.2005087     -7.8109676      0.46562638     50218.233      36.893836      36.893836      36.893836    
    100000   0.26181776    -8.1947979     -7.8020769      0.50517685     50218.233      36.893836      36.893836      36.893836    
    200000   0.25972954    -8.1952271     -7.8056383      0.50107637     50218.233      36.893836      36.893836      36.893836    
    300000   0.25921507    -8.1931349     -7.8043178      0.518724       50218.233      36.893836      36.893836      36.893836    
    400000   0.25929799    -8.1941514     -7.80521        0.51253484     50218.233      36.893836      36.893836      36.893836    
    500000   0.25931619    -8.1951931     -7.8062243      0.50435099     50218.233      36.893836      36.893836      36.893836    
    600000   0.26079968    -8.1966725     -7.8054785      0.49578683     50218.233      36.893836      36.893836      36.893836    
    700000   0.26101292    -8.1961083     -7.8045945      0.50069264     50218.233      36.893836      36.893836      36.893836    
    800000   0.26019417    -8.1957115     -7.8054258      0.50367478     50218.233      36.893836      36.893836      36.893836    
    900000   0.2606443     -8.1948833     -7.8039224      0.50725321     50218.233      36.893836      36.893836      36.893836    
   1000000   0.261593      -8.1959862     -7.8036023      0.50178289     50218.233      36.893836      36.893836      36.893836    
   1100000   0.26088284    -8.1948913     -7.8035727      0.50732299     50218.233      36.893836      36.893836      36.893836    
   1200000   0.2605347     -8.1942137     -7.8034172      0.51642728     50218.233      36.893836      36.893836      36.893836    
   1300000   0.26061474    -8.1942014     -7.8032849      0.5170537      50218.233      36.893836      36.893836      36.893836    
   1400000   0.25954389    -8.1940323     -7.804722       0.51392295     50218.233      36.893836      36.893836      36.893836    
   1500000   0.26002568    -8.1933451     -7.8033121      0.51905649     50218.233      36.893836      36.893836      36.893836    
   1600000   0.26066242    -8.1926898     -7.8017017      0.53459085     50218.233      36.893836      36.893836      36.893836    
   1700000   0.25974369    -8.194985      -7.805375       0.50946813     50218.233      36.893836      36.893836      36.893836    
   1800000   0.26094224    -8.1934538     -7.802046       0.52307726     50218.233      36.893836      36.893836      36.893836    
   1900000   0.26048365    -8.1945851     -7.8038652      0.50501485     50218.233      36.893836      36.893836      36.893836    
   2000000   0.25862561    -8.1925909     -7.804658       0.52651534     50218.233      36.893836      36.893836      36.893836    
   2100000   0.26015026    -8.1941301     -7.8039102      0.51366712     50218.233      36.893836      36.893836      36.893836    
   2200000   0.2596494     -8.1921876     -7.802719       0.52707146     50218.233      36.893836      36.893836      36.893836    
   2300000   0.26025572    -8.195765      -7.805387       0.50099225     50218.233      36.893836      36.893836      36.893836    
   2400000   0.25988342    -8.1951515     -7.8053319      0.50605717     50218.233      36.893836      36.893836      36.893836    
   2500000   0.26036613    -8.191874      -7.8013303      0.52799426     50218.233      36.893836      36.893836      36.893836    
   2600000   0.25991504    -8.1904563     -7.8005893      0.53429778     50218.233      36.893836      36.893836      36.893836    
   2700000   0.25900137    -8.1930111     -7.8045146      0.52231227     50218.233      36.893836      36.893836      36.893836    
   2800000   0.26038765    -8.1947534     -7.8041775      0.50521572     50218.233      36.893836      36.893836      36.893836    
   2900000   0.25985583    -8.1930051     -7.8032269      0.50996677     50218.233      36.893836      36.893836      36.893836    
   3000000   0.25857402    -8.1952267     -7.8073712      0.49451267     50218.233      36.893836      36.893836      36.893836    
   3100000   0.25865977    -8.1961987     -7.8082145      0.49174897     50218.233      36.893836      36.893836      36.893836    
   3200000   0.26089789    -8.1938064     -7.8024652      0.51812023     50218.233      36.893836      36.893836      36.893836    
   3300000   0.25980221    -8.1952072     -7.8055094      0.51090491     50218.233      36.893836      36.893836      36.893836    
   3400000   0.25901598    -8.1949604     -7.806442       0.50897664     50218.233      36.893836      36.893836      36.893836    
   3500000   0.26070738    -8.1925986     -7.8015431      0.51747934     50218.233      36.893836      36.893836      36.893836    
   3600000   0.26016767    -8.1949306     -7.8046847      0.50861994     50218.233      36.893836      36.893836      36.893836    
   3700000   0.26085606    -8.1935498     -7.8022713      0.51787938     50218.233      36.893836      36.893836      36.893836    
   3800000   0.26064111    -8.194649      -7.8036929      0.50534074     50218.233      36.893836      36.893836      36.893836    
   3900000   0.25899946    -8.1953887     -7.806895       0.49896132     50218.233      36.893836      36.893836      36.893836    
   4000000   0.2603849     -8.1948612     -7.8042894      0.51091753     50218.233      36.893836      36.893836      36.893836    
   4100000   0.25903224    -8.1948908     -7.806348       0.50274544     50218.233      36.893836      36.893836      36.893836    
   4200000   0.25986818    -8.1941806     -7.8043839      0.51276285     50218.233      36.893836      36.893836      36.893836    
   4300000   0.25964242    -8.1945559     -7.8050978      0.503665       50218.233      36.893836      36.893836      36.893836    
   4400000   0.26166576    -8.1947493     -7.8022562      0.50574329     50218.233      36.893836      36.893836      36.893836    
   4500000   0.26084476    -8.1933069     -7.8020453      0.52529767     50218.233      36.893836      36.893836      36.893836    
   4600000   0.26020484    -8.1940087     -7.803707       0.51709929     50218.233      36.893836      36.893836      36.893836    
   4700000   0.2607172     -8.1945195     -7.8034492      0.51232946     50218.233      36.893836      36.893836      36.893836    
   4800000   0.26082931    -8.1942779     -7.8030395      0.51504365     50218.233      36.893836      36.893836      36.893836    
   4900000   0.2591129     -8.1952329     -7.8065691      0.5056356      50218.233      36.893836      36.893836      36.893836    
   5000000   0.26042408    -8.1957241     -7.8050935      0.50594698     50218.233      36.893836      36.893836      36.893836    
   5100000   0.25966806    -8.1946207     -7.8051241      0.50583227     50218.233      36.893836      36.893836      36.893836    
   5200000   0.25991419    -8.1964735     -7.8066077      0.49742744     50218.233      36.893836      36.893836      36.893836    
   5300000   0.25920116    -8.194783      -7.8059868      0.51345541     50218.233      36.893836      36.893836      36.893836    
   5400000   0.26057125    -8.1941074     -7.8032561      0.51678564     50218.233      36.893836      36.893836      36.893836    
   5500000   0.26022358    -8.197109      -7.8067792      0.48908555     50218.233      36.893836      36.893836      36.893836    
   5600000   0.2591345     -8.1951864     -7.8064902      0.49722366     50218.233      36.893836      36.893836      36.893836    
   5700000   0.25881743    -8.1949545     -7.8067339      0.51158118     50218.233      36.893836      36.893836      36.893836    
   5800000   0.25981919    -8.1944668     -7.8047436      0.50938208     50218.233      36.893836      36.893836      36.893836    
   5900000   0.2610352     -8.1919409     -7.8003936      0.52446134     50218.233      36.893836      36.893836      36.893836    
   6000000   0.26033393    -8.1965525     -7.8060571      0.49408822     50218.233      36.893836      36.893836      36.893836    
   6100000   0.25995796    -8.19239       -7.8024586      0.52652853     50218.233      36.893836      36.893836      36.893836    
   6200000   0.25873031    -8.1949246     -7.8068346      0.50456357     50218.233      36.893836      36.893836      36.893836    
   6300000   0.25980729    -8.1955178     -7.8058124      0.5027346      50218.233      36.893836      36.893836      36.893836    
   6400000   0.2613232     -8.1945763     -7.8025971      0.50891461     50218.233      36.893836      36.893836      36.893836    
   6500000   0.25924927    -8.1936625     -7.8047941      0.51492743     50218.233      36.893836      36.893836      36.893836    
   6600000   0.26029383    -8.192557      -7.8021218      0.52353437     50218.233      36.893836      36.893836      36.893836    
   6700000   0.26117401    -8.1965564     -7.8048009      0.49431865     50218.233      36.893836      36.893836      36.893836    
   6800000   0.2590073     -8.1931643     -7.8046589      0.51764643     50218.233      36.893836      36.893836      36.893836    
   6900000   0.26069191    -8.1919619     -7.8009296      0.52843797     50218.233      36.893836      36.893836      36.893836    
   7000000   0.2593013     -8.194748      -7.8058016      0.50650698     50218.233      36.893836      36.893836      36.893836    
   7100000   0.26126145    -8.1936134     -7.8017268      0.51318778     50218.233      36.893836      36.893836      36.893836    
   7200000   0.26001094    -8.1936458     -7.803635       0.5162638      50218.233      36.893836      36.893836      36.893836    
   7300000   0.25999146    -8.1945957     -7.8046141      0.50858827     50218.233      36.893836      36.893836      36.893836    
   7400000   0.26034109    -8.1922219     -7.8017158      0.52424037     50218.233      36.893836      36.893836      36.893836    
   7500000   0.25930318    -8.1938321     -7.8048829      0.51386146     50218.233      36.893836      36.893836      36.893836    
   7600000   0.26096792    -8.1942145     -7.8027682      0.51053576     50218.233      36.893836      36.893836      36.893836    
   7700000   0.25970893    -8.1927954     -7.8032375      0.52646173     50218.233      36.893836      36.893836      36.893836    
   7800000   0.25930822    -8.195326      -7.8063692      0.50417276     50218.233      36.893836      36.893836      36.893836    
   7900000   0.26098175    -8.1949056     -7.8034385      0.51212026     50218.233      36.893836      36.893836      36.893836    
   8000000   0.25981601    -8.1937047     -7.8039862      0.51908196     50218.233      36.893836      36.893836      36.893836    
   8100000   0.26006662    -8.1941179     -7.8040235      0.52252183     50218.233      36.893836      36.893836      36.893836    
   8200000   0.26066952    -8.1954448     -7.8044461      0.49675276     50218.233      36.893836      36.893836      36.893836    
   8300000   0.25974344    -8.1935956     -7.803986       0.5148625      50218.233      36.893836      36.893836      36.893836    
   8400000   0.25970266    -8.1932431     -7.8036946      0.51321128     50218.233      36.893836      36.893836      36.893836    
   8500000   0.26056454    -8.1939636     -7.8031224      0.51694188     50218.233      36.893836      36.893836      36.893836    
   8600000   0.25961246    -8.1925639     -7.8031507      0.51781672     50218.233      36.893836      36.893836      36.893836    
   8700000   0.25992602    -8.1959859     -7.8061024      0.49212638     50218.233      36.893836      36.893836      36.893836    
   8800000   0.26072946    -8.1937717     -7.8026831      0.50776422     50218.233      36.893836      36.893836      36.893836    
   8900000   0.25935341    -8.1930672     -7.8040426      0.52083466     50218.233      36.893836      36.893836      36.893836    
   9000000   0.25909367    -8.1939843     -7.8053494      0.51359955     50218.233      36.893836      36.893836      36.893836    
   9100000   0.2604186     -8.1972469     -7.8066245      0.48748879     50218.233      36.893836      36.893836      36.893836    
   9200000   0.26086734    -8.1944371     -7.8031417      0.5056865      50218.233      36.893836      36.893836      36.893836    
   9300000   0.26008622    -8.1965797     -7.8064559      0.49316298     50218.233      36.893836      36.893836      36.893836    
   9400000   0.26054243    -8.1949955     -7.8041874      0.50863999     50218.233      36.893836      36.893836      36.893836    
   9500000   0.25982627    -8.1965496     -7.8068157      0.49532552     50218.233      36.893836      36.893836      36.893836    
   9600000   0.25946043    -8.1970354     -7.8078503      0.48997996     50218.233      36.893836      36.893836      36.893836    
   9700000   0.26053197    -8.1945992     -7.8038068      0.50671761     50218.233      36.893836      36.893836      36.893836    
   9800000   0.26074541    -8.1922011     -7.8010886      0.52759314     50218.233      36.893836      36.893836      36.893836    
   9900000   0.25884233    -8.1965354     -7.8082774      0.47953938     50218.233      36.893836      36.893836      36.893836    
  10000000   0.26026278    -8.1955338     -7.8051452      0.50837839     50218.233      36.893836      36.893836      36.893836    
  10100000   0.25868866    -8.1925362     -7.8045088      0.52625241     50218.233      36.893836      36.893836      36.893836    
  10200000   0.25928935    -8.1951235     -7.806195       0.50731213     50218.233      36.893836      36.893836      36.893836    
  10300000   0.26025253    -8.193134      -7.8027607      0.52924638     50218.233      36.893836      36.893836      36.893836    
  10400000   0.25911743    -8.195183      -7.8065124      0.50386639     50218.233      36.893836      36.893836      36.893836    
  10500000   0.26042857    -8.1954869     -7.8048496      0.50640046     50218.233      36.893836      36.893836      36.893836    
  10600000   0.25930775    -8.1922143     -7.8032582      0.52161277     50218.233      36.893836      36.893836      36.893836    
  10700000   0.26081956    -8.1942442     -7.8030204      0.51124557     50218.233      36.893836      36.893836      36.893836    
  10800000   0.25856255    -8.1936493     -7.805811       0.50920341     50218.233      36.893836      36.893836      36.893836    
  10900000   0.25893479    -8.1949194     -7.8065228      0.50117261     50218.233      36.893836      36.893836      36.893836    
  11000000   0.26012212    -8.1927242     -7.8025466      0.51801138     50218.233      36.893836      36.893836      36.893836    
  11100000   0.26052134    -8.1929301     -7.8021536      0.51596693     50218.233      36.893836      36.893836      36.893836    
  11200000   0.26032157    -8.1946155     -7.8041387      0.51231771     50218.233      36.893836      36.893836      36.893836    
  11300000   0.2594859     -8.194873      -7.8056497      0.50166503     50218.233      36.893836      36.893836      36.893836    
  11400000   0.25937019    -8.1935532     -7.8045035      0.51407034     50218.233      36.893836      36.893836      36.893836    
  11500000   0.26065363    -8.194428      -7.8034531      0.51261939     50218.233      36.893836      36.893836      36.893836    
  11600000   0.25947164    -8.196054      -7.806852       0.49942567     50218.233      36.893836      36.893836      36.893836    
  11700000   0.26008294    -8.1955668     -7.805448       0.50284666     50218.233      36.893836      36.893836      36.893836    
  11800000   0.26119409    -8.193578      -7.8017924      0.52489547     50218.233      36.893836      36.893836      36.893836    
  11900000   0.26047667    -8.1938279     -7.8031184      0.51292082     50218.233      36.893836      36.893836      36.893836    
  12000000   0.25966645    -8.1928128     -7.8033187      0.51679579     50218.233      36.893836      36.893836      36.893836    
  12100000   0.25988205    -8.1921988     -7.8023813      0.53151043     50218.233      36.893836      36.893836      36.893836    
  12200000   0.26057778    -8.1926933     -7.8018322      0.5260879      50218.233      36.893836      36.893836      36.893836    
  12300000   0.25903553    -8.1934297     -7.8048819      0.51628801     50218.233      36.893836      36.893836      36.893836    
  12400000   0.25936858    -8.1932815     -7.8042341      0.52100233     50218.233      36.893836      36.893836      36.893836    
  12500000   0.26002561    -8.1952475     -7.8052147      0.50797025     50218.233      36.893836      36.893836      36.893836    
  12600000   0.25952161    -8.1935739     -7.804297       0.51135379     50218.233      36.893836      36.893836      36.893836    
  12700000   0.26038396    -8.1925461     -7.8019757      0.52811571     50218.233      36.893836      36.893836      36.893836    
  12800000   0.25880914    -8.1921705     -7.8039623      0.52461179     50218.233      36.893836      36.893836      36.893836    
  12900000   0.26041682    -8.193474      -7.8028543      0.517295       50218.233      36.893836      36.893836      36.893836    
  13000000   0.25951113    -8.1937452     -7.804484       0.52501896     50218.233      36.893836      36.893836      36.893836    
  13100000   0.25927821    -8.1928518     -7.80394        0.51857493     50218.233      36.893836      36.893836      36.893836    
  13200000   0.25931429    -8.1940268     -7.8050609      0.52057238     50218.233      36.893836      36.893836      36.893836    
  13300000   0.26024157    -8.1964342     -7.8060773      0.49409915     50218.233      36.893836      36.893836      36.893836    
  13400000   0.26001511    -8.1929897     -7.8029726      0.52089038     50218.233      36.893836      36.893836      36.893836    
  13500000   0.2591903     -8.194125      -7.8053451      0.51165032     50218.233      36.893836      36.893836      36.893836    
  13600000   0.25946207    -8.1946304     -7.8054428      0.51325268     50218.233      36.893836      36.893836      36.893836    
  13700000   0.26041099    -8.1938395     -7.8032286      0.51917515     50218.233      36.893836      36.893836      36.893836    
  13800000   0.26117637    -8.1934741     -7.8017151      0.51880728     50218.233      36.893836      36.893836      36.893836    
  13900000   0.25986899    -8.1937623     -7.8039644      0.51714544     50218.233      36.893836      36.893836      36.893836    
  14000000   0.25946069    -8.1960148     -7.8068293      0.49748688     50218.233      36.893836      36.893836      36.893836    
  14100000   0.25899274    -8.1957124     -7.8072288      0.49991936     50218.233      36.893836      36.893836      36.893836    
  14200000   0.2590564     -8.1945458     -7.8059667      0.51233627     50218.233      36.893836      36.893836      36.893836    
  14300000   0.2596557     -8.192932      -7.803454       0.51861757     50218.233      36.893836      36.893836      36.893836    
  14400000   0.25986428    -8.1951644     -7.8053736      0.50480334     50218.233      36.893836      36.893836      36.893836    
  14500000   0.26074009    -8.1933364     -7.8022318      0.5195072      50218.233      36.893836      36.893836      36.893836    
  14600000   0.26092916    -8.1944268     -7.8030386      0.51830657     50218.233      36.893836      36.893836      36.893836    
  14700000   0.25983019    -8.1949188     -7.805179       0.50267623     50218.233      36.893836      36.893836      36.893836    
  14800000   0.26049919    -8.1956941     -7.8049508      0.49336411     50218.233      36.893836      36.893836      36.893836    
  14900000   0.25943022    -8.1940777     -7.804938       0.51034862     50218.233      36.893836      36.893836      36.893836    
  15000000   0.25923276    -8.1962419     -7.8073983      0.49648108     50218.233      36.893836      36.893836      36.893836    
  15100000   0.26007672    -8.1947604     -7.8046509      0.51587117     50218.233      36.893836      36.893836      36.893836    
  15200000   0.25947785    -8.195092      -7.8058807      0.509196       50218.233      36.893836      36.893836      36.893836    
  15300000   0.260247      -8.193915      -7.8035501      0.51407118     50218.233      36.893836      36.893836      36.893836    
  15400000   0.25895997    -8.1957971     -7.8073627      0.49164231     50218.233      36.893836      36.893836      36.893836    
  15500000   0.259389      -8.1934309     -7.804353       0.51801549     50218.233      36.893836      36.893836      36.893836    
  15600000   0.26002929    -8.1932478     -7.8032094      0.51903757     50218.233      36.893836      36.893836      36.893836    
  15700000   0.25948383    -8.19545       -7.8062297      0.50104367     50218.233      36.893836      36.893836      36.893836    
  15800000   0.26209365    -8.1945106     -7.8013758      0.51701507     50218.233      36.893836      36.893836      36.893836    
  15900000   0.25843021    -8.1943739     -7.8067341      0.51114116     50218.233      36.893836      36.893836      36.893836    
  16000000   0.25972403    -8.1957784     -7.8061979      0.49749089     50218.233      36.893836      36.893836      36.893836    
  16100000   0.25924837    -8.1938414     -7.8049744      0.51312717     50218.233      36.893836      36.893836      36.893836    
  16200000   0.26060936    -8.1967214     -7.8058129      0.49455459     50218.233      36.893836      36.893836      36.893836    
  16300000   0.26008971    -8.1943494     -7.8042204      0.50843884     50218.233      36.893836      36.893836      36.893836    
  16400000   0.26024816    -8.1958902     -7.8055236      0.49476326     50218.233      36.893836      36.893836      36.893836    
  16500000   0.26146875    -8.1944062     -7.8022087      0.5142785      50218.233      36.893836      36.893836      36.893836    
  16600000   0.25991156    -8.1956264     -7.8057647      0.50084365     50218.233      36.893836      36.893836      36.893836    
  16700000   0.26027571    -8.1917186     -7.8013106      0.5369843      50218.233      36.893836      36.893836      36.893836    
  16800000   0.25961336    -8.1948601     -7.8054456      0.50192399     50218.233      36.893836      36.893836      36.893836    
  16900000   0.25897021    -8.193101      -7.8046512      0.51784782     50218.233      36.893836      36.893836      36.893836    
  17000000   0.25993196    -8.1912086     -7.8013162      0.52590385     50218.233      36.893836      36.893836      36.893836    
  17100000   0.26080003    -8.1929047     -7.8017102      0.51253038     50218.233      36.893836      36.893836      36.893836    
  17200000   0.25975145    -8.192466      -7.8028444      0.52452114     50218.233      36.893836      36.893836      36.893836    
  17300000   0.25846719    -8.1939575     -7.8062623      0.50290069     50218.233      36.893836      36.893836      36.893836    
  17400000   0.26000867    -8.1912566     -7.8012491      0.5316333      50218.233      36.893836      36.893836      36.893836    
  17500000   0.25803323    -8.1946023     -7.8075579      0.50447747     50218.233      36.893836      36.893836      36.893836    
  17600000   0.25967987    -8.1931244     -7.8036101      0.51947302     50218.233      36.893836      36.893836      36.893836    
  17700000   0.2600131     -8.1930449     -7.8030308      0.51799254     50218.233      36.893836      36.893836      36.893836    
  17800000   0.26052577    -8.192439      -7.8016559      0.52895897     50218.233      36.893836      36.893836      36.893836    
  17900000   0.26081552    -8.1907825     -7.7995648      0.53547089     50218.233      36.893836      36.893836      36.893836    
  18000000   0.25970207    -8.194684      -7.8051365      0.50833141     50218.233      36.893836      36.893836      36.893836    
  18100000   0.25951661    -8.1943023     -7.805033       0.50470386     50218.233      36.893836      36.893836      36.893836    
  18200000   0.25969547    -8.1938569     -7.8043193      0.51678383     50218.233      36.893836      36.893836      36.893836    
  18300000   0.26029225    -8.1928441     -7.8024113      0.52126823     50218.233      36.893836      36.893836      36.893836    
  18400000   0.25972409    -8.1936737     -7.8040931      0.50036007     50218.233      36.893836      36.893836      36.893836    
  18500000   0.25910948    -8.1922565     -7.8035978      0.52856726     50218.233      36.893836      36.893836      36.893836    
  18600000   0.26209142    -8.1920901     -7.7989586      0.52522899     50218.233      36.893836      36.893836      36.893836    
  18700000   0.25948924    -8.195113      -7.8058847      0.50486689     50218.233      36.893836      36.893836      36.893836    
  18800000   0.26028014    -8.1964254     -7.8060107      0.49154563     50218.233      36.893836      36.893836      36.893836    
  18900000   0.26018364    -8.1958754     -7.8056055      0.49915767     50218.233      36.893836      36.893836      36.893836    
  19000000   0.25996064    -8.1942009     -7.8042655      0.50902724     50218.233      36.893836      36.893836      36.893836    
  19100000   0.25835669    -8.1940618     -7.8065323      0.50671654     50218.233      36.893836      36.893836      36.893836    
  19200000   0.25886916    -8.1941136     -7.8058154      0.50785079     50218.233      36.893836      36.893836      36.893836    
  19300000   0.25938941    -8.1941522     -7.8050736      0.50942188     50218.233      36.893836      36.893836      36.893836    
  19400000   0.26089802    -8.1945299     -7.8031884      0.50933731     50218.233      36.893836      36.893836      36.893836    
  19500000   0.25875541    -8.1958543     -7.8077267      0.49557225     50218.233      36.893836      36.893836      36.893836    
  19600000   0.25967209    -8.1932564     -7.8037538      0.51640681     50218.233      36.893836      36.893836      36.893836    
  19700000   0.25998221    -8.1957459     -7.8057781      0.50728069     50218.233      36.893836      36.893836      36.893836    
  19800000   0.26081088    -8.1955666     -7.8043558      0.50885337     50218.233      36.893836      36.893836      36.893836    
  19900000   0.26126217    -8.1943723     -7.8024847      0.51236445     50218.233      36.893836      36.893836      36.893836    
  20000000   0.25994302    -8.1950135     -7.8051045      0.51150856     50218.233      36.893836      36.893836      36.893836    
  20100000   0.25947749    -8.195654      -7.8064433      0.50004559     50218.233      36.893836      36.893836      36.893836    
  20200000   0.26104002    -8.1962961     -7.8047417      0.49756256     50218.233      36.893836      36.893836      36.893836    
  20300000   0.26173804    -8.1950625     -7.8024611      0.50909095     50218.233      36.893836      36.893836      36.893836    
  20400000   0.26098934    -8.193925      -7.8024466      0.52394392     50218.233      36.893836      36.893836      36.893836    
  20500000   0.26013665    -8.193912      -7.8037126      0.51185284     50218.233      36.893836      36.893836      36.893836    
  20600000   0.25965003    -8.1931304     -7.8036609      0.51867187     50218.233      36.893836      36.893836      36.893836    
  20700000   0.25990079    -8.1937697     -7.8039241      0.51341208     50218.233      36.893836      36.893836      36.893836    
  20800000   0.26056734    -8.1930866     -7.8022411      0.52194591     50218.233      36.893836      36.893836      36.893836    
  20900000   0.26002985    -8.1910491     -7.8010098      0.5368315      50218.233      36.893836      36.893836      36.893836    
  21000000   0.26036634    -8.1947223     -7.8041783      0.5064741      50218.233      36.893836      36.893836      36.893836    
  21100000   0.26184489    -8.1942523     -7.8014906      0.52075764     50218.233      36.893836      36.893836      36.893836    
  21200000   0.26061535    -8.1945271     -7.8036097      0.51191976     50218.233      36.893836      36.893836      36.893836    
  21300000   0.26011064    -8.1930934     -7.802933       0.51508975     50218.233      36.893836      36.893836      36.893836    
  21400000   0.26008514    -8.1952438     -7.8051217      0.49748993     50218.233      36.893836      36.893836      36.893836    
  21500000   0.26057461    -8.1921572     -7.8013008      0.52913411     50218.233      36.893836      36.893836      36.893836    
  21600000   0.25925796    -8.1925977     -7.8037162      0.52933522     50218.233      36.893836      36.893836      36.893836    
  21700000   0.25982079    -8.1935485     -7.8038229      0.50817667     50218.233      36.893836      36.893836      36.893836    
  21800000   0.25913912    -8.1934514     -7.8047483      0.51451803     50218.233      36.893836      36.893836      36.893836    
  21900000   0.26122768    -8.1926823     -7.8008463      0.52639328     50218.233      36.893836      36.893836      36.893836    
  22000000   0.25882353    -8.1949256     -7.8066959      0.50777568     50218.233      36.893836      36.893836      36.893836    
  22100000   0.25741684    -8.193477      -7.8073572      0.50678031     50218.233      36.893836      36.893836      36.893836    
  22200000   0.26006304    -8.1952811     -7.8051921      0.49962191     50218.233      36.893836      36.893836      36.893836    
  22300000   0.25993746    -8.1938835     -7.8039829      0.510065       50218.233      36.893836      36.893836      36.893836    
  22400000   0.2600064     -8.1956661     -7.805662       0.50053256     50218.233      36.893836      36.893836      36.893836    
  22500000   0.25771572    -8.1941842     -7.8076162      0.5126402      50218.233      36.893836      36.893836      36.893836    
  22600000   0.26045038    -8.1931962     -7.8025262      0.52409897     50218.233      36.893836      36.893836      36.893836    
  22700000   0.26048239    -8.1942346     -7.8035166      0.50813832     50218.233      36.893836      36.893836      36.893836    
  22800000   0.26089052    -8.19433       -7.8029997      0.50876753     50218.233      36.893836      36.893836      36.893836    
  22900000   0.26132568    -8.1935826     -7.8015997      0.52000357     50218.233      36.893836      36.893836      36.893836    
  23000000   0.25952628    -8.194367      -7.8050831      0.51187107     50218.233      36.893836      36.893836      36.893836    
  23100000   0.26126284    -8.1952623     -7.8033736      0.51427618     50218.233      36.893836      36.893836      36.893836    
  23200000   0.26040378    -8.1943743     -7.8037742      0.51293128     50218.233      36.893836      36.893836      36.893836    
  23300000   0.25863222    -8.1944426     -7.8064998      0.50742116     50218.233      36.893836      36.893836      36.893836    
  23400000   0.26186843    -8.1942365     -7.8014394      0.51502007     50218.233      36.893836      36.893836      36.893836    
  23500000   0.26003109    -8.1943266     -7.8042856      0.51832894     50218.233      36.893836      36.893836      36.893836    
  23600000   0.26027271    -8.1960082     -7.8056047      0.50073908     50218.233      36.893836      36.893836      36.893836    
  23700000   0.26058437    -8.1937184     -7.8028474      0.51912797     50218.233      36.893836      36.893836      36.893836    
  23800000   0.2606639     -8.1931753     -7.802185       0.52395614     50218.233      36.893836      36.893836      36.893836    
  23900000   0.25948698    -8.1948751     -7.8056502      0.5061729      50218.233      36.893836      36.893836      36.893836    
  24000000   0.25923129    -8.1948795     -7.8060381      0.50742984     50218.233      36.893836      36.893836      36.893836    
  24100000   0.26035423    -8.1925734     -7.8020476      0.52234927     50218.233      36.893836      36.893836      36.893836    
  24200000   0.25999911    -8.1939555     -7.8039624      0.51656854     50218.233      36.893836      36.893836      36.893836    
  24300000   0.25845859    -8.1954726     -7.8077902      0.49692866     50218.233      36.893836      36.893836      36.893836    
  24400000   0.25910615    -8.1945679     -7.8059142      0.50370636     50218.233      36.893836      36.893836      36.893836    
  24500000   0.25980139    -8.1945474     -7.8048509      0.51304622     50218.233      36.893836      36.893836      36.893836    
  24600000   0.26094104    -8.1949929     -7.8035869      0.50602014     50218.233      36.893836      36.893836      36.893836    
  24700000   0.25894012    -8.1953998     -7.8069951      0.49437227     50218.233      36.893836      36.893836      36.893836    
  24800000   0.26003434    -8.1970972     -7.8070512      0.48685542     50218.233      36.893836      36.893836      36.893836    
  24900000   0.25941411    -8.194591      -7.8054754      0.49756883     50218.233      36.893836      36.893836      36.893836    
  25000000   0.25981795    -8.1940581     -7.8043367      0.51039758     50218.233      36.893836      36.893836      36.893836    
  25100000   0.26022278    -8.1945791     -7.8042505      0.50501837     50218.233      36.893836      36.893836      36.893836    
  25200000   0.25957878    -8.1944297     -7.8050671      0.50782012     50218.233      36.893836      36.893836      36.893836    
  25300000   0.26026952    -8.1946483     -7.8042495      0.51298315     50218.233      36.893836      36.893836      36.893836    
  25400000   0.26051627    -8.1936752     -7.8029064      0.52762676     50218.233      36.893836      36.893836      36.893836    
  25500000   0.26007177    -8.193826      -7.8037239      0.50907449     50218.233      36.893836      36.893836      36.893836    
  25600000   0.25930304    -8.1948957     -7.8059467      0.50754533     50218.233      36.893836      36.893836      36.893836    
  25700000   0.26081552    -8.1966892     -7.8054715      0.49414481     50218.233      36.893836      36.893836      36.893836    
  25800000   0.25992579    -8.1947142     -7.804831       0.50598086     50218.233      36.893836      36.893836      36.893836    
  25900000   0.26060584    -8.1927959     -7.8018927      0.51920238     50218.233      36.893836      36.893836      36.893836    
  26000000   0.26127117    -8.1930801     -7.8011789      0.52208979     50218.233      36.893836      36.893836      36.893836    
  26100000   0.25893122    -8.1958424     -7.8074511      0.50550715     50218.233      36.893836      36.893836      36.893836    
  26200000   0.25993419    -8.1942062     -7.8043105      0.5103165      50218.233      36.893836      36.893836      36.893836    
  26300000   0.26004453    -8.1937186     -7.8036574      0.51806211     50218.233      36.893836      36.893836      36.893836    
  26400000   0.26016825    -8.1922506     -7.8020037      0.52343067     50218.233      36.893836      36.893836      36.893836    
  26500000   0.26106995    -8.1932595     -7.8016601      0.51555374     50218.233      36.893836      36.893836      36.893836    
  26600000   0.25870737    -8.194542      -7.8064864      0.50567561     50218.233      36.893836      36.893836      36.893836    
  26700000   0.25881899    -8.1936158     -7.8053928      0.51440024     50218.233      36.893836      36.893836      36.893836    
  26800000   0.26064942    -8.1935673     -7.8025987      0.5198233      50218.233      36.893836      36.893836      36.893836    
  26900000   0.25979512    -8.1931186     -7.8034315      0.51705111     50218.233      36.893836      36.893836      36.893836    
  27000000   0.259137      -8.1925469     -7.803847       0.52208296     50218.233      36.893836      36.893836      36.893836    
  27100000   0.25965923    -8.1929448     -7.8034615      0.51893246     50218.233      36.893836      36.893836      36.893836    
  27200000   0.2589399     -8.1946454     -7.8062411      0.51102799     50218.233      36.893836      36.893836      36.893836    
  27300000   0.26063239    -8.1946487     -7.8037056      0.50128794     50218.233      36.893836      36.893836      36.893836    
  27400000   0.26049667    -8.1939364     -7.8031969      0.5098609      50218.233      36.893836      36.893836      36.893836    
  27500000   0.25932097    -8.1934047     -7.8044287      0.51701444     50218.233      36.893836      36.893836      36.893836    
  27600000   0.25978625    -8.1947971     -7.8051233      0.50782066     50218.233      36.893836      36.893836      36.893836    
  27700000   0.26033874    -8.1928562     -7.8023537      0.51801715     50218.233      36.893836      36.893836      36.893836    
  27800000   0.25882122    -8.1938979     -7.8056716      0.51534454     50218.233      36.893836      36.893836      36.893836    
  27900000   0.25992626    -8.1921893     -7.8023055      0.521567       50218.233      36.893836      36.893836      36.893836    
  28000000   0.2603299     -8.1933825     -7.8028932      0.52074273     50218.233      36.893836      36.893836      36.893836    
  28100000   0.25960215    -8.1938894     -7.8044917      0.51507853     50218.233      36.893836      36.893836      36.893836    
  28200000   0.26032051    -8.1930152     -7.80254        0.52069734     50218.233      36.893836      36.893836      36.893836    
  28300000   0.25972186    -8.1943496     -7.8047724      0.50605433     50218.233      36.893836      36.893836      36.893836    
  28400000   0.25881393    -8.1929145     -7.8046991      0.51851912     50218.233      36.893836      36.893836      36.893836    
  28500000   0.26055327    -8.1947824     -7.803958       0.50248395     50218.233      36.893836      36.893836      36.893836    
  28600000   0.25924108    -8.1937581     -7.804902       0.50859744     50218.233      36.893836      36.893836      36.893836    
  28700000   0.2607604     -8.1955466     -7.8044116      0.50250794     50218.233      36.893836      36.893836      36.893836    
  28800000   0.26096833    -8.1933559     -7.801909       0.52458779     50218.233      36.893836      36.893836      36.893836    
  28900000   0.2581917     -8.1929736     -7.8056915      0.51959576     50218.233      36.893836      36.893836      36.893836    
  29000000   0.26015807    -8.1951495     -7.804918       0.50455207     50218.233      36.893836      36.893836      36.893836    
  29100000   0.26002844    -8.1948953     -7.8048582      0.50572885     50218.233      36.893836      36.893836      36.893836    
  29200000   0.25984681    -8.1930855     -7.8033209      0.52429374     50218.233      36.893836      36.893836      36.893836    
  29300000   0.26102725    -8.1945097     -7.8029744      0.51746797     50218.233      36.893836      36.893836      36.893836    
  29400000   0.26032277    -8.1954044     -7.8049258      0.50001292     50218.233      36.893836      36.893836      36.893836    
  29500000   0.25972082    -8.1966737     -7.807098       0.49283049     50218.233      36.893836      36.893836      36.893836    
  29600000   0.26144252    -8.1941244     -7.8019662      0.51787001     50218.233      36.893836      36.893836      36.893836    
  29700000   0.25783529    -8.1939423     -7.8071948      0.51529021     50218.233      36.893836      36.893836      36.893836    
  29800000   0.26055165    -8.1941067     -7.8032848      0.50404146     50218.233      36.893836      36.893836      36.893836    
  29900000   0.25961795    -8.1973878     -7.8079664      0.48268408     50218.233      36.893836      36.893836      36.893836    
  30000000   0.26056628    -8.1943644     -7.8035206      0.51519285     50218.233      36.893836      36.893836      36.893836    
  30100000   0.25980166    -8.1951463     -7.8054494      0.50463056     50218.233      36.893836      36.893836      36.893836    
  30200000   0.26015313    -8.1959715     -7.8057474      0.50136119     50218.233      36.893836      36.893836      36.893836    
  30300000   0.2580173     -8.1946951     -7.8076746      0.50265225     50218.233      36.893836      36.893836      36.893836    
  30400000   0.25975811    -8.1956375     -7.8060059      0.49692364     50218.233      36.893836      36.893836      36.893836    
  30500000   0.25961272    -8.1937779     -7.8043643      0.5163485      50218.233      36.893836      36.893836      36.893836    
  30600000   0.25989604    -8.1946666     -7.8048281      0.5101108      50218.233      36.893836      36.893836      36.893836    
  30700000   0.25968532    -8.1955324     -7.8060099      0.50173669     50218.233      36.893836      36.893836      36.893836    
  30800000   0.26178437    -8.192993      -7.8003221      0.52511178     50218.233      36.893836      36.893836      36.893836    
  30900000   0.26000378    -8.1953405     -7.8053404      0.50231592     50218.233      36.893836      36.893836      36.893836    
  31000000   0.25867291    -8.1930234     -7.8050196      0.52200688     50218.233      36.893836      36.893836      36.893836    
  31100000   0.26043795    -8.1937808     -7.8031294      0.51730665     50218.233      36.893836      36.893836      36.893836    
  31200000   0.25907434    -8.1940536     -7.8054476      0.5137843      50218.233      36.893836      36.893836      36.893836    
  31300000   0.26001646    -8.1921413     -7.8021222      0.52224639     50218.233      36.893836      36.893836      36.893836    
  31400000   0.261039      -8.1949026     -7.8033497      0.51038573     50218.233      36.893836      36.893836      36.893836    
  31500000   0.26033752    -8.1914636     -7.8009629      0.52475312     50218.233      36.893836      36.893836      36.893836    
  31600000   0.26137091    -8.193428      -7.8013772      0.51985319     50218.233      36.893836      36.893836      36.893836    
  31700000   0.26074912    -8.1932401     -7.802122       0.5179358      50218.233      36.893836      36.893836      36.893836    
  31800000   0.26054305    -8.1950904     -7.8042814      0.50697051     50218.233      36.893836      36.893836      36.893836    
  31900000   0.26108882    -8.1923535     -7.8007259      0.5300155      50218.233      36.893836      36.893836      36.893836    
  32000000   0.26114034    -8.1918978     -7.8001928      0.5324541      50218.233      36.893836      36.893836      36.893836    
  32100000   0.26016879    -8.1941755     -7.8039279      0.51568781     50218.233      36.893836      36.893836      36.893836    
  32200000   0.25960893    -8.192108      -7.8027002      0.52190219     50218.233      36.893836      36.893836      36.893836    
  32300000   0.25996288    -8.1958977     -7.8059589      0.49545975     50218.233      36.893836      36.893836      36.893836    
  32400000   0.25994047    -8.1949976     -7.8050924      0.50889801     50218.233      36.893836      36.893836      36.893836    
  32500000   0.26035413    -8.1946323     -7.8041066      0.51490555     50218.233      36.893836      36.893836      36.893836    
  32600000   0.2600116     -8.1936708     -7.8036589      0.52293321     50218.233      36.893836      36.893836      36.893836    
  32700000   0.26053523    -8.1923153     -7.801518       0.53258208     50218.233      36.893836      36.893836      36.893836    
  32800000   0.25913123    -8.1937683     -7.805077       0.50604336     50218.233      36.893836      36.893836      36.893836    
  32900000   0.26064107    -8.1942046     -7.8032485      0.51770242     50218.233      36.893836      36.893836      36.893836    
  33000000   0.25893622    -8.1945244     -7.8061256      0.50808056     50218.233      36.893836      36.893836      36.893836    
  33100000   0.26031495    -8.1928427     -7.8023758      0.52571139     50218.233      36.893836      36.893836      36.893836    
  33200000   0.25822122    -8.1908124     -7.8034861      0.53205695     50218.233      36.893836      36.893836      36.893836    
  33300000   0.25932311    -8.1926935     -7.8037144      0.52702678     50218.233      36.893836      36.893836      36.893836    
  33400000   0.26086458    -8.1942936     -7.8030022      0.510979       50218.233      36.893836      36.893836      36.893836    
  33500000   0.2596793     -8.1926709     -7.8031575      0.52192365     50218.233      36.893836      36.893836      36.893836    
  33600000   0.25840041    -8.1947971     -7.807202       0.5065277      50218.233      36.893836      36.893836      36.893836    
  33700000   0.26010808    -8.1963244     -7.8061678      0.48975896     50218.233      36.893836      36.893836      36.893836    
  33800000   0.26050781    -8.1947124     -7.8039562      0.51307686     50218.233      36.893836      36.893836      36.893836    
  33900000   0.26031546    -8.1938826     -7.803415       0.51266227     50218.233      36.893836      36.893836      36.893836    
  34000000   0.26097109    -8.197941      -7.8064899      0.49031935     50218.233      36.893836      36.893836      36.893836    
  34100000   0.25915301    -8.1932531     -7.8045291      0.51354638     50218.233      36.893836      36.893836      36.893836    
  34200000   0.25919889    -8.1935602     -7.8047674      0.51202696     50218.233      36.893836      36.893836      36.893836    
  34300000   0.26151107    -8.1948612     -7.8026002      0.50620185     50218.233      36.893836      36.893836      36.893836    
  34400000   0.26077318    -8.192991      -7.8018368      0.52595934     50218.233      36.893836      36.893836      36.893836    
  34500000   0.26105784    -8.1936483     -7.8020671      0.5277784      50218.233      36.893836      36.893836      36.893836    
  34600000   0.26108933    -8.1941696     -7.8025411      0.51789253     50218.233      36.893836      36.893836      36.893836    
  34700000   0.26032935    -8.195429      -7.8049405      0.49841759     50218.233      36.893836      36.893836      36.893836    
  34800000   0.26042936    -8.1938798     -7.8032414      0.51441705     50218.233      36.893836      36.893836      36.893836    
  34900000   0.25933647    -8.1945469     -7.8055477      0.50793937     50218.233      36.893836      36.893836      36.893836    
  35000000   0.26087088    -8.1965762     -7.8052755      0.49169821     50218.233      36.893836      36.893836      36.893836    
  35100000   0.25934418    -8.1948905     -7.8058797      0.50523111     50218.233      36.893836      36.893836      36.893836    
  35200000   0.26049156    -8.1944592     -7.8037274      0.50618285     50218.233      36.893836      36.893836      36.893836    
  35300000   0.2606743     -8.1959191     -7.8049132      0.49171435     50218.233      36.893836      36.893836      36.893836    
  35400000   0.26074457    -8.1957135     -7.8046023      0.49540827     50218.233      36.893836      36.893836      36.893836    
  35500000   0.25985034    -8.1922596     -7.8024897      0.52308169     50218.233      36.893836      36.893836      36.893836    
  35600000   0.26014705    -8.1926051     -7.8023901      0.5341377      50218.233      36.893836      36.893836      36.893836    
  35700000   0.25988609    -8.1941262     -7.8043026      0.50998021     50218.233      36.893836      36.893836      36.893836    
  35800000   0.26023968    -8.1943531     -7.8039991      0.51553296     50218.233      36.893836      36.893836      36.893836    
  35900000   0.26017123    -8.1967491     -7.8064978      0.4903288      50218.233      36.893836      36.893836      36.893836    
  36000000   0.26118253    -8.1963975     -7.8046293      0.49874909     50218.233      36.893836      36.893836      36.893836    
  36100000   0.26014531    -8.1933072     -7.8030948      0.52605224     50218.233      36.893836      36.893836      36.893836    
  36200000   0.25856286    -8.1942819     -7.8064432      0.50831742     50218.233      36.893836      36.893836      36.893836    
  36300000   0.26062303    -8.1948257     -7.8038967      0.50749501     50218.233      36.893836      36.893836      36.893836    
  36400000   0.25982559    -8.1939461     -7.8042133      0.5136079      50218.233      36.893836      36.893836      36.893836    
  36500000   0.26098088    -8.1948951     -7.8034294      0.51315209     50218.233      36.893836      36.893836      36.893836    
  36600000   0.26063124    -8.1949446     -7.8040033      0.5140457      50218.233      36.893836      36.893836      36.893836    
  36700000   0.26088596    -8.1941087     -7.8027854      0.51021471     50218.233      36.893836      36.893836      36.893836    
  36800000   0.2588003     -8.1945629     -7.806368       0.50365232     50218.233      36.893836      36.893836      36.893836    
  36900000   0.25949528    -8.1951749     -7.8059376      0.50434881     50218.233      36.893836      36.893836      36.893836    
  37000000   0.25968023    -8.1924127     -7.8028979      0.52368141     50218.233      36.893836      36.893836      36.893836    
  37100000   0.25962274    -8.1949184     -7.8054898      0.50310681     50218.233      36.893836      36.893836      36.893836    
  37200000   0.25927694    -8.1931982     -7.8042883      0.5170022      50218.233      36.893836      36.893836      36.893836    
  37300000   0.25864842    -8.1946696     -7.8067025      0.50377847     50218.233      36.893836      36.893836      36.893836    
  37400000   0.25973703    -8.1935892     -7.8039892      0.51635641     50218.233      36.893836      36.893836      36.893836    
  37500000   0.26082923    -8.1951938     -7.8039556      0.4967325      50218.233      36.893836      36.893836      36.893836    
  37600000   0.2595909     -8.1943359     -7.8049551      0.50898445     50218.233      36.893836      36.893836      36.893836    
  37700000   0.26062721    -8.1925965     -7.8016612      0.52918872     50218.233      36.893836      36.893836      36.893836    
  37800000   0.26000034    -8.1940723     -7.8040774      0.51370723     50218.233      36.893836      36.893836      36.893836    
  37900000   0.26062919    -8.1933755     -7.8024372      0.52360699     50218.233      36.893836      36.893836      36.893836    
  38000000   0.26039761    -8.1943908     -7.8037999      0.50652235     50218.233      36.893836      36.893836      36.893836    
  38100000   0.2592401     -8.1948311     -7.8059765      0.50365123     50218.233      36.893836      36.893836      36.893836    
  38200000   0.25880795    -8.1941014     -7.805895       0.50939772     50218.233      36.893836      36.893836      36.893836    
  38300000   0.26084556    -8.194491      -7.8032282      0.51298452     50218.233      36.893836      36.893836      36.893836    
  38400000   0.25898013    -8.1920099     -7.8035453      0.5292209      50218.233      36.893836      36.893836      36.893836    
  38500000   0.26022624    -8.1948208     -7.804487       0.50492641     50218.233      36.893836      36.893836      36.893836    
  38600000   0.26161614    -8.1940278     -7.8016092      0.51466712     50218.233      36.893836      36.893836      36.893836    
  38700000   0.26035994    -8.1939717     -7.8034373      0.51063443     50218.233      36.893836      36.893836      36.893836    
  38800000   0.25923581    -8.1921601     -7.8033119      0.52869646     50218.233      36.893836      36.893836      36.893836    
  38900000   0.25964279    -8.1944729     -7.8050142      0.50892167     50218.233      36.893836      36.893836      36.893836    
  39000000   0.25956084    -8.1929622     -7.8036265      0.52148291     50218.233      36.893836      36.893836      36.893836    
  39100000   0.260201      -8.194948      -7.804652       0.5041591      50218.233      36.893836      36.893836      36.893836    
  39200000   0.25906699    -8.19454       -7.8059451      0.50751306     50218.233      36.893836      36.893836      36.893836    
  39300000   0.26056558    -8.1953011     -7.8044583      0.50538287     50218.233      36.893836      36.893836      36.893836    
  39400000   0.26018541    -8.1929427     -7.8026701      0.52520516     50218.233      36.893836      36.893836      36.893836    
  39500000   0.26092642    -8.1951208     -7.8037367      0.50470721     50218.233      36.893836      36.893836      36.893836    
  39600000   0.26054007    -8.19373       -7.8029255      0.51288719     50218.233      36.893836      36.893836      36.893836    
  39700000   0.26049266    -8.1958392     -7.8051057      0.49938532     50218.233      36.893836      36.893836      36.893836    
  39800000   0.2599749     -8.1969387     -7.8069819      0.47711778     50218.233      36.893836      36.893836      36.893836    
  39900000   0.25957059    -8.1949364     -7.805586       0.50967247     50218.233      36.893836      36.893836      36.893836    
  40000000   0.25922286    -8.1943247     -7.8054959      0.51467079     50218.233      36.893836      36.893836      36.893836    
  40100000   0.26116879    -8.195095      -7.8033474      0.50276756     50218.233      36.893836      36.893836      36.893836    
  40200000   0.2592858     -8.1950834     -7.8061602      0.49371415     50218.233      36.893836      36.893836      36.893836    
  40300000   0.25980342    -8.1980881     -7.8083885      0.47865551     50218.233      36.893836      36.893836      36.893836    
  40400000   0.25965405    -8.1955555     -7.80608        0.49737415     50218.233      36.893836      36.893836      36.893836    
  40500000   0.25965961    -8.1955452     -7.8060614      0.4994342      50218.233      36.893836      36.893836      36.893836    
  40600000   0.25976479    -8.1946473     -7.8050056      0.49913427     50218.233      36.893836      36.893836      36.893836    
  40700000   0.25984889    -8.1964456     -7.8066778      0.49809386     50218.233      36.893836      36.893836      36.893836    
  40800000   0.25876175    -8.1952634     -7.8071263      0.4999069      50218.233      36.893836      36.893836      36.893836    
  40900000   0.25964819    -8.1950293     -7.8055626      0.49926408     50218.233      36.893836      36.893836      36.893836    
  41000000   0.25878956    -8.1952721     -7.8070933      0.49943418     50218.233      36.893836      36.893836      36.893836    
  41100000   0.2600073     -8.1945732     -7.8045678      0.50243556     50218.233      36.893836      36.893836      36.893836    
  41200000   0.26005184    -8.1931523     -7.8030801      0.52475322     50218.233      36.893836      36.893836      36.893836    
  41300000   0.26012489    -8.1954317     -7.8052499      0.50148814     50218.233      36.893836      36.893836      36.893836    
  41400000   0.25857961    -8.1958009     -7.807937       0.50028619     50218.233      36.893836      36.893836      36.893836    
  41500000   0.25993516    -8.1948927     -7.8049955      0.50533074     50218.233      36.893836      36.893836      36.893836    
  41600000   0.25955721    -8.1953287     -7.8059985      0.49584714     50218.233      36.893836      36.893836      36.893836    
  41700000   0.26055496    -8.1957296     -7.8049028      0.51172151     50218.233      36.893836      36.893836      36.893836    
  41800000   0.26032355    -8.1948852     -7.8044055      0.52200395     50218.233      36.893836      36.893836      36.893836    
  41900000   0.260965      -8.1937441     -7.8023021      0.52385606     50218.233      36.893836      36.893836      36.893836    
  42000000   0.25990773    -8.1933448     -7.8034888      0.51115226     50218.233      36.893836      36.893836      36.893836    
  42100000   0.25928078    -8.195301      -7.8063854      0.50620272     50218.233      36.893836      36.893836      36.893836    
  42200000   0.25951598    -8.1945459     -7.8052775      0.50559011     50218.233      36.893836      36.893836      36.893836    
  42300000   0.25900509    -8.1943909     -7.8058887      0.50791334     50218.233      36.893836      36.893836      36.893836    
  42400000   0.26095235    -8.1927054     -7.8012824      0.5309623      50218.233      36.893836      36.893836      36.893836    
  42500000   0.26042887    -8.194141      -7.8035032      0.51432156     50218.233      36.893836      36.893836      36.893836    
  42600000   0.26030158    -8.1958177     -7.8053708      0.50365134     50218.233      36.893836      36.893836      36.893836    
  42700000   0.26152636    -8.1959607     -7.8036767      0.49631833     50218.233      36.893836      36.893836      36.893836    
  42800000   0.25881708    -8.1937107     -7.8054906      0.51795555     50218.233      36.893836      36.893836      36.893836    
  42900000   0.25931033    -8.1945872     -7.8056272      0.50613016     50218.233      36.893836      36.893836      36.893836    
  43000000   0.2602944     -8.1919336     -7.8014976      0.52898575     50218.233      36.893836      36.893836      36.893836    
  43100000   0.26022947    -8.1937169     -7.8033783      0.51743523     50218.233      36.893836      36.893836      36.893836    
  43200000   0.25996561    -8.1933719     -7.803429       0.51538514     50218.233      36.893836      36.893836      36.893836    
  43300000   0.26015882    -8.195297      -7.8050643      0.49840548     50218.233      36.893836      36.893836      36.893836    
  43400000   0.25946138    -8.1927619     -7.8035754      0.52965158     50218.233      36.893836      36.893836      36.893836    
  43500000   0.25916432    -8.193217      -7.8044761      0.52260371     50218.233      36.893836      36.893836      36.893836    
  43600000   0.26039282    -8.1984607     -7.807877       0.48220795     50218.233      36.893836      36.893836      36.893836    
  43700000   0.25955633    -8.1953109     -7.8059819      0.50604574     50218.233      36.893836      36.893836      36.893836    
  43800000   0.25961466    -8.1958471     -7.8064307      0.49908238     50218.233      36.893836      36.893836      36.893836    
  43900000   0.25976788    -8.1948479     -7.8052016      0.50748984     50218.233      36.893836      36.893836      36.893836    
  44000000   0.26053198    -8.1947178     -7.8039254      0.51297594     50218.233      36.893836      36.893836      36.893836    
  44100000   0.26035964    -8.195022      -7.8044881      0.51022436     50218.233      36.893836      36.893836      36.893836    
  44200000   0.26105629    -8.1920358     -7.800457       0.52637017     50218.233      36.893836      36.893836      36.893836    
  44300000   0.25995317    -8.1966209     -7.8066967      0.4884929      50218.233      36.893836      36.893836      36.893836    
  44400000   0.25994741    -8.196164      -7.8062484      0.49922717     50218.233      36.893836      36.893836      36.893836    
  44500000   0.26032153    -8.1968684     -7.8063916      0.48912285     50218.233      36.893836      36.893836      36.893836    
  44600000   0.26060005    -8.1950799     -7.8041854      0.50446452     50218.233      36.893836      36.893836      36.893836    
  44700000   0.26061734    -8.1941529     -7.8032325      0.50580283     50218.233      36.893836      36.893836      36.893836    
  44800000   0.26074184    -8.1970072     -7.8059         0.48979262     50218.233      36.893836      36.893836      36.893836    
  44900000   0.25780923    -8.1931063     -7.806398       0.51943043     50218.233      36.893836      36.893836      36.893836    
  45000000   0.2607578     -8.1933125     -7.8021813      0.50945045     50218.233      36.893836      36.893836      36.893836    
  45100000   0.26004906    -8.1958372     -7.8057692      0.49926015     50218.233      36.893836      36.893836      36.893836    
  45200000   0.26035398    -8.1936406     -7.8031151      0.5226172      50218.233      36.893836      36.893836      36.893836    
  45300000   0.26109174    -8.1966535     -7.8050215      0.50255309     50218.233      36.893836      36.893836      36.893836    
  45400000   0.26027938    -8.194212      -7.8037985      0.51198247     50218.233      36.893836      36.893836      36.893836    
  45500000   0.25995375    -8.1925815     -7.8026565      0.53484664     50218.233      36.893836      36.893836      36.893836    
  45600000   0.25879006    -8.193485      -7.8053054      0.51050945     50218.233      36.893836      36.893836      36.893836    
  45700000   0.25923124    -8.1934533     -7.804612       0.51414065     50218.233      36.893836      36.893836      36.893836    
  45800000   0.25947882    -8.1955031     -7.8062904      0.50316978     50218.233      36.893836      36.893836      36.893836    
  45900000   0.26113188    -8.1948851     -7.8031928      0.50894824     50218.233      36.893836      36.893836      36.893836    
  46000000   0.26022152    -8.19305       -7.8027232      0.52386031     50218.233      36.893836      36.893836      36.893836    
  46100000   0.26081342    -8.193768      -7.8025534      0.51927436     50218.233      36.893836      36.893836      36.893836    
  46200000   0.25848775    -8.1941242     -7.8063981      0.50954089     50218.233      36.893836      36.893836      36.893836    
  46300000   0.25981629    -8.1949311     -7.8052122      0.50317036     50218.233      36.893836      36.893836      36.893836    
  46400000   0.26073841    -8.1944474     -7.8033453      0.50521327     50218.233      36.893836      36.893836      36.893836    
  46500000   0.26053361    -8.1949806     -7.8041857      0.50682574     50218.233      36.893836      36.893836      36.893836    
  46600000   0.26084779    -8.1949716     -7.8037055      0.5093016      50218.233      36.893836      36.893836      36.893836    
  46700000   0.26116254    -8.1933878     -7.8016496      0.51222247     50218.233      36.893836      36.893836      36.893836    
  46800000   0.26023836    -8.1948321     -7.8044801      0.50294299     50218.233      36.893836      36.893836      36.893836    
  46900000   0.25939103    -8.1918299     -7.8027489      0.53040399     50218.233      36.893836      36.893836      36.893836    
  47000000   0.26041355    -8.1947755     -7.8041608      0.50354265     50218.233      36.893836      36.893836      36.893836    
  47100000   0.2583947     -8.1928099     -7.8052233      0.51527156     50218.233      36.893836      36.893836      36.893836    
  47200000   0.26121699    -8.1931732     -7.8013533      0.52192795     50218.233      36.893836      36.893836      36.893836    
  47300000   0.25843156    -8.1925934     -7.8049516      0.52024419     50218.233      36.893836      36.893836      36.893836    
  47400000   0.26042567    -8.1938222     -7.8031892      0.51053254     50218.233      36.893836      36.893836      36.893836    
  47500000   0.25927358    -8.1943969     -7.8054921      0.50802594     50218.233      36.893836      36.893836      36.893836    
  47600000   0.2600964     -8.1947418     -7.8046027      0.50417793     50218.233      36.893836      36.893836      36.893836    
  47700000   0.26098222    -8.1928687     -7.801401       0.52432945     50218.233      36.893836      36.893836      36.893836    
  47800000   0.2600951     -8.1922724     -7.8021353      0.52872054     50218.233      36.893836      36.893836      36.893836    
  47900000   0.26013445    -8.1941691     -7.8039729      0.52732805     50218.233      36.893836      36.893836      36.893836    
  48000000   0.26027253    -8.1943411     -7.8039379      0.51083278     50218.233      36.893836      36.893836      36.893836    
  48100000   0.26067984    -8.1954255     -7.8044113      0.5029271      50218.233      36.893836      36.893836      36.893836    
  48200000   0.26134155    -8.1921108     -7.800104       0.53539816     50218.233      36.893836      36.893836      36.893836    
  48300000   0.25905663    -8.1937925     -7.8052131      0.5142238      50218.233      36.893836      36.893836      36.893836    
  48400000   0.25985268    -8.1924937     -7.8027202      0.52769111     50218.233      36.893836      36.893836      36.893836    
  48500000   0.26003543    -8.1941021     -7.8040545      0.51961124     50218.233      36.893836      36.893836      36.893836    
  48600000   0.26190489    -8.1939313     -7.8010796      0.51403717     50218.233      36.893836      36.893836      36.893836    
  48700000   0.26149945    -8.1957605     -7.8035169      0.50270541     50218.233      36.893836      36.893836      36.893836    
  48800000   0.25928538    -8.1955678     -7.8066453      0.50193485     50218.233      36.893836      36.893836      36.893836    
  48900000   0.25891948    -8.1944871     -7.8061134      0.50588343     50218.233      36.893836      36.893836      36.893836    
  49000000   0.26000412    -8.1958801     -7.8058795      0.50212114     50218.233      36.893836      36.893836      36.893836    
  49100000   0.2604757     -8.1949535     -7.8042455      0.50904        50218.233      36.893836      36.893836      36.893836    
  49200000   0.25964288    -8.1942059     -7.8047472      0.50456447     50218.233      36.893836      36.893836      36.893836    
  49300000   0.2602623     -8.1959596     -7.8055717      0.49494017     50218.233      36.893836      36.893836      36.893836    
  49400000   0.26126126    -8.1960298     -7.8041435      0.50116741     50218.233      36.893836      36.893836      36.893836    
  49500000   0.2598956     -8.1946771     -7.8048393      0.51767425     50218.233      36.893836      36.893836      36.893836    
  49600000   0.25943728    -8.1937486     -7.8045982      0.51249964     50218.233      36.893836      36.893836      36.893836    
  49700000   0.26040063    -8.194273      -7.8036776      0.51731045     50218.233      36.893836      36.893836      36.893836    
  49800000   0.26088648    -8.1945109     -7.8031867      0.50594844     50218.233      36.893836      36.893836      36.893836    
  49900000   0.25964168    -8.1959097     -7.8064528      0.49901001     50218.233      36.893836      36.893836      36.893836    
  50000000   0.25991338    -8.1963052     -7.8064407      0.50538481     50218.233      36.893836      36.893836      36.893836    
Loop time of 75092.2 on 5 procs for 50000000 steps with 70304 atoms

Performance: 575292.564 tau/day, 665.848 timesteps/s, 46.812 Matom-step/s
94.0% CPU use with 5 MPI tasks x 1 OpenMP threads

MPI task timing breakdown:
Section |  min time  |  avg time  |  max time  |%varavg| %total
---------------------------------------------------------------
Pair    | 25211      | 27998      | 31315      |1531.2 | 37.29
Neigh   | 178.79     | 189.5      | 195.42     |  44.8 |  0.25
Comm    | 10516      | 10575      | 10630      |  44.9 | 14.08
Output  | 0.090466   | 0.093813   | 0.099654   |   1.0 |  0.00
Modify  | 29423      | 32751      | 35601      |1414.6 | 43.61
Other   |            | 3578       |            |       |  4.77

Nlocal:        14060.8 ave       14109 max       14011 min
Histogram: 1 0 0 1 1 0 0 1 0 1
Nghost:        18748.6 ave       18801 max       18692 min
Histogram: 1 0 0 1 0 1 1 0 0 1
Neighs:              0 ave           0 max           0 min
Histogram: 5 0 0 0 0 0 0 0 0 0

Total # of neighbors = 0
Ave neighs/atom = 0
Neighbor list builds = 7519526
Dangerous builds = 0
clear
OMP_NUM_THREADS environment is not set. Defaulting to 1 thread. (src/comm.cpp:98)
  using 1 OpenMP thread(s) per MPI task
package gpu 0
jump dms240.lmp

variable T equal 240
# T = 1000* (temp in LJ unit)
variable f equal 100000
log log.${T}
log log.240
