variable TLJ equal (${T}/1000)
variable TLJ equal (515/1000)
variable NCyle equal 5
variable iStep equal (${f})
variable iStep equal (100000)
variable dumpStep equal (${f}*100)
variable dumpStep equal (100000*100)
variable runStep equal (${f}*100*${NCyle})
variable runStep equal (100000*100*${NCyle})
variable runStep equal (100000*100*5)

units       lj
atom_style  atomic
dimension 3
boundary     p p p
pair_style  lj/cut 2.5
read_data  ../data/T${T}.dat
read_data  ../data/T515.dat
Reading data file ...
  orthogonal box = (0.97250269 0.97250269 0.97250269) to (37.866338 37.866338 37.866338)
  1 by 1 by 5 MPI processor grid
  reading atoms ...
  70304 atoms
  reading velocities ...
  70304 velocities
  read_data CPU = 0.209 seconds
change_box all triclinic
Changing box ...
  triclinic box = (0.97250269 0.97250269 0.97250269) to (37.866338 37.866338 37.866338) with tilt (0 0 0)
mass 1 1
mass 2 1
pair_modify shift yes
pair_coeff  1 1 1 1
pair_coeff  1 2 1.5 0.8
pair_coeff  2 2 0.5 0.88


timestep 0.01
thermo ${iStep}
thermo 100000
reset_timestep 0
thermo_style custom step temp pe etotal press vol lx ly lz
fix             1 all nvt temp ${TLJ}  ${TLJ}  0.1
fix             1 all nvt temp 0.515  ${TLJ}  0.1
fix             1 all nvt temp 0.515  0.515  0.1
thermo_modify flush yes

fix dsf all deform 1 xy  wiggle 0.5  ${f}   units box
fix dsf all deform 1 xy  wiggle 0.5  100000   units box
fix ps1 all ave/time 1 1 ${iStep} c_thermo_press[1] c_thermo_press[2]  c_thermo_press[3] c_thermo_press[4]  c_thermo_press[5] c_thermo_press[6]  file  stress.${T}
fix ps1 all ave/time 1 1 100000 c_thermo_press[1] c_thermo_press[2]  c_thermo_press[3] c_thermo_press[4]  c_thermo_press[5] c_thermo_press[6]  file  stress.${T}
fix ps1 all ave/time 1 1 100000 c_thermo_press[1] c_thermo_press[2]  c_thermo_press[3] c_thermo_press[4]  c_thermo_press[5] c_thermo_press[6]  file  stress.515
dump            1 all custom ${dumpStep} dump.${T} id type x y z
dump            1 all custom 10000000 dump.${T} id type x y z
dump            1 all custom 10000000 dump.515 id type x y z
dump_modify 1 sort id
fix nodrift all momentum 1  linear 1 1 1
fix com_seed all recenter INIT INIT INIT shift all
run ${runStep}
run 50000000
Generated 0 of 1 mixed pair_coeff terms from geometric mixing rule
Per MPI rank memory allocation (min/avg/max) = 6.668 | 8.469 | 8.923 Mbytes
   Step          Temp          PotEng         TotEng         Press          Volume           Lx             Ly             Lz      
         0   0.51193476    -7.7959563     -7.0280651      3.8275204      50218.233      36.893836      36.893836      36.893836    
    100000   0.51632849    -7.7869625     -7.0124808      3.893366       50218.233      36.893836      36.893836      36.893836    
    200000   0.51392759    -7.782732      -7.0118516      3.9138164      50218.233      36.893836      36.893836      36.893836    
    300000   0.51345269    -7.7834895     -7.0133214      3.9080452      50218.233      36.893836      36.893836      36.893836    
    400000   0.51449149    -7.788154      -7.0164277      3.8714392      50218.233      36.893836      36.893836      36.893836    
    500000   0.51457532    -7.7818879     -7.0100359      3.9162339      50218.233      36.893836      36.893836      36.893836    
    600000   0.51755945    -7.7855935     -7.0092654      3.8965574      50218.233      36.893836      36.893836      36.893836    
    700000   0.51583646    -7.7801725     -7.0064288      3.9369775      50218.233      36.893836      36.893836      36.893836    
    800000   0.51372118    -7.7816622     -7.0110914      3.9261026      50218.233      36.893836      36.893836      36.893836    
    900000   0.5170428     -7.7829314     -7.0073783      3.9214071      50218.233      36.893836      36.893836      36.893836    
   1000000   0.51628453    -7.7849844     -7.0105686      3.8934097      50218.233      36.893836      36.893836      36.893836    
   1100000   0.51397413    -7.7840212     -7.013071       3.9052829      50218.233      36.893836      36.893836      36.893836    
   1200000   0.51435115    -7.7801849     -7.0086692      3.9370031      50218.233      36.893836      36.893836      36.893836    
   1300000   0.51581725    -7.7822334     -7.0085186      3.9199391      50218.233      36.893836      36.893836      36.893836    
   1400000   0.51745131    -7.7810808     -7.0049148      3.9450219      50218.233      36.893836      36.893836      36.893836    
   1500000   0.51633423    -7.7829222     -7.0084319      3.9292506      50218.233      36.893836      36.893836      36.893836    
   1600000   0.51566846    -7.7798717     -7.00638        3.9520228      50218.233      36.893836      36.893836      36.893836    
   1700000   0.51663448    -7.7814698     -7.0065291      3.9252476      50218.233      36.893836      36.893836      36.893836    
   1800000   0.51505825    -7.7853556     -7.0127793      3.8793831      50218.233      36.893836      36.893836      36.893836    
   1900000   0.51556747    -7.7805205     -7.0071803      3.9331769      50218.233      36.893836      36.893836      36.893836    
   2000000   0.51470824    -7.7848507     -7.0127993      3.9047761      50218.233      36.893836      36.893836      36.893836    
   2100000   0.5152469     -7.7818136     -7.0089543      3.9274748      50218.233      36.893836      36.893836      36.893836    
   2200000   0.51528249    -7.7856132     -7.0127004      3.8981997      50218.233      36.893836      36.893836      36.893836    
   2300000   0.51410597    -7.7841918     -7.0130438      3.9111404      50218.233      36.893836      36.893836      36.893836    
   2400000   0.51378605    -7.7853089     -7.0146408      3.9036829      50218.233      36.893836      36.893836      36.893836    
   2500000   0.51558244    -7.7785919     -7.0052292      3.9453819      50218.233      36.893836      36.893836      36.893836    
   2600000   0.51355027    -7.7809741     -7.0106596      3.925078       50218.233      36.893836      36.893836      36.893836    
   2700000   0.51456055    -7.7817971     -7.0099673      3.919656       50218.233      36.893836      36.893836      36.893836    
   2800000   0.51353948    -7.7832665     -7.0129683      3.9176589      50218.233      36.893836      36.893836      36.893836    
   2900000   0.51505763    -7.7860166     -7.0134412      3.9031854      50218.233      36.893836      36.893836      36.893836    
   3000000   0.51528274    -7.7858597     -7.0129466      3.8901024      50218.233      36.893836      36.893836      36.893836    
   3100000   0.51785411    -7.7861581     -7.009388       3.8897864      50218.233      36.893836      36.893836      36.893836    
   3200000   0.51260177    -7.7844858     -7.0155941      3.888576       50218.233      36.893836      36.893836      36.893836    
   3300000   0.51377547    -7.7829912     -7.012339       3.9096114      50218.233      36.893836      36.893836      36.893836    
   3400000   0.51426889    -7.7840994     -7.0127071      3.8974804      50218.233      36.893836      36.893836      36.893836    
   3500000   0.51336421    -7.7823021     -7.0122667      3.9162158      50218.233      36.893836      36.893836      36.893836    
   3600000   0.5126532     -7.7805995     -7.0116306      3.9213987      50218.233      36.893836      36.893836      36.893836    
   3700000   0.51626763    -7.7821159     -7.0077254      3.9261471      50218.233      36.893836      36.893836      36.893836    
   3800000   0.51254626    -7.7847844     -7.0159759      3.8938952      50218.233      36.893836      36.893836      36.893836    
   3900000   0.51451567    -7.784452      -7.0126895      3.9027248      50218.233      36.893836      36.893836      36.893836    
   4000000   0.51567884    -7.7844811     -7.0109739      3.9020767      50218.233      36.893836      36.893836      36.893836    
   4100000   0.51735515    -7.7831878     -7.0071661      3.9134113      50218.233      36.893836      36.893836      36.893836    
   4200000   0.51519102    -7.7764996     -7.003724       3.9579317      50218.233      36.893836      36.893836      36.893836    
   4300000   0.51518896    -7.7809424     -7.0081699      3.911984       50218.233      36.893836      36.893836      36.893836    
   4400000   0.51568537    -7.7855573     -7.0120402      3.8871318      50218.233      36.893836      36.893836      36.893836    
   4500000   0.51426704    -7.7821167     -7.0107271      3.9224695      50218.233      36.893836      36.893836      36.893836    
   4600000   0.51289842    -7.7847634     -7.0154267      3.8954342      50218.233      36.893836      36.893836      36.893836    
   4700000   0.51451916    -7.7834869     -7.0117191      3.9238174      50218.233      36.893836      36.893836      36.893836    
   4800000   0.51654969    -7.7848566     -7.0100431      3.905871       50218.233      36.893836      36.893836      36.893836    
   4900000   0.51560427    -7.7820763     -7.0086809      3.9224255      50218.233      36.893836      36.893836      36.893836    
   5000000   0.51607235    -7.7822103     -7.0081128      3.9123558      50218.233      36.893836      36.893836      36.893836    
   5100000   0.51446564    -7.7845856     -7.0128981      3.8950195      50218.233      36.893836      36.893836      36.893836    
   5200000   0.51290476    -7.7887562     -7.01941        3.862593       50218.233      36.893836      36.893836      36.893836    
   5300000   0.5166157     -7.783245      -7.0083325      3.9173335      50218.233      36.893836      36.893836      36.893836    
   5400000   0.51599948    -7.7823064     -7.0083182      3.9198533      50218.233      36.893836      36.893836      36.893836    
   5500000   0.5137008     -7.7832138     -7.0126735      3.9135357      50218.233      36.893836      36.893836      36.893836    
   5600000   0.51546178    -7.7825504     -7.0093688      3.9295461      50218.233      36.893836      36.893836      36.893836    
   5700000   0.51518628    -7.7828453     -7.0100769      3.9027246      50218.233      36.893836      36.893836      36.893836    
   5800000   0.51756047    -7.7817819     -7.0054522      3.9234803      50218.233      36.893836      36.893836      36.893836    
   5900000   0.51583882    -7.7847733     -7.0110261      3.9001647      50218.233      36.893836      36.893836      36.893836    
   6000000   0.51465687    -7.7784096     -7.0064352      3.9472461      50218.233      36.893836      36.893836      36.893836    
   6100000   0.51523804    -7.7825056     -7.0096596      3.9109388      50218.233      36.893836      36.893836      36.893836    
   6200000   0.51334056    -7.7813333     -7.0113334      3.9225656      50218.233      36.893836      36.893836      36.893836    
   6300000   0.51451048    -7.7801802     -7.0084255      3.9296487      50218.233      36.893836      36.893836      36.893836    
   6400000   0.51391831    -7.7819396     -7.0110731      3.9150358      50218.233      36.893836      36.893836      36.893836    
   6500000   0.51827496    -7.7831914     -7.00579        3.9062859      50218.233      36.893836      36.893836      36.893836    
   6600000   0.51231646    -7.7846994     -7.0162356      3.8879522      50218.233      36.893836      36.893836      36.893836    
   6700000   0.5155631     -7.787083      -7.0137493      3.8805798      50218.233      36.893836      36.893836      36.893836    
   6800000   0.51323637    -7.7878466     -7.018003       3.8756022      50218.233      36.893836      36.893836      36.893836    
   6900000   0.51606918    -7.7870732     -7.0129805      3.8751218      50218.233      36.893836      36.893836      36.893836    
   7000000   0.51632264    -7.7864587     -7.0119857      3.8944279      50218.233      36.893836      36.893836      36.893836    
   7100000   0.51601104    -7.7852966     -7.0112911      3.893042       50218.233      36.893836      36.893836      36.893836    
   7200000   0.51423782    -7.7855523     -7.0142066      3.8995477      50218.233      36.893836      36.893836      36.893836    
   7300000   0.51321542    -7.7819192     -7.012107       3.9224588      50218.233      36.893836      36.893836      36.893836    
   7400000   0.51271836    -7.7812377     -7.0121711      3.9189517      50218.233      36.893836      36.893836      36.893836    
   7500000   0.51345539    -7.7862835     -7.0161113      3.8882494      50218.233      36.893836      36.893836      36.893836    
   7600000   0.51412984    -7.7846668     -7.013483       3.9049948      50218.233      36.893836      36.893836      36.893836    
   7700000   0.51693559    -7.7836343     -7.008242       3.9123977      50218.233      36.893836      36.893836      36.893836    
   7800000   0.5150281     -7.7841772     -7.011646       3.9113019      50218.233      36.893836      36.893836      36.893836    
   7900000   0.51342544    -7.7812875     -7.0111603      3.9308413      50218.233      36.893836      36.893836      36.893836    
   8000000   0.51789962    -7.7814207     -7.0045823      3.9320542      50218.233      36.893836      36.893836      36.893836    
   8100000   0.51359376    -7.7807386     -7.0103589      3.9139618      50218.233      36.893836      36.893836      36.893836    
   8200000   0.51438423    -7.7859551     -7.0143897      3.8984313      50218.233      36.893836      36.893836      36.893836    
   8300000   0.51446516    -7.7802418     -7.008555       3.9423955      50218.233      36.893836      36.893836      36.893836    
   8400000   0.51218618    -7.7815039     -7.0132356      3.9241177      50218.233      36.893836      36.893836      36.893836    
   8500000   0.51395119    -7.7834904     -7.0125745      3.9129848      50218.233      36.893836      36.893836      36.893836    
   8600000   0.51728269    -7.785656      -7.009743       3.9082964      50218.233      36.893836      36.893836      36.893836    
   8700000   0.51511048    -7.7797061     -7.0070513      3.9447257      50218.233      36.893836      36.893836      36.893836    
   8800000   0.5153981     -7.7890322     -7.015946       3.8719543      50218.233      36.893836      36.893836      36.893836    
   8900000   0.51627737    -7.7858309     -7.0114259      3.8854044      50218.233      36.893836      36.893836      36.893836    
   9000000   0.51634259    -7.7868291     -7.0123262      3.8944962      50218.233      36.893836      36.893836      36.893836    
   9100000   0.51938585    -7.7866499     -7.0075822      3.89605        50218.233      36.893836      36.893836      36.893836    
   9200000   0.51634063    -7.7842159     -7.009716       3.9096355      50218.233      36.893836      36.893836      36.893836    
   9300000   0.51396935    -7.7858218     -7.0148787      3.8936016      50218.233      36.893836      36.893836      36.893836    
   9400000   0.51692663    -7.7826313     -7.0072524      3.9101348      50218.233      36.893836      36.893836      36.893836    
   9500000   0.51373744    -7.7826179     -7.0120227      3.9104232      50218.233      36.893836      36.893836      36.893836    
   9600000   0.51422038    -7.7805609     -7.0092413      3.9301672      50218.233      36.893836      36.893836      36.893836    
   9700000   0.51296199    -7.7800301     -7.0105981      3.9470202      50218.233      36.893836      36.893836      36.893836    
   9800000   0.51537107    -7.7786624     -7.0056168      3.9463167      50218.233      36.893836      36.893836      36.893836    
   9900000   0.51641808    -7.7834073     -7.0087912      3.9189516      50218.233      36.893836      36.893836      36.893836    
  10000000   0.51326488    -7.7831285     -7.0132421      3.9085921      50218.233      36.893836      36.893836      36.893836    
  10100000   0.5148879     -7.7819093     -7.0095885      3.9127592      50218.233      36.893836      36.893836      36.893836    
  10200000   0.5136523     -7.7883659     -7.0178984      3.8682773      50218.233      36.893836      36.893836      36.893836    
  10300000   0.51657306    -7.7809408     -7.0060923      3.9251343      50218.233      36.893836      36.893836      36.893836    
  10400000   0.51719146    -7.7820106     -7.0062344      3.9283839      50218.233      36.893836      36.893836      36.893836    
  10500000   0.51100052    -7.7855271     -7.0190372      3.8790034      50218.233      36.893836      36.893836      36.893836    
  10600000   0.51463308    -7.7851174     -7.0131788      3.8900442      50218.233      36.893836      36.893836      36.893836    
  10700000   0.51240397    -7.7857413     -7.0171463      3.8859779      50218.233      36.893836      36.893836      36.893836    
  10800000   0.51536023    -7.7863815     -7.0133522      3.890828       50218.233      36.893836      36.893836      36.893836    
  10900000   0.51637982    -7.7816223     -7.0070635      3.9177839      50218.233      36.893836      36.893836      36.893836    
  11000000   0.516557      -7.7819114     -7.0070869      3.9211603      50218.233      36.893836      36.893836      36.893836    
  11100000   0.51680275    -7.784772      -7.0095789      3.9142763      50218.233      36.893836      36.893836      36.893836    
  11200000   0.5176116     -7.782752      -7.0063457      3.9223217      50218.233      36.893836      36.893836      36.893836    
  11300000   0.51483541    -7.7865037     -7.0142615      3.8868843      50218.233      36.893836      36.893836      36.893836    
  11400000   0.51414611    -7.780054      -7.0088459      3.933538       50218.233      36.893836      36.893836      36.893836    
  11500000   0.51283942    -7.7829467     -7.0136985      3.9128236      50218.233      36.893836      36.893836      36.893836    
  11600000   0.51544754    -7.7788925     -7.0057322      3.935525       50218.233      36.893836      36.893836      36.893836    
  11700000   0.51636402    -7.7849736     -7.0104386      3.8919714      50218.233      36.893836      36.893836      36.893836    
  11800000   0.51422494    -7.7807677     -7.0094412      3.9285885      50218.233      36.893836      36.893836      36.893836    
  11900000   0.51448454    -7.7848718     -7.0131559      3.9031575      50218.233      36.893836      36.893836      36.893836    
  12000000   0.51707119    -7.7813241     -7.0057283      3.9333332      50218.233      36.893836      36.893836      36.893836    
  12100000   0.51522996    -7.7761676     -7.0033337      3.9594518      50218.233      36.893836      36.893836      36.893836    
  12200000   0.51687089    -7.7835114     -7.0082161      3.8980044      50218.233      36.893836      36.893836      36.893836    
  12300000   0.51440894    -7.7798274     -7.0082249      3.9321311      50218.233      36.893836      36.893836      36.893836    
  12400000   0.51243053    -7.7812264     -7.0125916      3.9121228      50218.233      36.893836      36.893836      36.893836    
  12500000   0.51427865    -7.7826712     -7.0112642      3.9062287      50218.233      36.893836      36.893836      36.893836    
  12600000   0.51380409    -7.7820724     -7.0113772      3.9091373      50218.233      36.893836      36.893836      36.893836    
  12700000   0.51501486    -7.7824301     -7.0099188      3.910362       50218.233      36.893836      36.893836      36.893836    
  12800000   0.51699493    -7.7856094     -7.010128       3.8909699      50218.233      36.893836      36.893836      36.893836    
  12900000   0.51428156    -7.7826258     -7.0112145      3.8984351      50218.233      36.893836      36.893836      36.893836    
  13000000   0.51296088    -7.7807337     -7.0113033      3.9218172      50218.233      36.893836      36.893836      36.893836    
  13100000   0.51581891    -7.7827004     -7.008983       3.9160922      50218.233      36.893836      36.893836      36.893836    
  13200000   0.51406027    -7.779618      -7.0085385      3.9359241      50218.233      36.893836      36.893836      36.893836    
  13300000   0.51469353    -7.7805982     -7.0085689      3.9331269      50218.233      36.893836      36.893836      36.893836    
  13400000   0.51297887    -7.7811146     -7.0116573      3.9125216      50218.233      36.893836      36.893836      36.893836    
  13500000   0.51419276    -7.7801978     -7.0089197      3.9335106      50218.233      36.893836      36.893836      36.893836    
  13600000   0.5169596     -7.7843132     -7.0088848      3.8879983      50218.233      36.893836      36.893836      36.893836    
  13700000   0.51539401    -7.784446      -7.011366       3.9051502      50218.233      36.893836      36.893836      36.893836    
  13800000   0.5135776     -7.7828831     -7.0125276      3.9155006      50218.233      36.893836      36.893836      36.893836    
  13900000   0.51732173    -7.7914729     -7.0155013      3.8460404      50218.233      36.893836      36.893836      36.893836    
  14000000   0.51418866    -7.7843724     -7.0131004      3.8928325      50218.233      36.893836      36.893836      36.893836    
  14100000   0.51341383    -7.7828152     -7.0127054      3.9049158      50218.233      36.893836      36.893836      36.893836    
  14200000   0.51423571    -7.7857535     -7.014411       3.8908191      50218.233      36.893836      36.893836      36.893836    
  14300000   0.51610371    -7.7860366     -7.0118921      3.8926855      50218.233      36.893836      36.893836      36.893836    
  14400000   0.51205055    -7.7858581     -7.0177932      3.8861251      50218.233      36.893836      36.893836      36.893836    
  14500000   0.51622608    -7.7825295     -7.0082014      3.917501       50218.233      36.893836      36.893836      36.893836    
  14600000   0.51637933    -7.7775182     -7.0029602      3.9559492      50218.233      36.893836      36.893836      36.893836    
  14700000   0.51756905    -7.7866228     -7.0102803      3.9001917      50218.233      36.893836      36.893836      36.893836    
  14800000   0.51498992    -7.7831724     -7.0106985      3.9172127      50218.233      36.893836      36.893836      36.893836    
  14900000   0.51384555    -7.778156      -7.0073986      3.9431043      50218.233      36.893836      36.893836      36.893836    
  15000000   0.51545409    -7.7817792     -7.008609       3.9391032      50218.233      36.893836      36.893836      36.893836    
  15100000   0.51422791    -7.7827505     -7.0114196      3.9192424      50218.233      36.893836      36.893836      36.893836    
  15200000   0.51296088    -7.781249      -7.0118186      3.9310393      50218.233      36.893836      36.893836      36.893836    
  15300000   0.51512739    -7.7789708     -7.0062907      3.9447552      50218.233      36.893836      36.893836      36.893836    
  15400000   0.5179314     -7.7830849     -7.0061989      3.9215981      50218.233      36.893836      36.893836      36.893836    
  15500000   0.51457675    -7.7872433     -7.0153892      3.8858295      50218.233      36.893836      36.893836      36.893836    
  15600000   0.51488491    -7.778832      -7.0065156      3.9545542      50218.233      36.893836      36.893836      36.893836    
  15700000   0.51429911    -7.7809435     -7.0095058      3.9361432      50218.233      36.893836      36.893836      36.893836    
  15800000   0.51733456    -7.7849225     -7.0089317      3.904567       50218.233      36.893836      36.893836      36.893836    
  15900000   0.51388969    -7.7854676     -7.014644       3.8908118      50218.233      36.893836      36.893836      36.893836    
  16000000   0.51439798    -7.7868466     -7.0152606      3.8883663      50218.233      36.893836      36.893836      36.893836    
  16100000   0.51490496    -7.7808153     -7.0084688      3.9264031      50218.233      36.893836      36.893836      36.893836    
  16200000   0.5131207     -7.7813722     -7.0117021      3.9313787      50218.233      36.893836      36.893836      36.893836    
  16300000   0.51456163    -7.7840131     -7.0121816      3.9089188      50218.233      36.893836      36.893836      36.893836    
  16400000   0.51570676    -7.7890242     -7.0154751      3.8747956      50218.233      36.893836      36.893836      36.893836    
  16500000   0.51553026    -7.7812733     -7.0079889      3.9188553      50218.233      36.893836      36.893836      36.893836    
  16600000   0.51634297    -7.7792567     -7.0047532      3.9486177      50218.233      36.893836      36.893836      36.893836    
  16700000   0.51226838    -7.780457      -7.0120653      3.9287031      50218.233      36.893836      36.893836      36.893836    
  16800000   0.51613657    -7.7876818     -7.0134879      3.8944185      50218.233      36.893836      36.893836      36.893836    
  16900000   0.51707085    -7.7818872     -7.0062919      3.9194526      50218.233      36.893836      36.893836      36.893836    
  17000000   0.51479544    -7.7809554     -7.0087732      3.932495       50218.233      36.893836      36.893836      36.893836    
  17100000   0.51450698    -7.7832929     -7.0115434      3.9172583      50218.233      36.893836      36.893836      36.893836    
  17200000   0.51616131    -7.7867847     -7.0125538      3.8919707      50218.233      36.893836      36.893836      36.893836    
  17300000   0.51475669    -7.787044      -7.0149199      3.8777733      50218.233      36.893836      36.893836      36.893836    
  17400000   0.51414502    -7.7873055     -7.0160989      3.8775551      50218.233      36.893836      36.893836      36.893836    
  17500000   0.51576868    -7.7846329     -7.0109909      3.9095392      50218.233      36.893836      36.893836      36.893836    
  17600000   0.51212097    -7.7846359     -7.0164654      3.9000998      50218.233      36.893836      36.893836      36.893836    
  17700000   0.51848793    -7.7834578     -7.005737       3.9147472      50218.233      36.893836      36.893836      36.893836    
  17800000   0.51553433    -7.7847682     -7.0114777      3.9009398      50218.233      36.893836      36.893836      36.893836    
  17900000   0.51373746    -7.782644      -7.0120488      3.9188618      50218.233      36.893836      36.893836      36.893836    
  18000000   0.51314152    -7.7867627     -7.0170614      3.8916         50218.233      36.893836      36.893836      36.893836    
  18100000   0.513705      -7.7862669     -7.0157204      3.8868767      50218.233      36.893836      36.893836      36.893836    
  18200000   0.51438581    -7.7815622     -7.0099945      3.9279987      50218.233      36.893836      36.893836      36.893836    
  18300000   0.51524519    -7.7845172     -7.0116604      3.9045922      50218.233      36.893836      36.893836      36.893836    
  18400000   0.51431027    -7.7856851     -7.0142307      3.8955096      50218.233      36.893836      36.893836      36.893836    
  18500000   0.5156331     -7.7831647     -7.009726       3.9110803      50218.233      36.893836      36.893836      36.893836    
  18600000   0.51346547    -7.7828009     -7.0126136      3.908433       50218.233      36.893836      36.893836      36.893836    
  18700000   0.51507861    -7.7838605     -7.0112536      3.9027581      50218.233      36.893836      36.893836      36.893836    
  18800000   0.51362303    -7.7866297     -7.0162062      3.8958449      50218.233      36.893836      36.893836      36.893836    
  18900000   0.51796552    -7.7853407     -7.0084034      3.8848303      50218.233      36.893836      36.893836      36.893836    
  19000000   0.51476032    -7.7807889     -7.0086594      3.9297453      50218.233      36.893836      36.893836      36.893836    
  19100000   0.51269931    -7.7838021     -7.0147641      3.8984962      50218.233      36.893836      36.893836      36.893836    
  19200000   0.51529089    -7.7853944     -7.0124691      3.9074039      50218.233      36.893836      36.893836      36.893836    
  19300000   0.51492069    -7.78506       -7.01269        3.8967144      50218.233      36.893836      36.893836      36.893836    
  19400000   0.51373331    -7.7814297     -7.0108407      3.9202833      50218.233      36.893836      36.893836      36.893836    
  19500000   0.51544435    -7.7825277     -7.0093721      3.917697       50218.233      36.893836      36.893836      36.893836    
  19600000   0.51612211    -7.7858241     -7.0116519      3.8901834      50218.233      36.893836      36.893836      36.893836    
  19700000   0.51359345    -7.7843328     -7.0139536      3.8991012      50218.233      36.893836      36.893836      36.893836    
  19800000   0.5152994     -7.7831699     -7.0102318      3.9076677      50218.233      36.893836      36.893836      36.893836    
  19900000   0.51480811    -7.7860063     -7.0138051      3.8923789      50218.233      36.893836      36.893836      36.893836    
  20000000   0.51357641    -7.7864995     -7.0161458      3.8816427      50218.233      36.893836      36.893836      36.893836    
  20100000   0.51200581    -7.7803561     -7.0123583      3.9168665      50218.233      36.893836      36.893836      36.893836    
  20200000   0.51397571    -7.7811677     -7.0102151      3.9141165      50218.233      36.893836      36.893836      36.893836    
  20300000   0.51277475    -7.7821775     -7.0130263      3.9225411      50218.233      36.893836      36.893836      36.893836    
  20400000   0.51420334    -7.7837415     -7.0124475      3.9126054      50218.233      36.893836      36.893836      36.893836    
  20500000   0.51441001    -7.7815336     -7.0099296      3.9244937      50218.233      36.893836      36.893836      36.893836    
  20600000   0.51667626    -7.781233      -7.0062297      3.935622       50218.233      36.893836      36.893836      36.893836    
  20700000   0.51407683    -7.7825628     -7.0114585      3.9250899      50218.233      36.893836      36.893836      36.893836    
  20800000   0.5153962     -7.7802049     -7.0071216      3.936797       50218.233      36.893836      36.893836      36.893836    
  20900000   0.51529318    -7.7839343     -7.0110055      3.9067691      50218.233      36.893836      36.893836      36.893836    
  21000000   0.51827862    -7.788815      -7.0114081      3.8704146      50218.233      36.893836      36.893836      36.893836    
  21100000   0.51261241    -7.7830026     -7.014095       3.9068781      50218.233      36.893836      36.893836      36.893836    
  21200000   0.51674422    -7.7814989     -7.0063936      3.9338782      50218.233      36.893836      36.893836      36.893836    
  21300000   0.51710948    -7.7870563     -7.0114031      3.8848606      50218.233      36.893836      36.893836      36.893836    
  21400000   0.51574067    -7.7858619     -7.0122619      3.8968175      50218.233      36.893836      36.893836      36.893836    
  21500000   0.51657238    -7.7819615     -7.0071139      3.9219673      50218.233      36.893836      36.893836      36.893836    
  21600000   0.51949948    -7.78328       -7.0040419      3.9233973      50218.233      36.893836      36.893836      36.893836    
  21700000   0.51488117    -7.7822904     -7.0099796      3.9213828      50218.233      36.893836      36.893836      36.893836    
  21800000   0.51487605    -7.7862964     -7.0139933      3.8888072      50218.233      36.893836      36.893836      36.893836    
  21900000   0.51660358    -7.7812857     -7.0063913      3.9254656      50218.233      36.893836      36.893836      36.893836    
  22000000   0.51306302    -7.7870614     -7.0174778      3.8921857      50218.233      36.893836      36.893836      36.893836    
  22100000   0.51458368    -7.7849754     -7.0131109      3.9005089      50218.233      36.893836      36.893836      36.893836    
  22200000   0.51285167    -7.7810823     -7.0118157      3.9256641      50218.233      36.893836      36.893836      36.893836    
  22300000   0.51480568    -7.7878917     -7.0156942      3.8772403      50218.233      36.893836      36.893836      36.893836    
  22400000   0.51204419    -7.7811517     -7.0130963      3.9199714      50218.233      36.893836      36.893836      36.893836    
  22500000   0.51484117    -7.7879811     -7.0157304      3.8800531      50218.233      36.893836      36.893836      36.893836    
  22600000   0.51542961    -7.788543      -7.0154096      3.8748555      50218.233      36.893836      36.893836      36.893836    
  22700000   0.51441262    -7.7801744     -7.0085665      3.9351595      50218.233      36.893836      36.893836      36.893836    
  22800000   0.51499568    -7.7866935     -7.0142109      3.9015866      50218.233      36.893836      36.893836      36.893836    
  22900000   0.51636501    -7.781234      -7.0066975      3.9345319      50218.233      36.893836      36.893836      36.893836    
  23000000   0.51313211    -7.78578       -7.0160928      3.9037493      50218.233      36.893836      36.893836      36.893836    
  23100000   0.51666744    -7.7856144     -7.0106243      3.8865937      50218.233      36.893836      36.893836      36.893836    
  23200000   0.51334135    -7.7882843     -7.0182832      3.8729262      50218.233      36.893836      36.893836      36.893836    
  23300000   0.51724716    -7.7804662     -7.0046065      3.9282422      50218.233      36.893836      36.893836      36.893836    
  23400000   0.51438404    -7.7854757     -7.0139106      3.8869762      50218.233      36.893836      36.893836      36.893836    
  23500000   0.51542087    -7.7813537     -7.0082334      3.926555       50218.233      36.893836      36.893836      36.893836    
  23600000   0.51432652    -7.7821268     -7.010648       3.9151879      50218.233      36.893836      36.893836      36.893836    
  23700000   0.51580231    -7.7879265     -7.014234       3.8783514      50218.233      36.893836      36.893836      36.893836    
  23800000   0.51386432    -7.7861229     -7.0153374      3.8918669      50218.233      36.893836      36.893836      36.893836    
  23900000   0.51722188    -7.7843117     -7.0084899      3.9098583      50218.233      36.893836      36.893836      36.893836    
  24000000   0.51518049    -7.7843609     -7.0116011      3.9038997      50218.233      36.893836      36.893836      36.893836    
  24100000   0.51372446    -7.7865839     -7.0160081      3.882555       50218.233      36.893836      36.893836      36.893836    
  24200000   0.51418768    -7.7817895     -7.010519       3.9114862      50218.233      36.893836      36.893836      36.893836    
  24300000   0.512007      -7.7858627     -7.0178631      3.887981       50218.233      36.893836      36.893836      36.893836    
  24400000   0.51664476    -7.7791371     -7.0041809      3.9485079      50218.233      36.893836      36.893836      36.893836    
  24500000   0.51301378    -7.7870058     -7.0174961      3.8818037      50218.233      36.893836      36.893836      36.893836    
  24600000   0.5189585     -7.7824311     -7.0040044      3.9273125      50218.233      36.893836      36.893836      36.893836    
  24700000   0.51410894    -7.7898747     -7.0187223      3.8614234      50218.233      36.893836      36.893836      36.893836    
  24800000   0.51370542    -7.7894446     -7.0188974      3.8678716      50218.233      36.893836      36.893836      36.893836    
  24900000   0.51496891    -7.7863408     -7.0138985      3.891664       50218.233      36.893836      36.893836      36.893836    
  25000000   0.51208452    -7.7827981     -7.0146822      3.9164981      50218.233      36.893836      36.893836      36.893836    
  25100000   0.51418833    -7.7854343     -7.0141627      3.8990266      50218.233      36.893836      36.893836      36.893836    
  25200000   0.515638      -7.783747      -7.0103011      3.9146077      50218.233      36.893836      36.893836      36.893836    
  25300000   0.51576073    -7.7836842     -7.0100541      3.9132414      50218.233      36.893836      36.893836      36.893836    
  25400000   0.51524234    -7.7837236     -7.0108711      3.9090659      50218.233      36.893836      36.893836      36.893836    
  25500000   0.51642466    -7.7859248     -7.0112988      3.889286       50218.233      36.893836      36.893836      36.893836    
  25600000   0.51740613    -7.7813194     -7.0052212      3.9308458      50218.233      36.893836      36.893836      36.893836    
  25700000   0.51568358    -7.7864853     -7.0129709      3.8877615      50218.233      36.893836      36.893836      36.893836    
  25800000   0.51601963    -7.7836657     -7.0096473      3.9074696      50218.233      36.893836      36.893836      36.893836    
  25900000   0.51260357    -7.7805886     -7.0116942      3.9230129      50218.233      36.893836      36.893836      36.893836    
  26000000   0.51791763    -7.7821777     -7.0053123      3.9185645      50218.233      36.893836      36.893836      36.893836    
  26100000   0.51404475    -7.7840151     -7.0129589      3.9177071      50218.233      36.893836      36.893836      36.893836    
  26200000   0.51505541    -7.7840465     -7.0114744      3.9003682      50218.233      36.893836      36.893836      36.893836    
  26300000   0.514101      -7.7812182     -7.0100777      3.9151855      50218.233      36.893836      36.893836      36.893836    
  26400000   0.51297721    -7.7822958     -7.0128409      3.9031075      50218.233      36.893836      36.893836      36.893836    
  26500000   0.51459767    -7.7815329     -7.0096474      3.9271835      50218.233      36.893836      36.893836      36.893836    
  26600000   0.51787191    -7.7862484     -7.0094516      3.8911127      50218.233      36.893836      36.893836      36.893836    
  26700000   0.5168159     -7.7806982     -7.0054853      3.9423003      50218.233      36.893836      36.893836      36.893836    
  26800000   0.51563986    -7.7837669     -7.0103181      3.9141255      50218.233      36.893836      36.893836      36.893836    
  26900000   0.51905592    -7.7823083     -7.0037355      3.9295018      50218.233      36.893836      36.893836      36.893836    
  27000000   0.51516939    -7.7805948     -7.0078517      3.9369339      50218.233      36.893836      36.893836      36.893836    
  27100000   0.5154938     -7.7778929     -7.0046632      3.9578049      50218.233      36.893836      36.893836      36.893836    
  27200000   0.51460546    -7.7810283     -7.0091311      3.9280557      50218.233      36.893836      36.893836      36.893836    
  27300000   0.51352402    -7.7805228     -7.0102477      3.922889       50218.233      36.893836      36.893836      36.893836    
  27400000   0.51467417    -7.7806551     -7.0086548      3.935034       50218.233      36.893836      36.893836      36.893836    
  27500000   0.5132263     -7.7763407     -7.0065122      3.9541973      50218.233      36.893836      36.893836      36.893836    
  27600000   0.51465154    -7.7750424     -7.003076       3.970792       50218.233      36.893836      36.893836      36.893836    
  27700000   0.51507874    -7.7828219     -7.0102148      3.9160533      50218.233      36.893836      36.893836      36.893836    
  27800000   0.51561977    -7.774736      -7.0013174      3.9686256      50218.233      36.893836      36.893836      36.893836    
  27900000   0.51384881    -7.7825299     -7.0117677      3.906846       50218.233      36.893836      36.893836      36.893836    
  28000000   0.51241245    -7.7811685     -7.0125607      3.9319329      50218.233      36.893836      36.893836      36.893836    
  28100000   0.51330255    -7.7835016     -7.0135588      3.912094       50218.233      36.893836      36.893836      36.893836    
  28200000   0.51743391    -7.7826482     -7.0065084      3.9195676      50218.233      36.893836      36.893836      36.893836    
  28300000   0.51463802    -7.7788332     -7.0068872      3.9374075      50218.233      36.893836      36.893836      36.893836    
  28400000   0.51170215    -7.7793104     -7.0117681      3.930269       50218.233      36.893836      36.893836      36.893836    
  28500000   0.51424636    -7.7817311     -7.0103726      3.9180033      50218.233      36.893836      36.893836      36.893836    
  28600000   0.51555881    -7.7836567     -7.0103294      3.911061       50218.233      36.893836      36.893836      36.893836    
  28700000   0.51356031    -7.7786768     -7.0083472      3.9362512      50218.233      36.893836      36.893836      36.893836    
  28800000   0.51470402    -7.7800911     -7.008046       3.9432207      50218.233      36.893836      36.893836      36.893836    
  28900000   0.5159847     -7.7842962     -7.0103302      3.9107334      50218.233      36.893836      36.893836      36.893836    
  29000000   0.51291943    -7.7798843     -7.010516       3.9368046      50218.233      36.893836      36.893836      36.893836    
  29100000   0.51250076    -7.779479      -7.0107388      3.9343248      50218.233      36.893836      36.893836      36.893836    
  29200000   0.5159893     -7.7769168     -7.0029439      3.9626071      50218.233      36.893836      36.893836      36.893836    
  29300000   0.51424071    -7.782913      -7.0115629      3.909512       50218.233      36.893836      36.893836      36.893836    
  29400000   0.51955041    -7.7805852     -7.0012707      3.9449822      50218.233      36.893836      36.893836      36.893836    
  29500000   0.51368998    -7.7808066     -7.0102825      3.927559       50218.233      36.893836      36.893836      36.893836    
  29600000   0.51789963    -7.7784769     -7.0016385      3.9414873      50218.233      36.893836      36.893836      36.893836    
  29700000   0.51274096    -7.7820242     -7.0129237      3.9155158      50218.233      36.893836      36.893836      36.893836    
  29800000   0.51657157    -7.781115      -7.0062687      3.9146016      50218.233      36.893836      36.893836      36.893836    
  29900000   0.51350835    -7.7817444     -7.0114928      3.9104973      50218.233      36.893836      36.893836      36.893836    
  30000000   0.51199633    -7.7762567     -7.0082731      3.9547207      50218.233      36.893836      36.893836      36.893836    
  30100000   0.51282769    -7.7770221     -7.0077915      3.9580599      50218.233      36.893836      36.893836      36.893836    
  30200000   0.51421719    -7.7774732     -7.0061584      3.9552826      50218.233      36.893836      36.893836      36.893836    
  30300000   0.51880968    -7.7856552     -7.0074518      3.8915571      50218.233      36.893836      36.893836      36.893836    
  30400000   0.51482241    -7.7774852     -7.0052626      3.9558212      50218.233      36.893836      36.893836      36.893836    
  30500000   0.51376793    -7.7768854     -7.0062445      3.9685778      50218.233      36.893836      36.893836      36.893836    
  30600000   0.5170705     -7.7786199     -7.0030252      3.9497087      50218.233      36.893836      36.893836      36.893836    
  30700000   0.51333249    -7.7812084     -7.0112206      3.9291454      50218.233      36.893836      36.893836      36.893836    
  30800000   0.51649483    -7.7820539     -7.0073227      3.9175291      50218.233      36.893836      36.893836      36.893836    
  30900000   0.5171905     -7.7769683     -7.0011935      3.9563544      50218.233      36.893836      36.893836      36.893836    
  31000000   0.51271238    -7.7829974     -7.0139397      3.9027643      50218.233      36.893836      36.893836      36.893836    
  31100000   0.51688274    -7.7830351     -7.007722       3.9087983      50218.233      36.893836      36.893836      36.893836    
  31200000   0.51718686    -7.7787366     -7.0029673      3.939157       50218.233      36.893836      36.893836      36.893836    
  31300000   0.51521484    -7.7766875     -7.0038762      3.9593526      50218.233      36.893836      36.893836      36.893836    
  31400000   0.51700574    -7.7828453     -7.0073478      3.9217386      50218.233      36.893836      36.893836      36.893836    
  31500000   0.51440959    -7.7814322     -7.0098288      3.9216479      50218.233      36.893836      36.893836      36.893836    
  31600000   0.51700165    -7.7805284     -7.005037       3.9389692      50218.233      36.893836      36.893836      36.893836    
  31700000   0.51276527    -7.7848204     -7.0156834      3.8859023      50218.233      36.893836      36.893836      36.893836    
  31800000   0.51392471    -7.7808376     -7.0099615      3.9325788      50218.233      36.893836      36.893836      36.893836    
  31900000   0.51359911    -7.7860225     -7.0156348      3.8915554      50218.233      36.893836      36.893836      36.893836    
  32000000   0.51241678    -7.782918      -7.0143037      3.9088073      50218.233      36.893836      36.893836      36.893836    
  32100000   0.51753783    -7.7812483     -7.0049526      3.9242721      50218.233      36.893836      36.893836      36.893836    
  32200000   0.5155117     -7.7794453     -7.0061888      3.942924       50218.233      36.893836      36.893836      36.893836    
  32300000   0.51650209    -7.7790815     -7.0043394      3.9460645      50218.233      36.893836      36.893836      36.893836    
  32400000   0.51270076    -7.7813635     -7.0123233      3.9267713      50218.233      36.893836      36.893836      36.893836    
  32500000   0.51243106    -7.7875366     -7.018901       3.8730129      50218.233      36.893836      36.893836      36.893836    
  32600000   0.51835077    -7.7830938     -7.0055787      3.9067303      50218.233      36.893836      36.893836      36.893836    
  32700000   0.51388144    -7.7750825     -7.0042713      3.9638873      50218.233      36.893836      36.893836      36.893836    
  32800000   0.51425603    -7.7827445     -7.0113714      3.90116        50218.233      36.893836      36.893836      36.893836    
  32900000   0.51405634    -7.7857214     -7.0146479      3.8915703      50218.233      36.893836      36.893836      36.893836    
  33000000   0.51529882    -7.7785425     -7.0056052      3.9475899      50218.233      36.893836      36.893836      36.893836    
  33100000   0.51827283    -7.7844078     -7.0070096      3.915202       50218.233      36.893836      36.893836      36.893836    
  33200000   0.51450588    -7.7815702     -7.0098223      3.9347827      50218.233      36.893836      36.893836      36.893836    
  33300000   0.51603843    -7.7791943     -7.0051476      3.9428787      50218.233      36.893836      36.893836      36.893836    
  33400000   0.51500209    -7.7772183     -7.0047262      3.9615581      50218.233      36.893836      36.893836      36.893836    
  33500000   0.5140576     -7.7775047     -7.0064292      3.9478006      50218.233      36.893836      36.893836      36.893836    
  33600000   0.51486502    -7.7794264     -7.0071398      3.940576       50218.233      36.893836      36.893836      36.893836    
  33700000   0.51520143    -7.7856232     -7.012832       3.9038904      50218.233      36.893836      36.893836      36.893836    
  33800000   0.51265217    -7.7879892     -7.0190219      3.8778503      50218.233      36.893836      36.893836      36.893836    
  33900000   0.51765662    -7.7801258     -7.0036519      3.9433431      50218.233      36.893836      36.893836      36.893836    
  34000000   0.51639041    -7.7808318     -7.0062573      3.9425176      50218.233      36.893836      36.893836      36.893836    
  34100000   0.51356875    -7.7829757     -7.0126335      3.9131702      50218.233      36.893836      36.893836      36.893836    
  34200000   0.51476281    -7.7882781     -7.0161448      3.8850619      50218.233      36.893836      36.893836      36.893836    
  34300000   0.51836352    -7.786016      -7.0084818      3.8976386      50218.233      36.893836      36.893836      36.893836    
  34400000   0.51420817    -7.7871555     -7.0158542      3.8912389      50218.233      36.893836      36.893836      36.893836    
  34500000   0.51301488    -7.7873579     -7.0178465      3.8839228      50218.233      36.893836      36.893836      36.893836    
  34600000   0.51531873    -7.7862866     -7.0133194      3.8826002      50218.233      36.893836      36.893836      36.893836    
  34700000   0.51445881    -7.7886041     -7.0169269      3.8755876      50218.233      36.893836      36.893836      36.893836    
  34800000   0.51305008    -7.7856436     -7.0160794      3.8964728      50218.233      36.893836      36.893836      36.893836    
  34900000   0.51235333    -7.7841592     -7.0156402      3.9038121      50218.233      36.893836      36.893836      36.893836    
  35000000   0.51447723    -7.7828413     -7.0111364      3.9193056      50218.233      36.893836      36.893836      36.893836    
  35100000   0.51572565    -7.7831129     -7.0095354      3.9173928      50218.233      36.893836      36.893836      36.893836    
  35200000   0.51440425    -7.7874588     -7.0158634      3.873222       50218.233      36.893836      36.893836      36.893836    
  35300000   0.51534724    -7.7826624     -7.0096526      3.9186103      50218.233      36.893836      36.893836      36.893836    
  35400000   0.51385111    -7.784972      -7.0142063      3.8996638      50218.233      36.893836      36.893836      36.893836    
  35500000   0.51691559    -7.7829385     -7.0075762      3.9085221      50218.233      36.893836      36.893836      36.893836    
  35600000   0.51591246    -7.7852391     -7.0113814      3.8873341      50218.233      36.893836      36.893836      36.893836    
  35700000   0.51498429    -7.7868202     -7.0143547      3.8877557      50218.233      36.893836      36.893836      36.893836    
  35800000   0.51365871    -7.7810021     -7.010525       3.9179096      50218.233      36.893836      36.893836      36.893836    
  35900000   0.51409346    -7.7827774     -7.0116481      3.9128477      50218.233      36.893836      36.893836      36.893836    
  36000000   0.51596354    -7.7814649     -7.0075306      3.9177946      50218.233      36.893836      36.893836      36.893836    
  36100000   0.51717382    -7.7783185     -7.0025688      3.9417625      50218.233      36.893836      36.893836      36.893836    
  36200000   0.51501907    -7.782352      -7.0098344      3.9236058      50218.233      36.893836      36.893836      36.893836    
  36300000   0.51457635    -7.784824      -7.0129704      3.9007723      50218.233      36.893836      36.893836      36.893836    
  36400000   0.51650573    -7.7797229     -7.0049753      3.9530451      50218.233      36.893836      36.893836      36.893836    
  36500000   0.51892663    -7.783171      -7.0047922      3.9270369      50218.233      36.893836      36.893836      36.893836    
  36600000   0.51555516    -7.7844721     -7.0111504      3.9036816      50218.233      36.893836      36.893836      36.893836    
  36700000   0.51391704    -7.7845039     -7.0136393      3.9032315      50218.233      36.893836      36.893836      36.893836    
  36800000   0.51481259    -7.7794591     -7.0072512      3.9426848      50218.233      36.893836      36.893836      36.893836    
  36900000   0.51420751    -7.7846219     -7.0133216      3.8985611      50218.233      36.893836      36.893836      36.893836    
  37000000   0.51559808    -7.7814552     -7.0080691      3.9295942      50218.233      36.893836      36.893836      36.893836    
  37100000   0.51333982    -7.7828154     -7.0128166      3.9136251      50218.233      36.893836      36.893836      36.893836    
  37200000   0.51600774    -7.7804152     -7.0064145      3.9183167      50218.233      36.893836      36.893836      36.893836    
  37300000   0.51552354    -7.7788962     -7.0056219      3.9530802      50218.233      36.893836      36.893836      36.893836    
  37400000   0.51413094    -7.7790903     -7.0079049      3.9366303      50218.233      36.893836      36.893836      36.893836    
  37500000   0.51375413    -7.7823278     -7.0117076      3.9126946      50218.233      36.893836      36.893836      36.893836    
  37600000   0.51466875    -7.776033      -7.0040408      3.9690932      50218.233      36.893836      36.893836      36.893836    
  37700000   0.51544454    -7.7818052     -7.0086494      3.9205663      50218.233      36.893836      36.893836      36.893836    
  37800000   0.51249382    -7.7806137     -7.0118839      3.9214041      50218.233      36.893836      36.893836      36.893836    
  37900000   0.51495633    -7.7827413     -7.0103178      3.9094523      50218.233      36.893836      36.893836      36.893836    
  38000000   0.51438359    -7.7814506     -7.0098862      3.918409       50218.233      36.893836      36.893836      36.893836    
  38100000   0.51728458    -7.7789669     -7.003051       3.9441249      50218.233      36.893836      36.893836      36.893836    
  38200000   0.51696322    -7.7806099     -7.0051761      3.9264199      50218.233      36.893836      36.893836      36.893836    
  38300000   0.51320281    -7.7806722     -7.010879       3.9292769      50218.233      36.893836      36.893836      36.893836    
  38400000   0.51215885    -7.7841303     -7.0159029      3.9181895      50218.233      36.893836      36.893836      36.893836    
  38500000   0.51631296    -7.7816727     -7.0072143      3.9286654      50218.233      36.893836      36.893836      36.893836    
  38600000   0.51527276    -7.779699      -7.0068008      3.9438425      50218.233      36.893836      36.893836      36.893836    
  38700000   0.51344678    -7.7802399     -7.0100807      3.9258428      50218.233      36.893836      36.893836      36.893836    
  38800000   0.51140483    -7.7847752     -7.0176788      3.9056643      50218.233      36.893836      36.893836      36.893836    
  38900000   0.5150377     -7.7797382     -7.0071926      3.9433737      50218.233      36.893836      36.893836      36.893836    
  39000000   0.51469649    -7.7787989     -7.0067652      3.953066       50218.233      36.893836      36.893836      36.893836    
  39100000   0.51427716    -7.7795457     -7.0081409      3.9367532      50218.233      36.893836      36.893836      36.893836    
  39200000   0.51405058    -7.7762683     -7.0052034      3.9519476      50218.233      36.893836      36.893836      36.893836    
  39300000   0.51618333    -7.7824245     -7.0081605      3.9203651      50218.233      36.893836      36.893836      36.893836    
  39400000   0.51717876    -7.7787664     -7.0030093      3.9450618      50218.233      36.893836      36.893836      36.893836    
  39500000   0.51469724    -7.7855274     -7.0134925      3.8949973      50218.233      36.893836      36.893836      36.893836    
  39600000   0.51662513    -7.7788092     -7.0038826      3.9396392      50218.233      36.893836      36.893836      36.893836    
  39700000   0.51449446    -7.7784143     -7.0066836      3.9378485      50218.233      36.893836      36.893836      36.893836    
  39800000   0.51670672    -7.7832037     -7.0081546      3.9046274      50218.233      36.893836      36.893836      36.893836    
  39900000   0.51686094    -7.7839578     -7.0086775      3.9168827      50218.233      36.893836      36.893836      36.893836    
  40000000   0.51552413    -7.7828878     -7.0096126      3.9171946      50218.233      36.893836      36.893836      36.893836    
  40100000   0.51339134    -7.7793915     -7.0093154      3.9315369      50218.233      36.893836      36.893836      36.893836    
  40200000   0.51368182    -7.7830711     -7.0125593      3.9107667      50218.233      36.893836      36.893836      36.893836    
  40300000   0.51476828    -7.781195      -7.0090536      3.9211757      50218.233      36.893836      36.893836      36.893836    
  40400000   0.51515332    -7.7816654     -7.0089464      3.9225039      50218.233      36.893836      36.893836      36.893836    
  40500000   0.51580142    -7.7834668     -7.0097757      3.9090177      50218.233      36.893836      36.893836      36.893836    
  40600000   0.51527504    -7.7811408     -7.0082392      3.9166033      50218.233      36.893836      36.893836      36.893836    
  40700000   0.51541772    -7.7838833     -7.0107677      3.9024488      50218.233      36.893836      36.893836      36.893836    
  40800000   0.51563751    -7.7781549     -7.0047096      3.9425743      50218.233      36.893836      36.893836      36.893836    
  40900000   0.51801435    -7.7827279     -7.0057174      3.9136143      50218.233      36.893836      36.893836      36.893836    
  41000000   0.51491496    -7.7850946     -7.0127331      3.9056483      50218.233      36.893836      36.893836      36.893836    
  41100000   0.51742774    -7.7839966     -7.0078661      3.9030978      50218.233      36.893836      36.893836      36.893836    
  41200000   0.51283578    -7.7830819     -7.0138392      3.8972764      50218.233      36.893836      36.893836      36.893836    
  41300000   0.5134524     -7.7787047     -7.008537       3.9386186      50218.233      36.893836      36.893836      36.893836    
  41400000   0.5168793     -7.7786613     -7.0033534      3.958336       50218.233      36.893836      36.893836      36.893836    
  41500000   0.51470876    -7.7787988     -7.0067467      3.9586274      50218.233      36.893836      36.893836      36.893836    
  41600000   0.51585768    -7.779953      -7.0061775      3.9396989      50218.233      36.893836      36.893836      36.893836    
  41700000   0.51591067    -7.7800197     -7.0061647      3.9520181      50218.233      36.893836      36.893836      36.893836    
  41800000   0.51497299    -7.782138      -7.0096895      3.927387       50218.233      36.893836      36.893836      36.893836    
  41900000   0.5152881     -7.7836089     -7.0106878      3.9143034      50218.233      36.893836      36.893836      36.893836    
  42000000   0.515461      -7.7797805     -7.0066         3.9390231      50218.233      36.893836      36.893836      36.893836    
  42100000   0.51126592    -7.7829779     -7.0160899      3.9116958      50218.233      36.893836      36.893836      36.893836    
  42200000   0.51276935    -7.7840225     -7.0148794      3.9011881      50218.233      36.893836      36.893836      36.893836    
  42300000   0.51116493    -7.7794842     -7.0127477      3.9380005      50218.233      36.893836      36.893836      36.893836    
  42400000   0.51430089    -7.7789647     -7.0075243      3.9355764      50218.233      36.893836      36.893836      36.893836    
  42500000   0.51584251    -7.7824239     -7.0086712      3.907989       50218.233      36.893836      36.893836      36.893836    
  42600000   0.51484377    -7.7817706     -7.0095159      3.9174736      50218.233      36.893836      36.893836      36.893836    
  42700000   0.5167933     -7.7840158     -7.0088369      3.9179533      50218.233      36.893836      36.893836      36.893836    
  42800000   0.51701544    -7.7867546     -7.0112425      3.8864677      50218.233      36.893836      36.893836      36.893836    
  42900000   0.51537173    -7.7827114     -7.0096648      3.9084182      50218.233      36.893836      36.893836      36.893836    
  43000000   0.51577504    -7.779608      -7.0059565      3.9382172      50218.233      36.893836      36.893836      36.893836    
  43100000   0.51293197    -7.7866824     -7.0172954      3.8757847      50218.233      36.893836      36.893836      36.893836    
  43200000   0.51289795    -7.7836061     -7.0142701      3.9059498      50218.233      36.893836      36.893836      36.893836    
  43300000   0.51265257    -7.7835515     -7.0145836      3.903633       50218.233      36.893836      36.893836      36.893836    
  43400000   0.51515164    -7.7783099     -7.0055934      3.9465376      50218.233      36.893836      36.893836      36.893836    
  43500000   0.51399126    -7.7849575     -7.0139816      3.9020428      50218.233      36.893836      36.893836      36.893836    
  43600000   0.51584459    -7.7806917     -7.0069358      3.9393617      50218.233      36.893836      36.893836      36.893836    
  43700000   0.51388922    -7.7801489     -7.009326       3.937646       50218.233      36.893836      36.893836      36.893836    
  43800000   0.51633826    -7.7820626     -7.0075663      3.9298293      50218.233      36.893836      36.893836      36.893836    
  43900000   0.51333139    -7.7874881     -7.017502       3.8801974      50218.233      36.893836      36.893836      36.893836    
  44000000   0.51511282    -7.7819843     -7.009326       3.9130046      50218.233      36.893836      36.893836      36.893836    
  44100000   0.51541491    -7.7754196     -7.0023083      3.9579915      50218.233      36.893836      36.893836      36.893836    
  44200000   0.51483527    -7.7798463     -7.0076044      3.9477142      50218.233      36.893836      36.893836      36.893836    
  44300000   0.5151812     -7.7784452     -7.0056844      3.951691       50218.233      36.893836      36.893836      36.893836    
  44400000   0.5149398     -7.7814917     -7.0090929      3.9229429      50218.233      36.893836      36.893836      36.893836    
  44500000   0.51373015    -7.7845742     -7.01399        3.8999114      50218.233      36.893836      36.893836      36.893836    
  44600000   0.51677721    -7.779304      -7.0041492      3.9397477      50218.233      36.893836      36.893836      36.893836    
  44700000   0.51575137    -7.7808213     -7.0072052      3.9133854      50218.233      36.893836      36.893836      36.893836    
  44800000   0.51688888    -7.7881202     -7.012798       3.871437       50218.233      36.893836      36.893836      36.893836    
  44900000   0.51465846    -7.7860599     -7.0140832      3.904024       50218.233      36.893836      36.893836      36.893836    
  45000000   0.51516361    -7.7825985     -7.0098641      3.9241364      50218.233      36.893836      36.893836      36.893836    
  45100000   0.51483158    -7.7831723     -7.0109359      3.9245895      50218.233      36.893836      36.893836      36.893836    
  45200000   0.51619024    -7.7843031     -7.0100287      3.8974747      50218.233      36.893836      36.893836      36.893836    
  45300000   0.51284856    -7.7815009     -7.012239       3.9075222      50218.233      36.893836      36.893836      36.893836    
  45400000   0.5135113     -7.7804133     -7.0101573      3.9411436      50218.233      36.893836      36.893836      36.893836    
  45500000   0.51408644    -7.7867922     -7.0156735      3.8707352      50218.233      36.893836      36.893836      36.893836    
  45600000   0.51581236    -7.7846122     -7.0109046      3.902069       50218.233      36.893836      36.893836      36.893836    
  45700000   0.5149825     -7.7780508     -7.005588       3.95194        50218.233      36.893836      36.893836      36.893836    
  45800000   0.51350741    -7.785664      -7.0154139      3.9037329      50218.233      36.893836      36.893836      36.893836    
  45900000   0.51478752    -7.7846989     -7.0125286      3.8928234      50218.233      36.893836      36.893836      36.893836    
  46000000   0.5146901     -7.7831008     -7.0110767      3.9034087      50218.233      36.893836      36.893836      36.893836    
  46100000   0.51740076    -7.7848855     -7.0087954      3.9060086      50218.233      36.893836      36.893836      36.893836    
  46200000   0.51244393    -7.7850568     -7.0164019      3.8829682      50218.233      36.893836      36.893836      36.893836    
  46300000   0.51500827    -7.7850874     -7.012586       3.9000487      50218.233      36.893836      36.893836      36.893836    
  46400000   0.51586544    -7.7774973     -7.0037101      3.9584355      50218.233      36.893836      36.893836      36.893836    
  46500000   0.51446388    -7.7864067     -7.0147218      3.8921496      50218.233      36.893836      36.893836      36.893836    
  46600000   0.51770893    -7.7863858     -7.0098335      3.8989046      50218.233      36.893836      36.893836      36.893836    
  46700000   0.51523186    -7.7820699     -7.0092331      3.9067411      50218.233      36.893836      36.893836      36.893836    
  46800000   0.51342784    -7.7889373     -7.0188065      3.8639623      50218.233      36.893836      36.893836      36.893836    
  46900000   0.51573232    -7.7835401     -7.0099526      3.9034181      50218.233      36.893836      36.893836      36.893836    
  47000000   0.51517157    -7.7826827     -7.0099364      3.9190481      50218.233      36.893836      36.893836      36.893836    
  47100000   0.51365936    -7.7884408     -7.0179627      3.871103       50218.233      36.893836      36.893836      36.893836    
  47200000   0.51280898    -7.7798991     -7.0106966      3.9256491      50218.233      36.893836      36.893836      36.893836    
  47300000   0.51672731    -7.7814526     -7.0063726      3.9122864      50218.233      36.893836      36.893836      36.893836    
  47400000   0.51522654    -7.7863392     -7.0135103      3.8773317      50218.233      36.893836      36.893836      36.893836    
  47500000   0.51475721    -7.7838175     -7.0116927      3.901141       50218.233      36.893836      36.893836      36.893836    
  47600000   0.51229801    -7.7810431     -7.012607       3.928529       50218.233      36.893836      36.893836      36.893836    
  47700000   0.51433461    -7.7782761     -7.0067852      3.9401665      50218.233      36.893836      36.893836      36.893836    
  47800000   0.51486098    -7.7809817     -7.0087012      3.9217419      50218.233      36.893836      36.893836      36.893836    
  47900000   0.51348566    -7.7842318     -7.0140142      3.9138772      50218.233      36.893836      36.893836      36.893836    
  48000000   0.51588285    -7.780265      -7.0064517      3.945173       50218.233      36.893836      36.893836      36.893836    
  48100000   0.51370474    -7.7828514     -7.0123052      3.9260171      50218.233      36.893836      36.893836      36.893836    
  48200000   0.51430675    -7.7825455     -7.0110963      3.9182675      50218.233      36.893836      36.893836      36.893836    
  48300000   0.51723739    -7.7798009     -7.0039559      3.9388936      50218.233      36.893836      36.893836      36.893836    
  48400000   0.51284748    -7.7805374     -7.0112771      3.9283912      50218.233      36.893836      36.893836      36.893836    
  48500000   0.51373735    -7.7778446     -7.0072495      3.9470791      50218.233      36.893836      36.893836      36.893836    
  48600000   0.50886592    -7.7759654     -7.0126774      3.958631       50218.233      36.893836      36.893836      36.893836    
  48700000   0.51487489    -7.7791281     -7.0068267      3.9458132      50218.233      36.893836      36.893836      36.893836    
  48800000   0.51277475    -7.7775016     -7.0083504      3.9436064      50218.233      36.893836      36.893836      36.893836    
  48900000   0.51645023    -7.7763687     -7.0017044      3.966849       50218.233      36.893836      36.893836      36.893836    
  49000000   0.51846398    -7.780958      -7.0032731      3.9349418      50218.233      36.893836      36.893836      36.893836    
  49100000   0.51247986    -7.7753512     -7.0066423      3.9633594      50218.233      36.893836      36.893836      36.893836    
  49200000   0.51418903    -7.7807867     -7.0095141      3.94101        50218.233      36.893836      36.893836      36.893836    
  49300000   0.51355859    -7.7794404     -7.0091135      3.9409786      50218.233      36.893836      36.893836      36.893836    
  49400000   0.51711637    -7.7795831     -7.0039196      3.9462526      50218.233      36.893836      36.893836      36.893836    
  49500000   0.51319268    -7.7797524     -7.0099744      3.9315845      50218.233      36.893836      36.893836      36.893836    
  49600000   0.5108748     -7.7769033     -7.010602       3.9618756      50218.233      36.893836      36.893836      36.893836    
  49700000   0.51608988    -7.7768728     -7.002749       3.955278       50218.233      36.893836      36.893836      36.893836    
  49800000   0.51462642    -7.7811072     -7.0091785      3.9159235      50218.233      36.893836      36.893836      36.893836    
  49900000   0.51453234    -7.7810494     -7.0092618      3.923524       50218.233      36.893836      36.893836      36.893836    
  50000000   0.51410368    -7.7839568     -7.0128123      3.9113687      50218.233      36.893836      36.893836      36.893836    
Loop time of 78621.6 on 5 procs for 50000000 steps with 70304 atoms

Performance: 549467.479 tau/day, 635.958 timesteps/s, 44.710 Matom-step/s
94.7% CPU use with 5 MPI tasks x 1 OpenMP threads

MPI task timing breakdown:
Section |  min time  |  avg time  |  max time  |%varavg| %total
---------------------------------------------------------------
Pair    | 27282      | 30704      | 34875      |1519.5 | 39.05
Neigh   | 248.47     | 274.58     | 293.14     | 100.6 |  0.35
Comm    | 11913      | 12015      | 12141      |  68.4 | 15.28
Output  | 0.090315   | 0.093798   | 0.099578   |   1.0 |  0.00
Modify  | 27512      | 31624      | 35210      |1529.3 | 40.22
Other   |            | 4004       |            |       |  5.09

Nlocal:        14060.8 ave       14091 max       14038 min
Histogram: 2 0 1 0 0 0 0 0 1 1
Nghost:        18752.6 ave       18843 max       18675 min
Histogram: 1 1 1 0 0 0 0 0 0 2
Neighs:              0 ave           0 max           0 min
Histogram: 5 0 0 0 0 0 0 0 0 0

Total # of neighbors = 0
Ave neighs/atom = 0
Neighbor list builds = 10343431
Dangerous builds = 0
clear
OMP_NUM_THREADS environment is not set. Defaulting to 1 thread. (src/comm.cpp:98)
  using 1 OpenMP thread(s) per MPI task
package gpu 0
jump dms505.lmp

variable T equal 505
# T = 1000* (temp in LJ unit)
variable f equal 100000
log log.${T}
log log.505
