variable TLJ equal (${T}/1000)
variable TLJ equal (420/1000)
variable NCyle equal 5
variable iStep equal (${f})
variable iStep equal (100000)
variable dumpStep equal (${f}*100)
variable dumpStep equal (100000*100)
variable runStep equal (${f}*100*${NCyle})
variable runStep equal (100000*100*${NCyle})
variable runStep equal (100000*100*5)

units       lj
atom_style  atomic
dimension 3
boundary     p p p
pair_style  lj/cut 2.5
read_data  ../data/T${T}.dat
read_data  ../data/T420.dat
Reading data file ...
  orthogonal box = (0.97250269 0.97250269 0.97250269) to (37.866338 37.866338 37.866338)
  1 by 1 by 5 MPI processor grid
  reading atoms ...
  70304 atoms
  reading velocities ...
  70304 velocities
  read_data CPU = 0.209 seconds
change_box all triclinic
Changing box ...
  triclinic box = (0.97250269 0.97250269 0.97250269) to (37.866338 37.866338 37.866338) with tilt (0 0 0)
mass 1 1
mass 2 1
pair_modify shift yes
pair_coeff  1 1 1 1
pair_coeff  1 2 1.5 0.8
pair_coeff  2 2 0.5 0.88


timestep 0.01
thermo ${iStep}
thermo 100000
reset_timestep 0
thermo_style custom step temp pe etotal press vol lx ly lz
fix             1 all nvt temp ${TLJ}  ${TLJ}  0.1
fix             1 all nvt temp 0.42  ${TLJ}  0.1
fix             1 all nvt temp 0.42  0.42  0.1
thermo_modify flush yes

fix dsf all deform 1 xy  wiggle 0.5  ${f}   units box
fix dsf all deform 1 xy  wiggle 0.5  100000   units box
fix ps1 all ave/time 1 1 ${iStep} c_thermo_press[1] c_thermo_press[2]  c_thermo_press[3] c_thermo_press[4]  c_thermo_press[5] c_thermo_press[6]  file  stress.${T}
fix ps1 all ave/time 1 1 100000 c_thermo_press[1] c_thermo_press[2]  c_thermo_press[3] c_thermo_press[4]  c_thermo_press[5] c_thermo_press[6]  file  stress.${T}
fix ps1 all ave/time 1 1 100000 c_thermo_press[1] c_thermo_press[2]  c_thermo_press[3] c_thermo_press[4]  c_thermo_press[5] c_thermo_press[6]  file  stress.420
dump            1 all custom ${dumpStep} dump.${T} id type x y z
dump            1 all custom 10000000 dump.${T} id type x y z
dump            1 all custom 10000000 dump.420 id type x y z
dump_modify 1 sort id
fix nodrift all momentum 1  linear 1 1 1
fix com_seed all recenter INIT INIT INIT shift all
run ${runStep}
run 50000000
Generated 0 of 1 mixed pair_coeff terms from geometric mixing rule
Per MPI rank memory allocation (min/avg/max) = 6.663 | 7.565 | 8.918 Mbytes
   Step          Temp          PotEng         TotEng         Press          Volume           Lx             Ly             Lz      
         0   0.42008684    -7.965561      -7.3354397      2.4268343      50218.233      36.893836      36.893836      36.893836    
    100000   0.42059814    -7.9551153     -7.324227       2.5048425      50218.233      36.893836      36.893836      36.893836    
    200000   0.42183688    -7.958117      -7.3253707      2.4831552      50218.233      36.893836      36.893836      36.893836    
    300000   0.42104592    -7.9591717     -7.3276118      2.4843283      50218.233      36.893836      36.893836      36.893836    
    400000   0.41913974    -7.9592981     -7.3305974      2.4772195      50218.233      36.893836      36.893836      36.893836    
    500000   0.42144446    -7.9563573     -7.3241996      2.497968       50218.233      36.893836      36.893836      36.893836    
    600000   0.41875633    -7.9568661     -7.3287405      2.4888962      50218.233      36.893836      36.893836      36.893836    
    700000   0.41984453    -7.9580432     -7.3282854      2.4860013      50218.233      36.893836      36.893836      36.893836    
    800000   0.41958099    -7.95839       -7.3290275      2.4894317      50218.233      36.893836      36.893836      36.893836    
    900000   0.41995991    -7.9587345     -7.3288036      2.4849209      50218.233      36.893836      36.893836      36.893836    
   1000000   0.419449      -7.9563689     -7.3272043      2.4966055      50218.233      36.893836      36.893836      36.893836    
   1100000   0.42079637    -7.9611963     -7.3300107      2.4546828      50218.233      36.893836      36.893836      36.893836    
   1200000   0.42107396    -7.9597957     -7.3281938      2.4766273      50218.233      36.893836      36.893836      36.893836    
   1300000   0.41975295    -7.9593056     -7.3296851      2.4792924      50218.233      36.893836      36.893836      36.893836    
   1400000   0.42071948    -7.9571836     -7.3261134      2.4934647      50218.233      36.893836      36.893836      36.893836    
   1500000   0.42057388    -7.9597997     -7.3289478      2.4706337      50218.233      36.893836      36.893836      36.893836    
   1600000   0.41974499    -7.9595307     -7.3299222      2.4843005      50218.233      36.893836      36.893836      36.893836    
   1700000   0.42086568    -7.9560258     -7.3247363      2.5139775      50218.233      36.893836      36.893836      36.893836    
   1800000   0.41923495    -7.9568397     -7.3279962      2.4963603      50218.233      36.893836      36.893836      36.893836    
   1900000   0.42085151    -7.9556427     -7.3243744      2.4998794      50218.233      36.893836      36.893836      36.893836    
   2000000   0.42006334    -7.9583256     -7.3282395      2.4820332      50218.233      36.893836      36.893836      36.893836    
   2100000   0.42060619    -7.9580192     -7.3271189      2.4904335      50218.233      36.893836      36.893836      36.893836    
   2200000   0.42110458    -7.9600308     -7.3283829      2.4712467      50218.233      36.893836      36.893836      36.893836    
   2300000   0.42076532    -7.9536878     -7.3225488      2.5288084      50218.233      36.893836      36.893836      36.893836    
   2400000   0.41932994    -7.9585707     -7.3295847      2.4785605      50218.233      36.893836      36.893836      36.893836    
   2500000   0.41875693    -7.9571141     -7.3289876      2.5014188      50218.233      36.893836      36.893836      36.893836    
   2600000   0.41982919    -7.9554062     -7.3256714      2.5086763      50218.233      36.893836      36.893836      36.893836    
   2700000   0.41924891    -7.9567552     -7.3278908      2.5017682      50218.233      36.893836      36.893836      36.893836    
   2800000   0.41984282    -7.9561985     -7.3264433      2.5050008      50218.233      36.893836      36.893836      36.893836    
   2900000   0.42086268    -7.9587373     -7.3274523      2.4821271      50218.233      36.893836      36.893836      36.893836    
   3000000   0.42164206    -7.9564643     -7.3240102      2.4981779      50218.233      36.893836      36.893836      36.893836    
   3100000   0.41852138    -7.9559291     -7.328156       2.4986212      50218.233      36.893836      36.893836      36.893836    
   3200000   0.42061197    -7.9558178     -7.3249089      2.4913011      50218.233      36.893836      36.893836      36.893836    
   3300000   0.41985594    -7.9592857     -7.3295107      2.4763617      50218.233      36.893836      36.893836      36.893836    
   3400000   0.42377412    -7.952046      -7.3163938      2.5337954      50218.233      36.893836      36.893836      36.893836    
   3500000   0.42105185    -7.9594599     -7.3278911      2.4862544      50218.233      36.893836      36.893836      36.893836    
   3600000   0.42080692    -7.9595637     -7.3283623      2.4765532      50218.233      36.893836      36.893836      36.893836    
   3700000   0.41938727    -7.9607171     -7.3316451      2.4725496      50218.233      36.893836      36.893836      36.893836    
   3800000   0.42009594    -7.9580799     -7.3279449      2.4798461      50218.233      36.893836      36.893836      36.893836    
   3900000   0.41877621    -7.9585725     -7.3304171      2.4825553      50218.233      36.893836      36.893836      36.893836    
   4000000   0.41936341    -7.9576905     -7.3286543      2.4843676      50218.233      36.893836      36.893836      36.893836    
   4100000   0.42047047    -7.9554096     -7.3247129      2.5001473      50218.233      36.893836      36.893836      36.893836    
   4200000   0.419249      -7.9593517     -7.3304871      2.4764987      50218.233      36.893836      36.893836      36.893836    
   4300000   0.41815578    -7.9570492     -7.3298245      2.490276       50218.233      36.893836      36.893836      36.893836    
   4400000   0.41879504    -7.9604457     -7.3322621      2.4665454      50218.233      36.893836      36.893836      36.893836    
   4500000   0.42063468    -7.9597318     -7.3287888      2.4723883      50218.233      36.893836      36.893836      36.893836    
   4600000   0.41795815    -7.9603733     -7.333445       2.4619797      50218.233      36.893836      36.893836      36.893836    
   4700000   0.42208974    -7.9610144     -7.3278887      2.4684585      50218.233      36.893836      36.893836      36.893836    
   4800000   0.41922493    -7.9606652     -7.3318368      2.4624586      50218.233      36.893836      36.893836      36.893836    
   4900000   0.42060623    -7.9602663     -7.3293659      2.468514       50218.233      36.893836      36.893836      36.893836    
   5000000   0.41955852    -7.9564358     -7.327107       2.4964696      50218.233      36.893836      36.893836      36.893836    
   5100000   0.41807644    -7.9588894     -7.3317836      2.4794248      50218.233      36.893836      36.893836      36.893836    
   5200000   0.42005498    -7.9578807     -7.3278072      2.4824876      50218.233      36.893836      36.893836      36.893836    
   5300000   0.41889123    -7.9565946     -7.3282667      2.4945709      50218.233      36.893836      36.893836      36.893836    
   5400000   0.42003267    -7.9575617     -7.3275216      2.4821379      50218.233      36.893836      36.893836      36.893836    
   5500000   0.42071816    -7.9597951     -7.3287268      2.4809717      50218.233      36.893836      36.893836      36.893836    
   5600000   0.41911789    -7.9608063     -7.3321384      2.473221       50218.233      36.893836      36.893836      36.893836    
   5700000   0.41841292    -7.955354      -7.3277435      2.4985571      50218.233      36.893836      36.893836      36.893836    
   5800000   0.41768329    -7.9585617     -7.3320457      2.4871277      50218.233      36.893836      36.893836      36.893836    
   5900000   0.4211987     -7.9588623     -7.3270733      2.4651244      50218.233      36.893836      36.893836      36.893836    
   6000000   0.42227416    -7.9575024     -7.3241002      2.4924449      50218.233      36.893836      36.893836      36.893836    
   6100000   0.41823587    -7.9608234     -7.3334785      2.4624939      50218.233      36.893836      36.893836      36.893836    
   6200000   0.4196757     -7.9647324     -7.3352278      2.4362625      50218.233      36.893836      36.893836      36.893836    
   6300000   0.41914377    -7.9555253     -7.3268186      2.5001482      50218.233      36.893836      36.893836      36.893836    
   6400000   0.42046756    -7.9577573     -7.327065       2.4941952      50218.233      36.893836      36.893836      36.893836    
   6500000   0.41806286    -7.9562987     -7.3292134      2.4988675      50218.233      36.893836      36.893836      36.893836    
   6600000   0.41782617    -7.9569035     -7.3301732      2.4864911      50218.233      36.893836      36.893836      36.893836    
   6700000   0.42076398    -7.9587034     -7.3275664      2.476535       50218.233      36.893836      36.893836      36.893836    
   6800000   0.42062212    -7.9565452     -7.325621       2.5050133      50218.233      36.893836      36.893836      36.893836    
   6900000   0.42017304    -7.9602077     -7.3299571      2.4764713      50218.233      36.893836      36.893836      36.893836    
   7000000   0.41924776    -7.9561327     -7.32727        2.4919655      50218.233      36.893836      36.893836      36.893836    
   7100000   0.42176361    -7.9598322     -7.3271957      2.4688618      50218.233      36.893836      36.893836      36.893836    
   7200000   0.42150659    -7.9569064     -7.3246555      2.4942794      50218.233      36.893836      36.893836      36.893836    
   7300000   0.4192827     -7.9575131     -7.328598       2.4912064      50218.233      36.893836      36.893836      36.893836    
   7400000   0.41910034    -7.9586993     -7.3300577      2.476504       50218.233      36.893836      36.893836      36.893836    
   7500000   0.42192588    -7.9566512     -7.3237713      2.4992202      50218.233      36.893836      36.893836      36.893836    
   7600000   0.42077506    -7.9589087     -7.3277551      2.4850246      50218.233      36.893836      36.893836      36.893836    
   7700000   0.42235933    -7.9596464     -7.3261164      2.4808778      50218.233      36.893836      36.893836      36.893836    
   7800000   0.42143321    -7.9587963     -7.3266555      2.4805191      50218.233      36.893836      36.893836      36.893836    
   7900000   0.41926896    -7.9609529     -7.3320584      2.4731267      50218.233      36.893836      36.893836      36.893836    
   8000000   0.4191536     -7.9597029     -7.3309815      2.4806983      50218.233      36.893836      36.893836      36.893836    
   8100000   0.42267376    -7.9617724     -7.3277707      2.4658841      50218.233      36.893836      36.893836      36.893836    
   8200000   0.41969082    -7.9581608     -7.3286335      2.4851183      50218.233      36.893836      36.893836      36.893836    
   8300000   0.41911732    -7.9609308     -7.3322638      2.4567297      50218.233      36.893836      36.893836      36.893836    
   8400000   0.41937288    -7.9598088     -7.3307585      2.4806819      50218.233      36.893836      36.893836      36.893836    
   8500000   0.41978026    -7.9602864     -7.3306249      2.4735253      50218.233      36.893836      36.893836      36.893836    
   8600000   0.41949159    -7.9593736     -7.3301451      2.4800123      50218.233      36.893836      36.893836      36.893836    
   8700000   0.42121191    -7.9580024     -7.3261935      2.4921643      50218.233      36.893836      36.893836      36.893836    
   8800000   0.42096867    -7.9602478     -7.3288038      2.4732323      50218.233      36.893836      36.893836      36.893836    
   8900000   0.41947898    -7.9546248     -7.3254153      2.5062615      50218.233      36.893836      36.893836      36.893836    
   9000000   0.41901817    -7.960309      -7.3317906      2.4761137      50218.233      36.893836      36.893836      36.893836    
   9100000   0.42050924    -7.957778      -7.3270232      2.4950946      50218.233      36.893836      36.893836      36.893836    
   9200000   0.41979011    -7.9627079     -7.3330317      2.4643438      50218.233      36.893836      36.893836      36.893836    
   9300000   0.42157748    -7.9588827     -7.3265255      2.4753017      50218.233      36.893836      36.893836      36.893836    
   9400000   0.41878948    -7.9606917     -7.3325164      2.461098       50218.233      36.893836      36.893836      36.893836    
   9500000   0.4202242     -7.9595054     -7.3291781      2.4764962      50218.233      36.893836      36.893836      36.893836    
   9600000   0.42047872    -7.9605924     -7.3298833      2.4690525      50218.233      36.893836      36.893836      36.893836    
   9700000   0.42177588    -7.9595971     -7.3269423      2.4861823      50218.233      36.893836      36.893836      36.893836    
   9800000   0.4209292     -7.9585347     -7.3271499      2.4758091      50218.233      36.893836      36.893836      36.893836    
   9900000   0.41978091    -7.9590495     -7.329387       2.4762608      50218.233      36.893836      36.893836      36.893836    
  10000000   0.42021999    -7.9603555     -7.3300345      2.4716105      50218.233      36.893836      36.893836      36.893836    
  10100000   0.42204161    -7.9589527     -7.3258993      2.483989       50218.233      36.893836      36.893836      36.893836    
  10200000   0.41933697    -7.9599845     -7.3309879      2.4717751      50218.233      36.893836      36.893836      36.893836    
  10300000   0.4189659     -7.9613899     -7.33295        2.4605225      50218.233      36.893836      36.893836      36.893836    
  10400000   0.42139525    -7.9612577     -7.3291738      2.4589433      50218.233      36.893836      36.893836      36.893836    
  10500000   0.4179862     -7.9594347     -7.3324643      2.4726562      50218.233      36.893836      36.893836      36.893836    
  10600000   0.42038115    -7.9604796     -7.3299168      2.4698471      50218.233      36.893836      36.893836      36.893836    
  10700000   0.41810644    -7.9629976     -7.3358469      2.4509589      50218.233      36.893836      36.893836      36.893836    
  10800000   0.42033014    -7.9599693     -7.329483       2.4774181      50218.233      36.893836      36.893836      36.893836    
  10900000   0.42050789    -7.9610945     -7.3303417      2.4630615      50218.233      36.893836      36.893836      36.893836    
  11000000   0.42191782    -7.9623082     -7.3294404      2.4575509      50218.233      36.893836      36.893836      36.893836    
  11100000   0.41956677    -7.9625882     -7.333247       2.4463957      50218.233      36.893836      36.893836      36.893836    
  11200000   0.42142258    -7.9620197     -7.3298948      2.460553       50218.233      36.893836      36.893836      36.893836    
  11300000   0.41912334    -7.9570049     -7.3283288      2.4937978      50218.233      36.893836      36.893836      36.893836    
  11400000   0.41598419    -7.9604183     -7.3364509      2.4611618      50218.233      36.893836      36.893836      36.893836    
  11500000   0.42042579    -7.9640531     -7.3334234      2.4370303      50218.233      36.893836      36.893836      36.893836    
  11600000   0.4194796     -7.9586607     -7.3294502      2.4786846      50218.233      36.893836      36.893836      36.893836    
  11700000   0.41979848    -7.9608496     -7.3311609      2.4585598      50218.233      36.893836      36.893836      36.893836    
  11800000   0.42014424    -7.9588825     -7.3286751      2.4924085      50218.233      36.893836      36.893836      36.893836    
  11900000   0.42108595    -7.9618064     -7.3301864      2.4609396      50218.233      36.893836      36.893836      36.893836    
  12000000   0.42036806    -7.9624879     -7.3319448      2.4541199      50218.233      36.893836      36.893836      36.893836    
  12100000   0.41885661    -7.9615219     -7.3332459      2.4597854      50218.233      36.893836      36.893836      36.893836    
  12200000   0.42057985    -7.9601803     -7.3293195      2.4688417      50218.233      36.893836      36.893836      36.893836    
  12300000   0.42256141    -7.9626393     -7.3288062      2.4489404      50218.233      36.893836      36.893836      36.893836    
  12400000   0.42166899    -7.9586835     -7.326189       2.4804663      50218.233      36.893836      36.893836      36.893836    
  12500000   0.41687917    -7.9606217     -7.3353119      2.4707271      50218.233      36.893836      36.893836      36.893836    
  12600000   0.41969398    -7.9568876     -7.3273556      2.4923236      50218.233      36.893836      36.893836      36.893836    
  12700000   0.42086252    -7.96131       -7.3300252      2.4736991      50218.233      36.893836      36.893836      36.893836    
  12800000   0.41852467    -7.9616393     -7.3338612      2.4605628      50218.233      36.893836      36.893836      36.893836    
  12900000   0.42036365    -7.960453      -7.3299165      2.4656915      50218.233      36.893836      36.893836      36.893836    
  13000000   0.42047088    -7.9593849     -7.3286876      2.4690458      50218.233      36.893836      36.893836      36.893836    
  13100000   0.41966327    -7.9598379     -7.3303519      2.4819738      50218.233      36.893836      36.893836      36.893836    
  13200000   0.41862258    -7.9600511     -7.3321262      2.4651549      50218.233      36.893836      36.893836      36.893836    
  13300000   0.42032947    -7.9592032     -7.3287179      2.475441       50218.233      36.893836      36.893836      36.893836    
  13400000   0.41923805    -7.9622174     -7.3333693      2.4650647      50218.233      36.893836      36.893836      36.893836    
  13500000   0.41833947    -7.9613905     -7.3338902      2.4600164      50218.233      36.893836      36.893836      36.893836    
  13600000   0.4205144     -7.9629996     -7.332237       2.451979       50218.233      36.893836      36.893836      36.893836    
  13700000   0.4203163     -7.9619702     -7.3315047      2.4621561      50218.233      36.893836      36.893836      36.893836    
  13800000   0.41961769    -7.9611917     -7.3317741      2.4695249      50218.233      36.893836      36.893836      36.893836    
  13900000   0.41898215    -7.9649131     -7.3364488      2.4370405      50218.233      36.893836      36.893836      36.893836    
  14000000   0.41815352    -7.9585865     -7.3313652      2.4772212      50218.233      36.893836      36.893836      36.893836    
  14100000   0.41758541    -7.9612501     -7.3348809      2.4607074      50218.233      36.893836      36.893836      36.893836    
  14200000   0.42137578    -7.9624298     -7.3303751      2.4517597      50218.233      36.893836      36.893836      36.893836    
  14300000   0.42227997    -7.9588962     -7.3254853      2.4775333      50218.233      36.893836      36.893836      36.893836    
  14400000   0.41896305    -7.9615019     -7.3330662      2.4608945      50218.233      36.893836      36.893836      36.893836    
  14500000   0.41989674    -7.9613154     -7.3314792      2.4693866      50218.233      36.893836      36.893836      36.893836    
  14600000   0.42018703    -7.9607231     -7.3304515      2.4776771      50218.233      36.893836      36.893836      36.893836    
  14700000   0.41945856    -7.9631276     -7.3339487      2.4529363      50218.233      36.893836      36.893836      36.893836    
  14800000   0.4213774     -7.9611368     -7.3290797      2.4584932      50218.233      36.893836      36.893836      36.893836    
  14900000   0.42015591    -7.9580164     -7.3277915      2.4905371      50218.233      36.893836      36.893836      36.893836    
  15000000   0.42278743    -7.9599        -7.3257279      2.4702162      50218.233      36.893836      36.893836      36.893836    
  15100000   0.42040601    -7.9625878     -7.3319877      2.4529431      50218.233      36.893836      36.893836      36.893836    
  15200000   0.4207206     -7.9591145     -7.3280426      2.481834       50218.233      36.893836      36.893836      36.893836    
  15300000   0.42230593    -7.9614884     -7.3280385      2.4724252      50218.233      36.893836      36.893836      36.893836    
  15400000   0.41961887    -7.9574137     -7.3279943      2.4891123      50218.233      36.893836      36.893836      36.893836    
  15500000   0.41826383    -7.9606503     -7.3332634      2.4660788      50218.233      36.893836      36.893836      36.893836    
  15600000   0.41763442    -7.9636255     -7.3371828      2.4541502      50218.233      36.893836      36.893836      36.893836    
  15700000   0.42158416    -7.9591005     -7.3267333      2.4917326      50218.233      36.893836      36.893836      36.893836    
  15800000   0.41953535    -7.961203      -7.331909       2.4769786      50218.233      36.893836      36.893836      36.893836    
  15900000   0.41866552    -7.9621618     -7.3341725      2.4678981      50218.233      36.893836      36.893836      36.893836    
  16000000   0.42143598    -7.9597468     -7.3276018      2.4809264      50218.233      36.893836      36.893836      36.893836    
  16100000   0.41766751    -7.9628754     -7.3363831      2.457907       50218.233      36.893836      36.893836      36.893836    
  16200000   0.42146233    -7.9603555     -7.328171       2.4798636      50218.233      36.893836      36.893836      36.893836    
  16300000   0.4213499     -7.9621217     -7.3301058      2.4720036      50218.233      36.893836      36.893836      36.893836    
  16400000   0.42127518    -7.9629019     -7.3309982      2.4553178      50218.233      36.893836      36.893836      36.893836    
  16500000   0.4214307     -7.9623293     -7.3301923      2.459589       50218.233      36.893836      36.893836      36.893836    
  16600000   0.41959887    -7.9583485     -7.3289591      2.4920938      50218.233      36.893836      36.893836      36.893836    
  16700000   0.42156137    -7.957126      -7.324793       2.5066385      50218.233      36.893836      36.893836      36.893836    
  16800000   0.42317044    -7.9603753     -7.3256287      2.4853927      50218.233      36.893836      36.893836      36.893836    
  16900000   0.42160412    -7.9572141     -7.324817       2.502819       50218.233      36.893836      36.893836      36.893836    
  17000000   0.41923724    -7.9600832     -7.3312363      2.4754311      50218.233      36.893836      36.893836      36.893836    
  17100000   0.42025832    -7.9591152     -7.3287367      2.4861193      50218.233      36.893836      36.893836      36.893836    
  17200000   0.42136519    -7.9627432     -7.3307044      2.4633         50218.233      36.893836      36.893836      36.893836    
  17300000   0.42170363    -7.9604554     -7.327909       2.4685944      50218.233      36.893836      36.893836      36.893836    
  17400000   0.41877533    -7.9610592     -7.3329052      2.4659262      50218.233      36.893836      36.893836      36.893836    
  17500000   0.42005939    -7.962109      -7.3320289      2.4651536      50218.233      36.893836      36.893836      36.893836    
  17600000   0.4191033     -7.9634144     -7.3347684      2.4536887      50218.233      36.893836      36.893836      36.893836    
  17700000   0.41975435    -7.9589699     -7.3293474      2.4812422      50218.233      36.893836      36.893836      36.893836    
  17800000   0.4183871     -7.960476      -7.3329043      2.4738583      50218.233      36.893836      36.893836      36.893836    
  17900000   0.42019513    -7.9623874     -7.3321037      2.4598549      50218.233      36.893836      36.893836      36.893836    
  18000000   0.41943359    -7.9618073     -7.3326659      2.4564054      50218.233      36.893836      36.893836      36.893836    
  18100000   0.41935692    -7.9593864     -7.33036        2.4862997      50218.233      36.893836      36.893836      36.893836    
  18200000   0.41691723    -7.9582064     -7.3328395      2.4892481      50218.233      36.893836      36.893836      36.893836    
  18300000   0.41984154    -7.9625086     -7.3327553      2.4533577      50218.233      36.893836      36.893836      36.893836    
  18400000   0.4211386     -7.9622161     -7.3305172      2.4625333      50218.233      36.893836      36.893836      36.893836    
  18500000   0.42149764    -7.9612333     -7.3289958      2.4695319      50218.233      36.893836      36.893836      36.893836    
  18600000   0.42107447    -7.9616323     -7.3300295      2.4656134      50218.233      36.893836      36.893836      36.893836    
  18700000   0.42074752    -7.9613787     -7.3302664      2.4680158      50218.233      36.893836      36.893836      36.893836    
  18800000   0.42010438    -7.9588222     -7.3286746      2.4876596      50218.233      36.893836      36.893836      36.893836    
  18900000   0.4208073     -7.9609407     -7.3297387      2.4610011      50218.233      36.893836      36.893836      36.893836    
  19000000   0.42127123    -7.9592804     -7.3273826      2.480127       50218.233      36.893836      36.893836      36.893836    
  19100000   0.41826941    -7.9651219     -7.3377267      2.4345921      50218.233      36.893836      36.893836      36.893836    
  19200000   0.41901709    -7.9585627     -7.330046       2.4875855      50218.233      36.893836      36.893836      36.893836    
  19300000   0.42118966    -7.9678539     -7.3360784      2.4141442      50218.233      36.893836      36.893836      36.893836    
  19400000   0.41972752    -7.9653263     -7.335744       2.4427133      50218.233      36.893836      36.893836      36.893836    
  19500000   0.42035997    -7.9628706     -7.3323396      2.4412124      50218.233      36.893836      36.893836      36.893836    
  19600000   0.41974119    -7.9584194     -7.3288166      2.4873575      50218.233      36.893836      36.893836      36.893836    
  19700000   0.41923099    -7.9612197     -7.3323821      2.4603434      50218.233      36.893836      36.893836      36.893836    
  19800000   0.41967252    -7.9617633     -7.3322635      2.4660066      50218.233      36.893836      36.893836      36.893836    
  19900000   0.42172659    -7.9663715     -7.3337906      2.4390996      50218.233      36.893836      36.893836      36.893836    
  20000000   0.4214153     -7.9613886     -7.3292747      2.4669919      50218.233      36.893836      36.893836      36.893836    
  20100000   0.42231512    -7.9605787     -7.327115       2.4742071      50218.233      36.893836      36.893836      36.893836    
  20200000   0.41995257    -7.9652248     -7.3353049      2.4311603      50218.233      36.893836      36.893836      36.893836    
  20300000   0.42012126    -7.9641152     -7.3339423      2.4467251      50218.233      36.893836      36.893836      36.893836    
  20400000   0.42187345    -7.9585013     -7.3257002      2.4884827      50218.233      36.893836      36.893836      36.893836    
  20500000   0.41742527    -7.963735      -7.337606       2.4460789      50218.233      36.893836      36.893836      36.893836    
  20600000   0.41942908    -7.9617874     -7.3326528      2.456131       50218.233      36.893836      36.893836      36.893836    
  20700000   0.4213534     -7.9593807     -7.3273596      2.4883582      50218.233      36.893836      36.893836      36.893836    
  20800000   0.41943475    -7.9603502     -7.331207       2.4726961      50218.233      36.893836      36.893836      36.893836    
  20900000   0.4181141     -7.9602067     -7.3330445      2.4733771      50218.233      36.893836      36.893836      36.893836    
  21000000   0.41972383    -7.9626649     -7.3330881      2.4623078      50218.233      36.893836      36.893836      36.893836    
  21100000   0.41865032    -7.9615414     -7.3335748      2.4665847      50218.233      36.893836      36.893836      36.893836    
  21200000   0.42166376    -7.9590811     -7.3265944      2.4862072      50218.233      36.893836      36.893836      36.893836    
  21300000   0.42253044    -7.9629651     -7.3291785      2.4666715      50218.233      36.893836      36.893836      36.893836    
  21400000   0.42018794    -7.961713      -7.33144        2.4704775      50218.233      36.893836      36.893836      36.893836    
  21500000   0.42205484    -7.9596824     -7.3266092      2.4933866      50218.233      36.893836      36.893836      36.893836    
  21600000   0.42035595    -7.9577717     -7.3272467      2.499299       50218.233      36.893836      36.893836      36.893836    
  21700000   0.42038195    -7.9577703     -7.3272064      2.5077895      50218.233      36.893836      36.893836      36.893836    
  21800000   0.42029733    -7.957237      -7.3268         2.5048084      50218.233      36.893836      36.893836      36.893836    
  21900000   0.41938786    -7.9603565     -7.3312837      2.4723515      50218.233      36.893836      36.893836      36.893836    
  22000000   0.41994642    -7.9613045     -7.3313938      2.4694904      50218.233      36.893836      36.893836      36.893836    
  22100000   0.41978629    -7.9579191     -7.3282487      2.4908923      50218.233      36.893836      36.893836      36.893836    
  22200000   0.42031984    -7.9609975     -7.3305268      2.4717663      50218.233      36.893836      36.893836      36.893836    
  22300000   0.42260203    -7.96174       -7.327846       2.4628296      50218.233      36.893836      36.893836      36.893836    
  22400000   0.42117081    -7.9587639     -7.3270166      2.4878125      50218.233      36.893836      36.893836      36.893836    
  22500000   0.42129624    -7.9629363     -7.3310009      2.4619948      50218.233      36.893836      36.893836      36.893836    
  22600000   0.42018333    -7.9618473     -7.3315813      2.4612866      50218.233      36.893836      36.893836      36.893836    
  22700000   0.4210476     -7.9623926     -7.3308302      2.464093       50218.233      36.893836      36.893836      36.893836    
  22800000   0.42036111    -7.959239      -7.3287063      2.4793508      50218.233      36.893836      36.893836      36.893836    
  22900000   0.4208414     -7.9609148     -7.3296617      2.4618939      50218.233      36.893836      36.893836      36.893836    
  23000000   0.42022818    -7.9597183     -7.329385       2.4808564      50218.233      36.893836      36.893836      36.893836    
  23100000   0.42064157    -7.9608188     -7.3298655      2.4749693      50218.233      36.893836      36.893836      36.893836    
  23200000   0.41744104    -7.9585815     -7.3324288      2.4828273      50218.233      36.893836      36.893836      36.893836    
  23300000   0.41815452    -7.9629179     -7.3356951      2.4581135      50218.233      36.893836      36.893836      36.893836    
  23400000   0.42024266    -7.9601833     -7.3298283      2.473231       50218.233      36.893836      36.893836      36.893836    
  23500000   0.42075972    -7.9605842     -7.3294536      2.4660088      50218.233      36.893836      36.893836      36.893836    
  23600000   0.42006713    -7.9615619     -7.3314702      2.4614641      50218.233      36.893836      36.893836      36.893836    
  23700000   0.4190063     -7.9610759     -7.3325754      2.4578149      50218.233      36.893836      36.893836      36.893836    
  23800000   0.42023555    -7.9583612     -7.3280168      2.4845896      50218.233      36.893836      36.893836      36.893836    
  23900000   0.4198907     -7.9637793     -7.3339522      2.4518768      50218.233      36.893836      36.893836      36.893836    
  24000000   0.42257241    -7.9609857     -7.3271361      2.470321       50218.233      36.893836      36.893836      36.893836    
  24100000   0.41967824    -7.9607836     -7.3312752      2.4673778      50218.233      36.893836      36.893836      36.893836    
  24200000   0.4190831     -7.9601356     -7.3315199      2.4737472      50218.233      36.893836      36.893836      36.893836    
  24300000   0.42025104    -7.9604239     -7.3300563      2.4752434      50218.233      36.893836      36.893836      36.893836    
  24400000   0.41921195    -7.9632625     -7.3344536      2.4519657      50218.233      36.893836      36.893836      36.893836    
  24500000   0.41965643    -7.9612232     -7.3317475      2.4702052      50218.233      36.893836      36.893836      36.893836    
  24600000   0.42034793    -7.9601991     -7.3296862      2.4787253      50218.233      36.893836      36.893836      36.893836    
  24700000   0.41959377    -7.9607271     -7.3313454      2.4723382      50218.233      36.893836      36.893836      36.893836    
  24800000   0.4186084     -7.960182      -7.3322784      2.4727872      50218.233      36.893836      36.893836      36.893836    
  24900000   0.41774438    -7.9635242     -7.3369165      2.442904       50218.233      36.893836      36.893836      36.893836    
  25000000   0.41831982    -7.9599573     -7.3324865      2.4768886      50218.233      36.893836      36.893836      36.893836    
  25100000   0.41952546    -7.9630352     -7.3337559      2.4483091      50218.233      36.893836      36.893836      36.893836    
  25200000   0.42001758    -7.9639107     -7.3338933      2.4389416      50218.233      36.893836      36.893836      36.893836    
  25300000   0.41956497    -7.9633682     -7.3340297      2.4505611      50218.233      36.893836      36.893836      36.893836    
  25400000   0.42028846    -7.9662229     -7.3357991      2.4288361      50218.233      36.893836      36.893836      36.893836    
  25500000   0.41842845    -7.9621397     -7.334506       2.4581545      50218.233      36.893836      36.893836      36.893836    
  25600000   0.42113237    -7.958436      -7.3267464      2.4904673      50218.233      36.893836      36.893836      36.893836    
  25700000   0.41970473    -7.9632556     -7.3337075      2.4522747      50218.233      36.893836      36.893836      36.893836    
  25800000   0.41821773    -7.962416      -7.3350983      2.4494161      50218.233      36.893836      36.893836      36.893836    
  25900000   0.41834416    -7.9589308     -7.3314234      2.4702242      50218.233      36.893836      36.893836      36.893836    
  26000000   0.42124554    -7.9623586     -7.3304993      2.4648659      50218.233      36.893836      36.893836      36.893836    
  26100000   0.42175298    -7.961099      -7.3284786      2.4755641      50218.233      36.893836      36.893836      36.893836    
  26200000   0.4218427     -7.9616697     -7.3289146      2.4661935      50218.233      36.893836      36.893836      36.893836    
  26300000   0.42076217    -7.9615931     -7.3304588      2.4594782      50218.233      36.893836      36.893836      36.893836    
  26400000   0.41791994    -7.9631379     -7.3362669      2.4503608      50218.233      36.893836      36.893836      36.893836    
  26500000   0.42006491    -7.9627696     -7.3326812      2.4467551      50218.233      36.893836      36.893836      36.893836    
  26600000   0.41875664    -7.9599303     -7.3318043      2.4786893      50218.233      36.893836      36.893836      36.893836    
  26700000   0.42013968    -7.960178      -7.3299774      2.4701124      50218.233      36.893836      36.893836      36.893836    
  26800000   0.41932238    -7.9630552     -7.3340805      2.4633497      50218.233      36.893836      36.893836      36.893836    
  26900000   0.41946767    -7.9615394     -7.3323468      2.4672599      50218.233      36.893836      36.893836      36.893836    
  27000000   0.41996988    -7.9553258     -7.32538        2.5153066      50218.233      36.893836      36.893836      36.893836    
  27100000   0.41939564    -7.9592104     -7.3301259      2.4798243      50218.233      36.893836      36.893836      36.893836    
  27200000   0.4197826     -7.9614459     -7.331781       2.4687942      50218.233      36.893836      36.893836      36.893836    
  27300000   0.42018247    -7.9612262     -7.3309615      2.4589745      50218.233      36.893836      36.893836      36.893836    
  27400000   0.42253024    -7.9598795     -7.3260932      2.4815414      50218.233      36.893836      36.893836      36.893836    
  27500000   0.42083439    -7.961003      -7.3297604      2.4661069      50218.233      36.893836      36.893836      36.893836    
  27600000   0.42042237    -7.9607231     -7.3300985      2.4668143      50218.233      36.893836      36.893836      36.893836    
  27700000   0.42139842    -7.959872      -7.3277834      2.4776521      50218.233      36.893836      36.893836      36.893836    
  27800000   0.42206041    -7.9588311     -7.3257495      2.4918331      50218.233      36.893836      36.893836      36.893836    
  27900000   0.42068335    -7.9593063     -7.3282903      2.4896403      50218.233      36.893836      36.893836      36.893836    
  28000000   0.41895688    -7.9617576     -7.3333312      2.4631411      50218.233      36.893836      36.893836      36.893836    
  28100000   0.42176252    -7.9632219     -7.3305871      2.4470551      50218.233      36.893836      36.893836      36.893836    
  28200000   0.42044827    -7.9632375     -7.3325741      2.4423118      50218.233      36.893836      36.893836      36.893836    
  28300000   0.41937574    -7.9589644     -7.3299097      2.487423       50218.233      36.893836      36.893836      36.893836    
  28400000   0.41856566    -7.9583984     -7.3305588      2.4784384      50218.233      36.893836      36.893836      36.893836    
  28500000   0.42209817    -7.9603872     -7.327249       2.4781339      50218.233      36.893836      36.893836      36.893836    
  28600000   0.41900444    -7.9597038     -7.331206       2.4792885      50218.233      36.893836      36.893836      36.893836    
  28700000   0.42183874    -7.9603659     -7.3276168      2.4783303      50218.233      36.893836      36.893836      36.893836    
  28800000   0.420389      -7.9627477     -7.3321732      2.4549163      50218.233      36.893836      36.893836      36.893836    
  28900000   0.41983726    -7.9626257     -7.3328787      2.45162        50218.233      36.893836      36.893836      36.893836    
  29000000   0.42040049    -7.9621222     -7.3315304      2.4582447      50218.233      36.893836      36.893836      36.893836    
  29100000   0.42077855    -7.9631679     -7.3320091      2.4538426      50218.233      36.893836      36.893836      36.893836    
  29200000   0.42036607    -7.961208      -7.3306679      2.4658883      50218.233      36.893836      36.893836      36.893836    
  29300000   0.42296383    -7.9610502     -7.3266135      2.4682169      50218.233      36.893836      36.893836      36.893836    
  29400000   0.42205943    -7.9637777     -7.3306976      2.4456186      50218.233      36.893836      36.893836      36.893836    
  29500000   0.41909995    -7.9638364     -7.3351955      2.4540371      50218.233      36.893836      36.893836      36.893836    
  29600000   0.42084512    -7.9597457     -7.328487       2.4801301      50218.233      36.893836      36.893836      36.893836    
  29700000   0.41874664    -7.9634369     -7.3353259      2.4608596      50218.233      36.893836      36.893836      36.893836    
  29800000   0.41984359    -7.9612608     -7.3315044      2.4726534      50218.233      36.893836      36.893836      36.893836    
  29900000   0.417556      -7.9642833     -7.3379582      2.4437843      50218.233      36.893836      36.893836      36.893836    
  30000000   0.41954769    -7.9631327     -7.3338201      2.451044       50218.233      36.893836      36.893836      36.893836    
  30100000   0.4203625     -7.9610534     -7.3305186      2.4734976      50218.233      36.893836      36.893836      36.893836    
  30200000   0.41905997    -7.9613469     -7.3327659      2.4784776      50218.233      36.893836      36.893836      36.893836    
  30300000   0.41684143    -7.9608505     -7.3355972      2.468268       50218.233      36.893836      36.893836      36.893836    
  30400000   0.42020648    -7.9622407     -7.33194        2.4628511      50218.233      36.893836      36.893836      36.893836    
  30500000   0.41760298    -7.9615815     -7.335186       2.4586581      50218.233      36.893836      36.893836      36.893836    
  30600000   0.4220775     -7.9601731     -7.3270659      2.4794724      50218.233      36.893836      36.893836      36.893836    
  30700000   0.41889222    -7.9617327     -7.3334033      2.4595393      50218.233      36.893836      36.893836      36.893836    
  30800000   0.41913132    -7.963089      -7.334401       2.449335       50218.233      36.893836      36.893836      36.893836    
  30900000   0.4193674     -7.9618798     -7.3328376      2.454363       50218.233      36.893836      36.893836      36.893836    
  31000000   0.420584      -7.961307      -7.33044        2.4604176      50218.233      36.893836      36.893836      36.893836    
  31100000   0.42230474    -7.9630664     -7.3296183      2.454528       50218.233      36.893836      36.893836      36.893836    
  31200000   0.42041848    -7.9632015     -7.3325828      2.4552559      50218.233      36.893836      36.893836      36.893836    
  31300000   0.42004331    -7.9610274     -7.3309714      2.4713099      50218.233      36.893836      36.893836      36.893836    
  31400000   0.42005328    -7.9594172     -7.3293462      2.4863786      50218.233      36.893836      36.893836      36.893836    
  31500000   0.41854237    -7.9632805     -7.3354759      2.442512       50218.233      36.893836      36.893836      36.893836    
  31600000   0.42063298    -7.9625799     -7.3316394      2.4595061      50218.233      36.893836      36.893836      36.893836    
  31700000   0.41930175    -7.9629882     -7.3340445      2.4639594      50218.233      36.893836      36.893836      36.893836    
  31800000   0.41998745    -7.9612876     -7.3313154      2.4663209      50218.233      36.893836      36.893836      36.893836    
  31900000   0.41951419    -7.9583459     -7.3290836      2.4825126      50218.233      36.893836      36.893836      36.893836    
  32000000   0.4200474     -7.9611752     -7.3311131      2.4684318      50218.233      36.893836      36.893836      36.893836    
  32100000   0.42014533    -7.9632356     -7.3330266      2.4473657      50218.233      36.893836      36.893836      36.893836    
  32200000   0.41783996    -7.963228      -7.336477       2.4499813      50218.233      36.893836      36.893836      36.893836    
  32300000   0.41957091    -7.9617251     -7.3323777      2.4605656      50218.233      36.893836      36.893836      36.893836    
  32400000   0.42146147    -7.9590993     -7.3269161      2.487135       50218.233      36.893836      36.893836      36.893836    
  32500000   0.42142839    -7.964221      -7.3320874      2.4404893      50218.233      36.893836      36.893836      36.893836    
  32600000   0.4189844     -7.962199      -7.3337314      2.4587889      50218.233      36.893836      36.893836      36.893836    
  32700000   0.42047365    -7.9604801     -7.3297786      2.4769977      50218.233      36.893836      36.893836      36.893836    
  32800000   0.42035998    -7.9637252     -7.3331942      2.4603008      50218.233      36.893836      36.893836      36.893836    
  32900000   0.42026892    -7.9619484     -7.331554       2.4623426      50218.233      36.893836      36.893836      36.893836    
  33000000   0.42086749    -7.9599686     -7.3286763      2.4823448      50218.233      36.893836      36.893836      36.893836    
  33100000   0.42274607    -7.9614074     -7.3272973      2.4690283      50218.233      36.893836      36.893836      36.893836    
  33200000   0.41868718    -7.9589551     -7.3309332      2.4826852      50218.233      36.893836      36.893836      36.893836    
  33300000   0.41964728    -7.9598394     -7.3303775      2.4829828      50218.233      36.893836      36.893836      36.893836    
  33400000   0.4217982     -7.9627159     -7.3300276      2.4757192      50218.233      36.893836      36.893836      36.893836    
  33500000   0.42106413    -7.9607182     -7.329131       2.475499       50218.233      36.893836      36.893836      36.893836    
  33600000   0.42015117    -7.9626647     -7.3324469      2.4712886      50218.233      36.893836      36.893836      36.893836    
  33700000   0.42013015    -7.9632618     -7.3330755      2.4620869      50218.233      36.893836      36.893836      36.893836    
  33800000   0.42178993    -7.9632047     -7.3305288      2.4573225      50218.233      36.893836      36.893836      36.893836    
  33900000   0.42044968    -7.9619087     -7.3312432      2.4745967      50218.233      36.893836      36.893836      36.893836    
  34000000   0.42113537    -7.961416      -7.329722       2.4653862      50218.233      36.893836      36.893836      36.893836    
  34100000   0.41855877    -7.9636212     -7.335792       2.4428645      50218.233      36.893836      36.893836      36.893836    
  34200000   0.42034596    -7.9615132     -7.3310032      2.4569919      50218.233      36.893836      36.893836      36.893836    
  34300000   0.42152481    -7.9638735     -7.3315952      2.4556216      50218.233      36.893836      36.893836      36.893836    
  34400000   0.41765342    -7.9607708     -7.3342996      2.476628       50218.233      36.893836      36.893836      36.893836    
  34500000   0.41918559    -7.9607813     -7.3320118      2.4748455      50218.233      36.893836      36.893836      36.893836    
  34600000   0.41864375    -7.9604867     -7.33253        2.4701235      50218.233      36.893836      36.893836      36.893836    
  34700000   0.41917372    -7.9602226     -7.3314709      2.4823728      50218.233      36.893836      36.893836      36.893836    
  34800000   0.41905518    -7.9617268     -7.333153       2.46544        50218.233      36.893836      36.893836      36.893836    
  34900000   0.41921402    -7.9624207     -7.3336086      2.4560213      50218.233      36.893836      36.893836      36.893836    
  35000000   0.42079115    -7.9650533     -7.3338756      2.435615       50218.233      36.893836      36.893836      36.893836    
  35100000   0.41782244    -7.9614961     -7.3347713      2.4618769      50218.233      36.893836      36.893836      36.893836    
  35200000   0.42011627    -7.962975      -7.3328096      2.4605032      50218.233      36.893836      36.893836      36.893836    
  35300000   0.4189742     -7.9623922     -7.3339398      2.4574843      50218.233      36.893836      36.893836      36.893836    
  35400000   0.41900734    -7.9621407     -7.3336387      2.4509935      50218.233      36.893836      36.893836      36.893836    
  35500000   0.42036957    -7.9621615     -7.3316161      2.4637096      50218.233      36.893836      36.893836      36.893836    
  35600000   0.41896449    -7.9642767     -7.3358389      2.439577       50218.233      36.893836      36.893836      36.893836    
  35700000   0.42108818    -7.9608592     -7.3292359      2.469883       50218.233      36.893836      36.893836      36.893836    
  35800000   0.41857151    -7.9624537     -7.3346053      2.4493302      50218.233      36.893836      36.893836      36.893836    
  35900000   0.41995203    -7.9631234     -7.3332043      2.4622777      50218.233      36.893836      36.893836      36.893836    
  36000000   0.42127186    -7.9607325     -7.3288337      2.4765973      50218.233      36.893836      36.893836      36.893836    
  36100000   0.42000476    -7.9584994     -7.3285012      2.4822313      50218.233      36.893836      36.893836      36.893836    
  36200000   0.41843169    -7.9552216     -7.327583       2.5028986      50218.233      36.893836      36.893836      36.893836    
  36300000   0.42098172    -7.9612588     -7.3297952      2.4693961      50218.233      36.893836      36.893836      36.893836    
  36400000   0.42038097    -7.9648795     -7.334317       2.440027       50218.233      36.893836      36.893836      36.893836    
  36500000   0.42081708    -7.9609617     -7.329745       2.4610307      50218.233      36.893836      36.893836      36.893836    
  36600000   0.42115601    -7.9589522     -7.3272272      2.4851483      50218.233      36.893836      36.893836      36.893836    
  36700000   0.42255948    -7.9603778     -7.3265476      2.4773131      50218.233      36.893836      36.893836      36.893836    
  36800000   0.42135448    -7.9621714     -7.3301487      2.4632201      50218.233      36.893836      36.893836      36.893836    
  36900000   0.41894537    -7.9569801     -7.328571       2.5056158      50218.233      36.893836      36.893836      36.893836    
  37000000   0.41929186    -7.9612786     -7.3323497      2.4647383      50218.233      36.893836      36.893836      36.893836    
  37100000   0.42394587    -7.9625871     -7.3266773      2.4567417      50218.233      36.893836      36.893836      36.893836    
  37200000   0.42018863    -7.958515      -7.3282411      2.4895893      50218.233      36.893836      36.893836      36.893836    
  37300000   0.42191091    -7.9630091     -7.3301518      2.4522082      50218.233      36.893836      36.893836      36.893836    
  37400000   0.42033923    -7.9587959     -7.328296       2.4864816      50218.233      36.893836      36.893836      36.893836    
  37500000   0.42066968    -7.9593292     -7.3283336      2.4854279      50218.233      36.893836      36.893836      36.893836    
  37600000   0.41872887    -7.9583409     -7.3302565      2.4838263      50218.233      36.893836      36.893836      36.893836    
  37700000   0.41943549    -7.959455      -7.3303107      2.4654754      50218.233      36.893836      36.893836      36.893836    
  37800000   0.42042472    -7.9589001     -7.328272       2.4806947      50218.233      36.893836      36.893836      36.893836    
  37900000   0.41961183    -7.9643192     -7.3349104      2.4454791      50218.233      36.893836      36.893836      36.893836    
  38000000   0.41941804    -7.959867      -7.3307489      2.4743129      50218.233      36.893836      36.893836      36.893836    
  38100000   0.4205406     -7.9625748     -7.3317729      2.4671363      50218.233      36.893836      36.893836      36.893836    
  38200000   0.41960724    -7.9645294     -7.3351275      2.4459212      50218.233      36.893836      36.893836      36.893836    
  38300000   0.42062018    -7.9594583     -7.328537       2.4835474      50218.233      36.893836      36.893836      36.893836    
  38400000   0.42233959    -7.9628125     -7.3293122      2.4535499      50218.233      36.893836      36.893836      36.893836    
  38500000   0.42142642    -7.9617767     -7.329646       2.4641519      50218.233      36.893836      36.893836      36.893836    
  38600000   0.42184888    -7.958764      -7.3259996      2.4830737      50218.233      36.893836      36.893836      36.893836    
  38700000   0.42052729    -7.9617028     -7.3309209      2.4686314      50218.233      36.893836      36.893836      36.893836    
  38800000   0.42251906    -7.9573748     -7.3236052      2.4917217      50218.233      36.893836      36.893836      36.893836    
  38900000   0.42114435    -7.9608903     -7.3291828      2.4644693      50218.233      36.893836      36.893836      36.893836    
  39000000   0.4213707     -7.9622634     -7.3302163      2.4572543      50218.233      36.893836      36.893836      36.893836    
  39100000   0.41956871    -7.9606441     -7.3313         2.4718543      50218.233      36.893836      36.893836      36.893836    
  39200000   0.41858544    -7.9623989     -7.3345297      2.4487731      50218.233      36.893836      36.893836      36.893836    
  39300000   0.41801962    -7.9605037     -7.3334831      2.4627545      50218.233      36.893836      36.893836      36.893836    
  39400000   0.42153659    -7.9587404     -7.3264445      2.4836189      50218.233      36.893836      36.893836      36.893836    
  39500000   0.42011961    -7.9598559     -7.3296854      2.4754916      50218.233      36.893836      36.893836      36.893836    
  39600000   0.41736123    -7.9615122     -7.3354793      2.463505       50218.233      36.893836      36.893836      36.893836    
  39700000   0.41973062    -7.9610263     -7.3314394      2.4705632      50218.233      36.893836      36.893836      36.893836    
  39800000   0.41902339    -7.9622457     -7.3337196      2.4494827      50218.233      36.893836      36.893836      36.893836    
  39900000   0.41872402    -7.96264       -7.3345629      2.4570792      50218.233      36.893836      36.893836      36.893836    
  40000000   0.41949631    -7.9605879     -7.3313524      2.4676488      50218.233      36.893836      36.893836      36.893836    
  40100000   0.4192389     -7.9606717     -7.3318222      2.4750703      50218.233      36.893836      36.893836      36.893836    
  40200000   0.41751218    -7.9621743     -7.3359149      2.4487598      50218.233      36.893836      36.893836      36.893836    
  40300000   0.42021136    -7.9666055     -7.3362974      2.421615       50218.233      36.893836      36.893836      36.893836    
  40400000   0.42235369    -7.9600745     -7.326553       2.4840116      50218.233      36.893836      36.893836      36.893836    
  40500000   0.41912386    -7.9631665     -7.3344896      2.447075       50218.233      36.893836      36.893836      36.893836    
  40600000   0.41957998    -7.9609139     -7.3315529      2.4745811      50218.233      36.893836      36.893836      36.893836    
  40700000   0.42338826    -7.9605896     -7.3255163      2.4736201      50218.233      36.893836      36.893836      36.893836    
  40800000   0.42092119    -7.9649613     -7.3335885      2.4398729      50218.233      36.893836      36.893836      36.893836    
  40900000   0.41923231    -7.9618795     -7.33304        2.4617792      50218.233      36.893836      36.893836      36.893836    
  41000000   0.42114084    -7.9633773     -7.331675       2.4570537      50218.233      36.893836      36.893836      36.893836    
  41100000   0.42094638    -7.9642289     -7.3328183      2.4434126      50218.233      36.893836      36.893836      36.893836    
  41200000   0.41903506    -7.9607967     -7.332253       2.4638673      50218.233      36.893836      36.893836      36.893836    
  41300000   0.41882509    -7.961095      -7.3328663      2.4653201      50218.233      36.893836      36.893836      36.893836    
  41400000   0.41861939    -7.9607986     -7.3328784      2.4699369      50218.233      36.893836      36.893836      36.893836    
  41500000   0.41926909    -7.96306       -7.3341653      2.455726       50218.233      36.893836      36.893836      36.893836    
  41600000   0.4222295     -7.9603031     -7.3269678      2.480069       50218.233      36.893836      36.893836      36.893836    
  41700000   0.41801137    -7.9620476     -7.3350394      2.4533819      50218.233      36.893836      36.893836      36.893836    
  41800000   0.42140989    -7.9587883     -7.3266824      2.4846651      50218.233      36.893836      36.893836      36.893836    
  41900000   0.42044597    -7.9624304     -7.3317704      2.4497472      50218.233      36.893836      36.893836      36.893836    
  42000000   0.41855228    -7.9610294     -7.3332099      2.4702682      50218.233      36.893836      36.893836      36.893836    
  42100000   0.41991464    -7.9601318     -7.3302689      2.4737737      50218.233      36.893836      36.893836      36.893836    
  42200000   0.42429548    -7.9631665     -7.3267324      2.4549053      50218.233      36.893836      36.893836      36.893836    
  42300000   0.42092224    -7.9585052     -7.3271308      2.4898212      50218.233      36.893836      36.893836      36.893836    
  42400000   0.42158382    -7.9636501     -7.3312834      2.4515263      50218.233      36.893836      36.893836      36.893836    
  42500000   0.41861817    -7.9613502     -7.3334319      2.4683833      50218.233      36.893836      36.893836      36.893836    
  42600000   0.42069611    -7.960683      -7.3296478      2.4693422      50218.233      36.893836      36.893836      36.893836    
  42700000   0.42084744    -7.9620834     -7.3308213      2.4470496      50218.233      36.893836      36.893836      36.893836    
  42800000   0.4222421     -7.9633784     -7.3300242      2.4530064      50218.233      36.893836      36.893836      36.893836    
  42900000   0.42113425    -7.9620976     -7.3304052      2.4555725      50218.233      36.893836      36.893836      36.893836    
  43000000   0.41905816    -7.9583856     -7.3298073      2.4908838      50218.233      36.893836      36.893836      36.893836    
  43100000   0.41995481    -7.9610211     -7.3310979      2.4738965      50218.233      36.893836      36.893836      36.893836    
  43200000   0.41860799    -7.9602205     -7.3323175      2.4672246      50218.233      36.893836      36.893836      36.893836    
  43300000   0.42038676    -7.9638083     -7.3332371      2.4435288      50218.233      36.893836      36.893836      36.893836    
  43400000   0.42191342    -7.9651273     -7.3322662      2.440521       50218.233      36.893836      36.893836      36.893836    
  43500000   0.42307678    -7.9655564     -7.3309503      2.4347954      50218.233      36.893836      36.893836      36.893836    
  43600000   0.41845007    -7.9612928     -7.3336266      2.453486       50218.233      36.893836      36.893836      36.893836    
  43700000   0.42047336    -7.9608436     -7.3301425      2.4711379      50218.233      36.893836      36.893836      36.893836    
  43800000   0.42020932    -7.9625903     -7.3322853      2.4608648      50218.233      36.893836      36.893836      36.893836    
  43900000   0.41903819    -7.9613228     -7.3327745      2.4618665      50218.233      36.893836      36.893836      36.893836    
  44000000   0.419152      -7.9598683     -7.3311493      2.4690129      50218.233      36.893836      36.893836      36.893836    
  44100000   0.42062514    -7.9679315     -7.3370028      2.4105203      50218.233      36.893836      36.893836      36.893836    
  44200000   0.42036385    -7.9597234     -7.3291866      2.4698255      50218.233      36.893836      36.893836      36.893836    
  44300000   0.41933057    -7.9612331     -7.3322462      2.472295       50218.233      36.893836      36.893836      36.893836    
  44400000   0.41859436    -7.965657      -7.3377744      2.4315918      50218.233      36.893836      36.893836      36.893836    
  44500000   0.42091188    -7.9611728     -7.329814       2.4829665      50218.233      36.893836      36.893836      36.893836    
  44600000   0.41954953    -7.9619704     -7.332655       2.4648746      50218.233      36.893836      36.893836      36.893836    
  44700000   0.42069623    -7.9623984     -7.331363       2.4564973      50218.233      36.893836      36.893836      36.893836    
  44800000   0.42197002    -7.9585104     -7.3255643      2.4788905      50218.233      36.893836      36.893836      36.893836    
  44900000   0.41836761    -7.9663618     -7.3388193      2.4299701      50218.233      36.893836      36.893836      36.893836    
  45000000   0.42152375    -7.9605374     -7.3282607      2.4738194      50218.233      36.893836      36.893836      36.893836    
  45100000   0.41878393    -7.9643547     -7.3361877      2.4360224      50218.233      36.893836      36.893836      36.893836    
  45200000   0.41847951    -7.9606356     -7.3329253      2.4708765      50218.233      36.893836      36.893836      36.893836    
  45300000   0.42177488    -7.9661711     -7.3335178      2.4358726      50218.233      36.893836      36.893836      36.893836    
  45400000   0.42201636    -7.9617038     -7.3286882      2.4614097      50218.233      36.893836      36.893836      36.893836    
  45500000   0.42022826    -7.9623636     -7.3320301      2.451025       50218.233      36.893836      36.893836      36.893836    
  45600000   0.41857948    -7.960122      -7.3322617      2.4775044      50218.233      36.893836      36.893836      36.893836    
  45700000   0.41833173    -7.9602078     -7.3327191      2.4714869      50218.233      36.893836      36.893836      36.893836    
  45800000   0.41940605    -7.9605871     -7.331487       2.4696772      50218.233      36.893836      36.893836      36.893836    
  45900000   0.42023505    -7.962597      -7.3322533      2.4557354      50218.233      36.893836      36.893836      36.893836    
  46000000   0.41889421    -7.959623      -7.3312906      2.4798687      50218.233      36.893836      36.893836      36.893836    
  46100000   0.41983171    -7.9605183     -7.3307797      2.4794835      50218.233      36.893836      36.893836      36.893836    
  46200000   0.42109222    -7.9633046     -7.3316752      2.4494718      50218.233      36.893836      36.893836      36.893836    
  46300000   0.42161706    -7.9611814     -7.3287649      2.4681232      50218.233      36.893836      36.893836      36.893836    
  46400000   0.41907715    -7.9633525     -7.3347457      2.453398       50218.233      36.893836      36.893836      36.893836    
  46500000   0.4201608     -7.9591885     -7.3289563      2.473313       50218.233      36.893836      36.893836      36.893836    
  46600000   0.41935666    -7.9612246     -7.3321985      2.4654481      50218.233      36.893836      36.893836      36.893836    
  46700000   0.41863004    -7.9594012     -7.331465       2.4674552      50218.233      36.893836      36.893836      36.893836    
  46800000   0.41926179    -7.9625158     -7.3336321      2.4577422      50218.233      36.893836      36.893836      36.893836    
  46900000   0.42158953    -7.9634593     -7.331084       2.4451615      50218.233      36.893836      36.893836      36.893836    
  47000000   0.41632408    -7.9618705     -7.3373933      2.4522719      50218.233      36.893836      36.893836      36.893836    
  47100000   0.42260515    -7.9600955     -7.3261968      2.4718679      50218.233      36.893836      36.893836      36.893836    
  47200000   0.41824419    -7.9624912     -7.3351338      2.4505802      50218.233      36.893836      36.893836      36.893836    
  47300000   0.42345763    -7.9588057     -7.3236283      2.4769438      50218.233      36.893836      36.893836      36.893836    
  47400000   0.42191546    -7.9613774     -7.3285132      2.4639012      50218.233      36.893836      36.893836      36.893836    
  47500000   0.41894039    -7.9627597     -7.334358       2.4524778      50218.233      36.893836      36.893836      36.893836    
  47600000   0.41976035    -7.958217      -7.3285855      2.4889403      50218.233      36.893836      36.893836      36.893836    
  47700000   0.41968432    -7.9587728     -7.3292552      2.4789447      50218.233      36.893836      36.893836      36.893836    
  47800000   0.42055896    -7.9635711     -7.3327416      2.4442715      50218.233      36.893836      36.893836      36.893836    
  47900000   0.41856295    -7.9636414     -7.3358059      2.4421806      50218.233      36.893836      36.893836      36.893836    
  48000000   0.421182      -7.9613392     -7.3295752      2.4668608      50218.233      36.893836      36.893836      36.893836    
  48100000   0.42124937    -7.9656907     -7.3338256      2.4410851      50218.233      36.893836      36.893836      36.893836    
  48200000   0.42059912    -7.9618136     -7.3309239      2.4595588      50218.233      36.893836      36.893836      36.893836    
  48300000   0.41713479    -7.9630085     -7.3373152      2.4399939      50218.233      36.893836      36.893836      36.893836    
  48400000   0.4200149     -7.9633005     -7.3332871      2.4485742      50218.233      36.893836      36.893836      36.893836    
  48500000   0.42041785    -7.9607941     -7.3301763      2.4618474      50218.233      36.893836      36.893836      36.893836    
  48600000   0.41975403    -7.9636493     -7.3340272      2.4479981      50218.233      36.893836      36.893836      36.893836    
  48700000   0.42088186    -7.964218      -7.3329042      2.4426685      50218.233      36.893836      36.893836      36.893836    
  48800000   0.41985089    -7.9643028     -7.3345354      2.4455616      50218.233      36.893836      36.893836      36.893836    
  48900000   0.41887525    -7.9617125     -7.3334086      2.443053       50218.233      36.893836      36.893836      36.893836    
  49000000   0.42120739    -7.9652386     -7.3334365      2.4410341      50218.233      36.893836      36.893836      36.893836    
  49100000   0.42165758    -7.9629232     -7.3304458      2.4552733      50218.233      36.893836      36.893836      36.893836    
  49200000   0.4217318     -7.9624481     -7.3298594      2.4517921      50218.233      36.893836      36.893836      36.893836    
  49300000   0.42077395    -7.9624656     -7.3313136      2.4523179      50218.233      36.893836      36.893836      36.893836    
  49400000   0.41801312    -7.9629909     -7.3359802      2.4493031      50218.233      36.893836      36.893836      36.893836    
  49500000   0.42162706    -7.9648152     -7.3323836      2.4306544      50218.233      36.893836      36.893836      36.893836    
  49600000   0.42054868    -7.9602728     -7.3294587      2.4667164      50218.233      36.893836      36.893836      36.893836    
  49700000   0.4213217     -7.9620724     -7.3300989      2.4570392      50218.233      36.893836      36.893836      36.893836    
  49800000   0.41822621    -7.9627594     -7.335429       2.4451399      50218.233      36.893836      36.893836      36.893836    
  49900000   0.42104299    -7.9641632     -7.3326077      2.4455218      50218.233      36.893836      36.893836      36.893836    
  50000000   0.4208037     -7.9625115     -7.3313149      2.4569523      50218.233      36.893836      36.893836      36.893836    
Loop time of 71533 on 5 procs for 50000000 steps with 70304 atoms

Performance: 603916.856 tau/day, 698.978 timesteps/s, 49.141 Matom-step/s
95.2% CPU use with 5 MPI tasks x 1 OpenMP threads

MPI task timing breakdown:
Section |  min time  |  avg time  |  max time  |%varavg| %total
---------------------------------------------------------------
Pair    | 20619      | 26624      | 31369      |2279.7 | 37.22
Neigh   | 229.33     | 246.36     | 258.56     |  61.5 |  0.34
Comm    | 11258      | 11430      | 11612      | 127.9 | 15.98
Output  | 0.090806   | 0.094246   | 0.10045    |   1.1 |  0.00
Modify  | 24946      | 29499      | 35350      |2081.5 | 41.24
Other   |            | 3735       |            |       |  5.22

Nlocal:        14060.8 ave       14116 max       14035 min
Histogram: 2 0 2 0 0 0 0 0 0 1
Nghost:        18728.8 ave       18783 max       18664 min
Histogram: 1 0 0 0 2 0 0 0 1 1
Neighs:              0 ave           0 max           0 min
Histogram: 5 0 0 0 0 0 0 0 0 0

Total # of neighbors = 0
Ave neighs/atom = 0
Neighbor list builds = 9845573
Dangerous builds = 0
clear
OMP_NUM_THREADS environment is not set. Defaulting to 1 thread. (src/comm.cpp:98)
  using 1 OpenMP thread(s) per MPI task
package gpu 0
jump dms400.lmp

variable T equal 400
# T = 1000* (temp in LJ unit)
variable f equal 100000
log log.${T}
log log.400
