variable TLJ equal (${T}/1000)
variable TLJ equal (505/1000)
variable NCyle equal 5
variable iStep equal (${f})
variable iStep equal (100000)
variable dumpStep equal (${f}*100)
variable dumpStep equal (100000*100)
variable runStep equal (${f}*100*${NCyle})
variable runStep equal (100000*100*${NCyle})
variable runStep equal (100000*100*5)

units       lj
atom_style  atomic
dimension 3
boundary     p p p
pair_style  lj/cut 2.5
read_data  ../data/T${T}.dat
read_data  ../data/T505.dat
Reading data file ...
  orthogonal box = (0.97250269 0.97250269 0.97250269) to (37.866338 37.866338 37.866338)
  1 by 1 by 5 MPI processor grid
  reading atoms ...
  70304 atoms
  reading velocities ...
  70304 velocities
  read_data CPU = 0.209 seconds
change_box all triclinic
Changing box ...
  triclinic box = (0.97250269 0.97250269 0.97250269) to (37.866338 37.866338 37.866338) with tilt (0 0 0)
mass 1 1
mass 2 1
pair_modify shift yes
pair_coeff  1 1 1 1
pair_coeff  1 2 1.5 0.8
pair_coeff  2 2 0.5 0.88


timestep 0.01
thermo ${iStep}
thermo 100000
reset_timestep 0
thermo_style custom step temp pe etotal press vol lx ly lz
fix             1 all nvt temp ${TLJ}  ${TLJ}  0.1
fix             1 all nvt temp 0.505  ${TLJ}  0.1
fix             1 all nvt temp 0.505  0.505  0.1
thermo_modify flush yes

fix dsf all deform 1 xy  wiggle 0.5  ${f}   units box
fix dsf all deform 1 xy  wiggle 0.5  100000   units box
fix ps1 all ave/time 1 1 ${iStep} c_thermo_press[1] c_thermo_press[2]  c_thermo_press[3] c_thermo_press[4]  c_thermo_press[5] c_thermo_press[6]  file  stress.${T}
fix ps1 all ave/time 1 1 100000 c_thermo_press[1] c_thermo_press[2]  c_thermo_press[3] c_thermo_press[4]  c_thermo_press[5] c_thermo_press[6]  file  stress.${T}
fix ps1 all ave/time 1 1 100000 c_thermo_press[1] c_thermo_press[2]  c_thermo_press[3] c_thermo_press[4]  c_thermo_press[5] c_thermo_press[6]  file  stress.505
dump            1 all custom ${dumpStep} dump.${T} id type x y z
dump            1 all custom 10000000 dump.${T} id type x y z
dump            1 all custom 10000000 dump.505 id type x y z
dump_modify 1 sort id
fix nodrift all momentum 1  linear 1 1 1
fix com_seed all recenter INIT INIT INIT shift all
run ${runStep}
run 50000000
Generated 0 of 1 mixed pair_coeff terms from geometric mixing rule
Per MPI rank memory allocation (min/avg/max) = 6.668 | 8.469 | 8.923 Mbytes
   Step          Temp          PotEng         TotEng         Press          Volume           Lx             Ly             Lz      
         0   0.50504113    -7.8194685     -7.0619175      3.6333487      50218.233      36.893836      36.893836      36.893836    
    100000   0.50382068    -7.8064192     -7.0506989      3.7122656      50218.233      36.893836      36.893836      36.893836    
    200000   0.50590005    -7.8047103     -7.045871       3.7367612      50218.233      36.893836      36.893836      36.893836    
    300000   0.5056091     -7.8044858     -7.046083       3.739597       50218.233      36.893836      36.893836      36.893836    
    400000   0.50052325    -7.8052229     -7.0544487      3.7446377      50218.233      36.893836      36.893836      36.893836    
    500000   0.50606943    -7.7996049     -7.0405115      3.782585       50218.233      36.893836      36.893836      36.893836    
    600000   0.50439793    -7.8101018     -7.0535156      3.7074231      50218.233      36.893836      36.893836      36.893836    
    700000   0.50582094    -7.8069234     -7.0482028      3.7213057      50218.233      36.893836      36.893836      36.893836    
    800000   0.50719597    -7.8039147     -7.0431316      3.7596889      50218.233      36.893836      36.893836      36.893836    
    900000   0.50530538    -7.805724      -7.0477767      3.7284108      50218.233      36.893836      36.893836      36.893836    
   1000000   0.50332756    -7.8042459     -7.0492653      3.7392931      50218.233      36.893836      36.893836      36.893836    
   1100000   0.50708185    -7.8077923     -7.0471804      3.7314471      50218.233      36.893836      36.893836      36.893836    
   1200000   0.50282293    -7.8076509     -7.0534272      3.7131082      50218.233      36.893836      36.893836      36.893836    
   1300000   0.50467807    -7.8019879     -7.0449816      3.7583739      50218.233      36.893836      36.893836      36.893836    
   1400000   0.50451391    -7.8019896     -7.0452295      3.763178       50218.233      36.893836      36.893836      36.893836    
   1500000   0.50654612    -7.8036292     -7.0438208      3.7571935      50218.233      36.893836      36.893836      36.893836    
   1600000   0.50435666    -7.803635      -7.0471107      3.7588251      50218.233      36.893836      36.893836      36.893836    
   1700000   0.50588409    -7.8038019     -7.0449866      3.7549796      50218.233      36.893836      36.893836      36.893836    
   1800000   0.50210456    -7.8047548     -7.0516087      3.7217073      50218.233      36.893836      36.893836      36.893836    
   1900000   0.504716      -7.8054354     -7.0483722      3.7357792      50218.233      36.893836      36.893836      36.893836    
   2000000   0.50351553    -7.8020347     -7.0467722      3.7491491      50218.233      36.893836      36.893836      36.893836    
   2100000   0.50793713    -7.8001107     -7.0382158      3.7731135      50218.233      36.893836      36.893836      36.893836    
   2200000   0.50437824    -7.8062181     -7.0496615      3.7151498      50218.233      36.893836      36.893836      36.893836    
   2300000   0.50398739    -7.8030399     -7.0470695      3.7392213      50218.233      36.893836      36.893836      36.893836    
   2400000   0.50577914    -7.8080699     -7.0494119      3.7246492      50218.233      36.893836      36.893836      36.893836    
   2500000   0.50413683    -7.8042005     -7.048006       3.7375954      50218.233      36.893836      36.893836      36.893836    
   2600000   0.50499619    -7.8049724     -7.0474889      3.7301594      50218.233      36.893836      36.893836      36.893836    
   2700000   0.504857      -7.809394      -7.0521193      3.7093574      50218.233      36.893836      36.893836      36.893836    
   2800000   0.50073072    -7.8042683     -7.0531829      3.7318557      50218.233      36.893836      36.893836      36.893836    
   2900000   0.5038498     -7.8080873     -7.0523234      3.706217       50218.233      36.893836      36.893836      36.893836    
   3000000   0.50493288    -7.8082718     -7.0508833      3.7193009      50218.233      36.893836      36.893836      36.893836    
   3100000   0.50506778    -7.8056672     -7.0480763      3.735102       50218.233      36.893836      36.893836      36.893836    
   3200000   0.50559912    -7.8071906     -7.0488027      3.724127       50218.233      36.893836      36.893836      36.893836    
   3300000   0.50356828    -7.8102985     -7.0549568      3.6944256      50218.233      36.893836      36.893836      36.893836    
   3400000   0.50510424    -7.8060303     -7.0483847      3.7367012      50218.233      36.893836      36.893836      36.893836    
   3500000   0.5063122     -7.8060348     -7.0465773      3.7286748      50218.233      36.893836      36.893836      36.893836    
   3600000   0.50695467    -7.803664      -7.0432429      3.7537529      50218.233      36.893836      36.893836      36.893836    
   3700000   0.5071405     -7.8073514     -7.0466515      3.7184444      50218.233      36.893836      36.893836      36.893836    
   3800000   0.50567791    -7.801631      -7.0431249      3.7684447      50218.233      36.893836      36.893836      36.893836    
   3900000   0.50142044    -7.8050507     -7.0529307      3.740343       50218.233      36.893836      36.893836      36.893836    
   4000000   0.50498215    -7.803721      -7.0462586      3.7470736      50218.233      36.893836      36.893836      36.893836    
   4100000   0.50616692    -7.8029158     -7.0436762      3.7586306      50218.233      36.893836      36.893836      36.893836    
   4200000   0.50366662    -7.8011482     -7.045659       3.7547683      50218.233      36.893836      36.893836      36.893836    
   4300000   0.50548994    -7.8037668     -7.0455427      3.7437203      50218.233      36.893836      36.893836      36.893836    
   4400000   0.50521362    -7.8026053     -7.0447956      3.7565948      50218.233      36.893836      36.893836      36.893836    
   4500000   0.5037635     -7.8014174     -7.0457829      3.753154       50218.233      36.893836      36.893836      36.893836    
   4600000   0.50331806    -7.8053986     -7.0504322      3.7288372      50218.233      36.893836      36.893836      36.893836    
   4700000   0.50701703    -7.803166      -7.0426513      3.7530743      50218.233      36.893836      36.893836      36.893836    
   4800000   0.50605378    -7.8044826     -7.0454127      3.748928       50218.233      36.893836      36.893836      36.893836    
   4900000   0.50712747    -7.8011578     -7.0404774      3.7701727      50218.233      36.893836      36.893836      36.893836    
   5000000   0.50754573    -7.808279      -7.0469712      3.7127364      50218.233      36.893836      36.893836      36.893836    
   5100000   0.50327844    -7.8058311     -7.0509242      3.7309272      50218.233      36.893836      36.893836      36.893836    
   5200000   0.50372708    -7.803339      -7.0477591      3.7462949      50218.233      36.893836      36.893836      36.893836    
   5300000   0.50560304    -7.8044712     -7.0460774      3.7354382      50218.233      36.893836      36.893836      36.893836    
   5400000   0.50234658    -7.8044234     -7.0509143      3.7413059      50218.233      36.893836      36.893836      36.893836    
   5500000   0.50400247    -7.8037314     -7.0477384      3.7476696      50218.233      36.893836      36.893836      36.893836    
   5600000   0.50818079    -7.8037189     -7.0414585      3.7499267      50218.233      36.893836      36.893836      36.893836    
   5700000   0.50228391    -7.8019749     -7.0485598      3.7576113      50218.233      36.893836      36.893836      36.893836    
   5800000   0.50541586    -7.8091379     -7.0510249      3.7064394      50218.233      36.893836      36.893836      36.893836    
   5900000   0.50383483    -7.8016716     -7.0459301      3.7686957      50218.233      36.893836      36.893836      36.893836    
   6000000   0.50482854    -7.8062516     -7.0490195      3.7180023      50218.233      36.893836      36.893836      36.893836    
   6100000   0.50374063    -7.8044408     -7.0488407      3.7333658      50218.233      36.893836      36.893836      36.893836    
   6200000   0.50438019    -7.8004156     -7.0438561      3.7571376      50218.233      36.893836      36.893836      36.893836    
   6300000   0.50378737    -7.8031845     -7.0475142      3.7499246      50218.233      36.893836      36.893836      36.893836    
   6400000   0.5043242     -7.7998316     -7.0433561      3.7696788      50218.233      36.893836      36.893836      36.893836    
   6500000   0.50589814    -7.8041158     -7.0452794      3.7463666      50218.233      36.893836      36.893836      36.893836    
   6600000   0.50455243    -7.8008761     -7.0440582      3.7670523      50218.233      36.893836      36.893836      36.893836    
   6700000   0.50411551    -7.8039107     -7.0477482      3.7321332      50218.233      36.893836      36.893836      36.893836    
   6800000   0.50423965    -7.8057677     -7.049419       3.7141301      50218.233      36.893836      36.893836      36.893836    
   6900000   0.50879314    -7.8023619     -7.039183       3.7541819      50218.233      36.893836      36.893836      36.893836    
   7000000   0.5077083     -7.8004474     -7.0388958      3.773966       50218.233      36.893836      36.893836      36.893836    
   7100000   0.50569331    -7.8010454     -7.0425162      3.7653233      50218.233      36.893836      36.893836      36.893836    
   7200000   0.50977742    -7.807156      -7.0425007      3.7253515      50218.233      36.893836      36.893836      36.893836    
   7300000   0.50721335    -7.7999227     -7.0391135      3.7839875      50218.233      36.893836      36.893836      36.893836    
   7400000   0.50691201    -7.8031099     -7.0427528      3.7625395      50218.233      36.893836      36.893836      36.893836    
   7500000   0.50400458    -7.8037525     -7.0477564      3.7517211      50218.233      36.893836      36.893836      36.893836    
   7600000   0.5051011     -7.8034756     -7.0458347      3.751454       50218.233      36.893836      36.893836      36.893836    
   7700000   0.50424396    -7.8068714     -7.0505162      3.719741       50218.233      36.893836      36.893836      36.893836    
   7800000   0.50353889    -7.8037344     -7.0484368      3.7328181      50218.233      36.893836      36.893836      36.893836    
   7900000   0.50622127    -7.8025508     -7.0432297      3.7593522      50218.233      36.893836      36.893836      36.893836    
   8000000   0.50361284    -7.8041088     -7.0487003      3.72689        50218.233      36.893836      36.893836      36.893836    
   8100000   0.50466828    -7.7998098     -7.0428181      3.7775794      50218.233      36.893836      36.893836      36.893836    
   8200000   0.50565592    -7.8026035     -7.0441304      3.7614672      50218.233      36.893836      36.893836      36.893836    
   8300000   0.50525981    -7.8048897     -7.0470108      3.749829       50218.233      36.893836      36.893836      36.893836    
   8400000   0.50610637    -7.8050717     -7.0459229      3.7470644      50218.233      36.893836      36.893836      36.893836    
   8500000   0.50449218    -7.8003884     -7.0436609      3.7819033      50218.233      36.893836      36.893836      36.893836    
   8600000   0.50274356    -7.8070448     -7.0529402      3.7276918      50218.233      36.893836      36.893836      36.893836    
   8700000   0.50412169    -7.8023314     -7.0461597      3.7650757      50218.233      36.893836      36.893836      36.893836    
   8800000   0.50718147    -7.8060859     -7.0453246      3.73939        50218.233      36.893836      36.893836      36.893836    
   8900000   0.50349239    -7.8062014     -7.0509735      3.7183091      50218.233      36.893836      36.893836      36.893836    
   9000000   0.50475845    -7.8049408     -7.0478139      3.7455662      50218.233      36.893836      36.893836      36.893836    
   9100000   0.50523176    -7.8066035     -7.0487666      3.7248292      50218.233      36.893836      36.893836      36.893836    
   9200000   0.50398121    -7.8084972     -7.0525362      3.7132545      50218.233      36.893836      36.893836      36.893836    
   9300000   0.50299979    -7.8056544     -7.0511654      3.7291996      50218.233      36.893836      36.893836      36.893836    
   9400000   0.50656341    -7.8076591     -7.0478248      3.7252022      50218.233      36.893836      36.893836      36.893836    
   9500000   0.50504342    -7.8072133     -7.049659       3.7273476      50218.233      36.893836      36.893836      36.893836    
   9600000   0.50477208    -7.8074849     -7.0503376      3.7336417      50218.233      36.893836      36.893836      36.893836    
   9700000   0.5025077     -7.8016367     -7.0478859      3.7631634      50218.233      36.893836      36.893836      36.893836    
   9800000   0.50327244    -7.8024373     -7.0475394      3.7522826      50218.233      36.893836      36.893836      36.893836    
   9900000   0.5069313     -7.7988013     -7.0384152      3.7820142      50218.233      36.893836      36.893836      36.893836    
  10000000   0.50349719    -7.8035138     -7.0482788      3.7375438      50218.233      36.893836      36.893836      36.893836    
  10100000   0.50700127    -7.8112257     -7.0507346      3.6950012      50218.233      36.893836      36.893836      36.893836    
  10200000   0.50227978    -7.7991419     -7.045733       3.7850267      50218.233      36.893836      36.893836      36.893836    
  10300000   0.50768808    -7.805143      -7.0436217      3.7487844      50218.233      36.893836      36.893836      36.893836    
  10400000   0.50629325    -7.8046631     -7.045234       3.7439824      50218.233      36.893836      36.893836      36.893836    
  10500000   0.50491248    -7.8053346     -7.0479767      3.7356045      50218.233      36.893836      36.893836      36.893836    
  10600000   0.50742726    -7.8039801     -7.0428501      3.7614065      50218.233      36.893836      36.893836      36.893836    
  10700000   0.50406358    -7.8037401     -7.0476555      3.7397417      50218.233      36.893836      36.893836      36.893836    
  10800000   0.5062968     -7.804907      -7.0454726      3.7400328      50218.233      36.893836      36.893836      36.893836    
  10900000   0.50635547    -7.8082603     -7.0487379      3.725194       50218.233      36.893836      36.893836      36.893836    
  11000000   0.50714739    -7.8058286     -7.0451184      3.7441345      50218.233      36.893836      36.893836      36.893836    
  11100000   0.5065227     -7.8062968     -7.0465236      3.7254243      50218.233      36.893836      36.893836      36.893836    
  11200000   0.50887769    -7.8006778     -7.0373721      3.7783357      50218.233      36.893836      36.893836      36.893836    
  11300000   0.50722986    -7.8045746     -7.0437407      3.7397005      50218.233      36.893836      36.893836      36.893836    
  11400000   0.50368649    -7.8074842     -7.0519652      3.7207712      50218.233      36.893836      36.893836      36.893836    
  11500000   0.50731402    -7.8009228     -7.0399626      3.7591701      50218.233      36.893836      36.893836      36.893836    
  11600000   0.50271823    -7.8036093     -7.0495426      3.7447772      50218.233      36.893836      36.893836      36.893836    
  11700000   0.50423991    -7.8030229     -7.0466738      3.7491703      50218.233      36.893836      36.893836      36.893836    
  11800000   0.50363267    -7.807991      -7.0525527      3.7110714      50218.233      36.893836      36.893836      36.893836    
  11900000   0.50495531    -7.8025319     -7.0451097      3.7521005      50218.233      36.893836      36.893836      36.893836    
  12000000   0.50524619    -7.807795      -7.0499364      3.7161429      50218.233      36.893836      36.893836      36.893836    
  12100000   0.50684746    -7.8044096     -7.0441492      3.748723       50218.233      36.893836      36.893836      36.893836    
  12200000   0.50352092    -7.8064672     -7.0511966      3.7187572      50218.233      36.893836      36.893836      36.893836    
  12300000   0.50421002    -7.8076899     -7.0513856      3.7181285      50218.233      36.893836      36.893836      36.893836    
  12400000   0.50570492    -7.8018138     -7.0432672      3.7632033      50218.233      36.893836      36.893836      36.893836    
  12500000   0.50353902    -7.8069984     -7.0517006      3.7243128      50218.233      36.893836      36.893836      36.893836    
  12600000   0.50443545    -7.8127549     -7.0561125      3.6806849      50218.233      36.893836      36.893836      36.893836    
  12700000   0.50429133    -7.8052208     -7.0487946      3.7415016      50218.233      36.893836      36.893836      36.893836    
  12800000   0.50266599    -7.8063015     -7.0523132      3.7158264      50218.233      36.893836      36.893836      36.893836    
  12900000   0.5066512     -7.8069417     -7.0469757      3.7276507      50218.233      36.893836      36.893836      36.893836    
  13000000   0.50224922    -7.8067647     -7.0534016      3.7303876      50218.233      36.893836      36.893836      36.893836    
  13100000   0.50466324    -7.8075451     -7.050561       3.7309324      50218.233      36.893836      36.893836      36.893836    
  13200000   0.50322075    -7.8078511     -7.0530307      3.7084348      50218.233      36.893836      36.893836      36.893836    
  13300000   0.50461985    -7.8038569     -7.0469379      3.7437481      50218.233      36.893836      36.893836      36.893836    
  13400000   0.50651356    -7.8035455     -7.0437859      3.7592637      50218.233      36.893836      36.893836      36.893836    
  13500000   0.50412837    -7.8023144     -7.0461326      3.7559762      50218.233      36.893836      36.893836      36.893836    
  13600000   0.50420365    -7.8049747     -7.04868        3.7412025      50218.233      36.893836      36.893836      36.893836    
  13700000   0.50366712    -7.8061551     -7.0506652      3.7190055      50218.233      36.893836      36.893836      36.893836    
  13800000   0.50370695    -7.8014964     -7.0459467      3.7595089      50218.233      36.893836      36.893836      36.893836    
  13900000   0.50580315    -7.8036662     -7.0449722      3.7570454      50218.233      36.893836      36.893836      36.893836    
  14000000   0.5067072     -7.8123887     -7.0523388      3.6950398      50218.233      36.893836      36.893836      36.893836    
  14100000   0.50455303    -7.80324       -7.0464213      3.7621758      50218.233      36.893836      36.893836      36.893836    
  14200000   0.50439656    -7.8001865     -7.0436024      3.7653108      50218.233      36.893836      36.893836      36.893836    
  14300000   0.5062029     -7.8008388     -7.0415452      3.769819       50218.233      36.893836      36.893836      36.893836    
  14400000   0.50548337    -7.8034598     -7.0452455      3.7499185      50218.233      36.893836      36.893836      36.893836    
  14500000   0.50481254    -7.8038597     -7.0466517      3.7455533      50218.233      36.893836      36.893836      36.893836    
  14600000   0.50376478    -7.802769      -7.0471326      3.7522118      50218.233      36.893836      36.893836      36.893836    
  14700000   0.50561492    -7.8021372     -7.0437256      3.7639081      50218.233      36.893836      36.893836      36.893836    
  14800000   0.5041478     -7.8014398     -7.0452289      3.7619515      50218.233      36.893836      36.893836      36.893836    
  14900000   0.50574774    -7.807657      -7.0490461      3.718189       50218.233      36.893836      36.893836      36.893836    
  15000000   0.50383577    -7.7993055     -7.0435626      3.7748272      50218.233      36.893836      36.893836      36.893836    
  15100000   0.50451305    -7.8047806     -7.0480218      3.7399658      50218.233      36.893836      36.893836      36.893836    
  15200000   0.50264487    -7.8018435     -7.0478869      3.7546446      50218.233      36.893836      36.893836      36.893836    
  15300000   0.50453996    -7.8015143     -7.0447151      3.7611583      50218.233      36.893836      36.893836      36.893836    
  15400000   0.50556314    -7.8064292     -7.0480953      3.7334438      50218.233      36.893836      36.893836      36.893836    
  15500000   0.50550869    -7.805188      -7.0469357      3.7420166      50218.233      36.893836      36.893836      36.893836    
  15600000   0.50518421    -7.8051026     -7.0473371      3.7470301      50218.233      36.893836      36.893836      36.893836    
  15700000   0.50393967    -7.8068514     -7.0509527      3.72029        50218.233      36.893836      36.893836      36.893836    
  15800000   0.50720557    -7.8004762     -7.0396787      3.7900483      50218.233      36.893836      36.893836      36.893836    
  15900000   0.5037558     -7.8044384     -7.0488154      3.7451478      50218.233      36.893836      36.893836      36.893836    
  16000000   0.50389443    -7.8053964     -7.0495656      3.7210397      50218.233      36.893836      36.893836      36.893836    
  16100000   0.50449202    -7.800248      -7.0435208      3.7664302      50218.233      36.893836      36.893836      36.893836    
  16200000   0.50487583    -7.8080007     -7.0506978      3.7234076      50218.233      36.893836      36.893836      36.893836    
  16300000   0.50952492    -7.8050723     -7.0407958      3.7449253      50218.233      36.893836      36.893836      36.893836    
  16400000   0.50544323    -7.801173      -7.043019       3.7737474      50218.233      36.893836      36.893836      36.893836    
  16500000   0.50529967    -7.8037391     -7.0458004      3.7371018      50218.233      36.893836      36.893836      36.893836    
  16600000   0.50519144    -7.8027461     -7.0449697      3.7491708      50218.233      36.893836      36.893836      36.893836    
  16700000   0.50719531    -7.8043844     -7.0436023      3.7499958      50218.233      36.893836      36.893836      36.893836    
  16800000   0.50459837    -7.8034694     -7.0465826      3.7533189      50218.233      36.893836      36.893836      36.893836    
  16900000   0.50585012    -7.8015171     -7.0427527      3.7598372      50218.233      36.893836      36.893836      36.893836    
  17000000   0.5069698     -7.8012257     -7.0407818      3.7749771      50218.233      36.893836      36.893836      36.893836    
  17100000   0.50373406    -7.802559      -7.0469687      3.747162       50218.233      36.893836      36.893836      36.893836    
  17200000   0.50540612    -7.8034723     -7.0453739      3.7568259      50218.233      36.893836      36.893836      36.893836    
  17300000   0.50724147    -7.8007155     -7.0398641      3.7652983      50218.233      36.893836      36.893836      36.893836    
  17400000   0.50666794    -7.8012787     -7.0412876      3.772997       50218.233      36.893836      36.893836      36.893836    
  17500000   0.50467282    -7.8001703     -7.0431718      3.7667401      50218.233      36.893836      36.893836      36.893836    
  17600000   0.5074238     -7.8030514     -7.0419265      3.7560431      50218.233      36.893836      36.893836      36.893836    
  17700000   0.50342186    -7.8039061     -7.048784       3.7433303      50218.233      36.893836      36.893836      36.893836    
  17800000   0.50495617    -7.8056355     -7.048212       3.7238707      50218.233      36.893836      36.893836      36.893836    
  17900000   0.5067862     -7.8055372     -7.0453687      3.7383607      50218.233      36.893836      36.893836      36.893836    
  18000000   0.50301252    -7.8059        -7.0513919      3.7290746      50218.233      36.893836      36.893836      36.893836    
  18100000   0.5054132     -7.8068369     -7.0487279      3.7093636      50218.233      36.893836      36.893836      36.893836    
  18200000   0.50205686    -7.8063108     -7.0532363      3.7198543      50218.233      36.893836      36.893836      36.893836    
  18300000   0.50462842    -7.8025239     -7.045592       3.761186       50218.233      36.893836      36.893836      36.893836    
  18400000   0.50510494    -7.8004344     -7.0427877      3.7610288      50218.233      36.893836      36.893836      36.893836    
  18500000   0.50319468    -7.8015406     -7.0467593      3.7599744      50218.233      36.893836      36.893836      36.893836    
  18600000   0.50487503    -7.811326      -7.0540242      3.6858776      50218.233      36.893836      36.893836      36.893836    
  18700000   0.50640499    -7.8064703     -7.0468736      3.7363279      50218.233      36.893836      36.893836      36.893836    
  18800000   0.50446909    -7.8013387     -7.0446458      3.7635812      50218.233      36.893836      36.893836      36.893836    
  18900000   0.50312251    -7.805787      -7.051114       3.7271236      50218.233      36.893836      36.893836      36.893836    
  19000000   0.50617435    -7.8072811     -7.0480304      3.7265809      50218.233      36.893836      36.893836      36.893836    
  19100000   0.50464259    -7.8030904     -7.0461373      3.7509568      50218.233      36.893836      36.893836      36.893836    
  19200000   0.50698633    -7.8033776     -7.0429089      3.7509107      50218.233      36.893836      36.893836      36.893836    
  19300000   0.5054335     -7.8023886     -7.0442491      3.7579583      50218.233      36.893836      36.893836      36.893836    
  19400000   0.5053877     -7.8054481     -7.0473773      3.7266747      50218.233      36.893836      36.893836      36.893836    
  19500000   0.50451767    -7.8007638     -7.0439981      3.7570676      50218.233      36.893836      36.893836      36.893836    
  19600000   0.5055665     -7.8046524     -7.0463134      3.7286843      50218.233      36.893836      36.893836      36.893836    
  19700000   0.50504069    -7.804614      -7.0470637      3.7474428      50218.233      36.893836      36.893836      36.893836    
  19800000   0.50372624    -7.8043699     -7.0487913      3.739342       50218.233      36.893836      36.893836      36.893836    
  19900000   0.50527561    -7.8038904     -7.0459878      3.754296       50218.233      36.893836      36.893836      36.893836    
  20000000   0.50673481    -7.8079911     -7.0478997      3.7253989      50218.233      36.893836      36.893836      36.893836    
  20100000   0.50339291    -7.8100988     -7.0550202      3.7040299      50218.233      36.893836      36.893836      36.893836    
  20200000   0.50609778    -7.801765      -7.0426291      3.7661245      50218.233      36.893836      36.893836      36.893836    
  20300000   0.50199403    -7.8040021     -7.0510217      3.7379346      50218.233      36.893836      36.893836      36.893836    
  20400000   0.50731163    -7.8033397     -7.0423831      3.7541531      50218.233      36.893836      36.893836      36.893836    
  20500000   0.50578681    -7.8000676     -7.0413982      3.7816732      50218.233      36.893836      36.893836      36.893836    
  20600000   0.50311837    -7.804724      -7.0500572      3.7369416      50218.233      36.893836      36.893836      36.893836    
  20700000   0.50345301    -7.8103623     -7.0551936      3.7007792      50218.233      36.893836      36.893836      36.893836    
  20800000   0.50356904    -7.8064304     -7.0510876      3.7167602      50218.233      36.893836      36.893836      36.893836    
  20900000   0.5032983     -7.8054691     -7.0505323      3.7277481      50218.233      36.893836      36.893836      36.893836    
  21000000   0.50695851    -7.8003214     -7.0398945      3.7840852      50218.233      36.893836      36.893836      36.893836    
  21100000   0.50478096    -7.801424      -7.0442633      3.7699734      50218.233      36.893836      36.893836      36.893836    
  21200000   0.50410827    -7.808293      -7.0521413      3.7146013      50218.233      36.893836      36.893836      36.893836    
  21300000   0.50470883    -7.8066711     -7.0496186      3.7278402      50218.233      36.893836      36.893836      36.893836    
  21400000   0.50380599    -7.8049711     -7.0492729      3.7353407      50218.233      36.893836      36.893836      36.893836    
  21500000   0.50540229    -7.8078343     -7.0497417      3.7018707      50218.233      36.893836      36.893836      36.893836    
  21600000   0.50749966    -7.8037506     -7.042512       3.7411986      50218.233      36.893836      36.893836      36.893836    
  21700000   0.50431624    -7.8045908     -7.0481272      3.7414713      50218.233      36.893836      36.893836      36.893836    
  21800000   0.50277457    -7.8047293     -7.0505782      3.7309733      50218.233      36.893836      36.893836      36.893836    
  21900000   0.50460923    -7.804664      -7.0477609      3.7439009      50218.233      36.893836      36.893836      36.893836    
  22000000   0.50526187    -7.8058307     -7.0479487      3.7342453      50218.233      36.893836      36.893836      36.893836    
  22100000   0.50686324    -7.8023879     -7.0421039      3.7625296      50218.233      36.893836      36.893836      36.893836    
  22200000   0.50614575    -7.804027      -7.0448192      3.7383373      50218.233      36.893836      36.893836      36.893836    
  22300000   0.50496052    -7.8031275     -7.0456975      3.7622068      50218.233      36.893836      36.893836      36.893836    
  22400000   0.50603468    -7.8046558     -7.0456145      3.7346454      50218.233      36.893836      36.893836      36.893836    
  22500000   0.50553586    -7.8046814     -7.0463884      3.7368737      50218.233      36.893836      36.893836      36.893836    
  22600000   0.51020143    -7.8039302     -7.0386389      3.7419817      50218.233      36.893836      36.893836      36.893836    
  22700000   0.50566193    -7.8046156     -7.0461335      3.7309277      50218.233      36.893836      36.893836      36.893836    
  22800000   0.50432546    -7.8059711     -7.0494937      3.7243892      50218.233      36.893836      36.893836      36.893836    
  22900000   0.50460172    -7.8051599     -7.048268       3.7287606      50218.233      36.893836      36.893836      36.893836    
  23000000   0.50689629    -7.8024151     -7.0420815      3.7679824      50218.233      36.893836      36.893836      36.893836    
  23100000   0.50442008    -7.8001983     -7.0435789      3.7767872      50218.233      36.893836      36.893836      36.893836    
  23200000   0.50517625    -7.8080157     -7.0502621      3.7155518      50218.233      36.893836      36.893836      36.893836    
  23300000   0.50393554    -7.8025013     -7.0466087      3.7606861      50218.233      36.893836      36.893836      36.893836    
  23400000   0.50580529    -7.8021412     -7.0434441      3.747537       50218.233      36.893836      36.893836      36.893836    
  23500000   0.50405402    -7.7995807     -7.0435104      3.7756872      50218.233      36.893836      36.893836      36.893836    
  23600000   0.50965665    -7.8002968     -7.0358227      3.7916338      50218.233      36.893836      36.893836      36.893836    
  23700000   0.50847072    -7.8044953     -7.0418001      3.7509635      50218.233      36.893836      36.893836      36.893836    
  23800000   0.50597873    -7.8001551     -7.0411978      3.7875018      50218.233      36.893836      36.893836      36.893836    
  23900000   0.50297465    -7.7947934     -7.0403422      3.8205946      50218.233      36.893836      36.893836      36.893836    
  24000000   0.50564377    -7.8067805     -7.0483256      3.7220664      50218.233      36.893836      36.893836      36.893836    
  24100000   0.50326152    -7.8050555     -7.050174       3.7243651      50218.233      36.893836      36.893836      36.893836    
  24200000   0.5047212     -7.8026005     -7.0455295      3.7600974      50218.233      36.893836      36.893836      36.893836    
  24300000   0.5051891     -7.8079185     -7.0501456      3.7161765      50218.233      36.893836      36.893836      36.893836    
  24400000   0.5058426     -7.7989462     -7.0401931      3.7920938      50218.233      36.893836      36.893836      36.893836    
  24500000   0.50234927    -7.8057449     -7.0522317      3.7416741      50218.233      36.893836      36.893836      36.893836    
  24600000   0.50674277    -7.8062331     -7.0461298      3.7348363      50218.233      36.893836      36.893836      36.893836    
  24700000   0.50473889    -7.804817      -7.0477195      3.7422921      50218.233      36.893836      36.893836      36.893836    
  24800000   0.50567637    -7.8047791     -7.0462754      3.7448191      50218.233      36.893836      36.893836      36.893836    
  24900000   0.50629557    -7.8001798     -7.0407472      3.7807473      50218.233      36.893836      36.893836      36.893836    
  25000000   0.50507999    -7.8060916     -7.0484823      3.7303331      50218.233      36.893836      36.893836      36.893836    
  25100000   0.50423136    -7.8044423     -7.048106       3.7472698      50218.233      36.893836      36.893836      36.893836    
  25200000   0.50562075    -7.808245      -7.0498247      3.7172456      50218.233      36.893836      36.893836      36.893836    
  25300000   0.50522903    -7.8066853     -7.0488526      3.7431093      50218.233      36.893836      36.893836      36.893836    
  25400000   0.50407184    -7.8055169     -7.0494199      3.7194725      50218.233      36.893836      36.893836      36.893836    
  25500000   0.50590819    -7.809878      -7.0510265      3.7037633      50218.233      36.893836      36.893836      36.893836    
  25600000   0.50441917    -7.8077454     -7.0511274      3.7246096      50218.233      36.893836      36.893836      36.893836    
  25700000   0.50395169    -7.8049286     -7.0490118      3.7338619      50218.233      36.893836      36.893836      36.893836    
  25800000   0.50803321    -7.8067829     -7.0447439      3.7288488      50218.233      36.893836      36.893836      36.893836    
  25900000   0.50092385    -7.8060581     -7.054683       3.7244329      50218.233      36.893836      36.893836      36.893836    
  26000000   0.50368029    -7.8094273     -7.0539177      3.7078406      50218.233      36.893836      36.893836      36.893836    
  26100000   0.5075837     -7.8008336     -7.0394688      3.774159       50218.233      36.893836      36.893836      36.893836    
  26200000   0.50484083    -7.8007896     -7.0435392      3.7644564      50218.233      36.893836      36.893836      36.893836    
  26300000   0.50617746    -7.8072627     -7.0480073      3.7261467      50218.233      36.893836      36.893836      36.893836    
  26400000   0.50655715    -7.8062449     -7.04642        3.7233078      50218.233      36.893836      36.893836      36.893836    
  26500000   0.50422124    -7.804663      -7.0483419      3.7323667      50218.233      36.893836      36.893836      36.893836    
  26600000   0.50646776    -7.8044623     -7.0447715      3.7408866      50218.233      36.893836      36.893836      36.893836    
  26700000   0.50555512    -7.8042408     -7.0459189      3.7313631      50218.233      36.893836      36.893836      36.893836    
  26800000   0.50662976    -7.8054198     -7.045486       3.7387733      50218.233      36.893836      36.893836      36.893836    
  26900000   0.50237313    -7.8035531     -7.0500042      3.7448473      50218.233      36.893836      36.893836      36.893836    
  27000000   0.50431334    -7.8045868     -7.0481275      3.7435592      50218.233      36.893836      36.893836      36.893836    
  27100000   0.50467273    -7.8010371     -7.0440387      3.7593223      50218.233      36.893836      36.893836      36.893836    
  27200000   0.50582924    -7.8049712     -7.0462382      3.7407744      50218.233      36.893836      36.893836      36.893836    
  27300000   0.50420539    -7.8038723     -7.047575       3.7454096      50218.233      36.893836      36.893836      36.893836    
  27400000   0.50439786    -7.8045786     -7.0479926      3.7432462      50218.233      36.893836      36.893836      36.893836    
  27500000   0.50454967    -7.8045856     -7.0477719      3.7440625      50218.233      36.893836      36.893836      36.893836    
  27600000   0.50340265    -7.8038179     -7.0487247      3.7439601      50218.233      36.893836      36.893836      36.893836    
  27700000   0.50625598    -7.8067269     -7.0473537      3.7297281      50218.233      36.893836      36.893836      36.893836    
  27800000   0.5022799     -7.8015898     -7.0481806      3.767851       50218.233      36.893836      36.893836      36.893836    
  27900000   0.50434799    -7.8041168     -7.0476055      3.7390379      50218.233      36.893836      36.893836      36.893836    
  28000000   0.50268794    -7.8040081     -7.0499869      3.7490932      50218.233      36.893836      36.893836      36.893836    
  28100000   0.50536524    -7.8088327     -7.0507956      3.7208563      50218.233      36.893836      36.893836      36.893836    
  28200000   0.5042654     -7.8075852     -7.0511978      3.7218595      50218.233      36.893836      36.893836      36.893836    
  28300000   0.50420511    -7.8073911     -7.0510942      3.7191485      50218.233      36.893836      36.893836      36.893836    
  28400000   0.50661655    -7.8033771     -7.043463       3.7494335      50218.233      36.893836      36.893836      36.893836    
  28500000   0.50469738    -7.806538      -7.0495027      3.7195319      50218.233      36.893836      36.893836      36.893836    
  28600000   0.50342581    -7.8054139     -7.050286       3.7220731      50218.233      36.893836      36.893836      36.893836    
  28700000   0.50341568    -7.8049487     -7.049836       3.7295309      50218.233      36.893836      36.893836      36.893836    
  28800000   0.50607284    -7.8115756     -7.0524771      3.6943603      50218.233      36.893836      36.893836      36.893836    
  28900000   0.50503138    -7.807178      -7.0496417      3.7176683      50218.233      36.893836      36.893836      36.893836    
  29000000   0.50390125    -7.8053558     -7.0495147      3.7417781      50218.233      36.893836      36.893836      36.893836    
  29100000   0.50551221    -7.8041722     -7.0459146      3.7464512      50218.233      36.893836      36.893836      36.893836    
  29200000   0.50511807    -7.8074119     -7.0497455      3.7085853      50218.233      36.893836      36.893836      36.893836    
  29300000   0.50353297    -7.8068741     -7.0515854      3.7185628      50218.233      36.893836      36.893836      36.893836    
  29400000   0.5091077     -7.8023441     -7.0386934      3.7645071      50218.233      36.893836      36.893836      36.893836    
  29500000   0.50632934    -7.8089402     -7.049457       3.7104836      50218.233      36.893836      36.893836      36.893836    
  29600000   0.50445844    -7.805878      -7.0492011      3.7269282      50218.233      36.893836      36.893836      36.893836    
  29700000   0.50745597    -7.8089154     -7.0477422      3.7056412      50218.233      36.893836      36.893836      36.893836    
  29800000   0.50678091    -7.8037505     -7.0435899      3.7390993      50218.233      36.893836      36.893836      36.893836    
  29900000   0.50562025    -7.8043541     -7.0459345      3.74143        50218.233      36.893836      36.893836      36.893836    
  30000000   0.50671757    -7.8094537     -7.0493882      3.713097       50218.233      36.893836      36.893836      36.893836    
  30100000   0.50653942    -7.8061186     -7.0463203      3.7425086      50218.233      36.893836      36.893836      36.893836    
  30200000   0.50600139    -7.810412      -7.0514207      3.6940766      50218.233      36.893836      36.893836      36.893836    
  30300000   0.50634689    -7.8043622     -7.0448526      3.7440759      50218.233      36.893836      36.893836      36.893836    
  30400000   0.50637545    -7.8042102     -7.0446578      3.746734       50218.233      36.893836      36.893836      36.893836    
  30500000   0.50221837    -7.8015239     -7.0482071      3.7489689      50218.233      36.893836      36.893836      36.893836    
  30600000   0.5068209     -7.8066431     -7.0464226      3.7236896      50218.233      36.893836      36.893836      36.893836    
  30700000   0.50393161    -7.8049931     -7.0491065      3.7347397      50218.233      36.893836      36.893836      36.893836    
  30800000   0.50634526    -7.8053206     -7.0458135      3.7298977      50218.233      36.893836      36.893836      36.893836    
  30900000   0.50814138    -7.8055332     -7.0433319      3.7382389      50218.233      36.893836      36.893836      36.893836    
  31000000   0.50590478    -7.8053271     -7.0464807      3.7375557      50218.233      36.893836      36.893836      36.893836    
  31100000   0.5077972     -7.8029595     -7.0412746      3.7541014      50218.233      36.893836      36.893836      36.893836    
  31200000   0.50388319    -7.8040397     -7.0482257      3.7363038      50218.233      36.893836      36.893836      36.893836    
  31300000   0.50440238    -7.806194      -7.0496012      3.7317602      50218.233      36.893836      36.893836      36.893836    
  31400000   0.50604577    -7.8061185     -7.0470606      3.721535       50218.233      36.893836      36.893836      36.893836    
  31500000   0.50632829    -7.8012275     -7.0417459      3.7573177      50218.233      36.893836      36.893836      36.893836    
  31600000   0.50350633    -7.8024586     -7.0472099      3.7496536      50218.233      36.893836      36.893836      36.893836    
  31700000   0.50404455    -7.8072933     -7.0512372      3.720842       50218.233      36.893836      36.893836      36.893836    
  31800000   0.50680304    -7.8062112     -7.0460175      3.7344787      50218.233      36.893836      36.893836      36.893836    
  31900000   0.50547128    -7.8038206     -7.0456245      3.7319707      50218.233      36.893836      36.893836      36.893836    
  32000000   0.50457025    -7.8065112     -7.0496666      3.7124544      50218.233      36.893836      36.893836      36.893836    
  32100000   0.50370293    -7.8041247     -7.0485811      3.7388787      50218.233      36.893836      36.893836      36.893836    
  32200000   0.5055685     -7.8036692     -7.0453273      3.7504114      50218.233      36.893836      36.893836      36.893836    
  32300000   0.50472887    -7.8007509     -7.0436684      3.7655632      50218.233      36.893836      36.893836      36.893836    
  32400000   0.50474013    -7.7999835     -7.042884       3.7634719      50218.233      36.893836      36.893836      36.893836    
  32500000   0.50435589    -7.8053011     -7.048778       3.739009       50218.233      36.893836      36.893836      36.893836    
  32600000   0.50429948    -7.7999366     -7.0434981      3.7663479      50218.233      36.893836      36.893836      36.893836    
  32700000   0.50428562    -7.8037525     -7.0473349      3.7491555      50218.233      36.893836      36.893836      36.893836    
  32800000   0.50593306    -7.8054495     -7.0465607      3.7263826      50218.233      36.893836      36.893836      36.893836    
  32900000   0.50525054    -7.8019837     -7.0441187      3.7623863      50218.233      36.893836      36.893836      36.893836    
  33000000   0.50465567    -7.8053433     -7.0483705      3.7321743      50218.233      36.893836      36.893836      36.893836    
  33100000   0.50635134    -7.8055828     -7.0460666      3.7309165      50218.233      36.893836      36.893836      36.893836    
  33200000   0.50399391    -7.801813      -7.0458329      3.7492614      50218.233      36.893836      36.893836      36.893836    
  33300000   0.50323845    -7.8023713     -7.0475244      3.7525016      50218.233      36.893836      36.893836      36.893836    
  33400000   0.5055906     -7.808186      -7.0498109      3.7108325      50218.233      36.893836      36.893836      36.893836    
  33500000   0.50515102    -7.8034123     -7.0456965      3.7629611      50218.233      36.893836      36.893836      36.893836    
  33600000   0.50623537    -7.8063528     -7.0470105      3.7228084      50218.233      36.893836      36.893836      36.893836    
  33700000   0.50559103    -7.8015967     -7.043221       3.7687359      50218.233      36.893836      36.893836      36.893836    
  33800000   0.50807916    -7.80209       -7.0399821      3.7628433      50218.233      36.893836      36.893836      36.893836    
  33900000   0.50436804    -7.8051025     -7.0485612      3.7435132      50218.233      36.893836      36.893836      36.893836    
  34000000   0.50531478    -7.8070582     -7.0490968      3.7196691      50218.233      36.893836      36.893836      36.893836    
  34100000   0.50325825    -7.8028317     -7.0479551      3.7571454      50218.233      36.893836      36.893836      36.893836    
  34200000   0.50397224    -7.8063473     -7.0503997      3.7244914      50218.233      36.893836      36.893836      36.893836    
  34300000   0.50604091    -7.8078399     -7.0487894      3.7262894      50218.233      36.893836      36.893836      36.893836    
  34400000   0.50555045    -7.8056775     -7.0473626      3.7396165      50218.233      36.893836      36.893836      36.893836    
  34500000   0.50553521    -7.8043578     -7.0460658      3.7359828      50218.233      36.893836      36.893836      36.893836    
  34600000   0.50533031    -7.8049174     -7.0469327      3.7513287      50218.233      36.893836      36.893836      36.893836    
  34700000   0.50342875    -7.8033339     -7.0482015      3.7446659      50218.233      36.893836      36.893836      36.893836    
  34800000   0.50637728    -7.8088426     -7.0492875      3.7121159      50218.233      36.893836      36.893836      36.893836    
  34900000   0.50200316    -7.8068887     -7.0538947      3.7238501      50218.233      36.893836      36.893836      36.893836    
  35000000   0.50807823    -7.8037247     -7.0416182      3.7516165      50218.233      36.893836      36.893836      36.893836    
  35100000   0.50429016    -7.8055506     -7.0491262      3.7319331      50218.233      36.893836      36.893836      36.893836    
  35200000   0.50414884    -7.8076047     -7.0513922      3.7147758      50218.233      36.893836      36.893836      36.893836    
  35300000   0.50465498    -7.8059577     -7.048986       3.7303465      50218.233      36.893836      36.893836      36.893836    
  35400000   0.50756633    -7.8012664     -7.0399277      3.7689534      50218.233      36.893836      36.893836      36.893836    
  35500000   0.50325972    -7.8023894     -7.0475105      3.7594915      50218.233      36.893836      36.893836      36.893836    
  35600000   0.50641038    -7.8005475     -7.0409427      3.7816072      50218.233      36.893836      36.893836      36.893836    
  35700000   0.50465075    -7.8018673     -7.044902       3.7586025      50218.233      36.893836      36.893836      36.893836    
  35800000   0.50426559    -7.8042023     -7.0478147      3.7477725      50218.233      36.893836      36.893836      36.893836    
  35900000   0.50372837    -7.8030515     -7.0474697      3.7469518      50218.233      36.893836      36.893836      36.893836    
  36000000   0.50550778    -7.8010339     -7.042783       3.7631181      50218.233      36.893836      36.893836      36.893836    
  36100000   0.50507751    -7.7998704     -7.0422649      3.7822342      50218.233      36.893836      36.893836      36.893836    
  36200000   0.5061052     -7.8017321     -7.0425851      3.7595512      50218.233      36.893836      36.893836      36.893836    
  36300000   0.50443618    -7.8027587     -7.0461152      3.7469474      50218.233      36.893836      36.893836      36.893836    
  36400000   0.5048478     -7.8021862     -7.0449252      3.7613113      50218.233      36.893836      36.893836      36.893836    
  36500000   0.50399593    -7.8065589     -7.0505757      3.724694       50218.233      36.893836      36.893836      36.893836    
  36600000   0.50110927    -7.802058      -7.0504048      3.7508852      50218.233      36.893836      36.893836      36.893836    
  36700000   0.50207976    -7.8019243     -7.0488154      3.7627317      50218.233      36.893836      36.893836      36.893836    
  36800000   0.50584923    -7.8024942     -7.0437311      3.7606393      50218.233      36.893836      36.893836      36.893836    
  36900000   0.50481702    -7.8079381     -7.0507234      3.7192719      50218.233      36.893836      36.893836      36.893836    
  37000000   0.50829564    -7.8071387     -7.0447061      3.7189255      50218.233      36.893836      36.893836      36.893836    
  37100000   0.50122609    -7.8063988     -7.0545704      3.7301112      50218.233      36.893836      36.893836      36.893836    
  37200000   0.50525232    -7.8026856     -7.0448179      3.7590666      50218.233      36.893836      36.893836      36.893836    
  37300000   0.50290369    -7.8023592     -7.0480144      3.7515149      50218.233      36.893836      36.893836      36.893836    
  37400000   0.50552194    -7.8011435     -7.0428713      3.7799388      50218.233      36.893836      36.893836      36.893836    
  37500000   0.5020495     -7.8061935     -7.05313        3.7191464      50218.233      36.893836      36.893836      36.893836    
  37600000   0.50409112    -7.8074333     -7.0513074      3.7239023      50218.233      36.893836      36.893836      36.893836    
  37700000   0.50469868    -7.802479      -7.0454417      3.7578406      50218.233      36.893836      36.893836      36.893836    
  37800000   0.50653094    -7.8021835     -7.0423979      3.7710764      50218.233      36.893836      36.893836      36.893836    
  37900000   0.50581058    -7.8038551     -7.0451501      3.7519366      50218.233      36.893836      36.893836      36.893836    
  38000000   0.5041831     -7.806411      -7.0501471      3.7279025      50218.233      36.893836      36.893836      36.893836    
  38100000   0.50634883    -7.8029652     -7.0434528      3.7615207      50218.233      36.893836      36.893836      36.893836    
  38200000   0.50633271    -7.8041778     -7.0446895      3.751445       50218.233      36.893836      36.893836      36.893836    
  38300000   0.5067778     -7.8044063     -7.0442504      3.7433971      50218.233      36.893836      36.893836      36.893836    
  38400000   0.50672935    -7.8065271     -7.0464439      3.7369633      50218.233      36.893836      36.893836      36.893836    
  38500000   0.50463312    -7.8029755     -7.0460366      3.7410316      50218.233      36.893836      36.893836      36.893836    
  38600000   0.5063672     -7.8038178     -7.0442778      3.7319851      50218.233      36.893836      36.893836      36.893836    
  38700000   0.5048069     -7.8051172     -7.0479176      3.7261762      50218.233      36.893836      36.893836      36.893836    
  38800000   0.50590688    -7.8054974     -7.0466478      3.7465038      50218.233      36.893836      36.893836      36.893836    
  38900000   0.50545671    -7.8045789     -7.0464046      3.7410702      50218.233      36.893836      36.893836      36.893836    
  39000000   0.50337762    -7.800686      -7.0456303      3.7650867      50218.233      36.893836      36.893836      36.893836    
  39100000   0.50374562    -7.8075366     -7.0519289      3.7155132      50218.233      36.893836      36.893836      36.893836    
  39200000   0.50443359    -7.802863      -7.0462234      3.7593104      50218.233      36.893836      36.893836      36.893836    
  39300000   0.50578129    -7.8047591     -7.046098       3.7567266      50218.233      36.893836      36.893836      36.893836    
  39400000   0.50827391    -7.8057578     -7.0433577      3.7399683      50218.233      36.893836      36.893836      36.893836    
  39500000   0.50350753    -7.8077106     -7.0524601      3.7240839      50218.233      36.893836      36.893836      36.893836    
  39600000   0.50587256    -7.8004468     -7.0416488      3.7712575      50218.233      36.893836      36.893836      36.893836    
  39700000   0.50663714    -7.8058032     -7.0458583      3.7318401      50218.233      36.893836      36.893836      36.893836    
  39800000   0.50279801    -7.8000063     -7.04582        3.7728863      50218.233      36.893836      36.893836      36.893836    
  39900000   0.50646178    -7.8070231     -7.0473412      3.7194659      50218.233      36.893836      36.893836      36.893836    
  40000000   0.50447155    -7.7988888     -7.0421923      3.7878741      50218.233      36.893836      36.893836      36.893836    
  40100000   0.50338274    -7.8023755     -7.0473121      3.7530853      50218.233      36.893836      36.893836      36.893836    
  40200000   0.50457764    -7.8044301     -7.0475744      3.7493256      50218.233      36.893836      36.893836      36.893836    
  40300000   0.50498857    -7.7983802     -7.0409081      3.792701       50218.233      36.893836      36.893836      36.893836    
  40400000   0.50703081    -7.8025826     -7.0420472      3.7619013      50218.233      36.893836      36.893836      36.893836    
  40500000   0.50631236    -7.8032199     -7.0437621      3.7504595      50218.233      36.893836      36.893836      36.893836    
  40600000   0.50304435    -7.7970816     -7.0425258      3.7984754      50218.233      36.893836      36.893836      36.893836    
  40700000   0.50508282    -7.8020448     -7.0444313      3.7631712      50218.233      36.893836      36.893836      36.893836    
  40800000   0.50269309    -7.8030424     -7.0490135      3.759602       50218.233      36.893836      36.893836      36.893836    
  40900000   0.50571212    -7.8058089     -7.0472515      3.7254936      50218.233      36.893836      36.893836      36.893836    
  41000000   0.5066241     -7.8066296     -7.0467043      3.7309686      50218.233      36.893836      36.893836      36.893836    
  41100000   0.50458357    -7.8048577     -7.0479931      3.7427799      50218.233      36.893836      36.893836      36.893836    
  41200000   0.50395618    -7.8040203     -7.0480968      3.7487348      50218.233      36.893836      36.893836      36.893836    
  41300000   0.50402474    -7.8021486     -7.0461223      3.7507616      50218.233      36.893836      36.893836      36.893836    
  41400000   0.50288601    -7.8054469     -7.0511286      3.7338253      50218.233      36.893836      36.893836      36.893836    
  41500000   0.50491754    -7.8007834     -7.0434178      3.7719673      50218.233      36.893836      36.893836      36.893836    
  41600000   0.50649496    -7.8036161     -7.0438845      3.7483319      50218.233      36.893836      36.893836      36.893836    
  41700000   0.5024546     -7.8011248     -7.0474536      3.7690795      50218.233      36.893836      36.893836      36.893836    
  41800000   0.50527387    -7.8006568     -7.0427567      3.7671795      50218.233      36.893836      36.893836      36.893836    
  41900000   0.50589523    -7.8049652     -7.0461332      3.7435181      50218.233      36.893836      36.893836      36.893836    
  42000000   0.50595436    -7.8037676     -7.0448468      3.7470479      50218.233      36.893836      36.893836      36.893836    
  42100000   0.50943644    -7.8058587     -7.0417149      3.7343875      50218.233      36.893836      36.893836      36.893836    
  42200000   0.50288429    -7.8054065     -7.0510907      3.7345111      50218.233      36.893836      36.893836      36.893836    
  42300000   0.50375084    -7.8057683     -7.0501528      3.737779       50218.233      36.893836      36.893836      36.893836    
  42400000   0.50277134    -7.8062637     -7.0521174      3.7283896      50218.233      36.893836      36.893836      36.893836    
  42500000   0.50558009    -7.8000952     -7.0417359      3.7719419      50218.233      36.893836      36.893836      36.893836    
  42600000   0.50659584    -7.8028307     -7.0429478      3.7617074      50218.233      36.893836      36.893836      36.893836    
  42700000   0.50427845    -7.8059956     -7.0495887      3.7184763      50218.233      36.893836      36.893836      36.893836    
  42800000   0.50247553    -7.8046084     -7.0509058      3.7284803      50218.233      36.893836      36.893836      36.893836    
  42900000   0.50599217    -7.8050771     -7.0460996      3.7357989      50218.233      36.893836      36.893836      36.893836    
  43000000   0.50426113    -7.8030881     -7.0467071      3.7658225      50218.233      36.893836      36.893836      36.893836    
  43100000   0.50464544    -7.8017927     -7.0448353      3.7614705      50218.233      36.893836      36.893836      36.893836    
  43200000   0.50813247    -7.8081454     -7.0459575      3.7171336      50218.233      36.893836      36.893836      36.893836    
  43300000   0.50559865    -7.8091457     -7.0507585      3.7095122      50218.233      36.893836      36.893836      36.893836    
  43400000   0.50469479    -7.8069558     -7.0499244      3.7255074      50218.233      36.893836      36.893836      36.893836    
  43500000   0.50326172    -7.8086289     -7.053747       3.7113806      50218.233      36.893836      36.893836      36.893836    
  43600000   0.50396208    -7.8042663     -7.0483339      3.73885        50218.233      36.893836      36.893836      36.893836    
  43700000   0.50948619    -7.80585       -7.0416316      3.7381721      50218.233      36.893836      36.893836      36.893836    
  43800000   0.50556539    -7.8061254     -7.0477881      3.7215204      50218.233      36.893836      36.893836      36.893836    
  43900000   0.50557297    -7.8063843     -7.0480357      3.7240461      50218.233      36.893836      36.893836      36.893836    
  44000000   0.5045971     -7.8069828     -7.0500979      3.7204462      50218.233      36.893836      36.893836      36.893836    
  44100000   0.50513867    -7.8021161     -7.0444188      3.7552967      50218.233      36.893836      36.893836      36.893836    
  44200000   0.50429205    -7.8133059     -7.0568786      3.6815444      50218.233      36.893836      36.893836      36.893836    
  44300000   0.50654559    -7.8065883     -7.0467808      3.729103       50218.233      36.893836      36.893836      36.893836    
  44400000   0.50829858    -7.8055766     -7.0431396      3.7433204      50218.233      36.893836      36.893836      36.893836    
  44500000   0.50334732    -7.8044672     -7.049457       3.7501333      50218.233      36.893836      36.893836      36.893836    
  44600000   0.50655189    -7.8082675     -7.0484505      3.7214188      50218.233      36.893836      36.893836      36.893836    
  44700000   0.50409474    -7.8102915     -7.0541602      3.6873744      50218.233      36.893836      36.893836      36.893836    
  44800000   0.50433821    -7.8076854     -7.0511888      3.708978       50218.233      36.893836      36.893836      36.893836    
  44900000   0.50714869    -7.8103566     -7.0496444      3.7054475      50218.233      36.893836      36.893836      36.893836    
  45000000   0.50489855    -7.8064976     -7.0491605      3.7442665      50218.233      36.893836      36.893836      36.893836    
  45100000   0.5056824     -7.8041178     -7.045605       3.7406845      50218.233      36.893836      36.893836      36.893836    
  45200000   0.50338805    -7.8079745     -7.0529032      3.7017497      50218.233      36.893836      36.893836      36.893836    
  45300000   0.50677574    -7.8065733     -7.0464205      3.7358812      50218.233      36.893836      36.893836      36.893836    
  45400000   0.50516141    -7.8056728     -7.0479415      3.7306883      50218.233      36.893836      36.893836      36.893836    
  45500000   0.50398506    -7.806778      -7.0508112      3.7218255      50218.233      36.893836      36.893836      36.893836    
  45600000   0.50719935    -7.8060788     -7.0452906      3.7317996      50218.233      36.893836      36.893836      36.893836    
  45700000   0.5045846     -7.8012247     -7.0443586      3.7715121      50218.233      36.893836      36.893836      36.893836    
  45800000   0.50499726    -7.8077175     -7.0502324      3.717346       50218.233      36.893836      36.893836      36.893836    
  45900000   0.5069059     -7.8066718     -7.0463237      3.7286242      50218.233      36.893836      36.893836      36.893836    
  46000000   0.50545546    -7.8048371     -7.0466647      3.7496352      50218.233      36.893836      36.893836      36.893836    
  46100000   0.50479598    -7.8073055     -7.0501223      3.7336445      50218.233      36.893836      36.893836      36.893836    
  46200000   0.50643313    -7.8024163     -7.0427774      3.7682647      50218.233      36.893836      36.893836      36.893836    
  46300000   0.50697614    -7.8079326     -7.0474792      3.7177345      50218.233      36.893836      36.893836      36.893836    
  46400000   0.50230878    -7.8024045     -7.048952       3.7594792      50218.233      36.893836      36.893836      36.893836    
  46500000   0.50361147    -7.8061182     -7.0507117      3.7191085      50218.233      36.893836      36.893836      36.893836    
  46600000   0.50324907    -7.8072459     -7.0523831      3.7134158      50218.233      36.893836      36.893836      36.893836    
  46700000   0.50380907    -7.8059949     -7.050292       3.7272983      50218.233      36.893836      36.893836      36.893836    
  46800000   0.5058358     -7.8048959     -7.046153       3.7376421      50218.233      36.893836      36.893836      36.893836    
  46900000   0.50531247    -7.804445      -7.0464871      3.7479976      50218.233      36.893836      36.893836      36.893836    
  47000000   0.5058183     -7.8047413     -7.0460247      3.7291493      50218.233      36.893836      36.893836      36.893836    
  47100000   0.50537987    -7.8062302     -7.0481711      3.724023       50218.233      36.893836      36.893836      36.893836    
  47200000   0.50317358    -7.805778      -7.0510284      3.7207554      50218.233      36.893836      36.893836      36.893836    
  47300000   0.50568685    -7.8087251     -7.0502056      3.7110285      50218.233      36.893836      36.893836      36.893836    
  47400000   0.50596027    -7.8133085     -7.0543789      3.6817304      50218.233      36.893836      36.893836      36.893836    
  47500000   0.50363416    -7.8076623     -7.0522218      3.7130696      50218.233      36.893836      36.893836      36.893836    
  47600000   0.5062601     -7.8083587     -7.0489793      3.7144255      50218.233      36.893836      36.893836      36.893836    
  47700000   0.50244279    -7.8064468     -7.0527934      3.7304558      50218.233      36.893836      36.893836      36.893836    
  47800000   0.50744634    -7.8070791     -7.0459204      3.7192091      50218.233      36.893836      36.893836      36.893836    
  47900000   0.50556933    -7.8064451     -7.0481019      3.7225496      50218.233      36.893836      36.893836      36.893836    
  48000000   0.5077299     -7.8043809     -7.0427969      3.737334       50218.233      36.893836      36.893836      36.893836    
  48100000   0.50689384    -7.8069788     -7.0466489      3.7189304      50218.233      36.893836      36.893836      36.893836    
  48200000   0.50481784    -7.8096165     -7.0524005      3.6994045      50218.233      36.893836      36.893836      36.893836    
  48300000   0.50360188    -7.8020872     -7.0466952      3.754347       50218.233      36.893836      36.893836      36.893836    
  48400000   0.50521953    -7.8068158     -7.0489972      3.7129596      50218.233      36.893836      36.893836      36.893836    
  48500000   0.50613038    -7.8000092     -7.0408244      3.7748404      50218.233      36.893836      36.893836      36.893836    
  48600000   0.50363395    -7.8049432     -7.049503       3.728005       50218.233      36.893836      36.893836      36.893836    
  48700000   0.50347119    -7.8011133     -7.0459172      3.7743173      50218.233      36.893836      36.893836      36.893836    
  48800000   0.5064104     -7.8030737     -7.0434689      3.7505837      50218.233      36.893836      36.893836      36.893836    
  48900000   0.50469465    -7.8065682     -7.049537       3.7254473      50218.233      36.893836      36.893836      36.893836    
  49000000   0.50383042    -7.8043665     -7.0486316      3.7502771      50218.233      36.893836      36.893836      36.893836    
  49100000   0.50501711    -7.8037269     -7.046212       3.7448847      50218.233      36.893836      36.893836      36.893836    
  49200000   0.50528468    -7.8052225     -7.0473063      3.7310102      50218.233      36.893836      36.893836      36.893836    
  49300000   0.50602217    -7.805479      -7.0464566      3.720376       50218.233      36.893836      36.893836      36.893836    
  49400000   0.50463279    -7.8024551     -7.0455167      3.7452736      50218.233      36.893836      36.893836      36.893836    
  49500000   0.50261589    -7.8070614     -7.0531483      3.7249077      50218.233      36.893836      36.893836      36.893836    
  49600000   0.50368517    -7.8058774     -7.0503604      3.7313088      50218.233      36.893836      36.893836      36.893836    
  49700000   0.50721179    -7.8062027     -7.0453958      3.7319325      50218.233      36.893836      36.893836      36.893836    
  49800000   0.50578067    -7.8019661     -7.0433059      3.7511517      50218.233      36.893836      36.893836      36.893836    
  49900000   0.50653142    -7.8011548     -7.0413684      3.7751195      50218.233      36.893836      36.893836      36.893836    
  50000000   0.50446757    -7.8060812     -7.0493906      3.7250374      50218.233      36.893836      36.893836      36.893836    
Loop time of 67426.3 on 5 procs for 50000000 steps with 70304 atoms

Performance: 640699.399 tau/day, 741.550 timesteps/s, 52.134 Matom-step/s
95.2% CPU use with 5 MPI tasks x 1 OpenMP threads

MPI task timing breakdown:
Section |  min time  |  avg time  |  max time  |%varavg| %total
---------------------------------------------------------------
Pair    | 19414      | 23448      | 26565      |1691.4 | 34.78
Neigh   | 235.12     | 251.25     | 286.85     | 129.4 |  0.37
Comm    | 11318      | 11446      | 11516      |  71.1 | 16.98
Output  | 0.089232   | 0.092291   | 0.097076   |   0.9 |  0.00
Modify  | 25557      | 28718      | 32842      |1545.1 | 42.59
Other   |            | 3563       |            |       |  5.28

Nlocal:        14060.8 ave       14083 max       13999 min
Histogram: 1 0 0 0 0 0 0 0 2 2
Nghost:        18743.8 ave       18798 max       18707 min
Histogram: 1 0 1 2 0 0 0 0 0 1
Neighs:              0 ave           0 max           0 min
Histogram: 5 0 0 0 0 0 0 0 0 0

Total # of neighbors = 0
Ave neighs/atom = 0
Neighbor list builds = 10265519
Dangerous builds = 0
Total wall time: 62:37:59
