variable TLJ equal (${T}/1000)
variable TLJ equal (360/1000)
variable NCyle equal 5
variable iStep equal (${f})
variable iStep equal (100000)
variable dumpStep equal (${f}*100)
variable dumpStep equal (100000*100)
variable runStep equal (${f}*100*${NCyle})
variable runStep equal (100000*100*${NCyle})
variable runStep equal (100000*100*5)

units       lj
atom_style  atomic
dimension 3
boundary     p p p
pair_style  lj/cut 2.5
read_data  ../data/T${T}.dat
read_data  ../data/T360.dat
Reading data file ...
  orthogonal box = (0.97250269 0.97250269 0.97250269) to (37.866338 37.866338 37.866338)
  1 by 1 by 5 MPI processor grid
  reading atoms ...
  70304 atoms
  reading velocities ...
  70304 velocities
  read_data CPU = 0.209 seconds
change_box all triclinic
Changing box ...
  triclinic box = (0.97250269 0.97250269 0.97250269) to (37.866338 37.866338 37.866338) with tilt (0 0 0)
mass 1 1
mass 2 1
pair_modify shift yes
pair_coeff  1 1 1 1
pair_coeff  1 2 1.5 0.8
pair_coeff  2 2 0.5 0.88


timestep 0.01
thermo ${iStep}
thermo 100000
reset_timestep 0
thermo_style custom step temp pe etotal press vol lx ly lz
fix             1 all nvt temp ${TLJ}  ${TLJ}  0.1
fix             1 all nvt temp 0.36  ${TLJ}  0.1
fix             1 all nvt temp 0.36  0.36  0.1
thermo_modify flush yes

fix dsf all deform 1 xy  wiggle 0.5  ${f}   units box
fix dsf all deform 1 xy  wiggle 0.5  100000   units box
fix ps1 all ave/time 1 1 ${iStep} c_thermo_press[1] c_thermo_press[2]  c_thermo_press[3] c_thermo_press[4]  c_thermo_press[5] c_thermo_press[6]  file  stress.${T}
fix ps1 all ave/time 1 1 100000 c_thermo_press[1] c_thermo_press[2]  c_thermo_press[3] c_thermo_press[4]  c_thermo_press[5] c_thermo_press[6]  file  stress.${T}
fix ps1 all ave/time 1 1 100000 c_thermo_press[1] c_thermo_press[2]  c_thermo_press[3] c_thermo_press[4]  c_thermo_press[5] c_thermo_press[6]  file  stress.360
dump            1 all custom ${dumpStep} dump.${T} id type x y z
dump            1 all custom 10000000 dump.${T} id type x y z
dump            1 all custom 10000000 dump.360 id type x y z
dump_modify 1 sort id
fix nodrift all momentum 1  linear 1 1 1
fix com_seed all recenter INIT INIT INIT shift all
run ${runStep}
run 50000000
Generated 0 of 1 mixed pair_coeff terms from geometric mixing rule
Per MPI rank memory allocation (min/avg/max) = 8.915 | 8.918 | 8.921 Mbytes
   Step          Temp          PotEng         TotEng         Press          Volume           Lx             Ly             Lz      
         0   0.35912937    -8.0525643     -7.5138779      1.7071269      50218.233      36.893836      36.893836      36.893836    
    100000   0.36050907    -8.047825      -7.5070691      1.7363374      50218.233      36.893836      36.893836      36.893836    
    200000   0.36230081    -8.0484183     -7.5049748      1.7346511      50218.233      36.893836      36.893836      36.893836    
    300000   0.3612119     -8.0496266     -7.5078164      1.7192749      50218.233      36.893836      36.893836      36.893836    
    400000   0.35849934    -8.0466343     -7.508893       1.7525931      50218.233      36.893836      36.893836      36.893836    
    500000   0.35994269    -8.0487856     -7.5088793      1.7303266      50218.233      36.893836      36.893836      36.893836    
    600000   0.36008912    -8.0462785     -7.5061525      1.7433098      50218.233      36.893836      36.893836      36.893836    
    700000   0.35962718    -8.049826      -7.5103929      1.725335       50218.233      36.893836      36.893836      36.893836    
    800000   0.36107467    -8.0488395     -7.5072352      1.7399857      50218.233      36.893836      36.893836      36.893836    
    900000   0.35952935    -8.0465101     -7.5072238      1.751056       50218.233      36.893836      36.893836      36.893836    
   1000000   0.35893042    -8.0500319     -7.511644       1.7157287      50218.233      36.893836      36.893836      36.893836    
   1100000   0.36066308    -8.0467301     -7.5057432      1.7425844      50218.233      36.893836      36.893836      36.893836    
   1200000   0.36093755    -8.0495519     -7.5081532      1.7262363      50218.233      36.893836      36.893836      36.893836    
   1300000   0.35829606    -8.0476074     -7.5101709      1.7360636      50218.233      36.893836      36.893836      36.893836    
   1400000   0.35985456    -8.0454223     -7.5056482      1.7573749      50218.233      36.893836      36.893836      36.893836    
   1500000   0.35684231    -8.0482322     -7.5129764      1.7277171      50218.233      36.893836      36.893836      36.893836    
   1600000   0.36143325    -8.0496127     -7.5074705      1.7291173      50218.233      36.893836      36.893836      36.893836    
   1700000   0.35978965    -8.0480921     -7.5084153      1.7375483      50218.233      36.893836      36.893836      36.893836    
   1800000   0.36082701    -8.0482998     -7.507067       1.7420683      50218.233      36.893836      36.893836      36.893836    
   1900000   0.36250932    -8.0485752     -7.504819       1.7414956      50218.233      36.893836      36.893836      36.893836    
   2000000   0.35927724    -8.0443937     -7.5054855      1.7698086      50218.233      36.893836      36.893836      36.893836    
   2100000   0.36167253    -8.0477795     -7.5052784      1.7452157      50218.233      36.893836      36.893836      36.893836    
   2200000   0.36132147    -8.0444687     -7.5024942      1.7684131      50218.233      36.893836      36.893836      36.893836    
   2300000   0.35971697    -8.0491082     -7.5095404      1.7286583      50218.233      36.893836      36.893836      36.893836    
   2400000   0.36092813    -8.049744      -7.5083595      1.7236372      50218.233      36.893836      36.893836      36.893836    
   2500000   0.35993025    -8.0499695     -7.5100818      1.7228882      50218.233      36.893836      36.893836      36.893836    
   2600000   0.36006227    -8.0437321     -7.5036464      1.7712669      50218.233      36.893836      36.893836      36.893836    
   2700000   0.36034313    -8.0493319     -7.5088249      1.7368633      50218.233      36.893836      36.893836      36.893836    
   2800000   0.35924393    -8.0489388     -7.5100806      1.7323185      50218.233      36.893836      36.893836      36.893836    
   2900000   0.35886808    -8.049083      -7.5107885      1.7292446      50218.233      36.893836      36.893836      36.893836    
   3000000   0.36207715    -8.0476496     -7.5045416      1.7443004      50218.233      36.893836      36.893836      36.893836    
   3100000   0.36043852    -8.0468011     -7.506151       1.7461462      50218.233      36.893836      36.893836      36.893836    
   3200000   0.36250963    -8.0500895     -7.5063328      1.724173       50218.233      36.893836      36.893836      36.893836    
   3300000   0.3615485     -8.0446071     -7.5022921      1.7687752      50218.233      36.893836      36.893836      36.893836    
   3400000   0.36058296    -8.0462392     -7.5053724      1.751735       50218.233      36.893836      36.893836      36.893836    
   3500000   0.35910804    -8.0489129     -7.5102585      1.7296039      50218.233      36.893836      36.893836      36.893836    
   3600000   0.3601879     -8.0460301     -7.505756       1.7581241      50218.233      36.893836      36.893836      36.893836    
   3700000   0.36006806    -8.048945      -7.5088506      1.7289078      50218.233      36.893836      36.893836      36.893836    
   3800000   0.35841199    -8.0479623     -7.510352       1.744585       50218.233      36.893836      36.893836      36.893836    
   3900000   0.36044138    -8.048218      -7.5075637      1.7363717      50218.233      36.893836      36.893836      36.893836    
   4000000   0.36038413    -8.0488806     -7.5083121      1.736489       50218.233      36.893836      36.893836      36.893836    
   4100000   0.36214767    -8.0506075     -7.5073937      1.7246505      50218.233      36.893836      36.893836      36.893836    
   4200000   0.35990897    -8.051063      -7.5112072      1.7060644      50218.233      36.893836      36.893836      36.893836    
   4300000   0.35877586    -8.0491496     -7.5109935      1.7300465      50218.233      36.893836      36.893836      36.893836    
   4400000   0.36060741    -8.0461789     -7.5052755      1.7562454      50218.233      36.893836      36.893836      36.893836    
   4500000   0.35836657    -8.0513567     -7.5138144      1.7117182      50218.233      36.893836      36.893836      36.893836    
   4600000   0.36097404    -8.0497894     -7.508336       1.7215342      50218.233      36.893836      36.893836      36.893836    
   4700000   0.36006464    -8.0491576     -7.5090683      1.724417       50218.233      36.893836      36.893836      36.893836    
   4800000   0.35933204    -8.0491509     -7.5101605      1.7327249      50218.233      36.893836      36.893836      36.893836    
   4900000   0.36102049    -8.0491393     -7.5076163      1.7241878      50218.233      36.893836      36.893836      36.893836    
   5000000   0.35946511    -8.0475522     -7.5083622      1.7400096      50218.233      36.893836      36.893836      36.893836    
   5100000   0.36099825    -8.050951      -7.5094614      1.7181451      50218.233      36.893836      36.893836      36.893836    
   5200000   0.35958816    -8.0477203     -7.5083458      1.7302272      50218.233      36.893836      36.893836      36.893836    
   5300000   0.36100044    -8.0506951     -7.5092021      1.7207578      50218.233      36.893836      36.893836      36.893836    
   5400000   0.35894524    -8.0481502     -7.50974        1.7372255      50218.233      36.893836      36.893836      36.893836    
   5500000   0.36128069    -8.0503998     -7.5084865      1.7260264      50218.233      36.893836      36.893836      36.893836    
   5600000   0.3602302     -8.0494601     -7.5091224      1.7344117      50218.233      36.893836      36.893836      36.893836    
   5700000   0.36013568    -8.0487953     -7.5085994      1.7347784      50218.233      36.893836      36.893836      36.893836    
   5800000   0.36127185    -8.0476314     -7.5057313      1.7385826      50218.233      36.893836      36.893836      36.893836    
   5900000   0.3596211     -8.048777      -7.509353       1.7443749      50218.233      36.893836      36.893836      36.893836    
   6000000   0.36174729    -8.0461435     -7.5035303      1.7630495      50218.233      36.893836      36.893836      36.893836    
   6100000   0.36180467    -8.0495713     -7.506872       1.7285222      50218.233      36.893836      36.893836      36.893836    
   6200000   0.35844212    -8.0447347     -7.5070791      1.7634337      50218.233      36.893836      36.893836      36.893836    
   6300000   0.35911227    -8.0485541     -7.5098933      1.7309086      50218.233      36.893836      36.893836      36.893836    
   6400000   0.36003267    -8.0465635     -7.5065222      1.7601529      50218.233      36.893836      36.893836      36.893836    
   6500000   0.36003547    -8.0486883     -7.5086428      1.7351774      50218.233      36.893836      36.893836      36.893836    
   6600000   0.35808178    -8.0474121     -7.5102971      1.7491944      50218.233      36.893836      36.893836      36.893836    
   6700000   0.3610195     -8.0464676     -7.5049461      1.7511646      50218.233      36.893836      36.893836      36.893836    
   6800000   0.35891584    -8.0509024     -7.5125363      1.7098642      50218.233      36.893836      36.893836      36.893836    
   6900000   0.35938165    -8.0503895     -7.5113247      1.7361696      50218.233      36.893836      36.893836      36.893836    
   7000000   0.35949226    -8.0472946     -7.5080638      1.7412968      50218.233      36.893836      36.893836      36.893836    
   7100000   0.35964867    -8.0497066     -7.5102413      1.7312332      50218.233      36.893836      36.893836      36.893836    
   7200000   0.35907952    -8.0484982     -7.5098866      1.7347126      50218.233      36.893836      36.893836      36.893836    
   7300000   0.35991295    -8.0490082     -7.5091465      1.7290536      50218.233      36.893836      36.893836      36.893836    
   7400000   0.35809826    -8.0496651     -7.5125254      1.7231325      50218.233      36.893836      36.893836      36.893836    
   7500000   0.36157907    -8.0473562     -7.5049953      1.7445686      50218.233      36.893836      36.893836      36.893836    
   7600000   0.36118522    -8.0447659     -7.5029957      1.7682594      50218.233      36.893836      36.893836      36.893836    
   7700000   0.35976763    -8.0468498     -7.507206       1.7480399      50218.233      36.893836      36.893836      36.893836    
   7800000   0.36101826    -8.0466265     -7.5051068      1.7491456      50218.233      36.893836      36.893836      36.893836    
   7900000   0.35930127    -8.0466719     -7.5077276      1.7398954      50218.233      36.893836      36.893836      36.893836    
   8000000   0.35807687    -8.0461681     -7.5090605      1.7619188      50218.233      36.893836      36.893836      36.893836    
   8100000   0.35912402    -8.0488043     -7.5101259      1.7288893      50218.233      36.893836      36.893836      36.893836    
   8200000   0.35902089    -8.0461959     -7.5076722      1.7603003      50218.233      36.893836      36.893836      36.893836    
   8300000   0.36019496    -8.0467536     -7.5064689      1.7530882      50218.233      36.893836      36.893836      36.893836    
   8400000   0.36154355    -8.0467647     -7.5044571      1.7581198      50218.233      36.893836      36.893836      36.893836    
   8500000   0.36152775    -8.0491631     -7.5068792      1.7229059      50218.233      36.893836      36.893836      36.893836    
   8600000   0.36102533    -8.0482112     -7.5066809      1.7431567      50218.233      36.893836      36.893836      36.893836    
   8700000   0.35945705    -8.0496194     -7.5104414      1.7294946      50218.233      36.893836      36.893836      36.893836    
   8800000   0.35891948    -8.0487865     -7.5104149      1.728387       50218.233      36.893836      36.893836      36.893836    
   8900000   0.36092484    -8.0462087     -7.5048291      1.7567933      50218.233      36.893836      36.893836      36.893836    
   9000000   0.35950849    -8.0501778     -7.5109228      1.7163946      50218.233      36.893836      36.893836      36.893836    
   9100000   0.36104755    -8.0456694     -7.5041058      1.7580001      50218.233      36.893836      36.893836      36.893836    
   9200000   0.36087425    -8.0490532     -7.5077496      1.7325824      50218.233      36.893836      36.893836      36.893836    
   9300000   0.36031473    -8.0483864     -7.507922       1.731037       50218.233      36.893836      36.893836      36.893836    
   9400000   0.36129154    -8.0519206     -7.509991       1.7180026      50218.233      36.893836      36.893836      36.893836    
   9500000   0.35701394    -8.0500364     -7.5145231      1.7197654      50218.233      36.893836      36.893836      36.893836    
   9600000   0.36012346    -8.0485466     -7.5083691      1.7346642      50218.233      36.893836      36.893836      36.893836    
   9700000   0.35993913    -8.0502267     -7.5103257      1.7248431      50218.233      36.893836      36.893836      36.893836    
   9800000   0.35767144    -8.0484706     -7.5119711      1.740831       50218.233      36.893836      36.893836      36.893836    
   9900000   0.36139799    -8.0510503     -7.508961       1.7203525      50218.233      36.893836      36.893836      36.893836    
  10000000   0.36040846    -8.0486238     -7.5080188      1.7288325      50218.233      36.893836      36.893836      36.893836    
  10100000   0.36110567    -8.0503345     -7.5086837      1.7263371      50218.233      36.893836      36.893836      36.893836    
  10200000   0.35839788    -8.0472037     -7.5096146      1.7466572      50218.233      36.893836      36.893836      36.893836    
  10300000   0.36020455    -8.0522732     -7.511974       1.701267       50218.233      36.893836      36.893836      36.893836    
  10400000   0.35728121    -8.049572      -7.5136578      1.7221981      50218.233      36.893836      36.893836      36.893836    
  10500000   0.35888181    -8.0490809     -7.5107659      1.7381496      50218.233      36.893836      36.893836      36.893836    
  10600000   0.35909019    -8.0478662     -7.5092386      1.7336844      50218.233      36.893836      36.893836      36.893836    
  10700000   0.35895983    -8.0481494     -7.5097174      1.7324084      50218.233      36.893836      36.893836      36.893836    
  10800000   0.36079937    -8.0460591     -7.5048678      1.7567544      50218.233      36.893836      36.893836      36.893836    
  10900000   0.36191148    -8.0515882     -7.5087287      1.7073235      50218.233      36.893836      36.893836      36.893836    
  11000000   0.36075009    -8.0491173     -7.5079999      1.7319066      50218.233      36.893836      36.893836      36.893836    
  11100000   0.35990782    -8.049884      -7.51003        1.7250201      50218.233      36.893836      36.893836      36.893836    
  11200000   0.36040978    -8.0512097     -7.5106027      1.7124083      50218.233      36.893836      36.893836      36.893836    
  11300000   0.35957006    -8.0457833     -7.5064358      1.756756       50218.233      36.893836      36.893836      36.893836    
  11400000   0.35906025    -8.0461693     -7.5075866      1.7507666      50218.233      36.893836      36.893836      36.893836    
  11500000   0.36041055    -8.0501889     -7.5095808      1.729482       50218.233      36.893836      36.893836      36.893836    
  11600000   0.35840104    -8.0490171     -7.5114232      1.735892       50218.233      36.893836      36.893836      36.893836    
  11700000   0.35917966    -8.0454839     -7.5067221      1.7525677      50218.233      36.893836      36.893836      36.893836    
  11800000   0.36143458    -8.0481373     -7.5059931      1.7397203      50218.233      36.893836      36.893836      36.893836    
  11900000   0.35978105    -8.0492741     -7.5096102      1.7319731      50218.233      36.893836      36.893836      36.893836    
  12000000   0.35991871    -8.0468603     -7.50699        1.7401359      50218.233      36.893836      36.893836      36.893836    
  12100000   0.36063039    -8.047929      -7.5069911      1.7512682      50218.233      36.893836      36.893836      36.893836    
  12200000   0.35984362    -8.0466322     -7.5068745      1.7557318      50218.233      36.893836      36.893836      36.893836    
  12300000   0.36105167    -8.0465159     -7.5049461      1.749893       50218.233      36.893836      36.893836      36.893836    
  12400000   0.36052881    -8.0475383     -7.5067527      1.7429423      50218.233      36.893836      36.893836      36.893836    
  12500000   0.36229566    -8.0470384     -7.5036026      1.7377496      50218.233      36.893836      36.893836      36.893836    
  12600000   0.36178228    -8.0502515     -7.5075858      1.7203462      50218.233      36.893836      36.893836      36.893836    
  12700000   0.36029762    -8.044143      -7.5037043      1.7716648      50218.233      36.893836      36.893836      36.893836    
  12800000   0.35956366    -8.0450658     -7.505728       1.7607849      50218.233      36.893836      36.893836      36.893836    
  12900000   0.36037263    -8.0481092     -7.5075579      1.7377621      50218.233      36.893836      36.893836      36.893836    
  13000000   0.35982861    -8.0464851     -7.5067498      1.7472907      50218.233      36.893836      36.893836      36.893836    
  13100000   0.3591505     -8.0484731     -7.509755       1.7301096      50218.233      36.893836      36.893836      36.893836    
  13200000   0.36226595    -8.0472246     -7.5038334      1.751244       50218.233      36.893836      36.893836      36.893836    
  13300000   0.35900113    -8.0467585     -7.5082645      1.748592       50218.233      36.893836      36.893836      36.893836    
  13400000   0.35938062    -8.0466165     -7.5075532      1.7462728      50218.233      36.893836      36.893836      36.893836    
  13500000   0.36005793    -8.0476162     -7.5075369      1.7397614      50218.233      36.893836      36.893836      36.893836    
  13600000   0.36032088    -8.0469849     -7.5065113      1.7414696      50218.233      36.893836      36.893836      36.893836    
  13700000   0.35915924    -8.0473256     -7.5085944      1.7439994      50218.233      36.893836      36.893836      36.893836    
  13800000   0.35954132    -8.0497466     -7.5104423      1.7275553      50218.233      36.893836      36.893836      36.893836    
  13900000   0.36038196    -8.049977      -7.5094117      1.7161546      50218.233      36.893836      36.893836      36.893836    
  14000000   0.35939441    -8.0489123     -7.5098284      1.7316712      50218.233      36.893836      36.893836      36.893836    
  14100000   0.35857727    -8.0489409     -7.5110826      1.7283553      50218.233      36.893836      36.893836      36.893836    
  14200000   0.35904791    -8.0490673     -7.5105031      1.7377614      50218.233      36.893836      36.893836      36.893836    
  14300000   0.36203391    -8.0483607     -7.5053176      1.7319158      50218.233      36.893836      36.893836      36.893836    
  14400000   0.36008656    -8.0478301     -7.5077079      1.7476465      50218.233      36.893836      36.893836      36.893836    
  14500000   0.35991216    -8.0507431     -7.5108825      1.714297       50218.233      36.893836      36.893836      36.893836    
  14600000   0.35911256    -8.0496047     -7.5109435      1.7258448      50218.233      36.893836      36.893836      36.893836    
  14700000   0.36095728    -8.0507619     -7.5093337      1.7209538      50218.233      36.893836      36.893836      36.893836    
  14800000   0.35997635    -8.0497789     -7.5098221      1.7212157      50218.233      36.893836      36.893836      36.893836    
  14900000   0.36027966    -8.0489864     -7.5085746      1.7234371      50218.233      36.893836      36.893836      36.893836    
  15000000   0.36148466    -8.049113      -7.5068937      1.7331891      50218.233      36.893836      36.893836      36.893836    
  15100000   0.35911729    -8.0498886     -7.5112203      1.7182868      50218.233      36.893836      36.893836      36.893836    
  15200000   0.35965115    -8.0500126     -7.5105436      1.7207325      50218.233      36.893836      36.893836      36.893836    
  15300000   0.36011872    -8.0500952     -7.5099248      1.7229102      50218.233      36.893836      36.893836      36.893836    
  15400000   0.359197      -8.0485619     -7.5097741      1.7271029      50218.233      36.893836      36.893836      36.893836    
  15500000   0.35968769    -8.0508507     -7.5113269      1.7178218      50218.233      36.893836      36.893836      36.893836    
  15600000   0.36022333    -8.0509087     -7.5105814      1.7190361      50218.233      36.893836      36.893836      36.893836    
  15700000   0.36033313    -8.0527674     -7.5122754      1.7067735      50218.233      36.893836      36.893836      36.893836    
  15800000   0.35716913    -8.0479304     -7.5121843      1.7363276      50218.233      36.893836      36.893836      36.893836    
  15900000   0.36012323    -8.0491636     -7.5089864      1.7244219      50218.233      36.893836      36.893836      36.893836    
  16000000   0.35870622    -8.0520947     -7.5140431      1.6936054      50218.233      36.893836      36.893836      36.893836    
  16100000   0.36153787    -8.0510525     -7.5087534      1.7212399      50218.233      36.893836      36.893836      36.893836    
  16200000   0.36103256    -8.0456346     -7.5040934      1.7548798      50218.233      36.893836      36.893836      36.893836    
  16300000   0.35954305    -8.0498485     -7.5105416      1.7150141      50218.233      36.893836      36.893836      36.893836    
  16400000   0.36146574    -8.0482603     -7.5060694      1.7503769      50218.233      36.893836      36.893836      36.893836    
  16500000   0.3614746     -8.0499511     -7.5077469      1.7242929      50218.233      36.893836      36.893836      36.893836    
  16600000   0.35905424    -8.0513738     -7.5128001      1.7138614      50218.233      36.893836      36.893836      36.893836    
  16700000   0.35975553    -8.0489616     -7.509336       1.7248208      50218.233      36.893836      36.893836      36.893836    
  16800000   0.3599982     -8.0448617     -7.5048721      1.7537738      50218.233      36.893836      36.893836      36.893836    
  16900000   0.36014907    -8.0483047     -7.5080887      1.729262       50218.233      36.893836      36.893836      36.893836    
  17000000   0.35901668    -8.0467998     -7.5082825      1.7472412      50218.233      36.893836      36.893836      36.893836    
  17100000   0.36003965    -8.0489489     -7.5088971      1.7327516      50218.233      36.893836      36.893836      36.893836    
  17200000   0.35874692    -8.0495324     -7.5114197      1.7173484      50218.233      36.893836      36.893836      36.893836    
  17300000   0.35726014    -8.0469685     -7.5110859      1.750579       50218.233      36.893836      36.893836      36.893836    
  17400000   0.3605356     -8.0496503     -7.5088546      1.7276388      50218.233      36.893836      36.893836      36.893836    
  17500000   0.36002019    -8.0448206     -7.504798       1.7577852      50218.233      36.893836      36.893836      36.893836    
  17600000   0.35913638    -8.0491211     -7.5104242      1.7281819      50218.233      36.893836      36.893836      36.893836    
  17700000   0.36033416    -8.0468608     -7.5063673      1.7380165      50218.233      36.893836      36.893836      36.893836    
  17800000   0.36095701    -8.0463627     -7.5049349      1.7444735      50218.233      36.893836      36.893836      36.893836    
  17900000   0.35977296    -8.0469795     -7.5073277      1.7403027      50218.233      36.893836      36.893836      36.893836    
  18000000   0.3595071     -8.0481985     -7.5089455      1.7367816      50218.233      36.893836      36.893836      36.893836    
  18100000   0.35942006    -8.0473272     -7.5082048      1.74256        50218.233      36.893836      36.893836      36.893836    
  18200000   0.36075048    -8.0499449     -7.5088269      1.7176467      50218.233      36.893836      36.893836      36.893836    
  18300000   0.36057676    -8.0483304     -7.5074729      1.7421193      50218.233      36.893836      36.893836      36.893836    
  18400000   0.36105975    -8.0487717     -7.5071898      1.7332248      50218.233      36.893836      36.893836      36.893836    
  18500000   0.3594958     -8.0484729     -7.5092368      1.7280523      50218.233      36.893836      36.893836      36.893836    
  18600000   0.36085392    -8.0475536     -7.5062804      1.7370168      50218.233      36.893836      36.893836      36.893836    
  18700000   0.36045956    -8.0491085     -7.5084268      1.7296146      50218.233      36.893836      36.893836      36.893836    
  18800000   0.36131306    -8.0480451     -7.5060832      1.7403805      50218.233      36.893836      36.893836      36.893836    
  18900000   0.35964808    -8.049019      -7.5095545      1.7238536      50218.233      36.893836      36.893836      36.893836    
  19000000   0.36058577    -8.046834      -7.5059631      1.7474922      50218.233      36.893836      36.893836      36.893836    
  19100000   0.36167159    -8.049761      -7.5072613      1.7226664      50218.233      36.893836      36.893836      36.893836    
  19200000   0.36097421    -8.0472698     -7.5058162      1.7541844      50218.233      36.893836      36.893836      36.893836    
  19300000   0.35869194    -8.0471903     -7.50916        1.7327552      50218.233      36.893836      36.893836      36.893836    
  19400000   0.36025616    -8.0475282     -7.5071516      1.7488865      50218.233      36.893836      36.893836      36.893836    
  19500000   0.35799363    -8.0506023     -7.5136195      1.7151412      50218.233      36.893836      36.893836      36.893836    
  19600000   0.3596698     -8.0499894     -7.5104923      1.7298718      50218.233      36.893836      36.893836      36.893836    
  19700000   0.36000271    -8.0434563     -7.5034599      1.7719467      50218.233      36.893836      36.893836      36.893836    
  19800000   0.35822965    -8.0502229     -7.5128861      1.7226835      50218.233      36.893836      36.893836      36.893836    
  19900000   0.35906105    -8.0480438     -7.5094599      1.7357003      50218.233      36.893836      36.893836      36.893836    
  20000000   0.3589939     -8.0524587     -7.5139755      1.7092857      50218.233      36.893836      36.893836      36.893836    
  20100000   0.3606468     -8.048149      -7.5071865      1.7359677      50218.233      36.893836      36.893836      36.893836    
  20200000   0.36006006    -8.0482056     -7.5081231      1.7318057      50218.233      36.893836      36.893836      36.893836    
  20300000   0.36167258    -8.0507204     -7.5082192      1.717579       50218.233      36.893836      36.893836      36.893836    
  20400000   0.35947233    -8.0517094     -7.5125086      1.7158001      50218.233      36.893836      36.893836      36.893836    
  20500000   0.361074      -8.0509593     -7.509356       1.7138593      50218.233      36.893836      36.893836      36.893836    
  20600000   0.36185727    -8.0496107     -7.5068325      1.7352951      50218.233      36.893836      36.893836      36.893836    
  20700000   0.36132053    -8.0478288     -7.5058557      1.7511646      50218.233      36.893836      36.893836      36.893836    
  20800000   0.3617022     -8.0475279     -7.5049824      1.7448477      50218.233      36.893836      36.893836      36.893836    
  20900000   0.36085705    -8.0482175     -7.5069396      1.7356298      50218.233      36.893836      36.893836      36.893836    
  21000000   0.36167851    -8.0507924     -7.5082823      1.7226987      50218.233      36.893836      36.893836      36.893836    
  21100000   0.35909       -8.0487449     -7.5101176      1.7334755      50218.233      36.893836      36.893836      36.893836    
  21200000   0.36061731    -8.049603      -7.5086847      1.7279006      50218.233      36.893836      36.893836      36.893836    
  21300000   0.35995404    -8.0498588     -7.5099354      1.7223086      50218.233      36.893836      36.893836      36.893836    
  21400000   0.35924223    -8.0495532     -7.5106976      1.7249059      50218.233      36.893836      36.893836      36.893836    
  21500000   0.36065712    -8.0495402     -7.5085622      1.7215923      50218.233      36.893836      36.893836      36.893836    
  21600000   0.36033586    -8.0473736     -7.5068775      1.7348884      50218.233      36.893836      36.893836      36.893836    
  21700000   0.35992564    -8.0506093     -7.5107285      1.7176038      50218.233      36.893836      36.893836      36.893836    
  21800000   0.36235632    -8.047919      -7.5043922      1.7373854      50218.233      36.893836      36.893836      36.893836    
  21900000   0.35971106    -8.0465252     -7.5069663      1.7499347      50218.233      36.893836      36.893836      36.893836    
  22000000   0.35862759    -8.0498591     -7.5119254      1.7223495      50218.233      36.893836      36.893836      36.893836    
  22100000   0.35908631    -8.0488418     -7.51022        1.7229888      50218.233      36.893836      36.893836      36.893836    
  22200000   0.36080163    -8.0464623     -7.5052676      1.7514625      50218.233      36.893836      36.893836      36.893836    
  22300000   0.36040664    -8.0474853     -7.506883       1.7302202      50218.233      36.893836      36.893836      36.893836    
  22400000   0.35926377    -8.0453175     -7.5064295      1.752862       50218.233      36.893836      36.893836      36.893836    
  22500000   0.35983386    -8.0460443     -7.5063012      1.7491739      50218.233      36.893836      36.893836      36.893836    
  22600000   0.3597036     -8.0480031     -7.5084554      1.73605        50218.233      36.893836      36.893836      36.893836    
  22700000   0.35961397    -8.050362      -7.5109487      1.7170844      50218.233      36.893836      36.893836      36.893836    
  22800000   0.35933499    -8.0458697     -7.5068749      1.7566932      50218.233      36.893836      36.893836      36.893836    
  22900000   0.359497      -8.0507173     -7.5114794      1.7175394      50218.233      36.893836      36.893836      36.893836    
  23000000   0.36055834    -8.0480517     -7.5072219      1.7430704      50218.233      36.893836      36.893836      36.893836    
  23100000   0.36085289    -8.0491641     -7.5078924      1.7295618      50218.233      36.893836      36.893836      36.893836    
  23200000   0.35940293    -8.0476227     -7.5085259      1.7325905      50218.233      36.893836      36.893836      36.893836    
  23300000   0.35975754    -8.0503034     -7.5106748      1.7192896      50218.233      36.893836      36.893836      36.893836    
  23400000   0.36026684    -8.0473235     -7.5069309      1.7452275      50218.233      36.893836      36.893836      36.893836    
  23500000   0.35851227    -8.0473619     -7.5096011      1.7442601      50218.233      36.893836      36.893836      36.893836    
  23600000   0.36020669    -8.0492663     -7.508964       1.723821       50218.233      36.893836      36.893836      36.893836    
  23700000   0.36128447    -8.047144      -7.505225       1.7431364      50218.233      36.893836      36.893836      36.893836    
  23800000   0.35886305    -8.0489011     -7.5106142      1.7315775      50218.233      36.893836      36.893836      36.893836    
  23900000   0.36056289    -8.0488786     -7.5080419      1.7318098      50218.233      36.893836      36.893836      36.893836    
  24000000   0.36128832    -8.0481586     -7.5062338      1.7355729      50218.233      36.893836      36.893836      36.893836    
  24100000   0.36079397    -8.0479127     -7.5067295      1.7287128      50218.233      36.893836      36.893836      36.893836    
  24200000   0.36154642    -8.0469394     -7.5046275      1.7508164      50218.233      36.893836      36.893836      36.893836    
  24300000   0.35938084    -8.0508727     -7.5118091      1.7136949      50218.233      36.893836      36.893836      36.893836    
  24400000   0.36070895    -8.049048      -7.5079923      1.7305827      50218.233      36.893836      36.893836      36.893836    
  24500000   0.36248503    -8.0495884     -7.5058686      1.7281428      50218.233      36.893836      36.893836      36.893836    
  24600000   0.3606148     -8.0465053     -7.5055908      1.7425383      50218.233      36.893836      36.893836      36.893836    
  24700000   0.36009966    -8.0495266     -7.5093848      1.7169196      50218.233      36.893836      36.893836      36.893836    
  24800000   0.36137837    -8.0496492     -7.5075893      1.7250761      50218.233      36.893836      36.893836      36.893836    
  24900000   0.35846642    -8.0484192     -7.5107272      1.7324539      50218.233      36.893836      36.893836      36.893836    
  25000000   0.35886568    -8.046928      -7.5086372      1.7423205      50218.233      36.893836      36.893836      36.893836    
  25100000   0.35980168    -8.0469917     -7.5072969      1.7434644      50218.233      36.893836      36.893836      36.893836    
  25200000   0.35914308    -8.0501975     -7.5114906      1.7175021      50218.233      36.893836      36.893836      36.893836    
  25300000   0.36072939    -8.0490612     -7.5079748      1.7395639      50218.233      36.893836      36.893836      36.893836    
  25400000   0.361373      -8.0518679     -7.5098161      1.7139055      50218.233      36.893836      36.893836      36.893836    
  25500000   0.36086008    -8.0462507     -7.5049683      1.7525976      50218.233      36.893836      36.893836      36.893836    
  25600000   0.35989376    -8.0496741     -7.5098412      1.7209582      50218.233      36.893836      36.893836      36.893836    
  25700000   0.36068451    -8.049427      -7.5084079      1.7246479      50218.233      36.893836      36.893836      36.893836    
  25800000   0.35736963    -8.0487999     -7.5127531      1.7284736      50218.233      36.893836      36.893836      36.893836    
  25900000   0.35995747    -8.0479093     -7.5079808      1.7353118      50218.233      36.893836      36.893836      36.893836    
  26000000   0.36050419    -8.0526131     -7.5118645      1.7037096      50218.233      36.893836      36.893836      36.893836    
  26100000   0.35993357    -8.0503784     -7.5104857      1.7265409      50218.233      36.893836      36.893836      36.893836    
  26200000   0.36153171    -8.0471276     -7.5048377      1.7364624      50218.233      36.893836      36.893836      36.893836    
  26300000   0.35960075    -8.0479614     -7.5085679      1.7359368      50218.233      36.893836      36.893836      36.893836    
  26400000   0.36026707    -8.0500956     -7.5097026      1.7252075      50218.233      36.893836      36.893836      36.893836    
  26500000   0.35992733    -8.0469696     -7.5070863      1.7372264      50218.233      36.893836      36.893836      36.893836    
  26600000   0.35763624    -8.048353      -7.5119062      1.7298781      50218.233      36.893836      36.893836      36.893836    
  26700000   0.36122387    -8.0478471     -7.506019       1.7424704      50218.233      36.893836      36.893836      36.893836    
  26800000   0.36148516    -8.0483148     -7.5060948      1.7417385      50218.233      36.893836      36.893836      36.893836    
  26900000   0.36081184    -8.0484689     -7.5072589      1.7409297      50218.233      36.893836      36.893836      36.893836    
  27000000   0.35949867    -8.0450692     -7.5058288      1.7643625      50218.233      36.893836      36.893836      36.893836    
  27100000   0.36271131    -8.0482988     -7.5042396      1.7338544      50218.233      36.893836      36.893836      36.893836    
  27200000   0.35894669    -8.0488363     -7.5104239      1.7278114      50218.233      36.893836      36.893836      36.893836    
  27300000   0.36150141    -8.0478241     -7.5055797      1.748094       50218.233      36.893836      36.893836      36.893836    
  27400000   0.35834545    -8.0472122     -7.5097017      1.7507951      50218.233      36.893836      36.893836      36.893836    
  27500000   0.36140463    -8.0481326     -7.5060333      1.7444608      50218.233      36.893836      36.893836      36.893836    
  27600000   0.36123278    -8.0466231     -7.5047816      1.7547024      50218.233      36.893836      36.893836      36.893836    
  27700000   0.35978467    -8.0493096     -7.5096403      1.7349111      50218.233      36.893836      36.893836      36.893836    
  27800000   0.35947604    -8.046411      -7.5072046      1.7407941      50218.233      36.893836      36.893836      36.893836    
  27900000   0.36124712    -8.0453852     -7.5035222      1.7521039      50218.233      36.893836      36.893836      36.893836    
  28000000   0.35947138    -8.0461556     -7.5069562      1.7493313      50218.233      36.893836      36.893836      36.893836    
  28100000   0.35945845    -8.0491865     -7.5100065      1.7311672      50218.233      36.893836      36.893836      36.893836    
  28200000   0.35907834    -8.0466279     -7.508018       1.7449064      50218.233      36.893836      36.893836      36.893836    
  28300000   0.35885708    -8.0506427     -7.5123647      1.7103818      50218.233      36.893836      36.893836      36.893836    
  28400000   0.36061784    -8.0485905     -7.5076714      1.7270467      50218.233      36.893836      36.893836      36.893836    
  28500000   0.35885012    -8.0501141     -7.5118466      1.717562       50218.233      36.893836      36.893836      36.893836    
  28600000   0.3605743     -8.0478403     -7.5069866      1.7374028      50218.233      36.893836      36.893836      36.893836    
  28700000   0.35930414    -8.0489984     -7.5100498      1.7308488      50218.233      36.893836      36.893836      36.893836    
  28800000   0.35833093    -8.0490902     -7.5116014      1.7370581      50218.233      36.893836      36.893836      36.893836    
  28900000   0.36019135    -8.0493256     -7.5090462      1.7303541      50218.233      36.893836      36.893836      36.893836    
  29000000   0.36053045    -8.0471698     -7.5063818      1.7512886      50218.233      36.893836      36.893836      36.893836    
  29100000   0.36056417    -8.0503352     -7.5094966      1.7180013      50218.233      36.893836      36.893836      36.893836    
  29200000   0.35908566    -8.0519136     -7.5132928      1.7014473      50218.233      36.893836      36.893836      36.893836    
  29300000   0.35991175    -8.048313      -7.508453       1.7370175      50218.233      36.893836      36.893836      36.893836    
  29400000   0.36068656    -8.0487736     -7.5077515      1.7379635      50218.233      36.893836      36.893836      36.893836    
  29500000   0.3602635     -8.0497969     -7.5094093      1.7238482      50218.233      36.893836      36.893836      36.893836    
  29600000   0.35965014    -8.0493137     -7.5098461      1.7275376      50218.233      36.893836      36.893836      36.893836    
  29700000   0.35961323    -8.0499101     -7.5104979      1.7273945      50218.233      36.893836      36.893836      36.893836    
  29800000   0.3606584     -8.0502594     -7.5092795      1.7128022      50218.233      36.893836      36.893836      36.893836    
  29900000   0.35873798    -8.0480554     -7.5099561      1.7287689      50218.233      36.893836      36.893836      36.893836    
  30000000   0.36184834    -8.0473071     -7.5045423      1.7494166      50218.233      36.893836      36.893836      36.893836    
  30100000   0.35865917    -8.0512771     -7.513296       1.7112604      50218.233      36.893836      36.893836      36.893836    
  30200000   0.36089308    -8.0491243     -7.5077924      1.7338404      50218.233      36.893836      36.893836      36.893836    
  30300000   0.3583138     -8.0493652     -7.5119021      1.7225941      50218.233      36.893836      36.893836      36.893836    
  30400000   0.36172396    -8.0482086     -7.5056303      1.7442128      50218.233      36.893836      36.893836      36.893836    
  30500000   0.35981198    -8.04882       -7.5091097      1.7444638      50218.233      36.893836      36.893836      36.893836    
  30600000   0.36018825    -8.0504003     -7.5101257      1.7187858      50218.233      36.893836      36.893836      36.893836    
  30700000   0.35994685    -8.0487595     -7.5088469      1.7383444      50218.233      36.893836      36.893836      36.893836    
  30800000   0.36043024    -8.0492663     -7.5086286      1.7334478      50218.233      36.893836      36.893836      36.893836    
  30900000   0.36134805    -8.0488992     -7.5068848      1.7303273      50218.233      36.893836      36.893836      36.893836    
  31000000   0.3604325     -8.0471471     -7.5065061      1.7529069      50218.233      36.893836      36.893836      36.893836    
  31100000   0.35969793    -8.0510695     -7.5115303      1.7097087      50218.233      36.893836      36.893836      36.893836    
  31200000   0.36009112    -8.0481796     -7.5080506      1.7343948      50218.233      36.893836      36.893836      36.893836    
  31300000   0.35842196    -8.0507307     -7.5131054      1.7107481      50218.233      36.893836      36.893836      36.893836    
  31400000   0.35766305    -8.0477396     -7.5112526      1.7415458      50218.233      36.893836      36.893836      36.893836    
  31500000   0.35952674    -8.046666      -7.5073835      1.7392946      50218.233      36.893836      36.893836      36.893836    
  31600000   0.35995551    -8.046078      -7.5061524      1.7611454      50218.233      36.893836      36.893836      36.893836    
  31700000   0.35925388    -8.0454254     -7.5065522      1.7563112      50218.233      36.893836      36.893836      36.893836    
  31800000   0.36227104    -8.0460759     -7.5026771      1.7652993      50218.233      36.893836      36.893836      36.893836    
  31900000   0.36048266    -8.0485297     -7.5078134      1.7467907      50218.233      36.893836      36.893836      36.893836    
  32000000   0.36017503    -8.0498129     -7.509558       1.7211589      50218.233      36.893836      36.893836      36.893836    
  32100000   0.35982125    -8.0473625     -7.5076383      1.7379114      50218.233      36.893836      36.893836      36.893836    
  32200000   0.36085025    -8.0484553     -7.5071877      1.7443202      50218.233      36.893836      36.893836      36.893836    
  32300000   0.36049603    -8.0502011     -7.5094647      1.7204202      50218.233      36.893836      36.893836      36.893836    
  32400000   0.35961749    -8.0467605     -7.5073419      1.7464208      50218.233      36.893836      36.893836      36.893836    
  32500000   0.36036821    -8.0524932     -7.5119486      1.7045915      50218.233      36.893836      36.893836      36.893836    
  32600000   0.35947738    -8.0502864     -7.511078       1.7235599      50218.233      36.893836      36.893836      36.893836    
  32700000   0.36216618    -8.0459406     -7.5026991      1.7670023      50218.233      36.893836      36.893836      36.893836    
  32800000   0.36031658    -8.0485622     -7.508095       1.7304632      50218.233      36.893836      36.893836      36.893836    
  32900000   0.35713193    -8.0494841     -7.5137938      1.7249324      50218.233      36.893836      36.893836      36.893836    
  33000000   0.36117636    -8.0485871     -7.5068302      1.735029       50218.233      36.893836      36.893836      36.893836    
  33100000   0.35992087    -8.0500447     -7.5101711      1.7225661      50218.233      36.893836      36.893836      36.893836    
  33200000   0.36209906    -8.0451558     -7.5020149      1.766          50218.233      36.893836      36.893836      36.893836    
  33300000   0.35981137    -8.0519213     -7.5122119      1.7110113      50218.233      36.893836      36.893836      36.893836    
  33400000   0.36098662    -8.0487686     -7.5072963      1.7359672      50218.233      36.893836      36.893836      36.893836    
  33500000   0.35942349    -8.0490335     -7.5099059      1.7337343      50218.233      36.893836      36.893836      36.893836    
  33600000   0.36233432    -8.0461463     -7.5026526      1.7500763      50218.233      36.893836      36.893836      36.893836    
  33700000   0.35844167    -8.0485338     -7.510879       1.7329758      50218.233      36.893836      36.893836      36.893836    
  33800000   0.36084522    -8.0493573     -7.5080972      1.7269658      50218.233      36.893836      36.893836      36.893836    
  33900000   0.36063592    -8.0483434     -7.5073973      1.738466       50218.233      36.893836      36.893836      36.893836    
  34000000   0.36081298    -8.0499564     -7.5087447      1.7270513      50218.233      36.893836      36.893836      36.893836    
  34100000   0.36052973    -8.0497679     -7.508981       1.7258477      50218.233      36.893836      36.893836      36.893836    
  34200000   0.35930486    -8.0503927     -7.511443       1.7175653      50218.233      36.893836      36.893836      36.893836    
  34300000   0.35873093    -8.0486343     -7.5105456      1.7374907      50218.233      36.893836      36.893836      36.893836    
  34400000   0.3618761     -8.0477036     -7.5048972      1.7440211      50218.233      36.893836      36.893836      36.893836    
  34500000   0.36085762    -8.04822       -7.5069413      1.74693        50218.233      36.893836      36.893836      36.893836    
  34600000   0.36045994    -8.0492698     -7.5085875      1.7360736      50218.233      36.893836      36.893836      36.893836    
  34700000   0.36015556    -8.049922      -7.5096963      1.7258766      50218.233      36.893836      36.893836      36.893836    
  34800000   0.35947502    -8.0495003     -7.5102954      1.722475       50218.233      36.893836      36.893836      36.893836    
  34900000   0.36083764    -8.0482861     -7.5070373      1.7348478      50218.233      36.893836      36.893836      36.893836    
  35000000   0.36066013    -8.0524358     -7.5114533      1.7106938      50218.233      36.893836      36.893836      36.893836    
  35100000   0.36030392    -8.0482211     -7.5077729      1.7421704      50218.233      36.893836      36.893836      36.893836    
  35200000   0.36029382    -8.0488953     -7.5084623      1.72489        50218.233      36.893836      36.893836      36.893836    
  35300000   0.3597942     -8.0470648     -7.5073812      1.7547605      50218.233      36.893836      36.893836      36.893836    
  35400000   0.35883386    -8.0504965     -7.5122534      1.7304456      50218.233      36.893836      36.893836      36.893836    
  35500000   0.36127665    -8.049875      -7.5079678      1.7290228      50218.233      36.893836      36.893836      36.893836    
  35600000   0.36195047    -8.0499033     -7.5069853      1.7263937      50218.233      36.893836      36.893836      36.893836    
  35700000   0.35919106    -8.0502865     -7.5115075      1.7248548      50218.233      36.893836      36.893836      36.893836    
  35800000   0.35833097    -8.048414      -7.5109252      1.731427       50218.233      36.893836      36.893836      36.893836    
  35900000   0.35985923    -8.0516111     -7.5118299      1.7131149      50218.233      36.893836      36.893836      36.893836    
  36000000   0.35950721    -8.0498349     -7.5105818      1.7120178      50218.233      36.893836      36.893836      36.893836    
  36100000   0.35735101    -8.0509031     -7.5148842      1.7019285      50218.233      36.893836      36.893836      36.893836    
  36200000   0.36053987    -8.0474641     -7.506662       1.7449225      50218.233      36.893836      36.893836      36.893836    
  36300000   0.35942625    -8.0477084     -7.5085767      1.7430271      50218.233      36.893836      36.893836      36.893836    
  36400000   0.35930255    -8.0507764     -7.5118303      1.7184079      50218.233      36.893836      36.893836      36.893836    
  36500000   0.36092171    -8.0467157     -7.5053409      1.7483235      50218.233      36.893836      36.893836      36.893836    
  36600000   0.36191994    -8.0478098     -7.5049376      1.741164       50218.233      36.893836      36.893836      36.893836    
  36700000   0.3609802     -8.0484793     -7.5070167      1.7333471      50218.233      36.893836      36.893836      36.893836    
  36800000   0.35955271    -8.0483208     -7.5089994      1.7302427      50218.233      36.893836      36.893836      36.893836    
  36900000   0.35953402    -8.0495548     -7.5102615      1.7297764      50218.233      36.893836      36.893836      36.893836    
  37000000   0.35975748    -8.0502165     -7.510588       1.7203391      50218.233      36.893836      36.893836      36.893836    
  37100000   0.3567977     -8.0477634     -7.5125745      1.7347787      50218.233      36.893836      36.893836      36.893836    
  37200000   0.35783297    -8.0516336     -7.5148918      1.70005        50218.233      36.893836      36.893836      36.893836    
  37300000   0.35923398    -8.0486981     -7.5098548      1.7339285      50218.233      36.893836      36.893836      36.893836    
  37400000   0.35972393    -8.0473857     -7.5078075      1.7465889      50218.233      36.893836      36.893836      36.893836    
  37500000   0.36003051    -8.0484767     -7.5084386      1.7342085      50218.233      36.893836      36.893836      36.893836    
  37600000   0.36169947    -8.0458079     -7.5032664      1.7515145      50218.233      36.893836      36.893836      36.893836    
  37700000   0.36230736    -8.0475678     -7.5041144      1.7437687      50218.233      36.893836      36.893836      36.893836    
  37800000   0.36105458    -8.0491973     -7.5076232      1.7271694      50218.233      36.893836      36.893836      36.893836    
  37900000   0.35999773    -8.0495917     -7.5096027      1.7290132      50218.233      36.893836      36.893836      36.893836    
  38000000   0.36063124    -8.0489956     -7.5080564      1.727398       50218.233      36.893836      36.893836      36.893836    
  38100000   0.35922627    -8.0501003     -7.5112685      1.7226555      50218.233      36.893836      36.893836      36.893836    
  38200000   0.35965534    -8.0469821     -7.5075068      1.7492696      50218.233      36.893836      36.893836      36.893836    
  38300000   0.36048637    -8.045153      -7.5044311      1.7630163      50218.233      36.893836      36.893836      36.893836    
  38400000   0.36155512    -8.04859       -7.506265       1.7301662      50218.233      36.893836      36.893836      36.893836    
  38500000   0.35843889    -8.0473295     -7.5096788      1.7396187      50218.233      36.893836      36.893836      36.893836    
  38600000   0.35915119    -8.0485817     -7.5098626      1.7377565      50218.233      36.893836      36.893836      36.893836    
  38700000   0.36044684    -8.0517674     -7.5111048      1.7093758      50218.233      36.893836      36.893836      36.893836    
  38800000   0.36003523    -8.051238      -7.5111928      1.7090231      50218.233      36.893836      36.893836      36.893836    
  38900000   0.35947222    -8.0481703     -7.5089696      1.7360108      50218.233      36.893836      36.893836      36.893836    
  39000000   0.35916806    -8.0496727     -7.5109283      1.7162034      50218.233      36.893836      36.893836      36.893836    
  39100000   0.35960725    -8.0484602     -7.509057       1.7329068      50218.233      36.893836      36.893836      36.893836    
  39200000   0.35928552    -8.0506464     -7.5117257      1.7111909      50218.233      36.893836      36.893836      36.893836    
  39300000   0.35963003    -8.0483576     -7.5089202      1.7336192      50218.233      36.893836      36.893836      36.893836    
  39400000   0.35900952    -8.0498424     -7.5113358      1.7239224      50218.233      36.893836      36.893836      36.893836    
  39500000   0.36032263    -8.0518708     -7.5113946      1.7050159      50218.233      36.893836      36.893836      36.893836    
  39600000   0.36116439    -8.0497292     -7.5079903      1.7295781      50218.233      36.893836      36.893836      36.893836    
  39700000   0.35927443    -8.0516866     -7.5127826      1.7131213      50218.233      36.893836      36.893836      36.893836    
  39800000   0.36115271    -8.0517576     -7.5100363      1.7073249      50218.233      36.893836      36.893836      36.893836    
  39900000   0.3599202     -8.0520064     -7.5121338      1.700636       50218.233      36.893836      36.893836      36.893836    
  40000000   0.36005007    -8.0487503     -7.5086829      1.7328929      50218.233      36.893836      36.893836      36.893836    
  40100000   0.36170193    -8.0487128     -7.5061676      1.7312111      50218.233      36.893836      36.893836      36.893836    
  40200000   0.35857671    -8.0506508     -7.5127934      1.715269       50218.233      36.893836      36.893836      36.893836    
  40300000   0.36134004    -8.0498047     -7.5078024      1.7181421      50218.233      36.893836      36.893836      36.893836    
  40400000   0.35929035    -8.0506078     -7.5116799      1.7134081      50218.233      36.893836      36.893836      36.893836    
  40500000   0.35933681    -8.0497348     -7.5107372      1.7228481      50218.233      36.893836      36.893836      36.893836    
  40600000   0.36103839    -8.0460029     -7.504453       1.7427314      50218.233      36.893836      36.893836      36.893836    
  40700000   0.35930532    -8.0466359     -7.5076856      1.7470631      50218.233      36.893836      36.893836      36.893836    
  40800000   0.35881004    -8.0491485     -7.5109411      1.7324003      50218.233      36.893836      36.893836      36.893836    
  40900000   0.3582602     -8.0503157     -7.5129331      1.7149104      50218.233      36.893836      36.893836      36.893836    
  41000000   0.35966716    -8.0498144     -7.5103214      1.7291004      50218.233      36.893836      36.893836      36.893836    
  41100000   0.36022885    -8.0498113     -7.5094757      1.7278257      50218.233      36.893836      36.893836      36.893836    
  41200000   0.35887909    -8.0485642     -7.5102532      1.7265852      50218.233      36.893836      36.893836      36.893836    
  41300000   0.35852613    -8.0510055     -7.513224       1.7121744      50218.233      36.893836      36.893836      36.893836    
  41400000   0.36049701    -8.0504312     -7.5096934      1.7227974      50218.233      36.893836      36.893836      36.893836    
  41500000   0.36007212    -8.0502973     -7.5101968      1.7227324      50218.233      36.893836      36.893836      36.893836    
  41600000   0.35983132    -8.0493658     -7.5096265      1.7267022      50218.233      36.893836      36.893836      36.893836    
  41700000   0.35938953    -8.0478083     -7.5087317      1.745371       50218.233      36.893836      36.893836      36.893836    
  41800000   0.35911336    -8.049201      -7.5105387      1.7289052      50218.233      36.893836      36.893836      36.893836    
  41900000   0.36054233    -8.0492921     -7.5084863      1.73372        50218.233      36.893836      36.893836      36.893836    
  42000000   0.35958923    -8.0513118     -7.5119356      1.7134291      50218.233      36.893836      36.893836      36.893836    
  42100000   0.35952679    -8.0486605     -7.5093779      1.7374137      50218.233      36.893836      36.893836      36.893836    
  42200000   0.35830744    -8.0468329     -7.5093794      1.7558794      50218.233      36.893836      36.893836      36.893836    
  42300000   0.36307915    -8.0493529     -7.5047419      1.733238       50218.233      36.893836      36.893836      36.893836    
  42400000   0.36036233    -8.0467252     -7.5061894      1.7544877      50218.233      36.893836      36.893836      36.893836    
  42500000   0.35998118    -8.0493829     -7.5094188      1.7280826      50218.233      36.893836      36.893836      36.893836    
  42600000   0.35927823    -8.0472933     -7.5083836      1.7481623      50218.233      36.893836      36.893836      36.893836    
  42700000   0.36074552    -8.0504432     -7.5093326      1.7295785      50218.233      36.893836      36.893836      36.893836    
  42800000   0.36135096    -8.0469575     -7.5049388      1.7477519      50218.233      36.893836      36.893836      36.893836    
  42900000   0.35973573    -8.0503993     -7.5108034      1.7161096      50218.233      36.893836      36.893836      36.893836    
  43000000   0.3598685     -8.0510637     -7.5112687      1.7108325      50218.233      36.893836      36.893836      36.893836    
  43100000   0.35914663    -8.0501985     -7.5114862      1.7142482      50218.233      36.893836      36.893836      36.893836    
  43200000   0.358573      -8.0505663     -7.5127144      1.7167818      50218.233      36.893836      36.893836      36.893836    
  43300000   0.35968331    -8.0466414     -7.5071241      1.739392       50218.233      36.893836      36.893836      36.893836    
  43400000   0.35818453    -8.0504333     -7.5131641      1.7202264      50218.233      36.893836      36.893836      36.893836    
  43500000   0.36017267    -8.0467236     -7.5064723      1.7378957      50218.233      36.893836      36.893836      36.893836    
  43600000   0.36072792    -8.0470407     -7.5059565      1.7441541      50218.233      36.893836      36.893836      36.893836    
  43700000   0.36183193    -8.0483633     -7.5056231      1.735657       50218.233      36.893836      36.893836      36.893836    
  43800000   0.36180671    -8.0490757     -7.5063733      1.7317003      50218.233      36.893836      36.893836      36.893836    
  43900000   0.36031766    -8.047478      -7.5070092      1.7349638      50218.233      36.893836      36.893836      36.893836    
  44000000   0.35843557    -8.0487837     -7.511138       1.7256825      50218.233      36.893836      36.893836      36.893836    
  44100000   0.35834923    -8.0518794     -7.5143632      1.7036618      50218.233      36.893836      36.893836      36.893836    
  44200000   0.36084317    -8.0481674     -7.5069104      1.7376903      50218.233      36.893836      36.893836      36.893836    
  44300000   0.35881819    -8.0474681     -7.5092485      1.7286138      50218.233      36.893836      36.893836      36.893836    
  44400000   0.35978629    -8.0531615     -7.5134897      1.6935166      50218.233      36.893836      36.893836      36.893836    
  44500000   0.36089049    -8.0474038     -7.5060758      1.7385998      50218.233      36.893836      36.893836      36.893836    
  44600000   0.35948825    -8.0503839     -7.5111592      1.7162018      50218.233      36.893836      36.893836      36.893836    
  44700000   0.3568356     -8.0518496     -7.5166038      1.7036982      50218.233      36.893836      36.893836      36.893836    
  44800000   0.3605722     -8.0506371     -7.5097865      1.7154755      50218.233      36.893836      36.893836      36.893836    
  44900000   0.36115372    -8.0490711     -7.5073483      1.7212047      50218.233      36.893836      36.893836      36.893836    
  45000000   0.35980213    -8.0492379     -7.5095424      1.7249548      50218.233      36.893836      36.893836      36.893836    
  45100000   0.35859862    -8.0480345     -7.5101442      1.7339666      50218.233      36.893836      36.893836      36.893836    
  45200000   0.35984768    -8.0521244     -7.5123606      1.7116045      50218.233      36.893836      36.893836      36.893836    
  45300000   0.36115156    -8.0516111     -7.5098914      1.7052058      50218.233      36.893836      36.893836      36.893836    
  45400000   0.36102828    -8.0506754     -7.5091407      1.7099078      50218.233      36.893836      36.893836      36.893836    
  45500000   0.35855018    -8.0478752     -7.5100576      1.7369968      50218.233      36.893836      36.893836      36.893836    
  45600000   0.36041603    -8.0479916     -7.5073752      1.7344455      50218.233      36.893836      36.893836      36.893836    
  45700000   0.36225007    -8.0519059     -7.5085385      1.7099808      50218.233      36.893836      36.893836      36.893836    
  45800000   0.35970244    -8.052523      -7.5129771      1.7015751      50218.233      36.893836      36.893836      36.893836    
  45900000   0.35928592    -8.0511163     -7.5121951      1.7101133      50218.233      36.893836      36.893836      36.893836    
  46000000   0.36129966    -8.0488245     -7.5068827      1.7282884      50218.233      36.893836      36.893836      36.893836    
  46100000   0.36126037    -8.05148       -7.5095971      1.7171385      50218.233      36.893836      36.893836      36.893836    
  46200000   0.35949996    -8.0479751     -7.5087328      1.7349401      50218.233      36.893836      36.893836      36.893836    
  46300000   0.36154033    -8.048304      -7.5060013      1.7316377      50218.233      36.893836      36.893836      36.893836    
  46400000   0.3583226     -8.0492187     -7.5117425      1.7245515      50218.233      36.893836      36.893836      36.893836    
  46500000   0.36152566    -8.0480874     -7.5058067      1.7435439      50218.233      36.893836      36.893836      36.893836    
  46600000   0.35954268    -8.0467672     -7.5074608      1.7521668      50218.233      36.893836      36.893836      36.893836    
  46700000   0.36057303    -8.051675      -7.5108231      1.7134996      50218.233      36.893836      36.893836      36.893836    
  46800000   0.35904236    -8.0502573     -7.5117015      1.7268423      50218.233      36.893836      36.893836      36.893836    
  46900000   0.36146779    -8.0490695     -7.5068756      1.7322315      50218.233      36.893836      36.893836      36.893836    
  47000000   0.35972788    -8.0473469     -7.5077628      1.749523       50218.233      36.893836      36.893836      36.893836    
  47100000   0.35987402    -8.0474616     -7.5076583      1.7369192      50218.233      36.893836      36.893836      36.893836    
  47200000   0.35948112    -8.0488698     -7.5096558      1.7333502      50218.233      36.893836      36.893836      36.893836    
  47300000   0.35967167    -8.0434377     -7.5039379      1.7721325      50218.233      36.893836      36.893836      36.893836    
  47400000   0.36076547    -8.0480275     -7.506887       1.7437938      50218.233      36.893836      36.893836      36.893836    
  47500000   0.36241235    -8.0479608     -7.50435        1.7401274      50218.233      36.893836      36.893836      36.893836    
  47600000   0.35769053    -8.0506116     -7.5140834      1.7147771      50218.233      36.893836      36.893836      36.893836    
  47700000   0.35732501    -8.047703      -7.5117231      1.7389874      50218.233      36.893836      36.893836      36.893836    
  47800000   0.35798098    -8.0472753     -7.5103115      1.7332418      50218.233      36.893836      36.893836      36.893836    
  47900000   0.35920022    -8.0489607     -7.5101681      1.7240371      50218.233      36.893836      36.893836      36.893836    
  48000000   0.361249      -8.0495512     -7.5076854      1.7310134      50218.233      36.893836      36.893836      36.893836    
  48100000   0.35967165    -8.0465698     -7.50707        1.7518638      50218.233      36.893836      36.893836      36.893836    
  48200000   0.36060828    -8.0496185     -7.5087138      1.7302804      50218.233      36.893836      36.893836      36.893836    
  48300000   0.35939098    -8.0497651     -7.5106863      1.7231498      50218.233      36.893836      36.893836      36.893836    
  48400000   0.36059779    -8.0479289     -7.5070399      1.7397348      50218.233      36.893836      36.893836      36.893836    
  48500000   0.3617457     -8.0507491     -7.5081382      1.7228051      50218.233      36.893836      36.893836      36.893836    
  48600000   0.35931969    -8.0497307     -7.5107588      1.7341371      50218.233      36.893836      36.893836      36.893836    
  48700000   0.36018001    -8.0484873     -7.5082249      1.7322834      50218.233      36.893836      36.893836      36.893836    
  48800000   0.35927153    -8.050518      -7.5116183      1.7162066      50218.233      36.893836      36.893836      36.893836    
  48900000   0.3600194     -8.0487204     -7.508699       1.7381109      50218.233      36.893836      36.893836      36.893836    
  49000000   0.3594968     -8.050014      -7.5107765      1.7242758      50218.233      36.893836      36.893836      36.893836    
  49100000   0.3614732     -8.0470437     -7.5048416      1.7491946      50218.233      36.893836      36.893836      36.893836    
  49200000   0.35972136    -8.0501911     -7.5106168      1.7230122      50218.233      36.893836      36.893836      36.893836    
  49300000   0.35902519    -8.0505029     -7.5119728      1.7148512      50218.233      36.893836      36.893836      36.893836    
  49400000   0.36053909    -8.0487966     -7.5079957      1.7285098      50218.233      36.893836      36.893836      36.893836    
  49500000   0.3620952     -8.0465853     -7.5034502      1.7461015      50218.233      36.893836      36.893836      36.893836    
  49600000   0.35909141    -8.0465374     -7.5079079      1.7468053      50218.233      36.893836      36.893836      36.893836    
  49700000   0.36096436    -8.0514629     -7.510024       1.7126847      50218.233      36.893836      36.893836      36.893836    
  49800000   0.36145323    -8.0488661     -7.5066939      1.7329281      50218.233      36.893836      36.893836      36.893836    
  49900000   0.35995316    -8.0501865     -7.5102644      1.7201852      50218.233      36.893836      36.893836      36.893836    
  50000000   0.36059575    -8.0484843     -7.5075983      1.7340666      50218.233      36.893836      36.893836      36.893836    
Loop time of 77014.1 on 5 procs for 50000000 steps with 70304 atoms

Performance: 560936.023 tau/day, 649.232 timesteps/s, 45.644 Matom-step/s
94.5% CPU use with 5 MPI tasks x 1 OpenMP threads

MPI task timing breakdown:
Section |  min time  |  avg time  |  max time  |%varavg| %total
---------------------------------------------------------------
Pair    | 28015      | 30020      | 31508      | 673.1 | 38.98
Neigh   | 210.66     | 222.33     | 231.54     |  46.9 |  0.29
Comm    | 11072      | 11168      | 11351      |  96.4 | 14.50
Output  | 0.093353   | 0.0967     | 0.10221    |   1.0 |  0.00
Modify  | 30311      | 31853      | 33981      | 699.3 | 41.36
Other   |            | 3751       |            |       |  4.87

Nlocal:        14060.8 ave       14126 max       14023 min
Histogram: 1 1 0 2 0 0 0 0 0 1
Nghost:        18744.8 ave       18800 max       18697 min
Histogram: 2 0 0 1 0 0 0 0 0 2
Neighs:              0 ave           0 max           0 min
Histogram: 5 0 0 0 0 0 0 0 0 0

Total # of neighbors = 0
Ave neighs/atom = 0
Neighbor list builds = 8814171
Dangerous builds = 0
clear
OMP_NUM_THREADS environment is not set. Defaulting to 1 thread. (src/comm.cpp:98)
  using 1 OpenMP thread(s) per MPI task
package gpu 0
jump dms340.lmp

variable T equal 340
# T = 1000* (temp in LJ unit)
variable f equal 100000
log log.${T}
log log.340
