variable TLJ equal (${T}/1000)
variable TLJ equal (240/1000)
variable NCyle equal 5
variable iStep equal (${f})
variable iStep equal (100000)
variable dumpStep equal (${f}*100)
variable dumpStep equal (100000*100)
variable runStep equal (${f}*100*${NCyle})
variable runStep equal (100000*100*${NCyle})
variable runStep equal (100000*100*5)

units       lj
atom_style  atomic
dimension 3
boundary     p p p
pair_style  lj/cut 2.5
read_data  ../data/T${T}.dat
read_data  ../data/T240.dat
Reading data file ...
  orthogonal box = (0.97250269 0.97250269 0.97250269) to (37.866338 37.866338 37.866338)
  1 by 1 by 5 MPI processor grid
  reading atoms ...
  70304 atoms
  reading velocities ...
  70304 velocities
  read_data CPU = 0.209 seconds
change_box all triclinic
Changing box ...
  triclinic box = (0.97250269 0.97250269 0.97250269) to (37.866338 37.866338 37.866338) with tilt (0 0 0)
mass 1 1
mass 2 1
pair_modify shift yes
pair_coeff  1 1 1 1
pair_coeff  1 2 1.5 0.8
pair_coeff  2 2 0.5 0.88


timestep 0.01
thermo ${iStep}
thermo 100000
reset_timestep 0
thermo_style custom step temp pe etotal press vol lx ly lz
fix             1 all nvt temp ${TLJ}  ${TLJ}  0.1
fix             1 all nvt temp 0.24  ${TLJ}  0.1
fix             1 all nvt temp 0.24  0.24  0.1
thermo_modify flush yes

fix dsf all deform 1 xy  wiggle 0.5  ${f}   units box
fix dsf all deform 1 xy  wiggle 0.5  100000   units box
fix ps1 all ave/time 1 1 ${iStep} c_thermo_press[1] c_thermo_press[2]  c_thermo_press[3] c_thermo_press[4]  c_thermo_press[5] c_thermo_press[6]  file  stress.${T}
fix ps1 all ave/time 1 1 100000 c_thermo_press[1] c_thermo_press[2]  c_thermo_press[3] c_thermo_press[4]  c_thermo_press[5] c_thermo_press[6]  file  stress.${T}
fix ps1 all ave/time 1 1 100000 c_thermo_press[1] c_thermo_press[2]  c_thermo_press[3] c_thermo_press[4]  c_thermo_press[5] c_thermo_press[6]  file  stress.240
dump            1 all custom ${dumpStep} dump.${T} id type x y z
dump            1 all custom 10000000 dump.${T} id type x y z
dump            1 all custom 10000000 dump.240 id type x y z
dump_modify 1 sort id
fix nodrift all momentum 1  linear 1 1 1
fix com_seed all recenter INIT INIT INIT shift all
run ${runStep}
run 50000000
Generated 0 of 1 mixed pair_coeff terms from geometric mixing rule
Per MPI rank memory allocation (min/avg/max) = 8.919 | 8.92 | 8.92 Mbytes
   Step          Temp          PotEng         TotEng         Press          Volume           Lx             Ly             Lz      
         0   0.24086365    -8.2266845     -7.8653942      0.23843613     50218.233      36.893836      36.893836      36.893836    
    100000   0.24092742    -8.2232975     -7.8619115      0.26844738     50218.233      36.893836      36.893836      36.893836    
    200000   0.23978205    -8.2250691     -7.8654011      0.25081967     50218.233      36.893836      36.893836      36.893836    
    300000   0.24006066    -8.2227406     -7.8626548      0.27244927     50218.233      36.893836      36.893836      36.893836    
    400000   0.23981913    -8.2237475     -7.8640239      0.26386378     50218.233      36.893836      36.893836      36.893836    
    500000   0.24070237    -8.2239654     -7.862917       0.26873157     50218.233      36.893836      36.893836      36.893836    
    600000   0.23973062    -8.224419      -7.8648282      0.25347788     50218.233      36.893836      36.893836      36.893836    
    700000   0.24084166    -8.2227353     -7.861478       0.26757582     50218.233      36.893836      36.893836      36.893836    
    800000   0.2399066     -8.2245291     -7.8646743      0.25376888     50218.233      36.893836      36.893836      36.893836    
    900000   0.24023856    -8.2249648     -7.8646121      0.25372168     50218.233      36.893836      36.893836      36.893836    
   1000000   0.23938154    -8.2220622     -7.862995       0.28087003     50218.233      36.893836      36.893836      36.893836    
   1100000   0.23944011    -8.2226668     -7.8635117      0.27130953     50218.233      36.893836      36.893836      36.893836    
   1200000   0.24027278    -8.2239221     -7.8635181      0.2674648      50218.233      36.893836      36.893836      36.893836    
   1300000   0.23971556    -8.2227994     -7.8632311      0.26754227     50218.233      36.893836      36.893836      36.893836    
   1400000   0.24014053    -8.2236947     -7.863489       0.26192322     50218.233      36.893836      36.893836      36.893836    
   1500000   0.2413683     -8.2231087     -7.8610614      0.27538917     50218.233      36.893836      36.893836      36.893836    
   1600000   0.23955597    -8.2243905     -7.8650616      0.25670999     50218.233      36.893836      36.893836      36.893836    
   1700000   0.24028779    -8.2240292     -7.8636027      0.26182688     50218.233      36.893836      36.893836      36.893836    
   1800000   0.23950866    -8.2223187     -7.8630608      0.2770475      50218.233      36.893836      36.893836      36.893836    
   1900000   0.23883594    -8.2225895     -7.8643407      0.26913887     50218.233      36.893836      36.893836      36.893836    
   2000000   0.24005866    -8.2215564     -7.8614735      0.28587749     50218.233      36.893836      36.893836      36.893836    
   2100000   0.24023535    -8.2234606     -7.8631127      0.2716387      50218.233      36.893836      36.893836      36.893836    
   2200000   0.23958964    -8.2230278     -7.8636484      0.27538988     50218.233      36.893836      36.893836      36.893836    
   2300000   0.23995251    -8.2203449     -7.8604212      0.29479017     50218.233      36.893836      36.893836      36.893836    
   2400000   0.2406646     -8.2235193     -7.8625275      0.26679597     50218.233      36.893836      36.893836      36.893836    
   2500000   0.24037979    -8.2225287     -7.8619641      0.27763315     50218.233      36.893836      36.893836      36.893836    
   2600000   0.23909309    -8.2229278     -7.8642933      0.27005496     50218.233      36.893836      36.893836      36.893836    
   2700000   0.23971367    -8.2233397     -7.8637743      0.26514368     50218.233      36.893836      36.893836      36.893836    
   2800000   0.23986334    -8.2233278     -7.8635379      0.26415084     50218.233      36.893836      36.893836      36.893836    
   2900000   0.23975927    -8.2197406     -7.8601069      0.29840587     50218.233      36.893836      36.893836      36.893836    
   3000000   0.24075395    -8.2222693     -7.8611435      0.27131085     50218.233      36.893836      36.893836      36.893836    
   3100000   0.24009404    -8.2272777     -7.8671417      0.2394016      50218.233      36.893836      36.893836      36.893836    
   3200000   0.23931624    -8.2237596     -7.8647904      0.26726323     50218.233      36.893836      36.893836      36.893836    
   3300000   0.24016152    -8.2222269     -7.8619898      0.28382633     50218.233      36.893836      36.893836      36.893836    
   3400000   0.23905344    -8.2218407     -7.8632656      0.28317908     50218.233      36.893836      36.893836      36.893836    
   3500000   0.24022078    -8.2234837     -7.8631576      0.26601663     50218.233      36.893836      36.893836      36.893836    
   3600000   0.23986401    -8.2233122     -7.8635213      0.26826917     50218.233      36.893836      36.893836      36.893836    
   3700000   0.24008339    -8.2226044     -7.8624845      0.26694612     50218.233      36.893836      36.893836      36.893836    
   3800000   0.2394672     -8.2226118     -7.8634162      0.27270274     50218.233      36.893836      36.893836      36.893836    
   3900000   0.24083576    -8.2224951     -7.8612466      0.28014795     50218.233      36.893836      36.893836      36.893836    
   4000000   0.24151731    -8.2222123     -7.8599415      0.2821436      50218.233      36.893836      36.893836      36.893836    
   4100000   0.23996548    -8.22463       -7.8646869      0.26238312     50218.233      36.893836      36.893836      36.893836    
   4200000   0.23956596    -8.223027      -7.8636832      0.26553775     50218.233      36.893836      36.893836      36.893836    
   4300000   0.23986886    -8.2233594     -7.8635613      0.26492789     50218.233      36.893836      36.893836      36.893836    
   4400000   0.23951965    -8.2242643     -7.8649899      0.25227604     50218.233      36.893836      36.893836      36.893836    
   4500000   0.23956196    -8.224769      -7.8654311      0.26172787     50218.233      36.893836      36.893836      36.893836    
   4600000   0.2408894     -8.2233281     -7.8619991      0.27006085     50218.233      36.893836      36.893836      36.893836    
   4700000   0.24078714    -8.2240106     -7.862835       0.2648714      50218.233      36.893836      36.893836      36.893836    
   4800000   0.24036494    -8.2228036     -7.8622613      0.26894273     50218.233      36.893836      36.893836      36.893836    
   4900000   0.23960566    -8.2243828     -7.8649795      0.25796207     50218.233      36.893836      36.893836      36.893836    
   5000000   0.24143383    -8.2225045     -7.8603589      0.27747252     50218.233      36.893836      36.893836      36.893836    
   5100000   0.23988251    -8.2238063     -7.8639877      0.26823797     50218.233      36.893836      36.893836      36.893836    
   5200000   0.23979069    -8.2240541     -7.8643731      0.26346155     50218.233      36.893836      36.893836      36.893836    
   5300000   0.2403607     -8.2248994     -7.8643635      0.25493869     50218.233      36.893836      36.893836      36.893836    
   5400000   0.2409423     -8.2220508     -7.8606425      0.28049253     50218.233      36.893836      36.893836      36.893836    
   5500000   0.24004391    -8.2235342     -7.8634735      0.26742629     50218.233      36.893836      36.893836      36.893836    
   5600000   0.24042029    -8.2225516     -7.8619263      0.28014134     50218.233      36.893836      36.893836      36.893836    
   5700000   0.2388211     -8.224253      -7.8660264      0.25830823     50218.233      36.893836      36.893836      36.893836    
   5800000   0.24036559    -8.2229686     -7.8624254      0.26320173     50218.233      36.893836      36.893836      36.893836    
   5900000   0.24136713    -8.2231424     -7.8610968      0.26995453     50218.233      36.893836      36.893836      36.893836    
   6000000   0.24064025    -8.2237653     -7.86281        0.27241631     50218.233      36.893836      36.893836      36.893836    
   6100000   0.2382165     -8.223509      -7.8661894      0.26708112     50218.233      36.893836      36.893836      36.893836    
   6200000   0.24165399    -8.2232073     -7.8607314      0.26818398     50218.233      36.893836      36.893836      36.893836    
   6300000   0.23910078    -8.223902      -7.865256       0.2615571      50218.233      36.893836      36.893836      36.893836    
   6400000   0.2393575     -8.2223299     -7.8632988      0.27351442     50218.233      36.893836      36.893836      36.893836    
   6500000   0.24029368    -8.2256083     -7.8651729      0.25291084     50218.233      36.893836      36.893836      36.893836    
   6600000   0.24067552    -8.2246786     -7.8636705      0.26262962     50218.233      36.893836      36.893836      36.893836    
   6700000   0.23879402    -8.2212756     -7.8630897      0.27864069     50218.233      36.893836      36.893836      36.893836    
   6800000   0.24153293    -8.2214796     -7.8591854      0.29165783     50218.233      36.893836      36.893836      36.893836    
   6900000   0.23926171    -8.2227861     -7.8638986      0.27024539     50218.233      36.893836      36.893836      36.893836    
   7000000   0.24211748    -8.2216472     -7.8584762      0.28656485     50218.233      36.893836      36.893836      36.893836    
   7100000   0.23951963    -8.2246436     -7.8653693      0.26125975     50218.233      36.893836      36.893836      36.893836    
   7200000   0.24155889    -8.2223955     -7.8600623      0.28218792     50218.233      36.893836      36.893836      36.893836    
   7300000   0.24077304    -8.222766      -7.8616116      0.27494521     50218.233      36.893836      36.893836      36.893836    
   7400000   0.23961416    -8.224017      -7.8646008      0.26264016     50218.233      36.893836      36.893836      36.893836    
   7500000   0.24104519    -8.2234257     -7.861863       0.2642561      50218.233      36.893836      36.893836      36.893836    
   7600000   0.24074102    -8.2226676     -7.8615612      0.28225082     50218.233      36.893836      36.893836      36.893836    
   7700000   0.23914437    -8.2220079     -7.8632965      0.28340244     50218.233      36.893836      36.893836      36.893836    
   7800000   0.23921568    -8.2219596     -7.8631412      0.27498665     50218.233      36.893836      36.893836      36.893836    
   7900000   0.24029104    -8.2234801     -7.8630487      0.26818879     50218.233      36.893836      36.893836      36.893836    
   8000000   0.24038094    -8.2244021     -7.8638358      0.26674157     50218.233      36.893836      36.893836      36.893836    
   8100000   0.24028714    -8.2229845     -7.862559       0.274032       50218.233      36.893836      36.893836      36.893836    
   8200000   0.24052848    -8.2231994     -7.8624118      0.26964695     50218.233      36.893836      36.893836      36.893836    
   8300000   0.24001688    -8.2231751     -7.8631549      0.27302918     50218.233      36.893836      36.893836      36.893836    
   8400000   0.24132211    -8.2236933     -7.8617153      0.26614754     50218.233      36.893836      36.893836      36.893836    
   8500000   0.23936603    -8.2234869     -7.864443       0.26296215     50218.233      36.893836      36.893836      36.893836    
   8600000   0.23932503    -8.2248384     -7.8658559      0.25898816     50218.233      36.893836      36.893836      36.893836    
   8700000   0.24047268    -8.2230251     -7.8623212      0.26977608     50218.233      36.893836      36.893836      36.893836    
   8800000   0.23920357    -8.2237263     -7.8649261      0.26485894     50218.233      36.893836      36.893836      36.893836    
   8900000   0.24169546    -8.2244613     -7.8619233      0.26722149     50218.233      36.893836      36.893836      36.893836    
   9000000   0.23945214    -8.2230193     -7.8638462      0.27301046     50218.233      36.893836      36.893836      36.893836    
   9100000   0.23975731    -8.2235887     -7.8639578      0.27012972     50218.233      36.893836      36.893836      36.893836    
   9200000   0.2393159     -8.2233485     -7.8643798      0.26040886     50218.233      36.893836      36.893836      36.893836    
   9300000   0.2394523     -8.2235254     -7.864352       0.2614216      50218.233      36.893836      36.893836      36.893836    
   9400000   0.2398782     -8.2237601     -7.8639479      0.26748002     50218.233      36.893836      36.893836      36.893836    
   9500000   0.24034113    -8.2242113     -7.8637047      0.25896156     50218.233      36.893836      36.893836      36.893836    
   9600000   0.23967559    -8.2241159     -7.8646076      0.25892142     50218.233      36.893836      36.893836      36.893836    
   9700000   0.23985544    -8.2251485     -7.8653705      0.25591761     50218.233      36.893836      36.893836      36.893836    
   9800000   0.24089812    -8.2246274     -7.8632854      0.26178353     50218.233      36.893836      36.893836      36.893836    
   9900000   0.24047997    -8.2240441     -7.8633293      0.2688491      50218.233      36.893836      36.893836      36.893836    
  10000000   0.23959135    -8.2236659     -7.864284       0.26440449     50218.233      36.893836      36.893836      36.893836    
  10100000   0.2396043     -8.2237877     -7.8643864      0.26149767     50218.233      36.893836      36.893836      36.893836    
  10200000   0.23989852    -8.2241762     -7.8643335      0.26909514     50218.233      36.893836      36.893836      36.893836    
  10300000   0.23977278    -8.2240822     -7.8644281      0.26141802     50218.233      36.893836      36.893836      36.893836    
  10400000   0.24000416    -8.2254704     -7.8654693      0.2485464      50218.233      36.893836      36.893836      36.893836    
  10500000   0.23961124    -8.2236258     -7.8642141      0.26636546     50218.233      36.893836      36.893836      36.893836    
  10600000   0.23971315    -8.2232659     -7.8637013      0.26382132     50218.233      36.893836      36.893836      36.893836    
  10700000   0.24040072    -8.2249171     -7.8643211      0.2557911      50218.233      36.893836      36.893836      36.893836    
  10800000   0.24186713    -8.2235354     -7.8607398      0.27366566     50218.233      36.893836      36.893836      36.893836    
  10900000   0.24036992    -8.2236984     -7.8631486      0.26514094     50218.233      36.893836      36.893836      36.893836    
  11000000   0.24156356    -8.2235879     -7.8612477      0.27931517     50218.233      36.893836      36.893836      36.893836    
  11100000   0.23995944    -8.2238088     -7.8638748      0.26521818     50218.233      36.893836      36.893836      36.893836    
  11200000   0.23893603    -8.2228026     -7.8644036      0.27022863     50218.233      36.893836      36.893836      36.893836    
  11300000   0.24040105    -8.2230409     -7.8624445      0.26673601     50218.233      36.893836      36.893836      36.893836    
  11400000   0.23999316    -8.2226104     -7.8626258      0.27069437     50218.233      36.893836      36.893836      36.893836    
  11500000   0.24049592    -8.2229337     -7.862195       0.26454957     50218.233      36.893836      36.893836      36.893836    
  11600000   0.23961788    -8.222898      -7.8634763      0.2806006      50218.233      36.893836      36.893836      36.893836    
  11700000   0.24149032    -8.2251918     -7.8629615      0.25187807     50218.233      36.893836      36.893836      36.893836    
  11800000   0.24058778    -8.2232732     -7.8623967      0.26698672     50218.233      36.893836      36.893836      36.893836    
  11900000   0.24055455    -8.2221227     -7.861296       0.27603888     50218.233      36.893836      36.893836      36.893836    
  12000000   0.23966975    -8.2232861     -7.8637866      0.26889545     50218.233      36.893836      36.893836      36.893836    
  12100000   0.23994706    -8.2222993     -7.8623839      0.27568006     50218.233      36.893836      36.893836      36.893836    
  12200000   0.23921362    -8.22131       -7.8624947      0.28128356     50218.233      36.893836      36.893836      36.893836    
  12300000   0.23972393    -8.2236533     -7.8640726      0.26144954     50218.233      36.893836      36.893836      36.893836    
  12400000   0.24144169    -8.2202952     -7.8581378      0.29638744     50218.233      36.893836      36.893836      36.893836    
  12500000   0.23912345    -8.2214707     -7.8627907      0.27374455     50218.233      36.893836      36.893836      36.893836    
  12600000   0.24046517    -8.2212665     -7.8605739      0.29617477     50218.233      36.893836      36.893836      36.893836    
  12700000   0.23964663    -8.222598      -7.8631331      0.27742306     50218.233      36.893836      36.893836      36.893836    
  12800000   0.24065433    -8.2220386     -7.8610623      0.28045591     50218.233      36.893836      36.893836      36.893836    
  12900000   0.24008844    -8.2242582     -7.8641307      0.25850801     50218.233      36.893836      36.893836      36.893836    
  13000000   0.24022662    -8.2226185     -7.8622837      0.26968877     50218.233      36.893836      36.893836      36.893836    
  13100000   0.24010288    -8.2237853     -7.8636361      0.26513085     50218.233      36.893836      36.893836      36.893836    
  13200000   0.23840866    -8.2221745     -7.8645666      0.26724058     50218.233      36.893836      36.893836      36.893836    
  13300000   0.23912737    -8.2219959     -7.8633099      0.28064696     50218.233      36.893836      36.893836      36.893836    
  13400000   0.24050296    -8.2226213     -7.861872       0.27858808     50218.233      36.893836      36.893836      36.893836    
  13500000   0.23984633    -8.2228909     -7.8631265      0.27752875     50218.233      36.893836      36.893836      36.893836    
  13600000   0.24105383    -8.2227095     -7.8611339      0.27976194     50218.233      36.893836      36.893836      36.893836    
  13700000   0.23849764    -8.2223437     -7.8646023      0.28023038     50218.233      36.893836      36.893836      36.893836    
  13800000   0.23924443    -8.2246054     -7.8657438      0.25578361     50218.233      36.893836      36.893836      36.893836    
  13900000   0.23966493    -8.2234425     -7.8639502      0.26567299     50218.233      36.893836      36.893836      36.893836    
  14000000   0.2398746     -8.2237659     -7.8639591      0.2636301      50218.233      36.893836      36.893836      36.893836    
  14100000   0.23977895    -8.2226253     -7.862962       0.27651908     50218.233      36.893836      36.893836      36.893836    
  14200000   0.23971057    -8.2234525     -7.8638918      0.26948658     50218.233      36.893836      36.893836      36.893836    
  14300000   0.23893355    -8.2234128     -7.8650176      0.27245406     50218.233      36.893836      36.893836      36.893836    
  14400000   0.23995165    -8.2252089     -7.8652866      0.24150315     50218.233      36.893836      36.893836      36.893836    
  14500000   0.24177828    -8.222702      -7.8600397      0.28102455     50218.233      36.893836      36.893836      36.893836    
  14600000   0.2401584     -8.222516      -7.8622835      0.27848991     50218.233      36.893836      36.893836      36.893836    
  14700000   0.24021851    -8.2236992     -7.8633766      0.2708703      50218.233      36.893836      36.893836      36.893836    
  14800000   0.24033369    -8.223829      -7.8633336      0.26962973     50218.233      36.893836      36.893836      36.893836    
  14900000   0.24068834    -8.2230896     -7.8620622      0.27261013     50218.233      36.893836      36.893836      36.893836    
  15000000   0.24099838    -8.2242399     -7.8627475      0.25986914     50218.233      36.893836      36.893836      36.893836    
  15100000   0.23973987    -8.2229492     -7.8633445      0.26574687     50218.233      36.893836      36.893836      36.893836    
  15200000   0.2396793     -8.2244096     -7.8648957      0.25557058     50218.233      36.893836      36.893836      36.893836    
  15300000   0.24036106    -8.2239256     -7.8633891      0.25711359     50218.233      36.893836      36.893836      36.893836    
  15400000   0.23905846    -8.2254961     -7.8669135      0.24799423     50218.233      36.893836      36.893836      36.893836    
  15500000   0.2403406     -8.2237634     -7.8632576      0.25983252     50218.233      36.893836      36.893836      36.893836    
  15600000   0.24054687    -8.2245849     -7.8637697      0.25879413     50218.233      36.893836      36.893836      36.893836    
  15700000   0.23959242    -8.2219799     -7.8625963      0.27534314     50218.233      36.893836      36.893836      36.893836    
  15800000   0.24062047    -8.2242752     -7.8633496      0.26185869     50218.233      36.893836      36.893836      36.893836    
  15900000   0.23926275    -8.2236911     -7.8648021      0.26597616     50218.233      36.893836      36.893836      36.893836    
  16000000   0.2390291     -8.2248995     -7.8663609      0.24859703     50218.233      36.893836      36.893836      36.893836    
  16100000   0.23973492    -8.221677      -7.8620797      0.28154972     50218.233      36.893836      36.893836      36.893836    
  16200000   0.2399769     -8.2226448     -7.8626845      0.26999172     50218.233      36.893836      36.893836      36.893836    
  16300000   0.23783963    -8.2247844     -7.86803        0.25937642     50218.233      36.893836      36.893836      36.893836    
  16400000   0.24066429    -8.2229331     -7.8619418      0.2760157      50218.233      36.893836      36.893836      36.893836    
  16500000   0.24092728    -8.2240232     -7.8626374      0.27003902     50218.233      36.893836      36.893836      36.893836    
  16600000   0.24123269    -8.2222032     -7.8603593      0.28268079     50218.233      36.893836      36.893836      36.893836    
  16700000   0.24007985    -8.225175      -7.8650603      0.25316703     50218.233      36.893836      36.893836      36.893836    
  16800000   0.23897825    -8.2227475     -7.8642852      0.27550052     50218.233      36.893836      36.893836      36.893836    
  16900000   0.24005837    -8.22183       -7.8617475      0.27741802     50218.233      36.893836      36.893836      36.893836    
  17000000   0.23983179    -8.2229362     -7.8631937      0.27522467     50218.233      36.893836      36.893836      36.893836    
  17100000   0.23982479    -8.2240359     -7.8643038      0.26423691     50218.233      36.893836      36.893836      36.893836    
  17200000   0.24066733    -8.2210538     -7.8600579      0.28881406     50218.233      36.893836      36.893836      36.893836    
  17300000   0.24087622    -8.2231872     -7.8618781      0.26490377     50218.233      36.893836      36.893836      36.893836    
  17400000   0.23969991    -8.2231269     -7.8635822      0.26656399     50218.233      36.893836      36.893836      36.893836    
  17500000   0.24075336    -8.222377      -7.8612521      0.28019653     50218.233      36.893836      36.893836      36.893836    
  17600000   0.24023158    -8.224076      -7.8637338      0.26458084     50218.233      36.893836      36.893836      36.893836    
  17700000   0.24108477    -8.2239145     -7.8622925      0.25837214     50218.233      36.893836      36.893836      36.893836    
  17800000   0.24096477    -8.2224153     -7.8609733      0.27229206     50218.233      36.893836      36.893836      36.893836    
  17900000   0.23928056    -8.2225519     -7.8636362      0.27087702     50218.233      36.893836      36.893836      36.893836    
  18000000   0.24038418    -8.2221193     -7.8615481      0.27208892     50218.233      36.893836      36.893836      36.893836    
  18100000   0.24039568    -8.2239003     -7.8633119      0.26981006     50218.233      36.893836      36.893836      36.893836    
  18200000   0.2404825     -8.2222123     -7.8614936      0.27717494     50218.233      36.893836      36.893836      36.893836    
  18300000   0.24073302    -8.2212779     -7.8601835      0.28112251     50218.233      36.893836      36.893836      36.893836    
  18400000   0.23996407    -8.2226607     -7.8627197      0.2796925      50218.233      36.893836      36.893836      36.893836    
  18500000   0.2395652     -8.2215711     -7.8622284      0.27994994     50218.233      36.893836      36.893836      36.893836    
  18600000   0.24020438    -8.2232521     -7.8629506      0.27627615     50218.233      36.893836      36.893836      36.893836    
  18700000   0.23946416    -8.2234033     -7.8642121      0.26560133     50218.233      36.893836      36.893836      36.893836    
  18800000   0.23908178    -8.2240689     -7.8654514      0.26699875     50218.233      36.893836      36.893836      36.893836    
  18900000   0.23975483    -8.2224388     -7.8628117      0.27733353     50218.233      36.893836      36.893836      36.893836    
  19000000   0.23950257    -8.2236471     -7.8643983      0.26156338     50218.233      36.893836      36.893836      36.893836    
  19100000   0.24002536    -8.2230678     -7.8630349      0.27402875     50218.233      36.893836      36.893836      36.893836    
  19200000   0.23962616    -8.2245351     -7.865101       0.26234663     50218.233      36.893836      36.893836      36.893836    
  19300000   0.24026084    -8.2254052     -7.865019       0.24689838     50218.233      36.893836      36.893836      36.893836    
  19400000   0.23996238    -8.2247024     -7.8647639      0.25946843     50218.233      36.893836      36.893836      36.893836    
  19500000   0.23996333    -8.2238334     -7.8638935      0.25885407     50218.233      36.893836      36.893836      36.893836    
  19600000   0.23993353    -8.2246825     -7.8647873      0.26552533     50218.233      36.893836      36.893836      36.893836    
  19700000   0.23970012    -8.2237048     -7.8641597      0.26300939     50218.233      36.893836      36.893836      36.893836    
  19800000   0.23967427    -8.2248365     -7.8653302      0.26087834     50218.233      36.893836      36.893836      36.893836    
  19900000   0.23916481    -8.2251435     -7.8664014      0.25338112     50218.233      36.893836      36.893836      36.893836    
  20000000   0.23881572    -8.2238052     -7.8655868      0.26086588     50218.233      36.893836      36.893836      36.893836    
  20100000   0.24007696    -8.225135      -7.8650247      0.24863053     50218.233      36.893836      36.893836      36.893836    
  20200000   0.23912739    -8.2236534     -7.8649674      0.26082413     50218.233      36.893836      36.893836      36.893836    
  20300000   0.23912352    -8.2231738     -7.8644936      0.2666345      50218.233      36.893836      36.893836      36.893836    
  20400000   0.24012571    -8.2229194     -7.8627359      0.27823177     50218.233      36.893836      36.893836      36.893836    
  20500000   0.23937101    -8.2256899     -7.8666385      0.25187567     50218.233      36.893836      36.893836      36.893836    
  20600000   0.24004816    -8.2250324     -7.8649653      0.25511049     50218.233      36.893836      36.893836      36.893836    
  20700000   0.23900718    -8.2233514     -7.8648457      0.26436233     50218.233      36.893836      36.893836      36.893836    
  20800000   0.23966261    -8.2227311     -7.8632423      0.27193413     50218.233      36.893836      36.893836      36.893836    
  20900000   0.24099056    -8.2244472     -7.8629665      0.25910267     50218.233      36.893836      36.893836      36.893836    
  21000000   0.24019087    -8.2234275     -7.8631463      0.26565708     50218.233      36.893836      36.893836      36.893836    
  21100000   0.24019594    -8.2245624     -7.8642736      0.2632913      50218.233      36.893836      36.893836      36.893836    
  21200000   0.23963189    -8.2225584     -7.8631157      0.27121812     50218.233      36.893836      36.893836      36.893836    
  21300000   0.23955703    -8.2222398     -7.8629094      0.27715144     50218.233      36.893836      36.893836      36.893836    
  21400000   0.23952028    -8.2214586     -7.8621833      0.27498615     50218.233      36.893836      36.893836      36.893836    
  21500000   0.23949622    -8.2237022     -7.864463       0.26105586     50218.233      36.893836      36.893836      36.893836    
  21600000   0.24096769    -8.2237658     -7.8623194      0.26528784     50218.233      36.893836      36.893836      36.893836    
  21700000   0.241197      -8.2214831     -7.8596927      0.28080154     50218.233      36.893836      36.893836      36.893836    
  21800000   0.2405366     -8.2225855     -7.8617857      0.2808923      50218.233      36.893836      36.893836      36.893836    
  21900000   0.24052086    -8.2251469     -7.8643708      0.25344541     50218.233      36.893836      36.893836      36.893836    
  22000000   0.23936143    -8.2238815     -7.8648445      0.26901877     50218.233      36.893836      36.893836      36.893836    
  22100000   0.23978268    -8.2217327     -7.8620638      0.28133796     50218.233      36.893836      36.893836      36.893836    
  22200000   0.24077054    -8.224192      -7.8630413      0.26955321     50218.233      36.893836      36.893836      36.893836    
  22300000   0.23951539    -8.2216855     -7.8624175      0.27911214     50218.233      36.893836      36.893836      36.893836    
  22400000   0.23936029    -8.222793      -7.8637577      0.27801795     50218.233      36.893836      36.893836      36.893836    
  22500000   0.23903942    -8.2220317     -7.8634777      0.27768221     50218.233      36.893836      36.893836      36.893836    
  22600000   0.24042019    -8.2207964     -7.8601712      0.29493592     50218.233      36.893836      36.893836      36.893836    
  22700000   0.24073139    -8.2212175     -7.8601255      0.28563154     50218.233      36.893836      36.893836      36.893836    
  22800000   0.24064492    -8.2223334     -7.8613712      0.27943645     50218.233      36.893836      36.893836      36.893836    
  22900000   0.23968461    -8.2215663     -7.8620445      0.28153084     50218.233      36.893836      36.893836      36.893836    
  23000000   0.2397387     -8.2247671     -7.8651642      0.25667949     50218.233      36.893836      36.893836      36.893836    
  23100000   0.2400012     -8.2220937     -7.862097       0.27753192     50218.233      36.893836      36.893836      36.893836    
  23200000   0.23959908    -8.220981      -7.8615875      0.28302522     50218.233      36.893836      36.893836      36.893836    
  23300000   0.24035061    -8.222256      -7.8617352      0.27388863     50218.233      36.893836      36.893836      36.893836    
  23400000   0.23985142    -8.2217119     -7.8619399      0.28071573     50218.233      36.893836      36.893836      36.893836    
  23500000   0.23909855    -8.2231187     -7.864476       0.26354587     50218.233      36.893836      36.893836      36.893836    
  23600000   0.23959293    -8.2212231     -7.8618388      0.27582445     50218.233      36.893836      36.893836      36.893836    
  23700000   0.23938584    -8.2222014     -7.8631278      0.27965329     50218.233      36.893836      36.893836      36.893836    
  23800000   0.24089187    -8.2227523     -7.8614196      0.27107391     50218.233      36.893836      36.893836      36.893836    
  23900000   0.24131173    -8.2232528     -7.8612904      0.28104563     50218.233      36.893836      36.893836      36.893836    
  24000000   0.24036707    -8.2223308     -7.8617853      0.27337939     50218.233      36.893836      36.893836      36.893836    
  24100000   0.24142059    -8.2226452     -7.8605194      0.2730908      50218.233      36.893836      36.893836      36.893836    
  24200000   0.24033538    -8.2219379     -7.86144        0.2703621      50218.233      36.893836      36.893836      36.893836    
  24300000   0.23937069    -8.224536      -7.865485       0.25404933     50218.233      36.893836      36.893836      36.893836    
  24400000   0.24074078    -8.223849      -7.862743       0.26476199     50218.233      36.893836      36.893836      36.893836    
  24500000   0.24164627    -8.22482       -7.8623557      0.25824272     50218.233      36.893836      36.893836      36.893836    
  24600000   0.24122921    -8.2247326     -7.862894       0.25683004     50218.233      36.893836      36.893836      36.893836    
  24700000   0.23979468    -8.2241404     -7.8644535      0.26045456     50218.233      36.893836      36.893836      36.893836    
  24800000   0.24064684    -8.2247404     -7.8637753      0.25607267     50218.233      36.893836      36.893836      36.893836    
  24900000   0.24034441    -8.2250374     -7.8645259      0.24352132     50218.233      36.893836      36.893836      36.893836    
  25000000   0.23969418    -8.2246012     -7.8650651      0.25840862     50218.233      36.893836      36.893836      36.893836    
  25100000   0.2412973     -8.2246057     -7.8626649      0.25536882     50218.233      36.893836      36.893836      36.893836    
  25200000   0.23981116    -8.2242576     -7.8645459      0.26081687     50218.233      36.893836      36.893836      36.893836    
  25300000   0.24065618    -8.2245994     -7.8636202      0.26054451     50218.233      36.893836      36.893836      36.893836    
  25400000   0.24105527    -8.2224995     -7.8609218      0.27587904     50218.233      36.893836      36.893836      36.893836    
  25500000   0.23945132    -8.2237101     -7.8645383      0.26521987     50218.233      36.893836      36.893836      36.893836    
  25600000   0.24033547    -8.2220121     -7.861514       0.2825106      50218.233      36.893836      36.893836      36.893836    
  25700000   0.2399243     -8.2234584     -7.863577       0.27577307     50218.233      36.893836      36.893836      36.893836    
  25800000   0.23926553    -8.2240691     -7.8651759      0.26213146     50218.233      36.893836      36.893836      36.893836    
  25900000   0.23944396    -8.2235615     -7.8644007      0.27145495     50218.233      36.893836      36.893836      36.893836    
  26000000   0.24106944    -8.2259269     -7.8643279      0.25092181     50218.233      36.893836      36.893836      36.893836    
  26100000   0.23992333    -8.2234341     -7.8635542      0.25468201     50218.233      36.893836      36.893836      36.893836    
  26200000   0.2394734     -8.2245033     -7.8652983      0.26226967     50218.233      36.893836      36.893836      36.893836    
  26300000   0.24018093    -8.2214413     -7.8611751      0.27895956     50218.233      36.893836      36.893836      36.893836    
  26400000   0.2403542     -8.2230761     -7.86255        0.27150574     50218.233      36.893836      36.893836      36.893836    
  26500000   0.23981568    -8.2227903     -7.8630719      0.27663536     50218.233      36.893836      36.893836      36.893836    
  26600000   0.23842607    -8.2213435     -7.8637095      0.28329729     50218.233      36.893836      36.893836      36.893836    
  26700000   0.24105166    -8.2225478     -7.8609755      0.27452467     50218.233      36.893836      36.893836      36.893836    
  26800000   0.24126185    -8.2230274     -7.8611398      0.28212133     50218.233      36.893836      36.893836      36.893836    
  26900000   0.24043705    -8.2197566     -7.8591062      0.29398298     50218.233      36.893836      36.893836      36.893836    
  27000000   0.24013338    -8.2225604     -7.8623654      0.27372688     50218.233      36.893836      36.893836      36.893836    
  27100000   0.24082969    -8.2221923     -7.8609529      0.27596437     50218.233      36.893836      36.893836      36.893836    
  27200000   0.23873094    -8.2223298     -7.8642385      0.27401223     50218.233      36.893836      36.893836      36.893836    
  27300000   0.2415934     -8.2217809     -7.859396       0.27791495     50218.233      36.893836      36.893836      36.893836    
  27400000   0.24004075    -8.2223226     -7.8622666      0.28008664     50218.233      36.893836      36.893836      36.893836    
  27500000   0.2396126     -8.22261       -7.8631962      0.27003695     50218.233      36.893836      36.893836      36.893836    
  27600000   0.24035458    -8.2220462     -7.8615194      0.28226651     50218.233      36.893836      36.893836      36.893836    
  27700000   0.23913924    -8.2243521     -7.8656484      0.25217124     50218.233      36.893836      36.893836      36.893836    
  27800000   0.23966398    -8.2240203     -7.8645294      0.26577342     50218.233      36.893836      36.893836      36.893836    
  27900000   0.23931278    -8.2214563     -7.8624922      0.28371474     50218.233      36.893836      36.893836      36.893836    
  28000000   0.24009763    -8.2220191     -7.8618778      0.28245407     50218.233      36.893836      36.893836      36.893836    
  28100000   0.24054406    -8.2224085     -7.8615975      0.27480546     50218.233      36.893836      36.893836      36.893836    
  28200000   0.24076382    -8.2221302     -7.8609896      0.2789678      50218.233      36.893836      36.893836      36.893836    
  28300000   0.24020788    -8.2223038     -7.8619971      0.27339047     50218.233      36.893836      36.893836      36.893836    
  28400000   0.23967527    -8.223024      -7.8635162      0.27727162     50218.233      36.893836      36.893836      36.893836    
  28500000   0.24064055    -8.2240665     -7.8631109      0.26598402     50218.233      36.893836      36.893836      36.893836    
  28600000   0.24018459    -8.2222552     -7.8619835      0.2784564      50218.233      36.893836      36.893836      36.893836    
  28700000   0.23996669    -8.2238276     -7.8638826      0.26529685     50218.233      36.893836      36.893836      36.893836    
  28800000   0.24038368    -8.2219932     -7.8614229      0.27697573     50218.233      36.893836      36.893836      36.893836    
  28900000   0.23921429    -8.2237353     -7.864919       0.27144999     50218.233      36.893836      36.893836      36.893836    
  29000000   0.23999528    -8.2233298     -7.863342       0.26433173     50218.233      36.893836      36.893836      36.893836    
  29100000   0.24021759    -8.2244231     -7.8641018      0.25506672     50218.233      36.893836      36.893836      36.893836    
  29200000   0.2409718     -8.2246368     -7.8631842      0.25761289     50218.233      36.893836      36.893836      36.893836    
  29300000   0.24035105    -8.2240698     -7.8635484      0.25963631     50218.233      36.893836      36.893836      36.893836    
  29400000   0.23912154    -8.2259878     -7.8673106      0.25066397     50218.233      36.893836      36.893836      36.893836    
  29500000   0.24135711    -8.2240411     -7.8620106      0.26882915     50218.233      36.893836      36.893836      36.893836    
  29600000   0.24118988    -8.223385      -7.8616054      0.27422392     50218.233      36.893836      36.893836      36.893836    
  29700000   0.24158565    -8.2247166     -7.8623433      0.2573775      50218.233      36.893836      36.893836      36.893836    
  29800000   0.23980522    -8.2257528     -7.8660501      0.25392766     50218.233      36.893836      36.893836      36.893836    
  29900000   0.24049112    -8.2257333     -7.8650017      0.24756642     50218.233      36.893836      36.893836      36.893836    
  30000000   0.23909701    -8.2251897     -7.8665493      0.25765759     50218.233      36.893836      36.893836      36.893836    
  30100000   0.2402593     -8.2238783     -7.8634945      0.26694429     50218.233      36.893836      36.893836      36.893836    
  30200000   0.24060903    -8.2256287     -7.8647203      0.2562439      50218.233      36.893836      36.893836      36.893836    
  30300000   0.24051087    -8.2238517     -7.8630905      0.26831262     50218.233      36.893836      36.893836      36.893836    
  30400000   0.23973824    -8.2210037     -7.8614015      0.28648125     50218.233      36.893836      36.893836      36.893836    
  30500000   0.24061857    -8.2248349     -7.8639122      0.25948428     50218.233      36.893836      36.893836      36.893836    
  30600000   0.24021809    -8.2243988     -7.8640768      0.2598456      50218.233      36.893836      36.893836      36.893836    
  30700000   0.24062668    -8.2246074     -7.8636725      0.26750695     50218.233      36.893836      36.893836      36.893836    
  30800000   0.23947457    -8.2231662     -7.8639594      0.27516079     50218.233      36.893836      36.893836      36.893836    
  30900000   0.24021293    -8.2218648     -7.8615506      0.27972276     50218.233      36.893836      36.893836      36.893836    
  31000000   0.24023902    -8.224039      -7.8636856      0.26243609     50218.233      36.893836      36.893836      36.893836    
  31100000   0.24108206    -8.2226503     -7.8610323      0.27294053     50218.233      36.893836      36.893836      36.893836    
  31200000   0.24064656    -8.2223838     -7.8614191      0.27402126     50218.233      36.893836      36.893836      36.893836    
  31300000   0.24035123    -8.2243884     -7.8638667      0.26241395     50218.233      36.893836      36.893836      36.893836    
  31400000   0.23980443    -8.2224467     -7.8627451      0.2808804      50218.233      36.893836      36.893836      36.893836    
  31500000   0.23985082    -8.2226456     -7.8628745      0.27387186     50218.233      36.893836      36.893836      36.893836    
  31600000   0.23920397    -8.221243      -7.8624422      0.28606336     50218.233      36.893836      36.893836      36.893836    
  31700000   0.23992995    -8.2221534     -7.8622636      0.27629134     50218.233      36.893836      36.893836      36.893836    
  31800000   0.24019296    -8.2245085     -7.8642242      0.25827067     50218.233      36.893836      36.893836      36.893836    
  31900000   0.23905795    -8.2220877     -7.8635058      0.27695124     50218.233      36.893836      36.893836      36.893836    
  32000000   0.24007388    -8.2215866     -7.8614809      0.28692194     50218.233      36.893836      36.893836      36.893836    
  32100000   0.2408666     -8.2224615     -7.8611667      0.27600752     50218.233      36.893836      36.893836      36.893836    
  32200000   0.2399616     -8.2232567     -7.8633194      0.27348798     50218.233      36.893836      36.893836      36.893836    
  32300000   0.24116231    -8.2230493     -7.861311       0.27426012     50218.233      36.893836      36.893836      36.893836    
  32400000   0.24075641    -8.2235783     -7.8624488      0.27315833     50218.233      36.893836      36.893836      36.893836    
  32500000   0.24048124    -8.2231621     -7.8624453      0.26961013     50218.233      36.893836      36.893836      36.893836    
  32600000   0.23873631    -8.2221276     -7.8640282      0.27585942     50218.233      36.893836      36.893836      36.893836    
  32700000   0.23875288    -8.2222844     -7.8641602      0.27456438     50218.233      36.893836      36.893836      36.893836    
  32800000   0.24077415    -8.2228464     -7.8616903      0.27438137     50218.233      36.893836      36.893836      36.893836    
  32900000   0.23975191    -8.2231017     -7.863479       0.26507234     50218.233      36.893836      36.893836      36.893836    
  33000000   0.23976586    -8.2227261     -7.8630825      0.27912471     50218.233      36.893836      36.893836      36.893836    
  33100000   0.2394838     -8.2208358     -7.8616153      0.28746518     50218.233      36.893836      36.893836      36.893836    
  33200000   0.24041311    -8.2233613     -7.8627467      0.26455528     50218.233      36.893836      36.893836      36.893836    
  33300000   0.24028143    -8.2223394     -7.8619224      0.28668322     50218.233      36.893836      36.893836      36.893836    
  33400000   0.23960399    -8.2244678     -7.8650669      0.25931444     50218.233      36.893836      36.893836      36.893836    
  33500000   0.24009355    -8.2208066     -7.8606714      0.28827202     50218.233      36.893836      36.893836      36.893836    
  33600000   0.23905516    -8.2243921     -7.8658144      0.25210061     50218.233      36.893836      36.893836      36.893836    
  33700000   0.23886175    -8.221281      -7.8629935      0.28519184     50218.233      36.893836      36.893836      36.893836    
  33800000   0.23972941    -8.2243563     -7.8647673      0.26066516     50218.233      36.893836      36.893836      36.893836    
  33900000   0.23965207    -8.222659      -7.863186       0.26876103     50218.233      36.893836      36.893836      36.893836    
  34000000   0.24092628    -8.2221585     -7.8607742      0.28573563     50218.233      36.893836      36.893836      36.893836    
  34100000   0.23941697    -8.2226149     -7.8634946      0.27214717     50218.233      36.893836      36.893836      36.893836    
  34200000   0.23966625    -8.2222429     -7.8627487      0.27311508     50218.233      36.893836      36.893836      36.893836    
  34300000   0.24138042    -8.2235032     -7.8614377      0.26992425     50218.233      36.893836      36.893836      36.893836    
  34400000   0.24012449    -8.2231747     -7.8629931      0.27054295     50218.233      36.893836      36.893836      36.893836    
  34500000   0.23950426    -8.2249747     -7.8657234      0.2587762      50218.233      36.893836      36.893836      36.893836    
  34600000   0.24011697    -8.2236857     -7.8635154      0.26855709     50218.233      36.893836      36.893836      36.893836    
  34700000   0.24143151    -8.2249562     -7.8628141      0.26378474     50218.233      36.893836      36.893836      36.893836    
  34800000   0.24085434    -8.2233976     -7.8621212      0.26973326     50218.233      36.893836      36.893836      36.893836    
  34900000   0.24057545    -8.2234794     -7.8626214      0.26732665     50218.233      36.893836      36.893836      36.893836    
  35000000   0.23909468    -8.2240025     -7.8653656      0.26167986     50218.233      36.893836      36.893836      36.893836    
  35100000   0.23883493    -8.2241361     -7.8658888      0.25411966     50218.233      36.893836      36.893836      36.893836    
  35200000   0.24096712    -8.221406      -7.8599604      0.28674188     50218.233      36.893836      36.893836      36.893836    
  35300000   0.24036638    -8.2236714     -7.8631269      0.26304913     50218.233      36.893836      36.893836      36.893836    
  35400000   0.24009621    -8.224366      -7.8642268      0.26306891     50218.233      36.893836      36.893836      36.893836    
  35500000   0.2393597     -8.2241268     -7.8650923      0.25773398     50218.233      36.893836      36.893836      36.893836    
  35600000   0.24153006    -8.2251615     -7.8628716      0.25477313     50218.233      36.893836      36.893836      36.893836    
  35700000   0.23962288    -8.223896      -7.8644668      0.26176138     50218.233      36.893836      36.893836      36.893836    
  35800000   0.23939253    -8.2228317     -7.863748       0.2783237      50218.233      36.893836      36.893836      36.893836    
  35900000   0.24033686    -8.2240284     -7.8635282      0.26136496     50218.233      36.893836      36.893836      36.893836    
  36000000   0.23890107    -8.2218633     -7.8635168      0.27718396     50218.233      36.893836      36.893836      36.893836    
  36100000   0.24003676    -8.223395      -7.863345       0.2670566      50218.233      36.893836      36.893836      36.893836    
  36200000   0.23973292    -8.2227171     -7.8631229      0.27915818     50218.233      36.893836      36.893836      36.893836    
  36300000   0.24035872    -8.2257472     -7.8652142      0.24901809     50218.233      36.893836      36.893836      36.893836    
  36400000   0.23766242    -8.2232278     -7.8667392      0.26057014     50218.233      36.893836      36.893836      36.893836    
  36500000   0.24123639    -8.2214197     -7.8595702      0.28002254     50218.233      36.893836      36.893836      36.893836    
  36600000   0.24119399    -8.2210288     -7.859243       0.29208979     50218.233      36.893836      36.893836      36.893836    
  36700000   0.23890041    -8.2250595     -7.866714       0.25454901     50218.233      36.893836      36.893836      36.893836    
  36800000   0.24034294    -8.2232713     -7.862762       0.26898303     50218.233      36.893836      36.893836      36.893836    
  36900000   0.24036695    -8.2216774     -7.8611321      0.27601776     50218.233      36.893836      36.893836      36.893836    
  37000000   0.24027957    -8.2241245     -7.8637103      0.26725988     50218.233      36.893836      36.893836      36.893836    
  37100000   0.23941605    -8.2214475     -7.8623285      0.28045412     50218.233      36.893836      36.893836      36.893836    
  37200000   0.24035953    -8.2222502     -7.861716       0.27677906     50218.233      36.893836      36.893836      36.893836    
  37300000   0.24127642    -8.2221889     -7.8602794      0.28239768     50218.233      36.893836      36.893836      36.893836    
  37400000   0.24087774    -8.2216435     -7.860332       0.27971982     50218.233      36.893836      36.893836      36.893836    
  37500000   0.23947145    -8.2236273     -7.8644253      0.27573644     50218.233      36.893836      36.893836      36.893836    
  37600000   0.24008918    -8.2238104     -7.8636818      0.27092972     50218.233      36.893836      36.893836      36.893836    
  37700000   0.24029164    -8.222978      -7.8625457      0.2795148      50218.233      36.893836      36.893836      36.893836    
  37800000   0.24028739    -8.2246078     -7.8641818      0.26697893     50218.233      36.893836      36.893836      36.893836    
  37900000   0.24203773    -8.2220487     -7.8589972      0.2824231      50218.233      36.893836      36.893836      36.893836    
  38000000   0.24026451    -8.2231276     -7.8627359      0.27388921     50218.233      36.893836      36.893836      36.893836    
  38100000   0.24025379    -8.2219486     -7.861573       0.28623238     50218.233      36.893836      36.893836      36.893836    
  38200000   0.23992856    -8.2214233     -7.8615355      0.28989227     50218.233      36.893836      36.893836      36.893836    
  38300000   0.24009233    -8.2233716     -7.8632382      0.26650896     50218.233      36.893836      36.893836      36.893836    
  38400000   0.2405604     -8.2258679     -7.8650324      0.25430617     50218.233      36.893836      36.893836      36.893836    
  38500000   0.23986113    -8.2221147     -7.8623281      0.27211725     50218.233      36.893836      36.893836      36.893836    
  38600000   0.23935764    -8.223548      -7.8645166      0.26653515     50218.233      36.893836      36.893836      36.893836    
  38700000   0.24082218    -8.2234891     -7.8622609      0.27441519     50218.233      36.893836      36.893836      36.893836    
  38800000   0.23809175    -8.2228518     -7.8657193      0.27181996     50218.233      36.893836      36.893836      36.893836    
  38900000   0.238896      -8.2243089     -7.86597        0.26256946     50218.233      36.893836      36.893836      36.893836    
  39000000   0.23829835    -8.2238246     -7.8663822      0.25772713     50218.233      36.893836      36.893836      36.893836    
  39100000   0.23945677    -8.2233712     -7.8641911      0.25870956     50218.233      36.893836      36.893836      36.893836    
  39200000   0.23979194    -8.2234268     -7.863744       0.27053872     50218.233      36.893836      36.893836      36.893836    
  39300000   0.24016913    -8.2262898     -7.8660412      0.24545963     50218.233      36.893836      36.893836      36.893836    
  39400000   0.24104862    -8.2239799     -7.8624121      0.26776482     50218.233      36.893836      36.893836      36.893836    
  39500000   0.24020835    -8.2255616     -7.8652542      0.25589139     50218.233      36.893836      36.893836      36.893836    
  39600000   0.24041556    -8.2203937     -7.8597755      0.28986153     50218.233      36.893836      36.893836      36.893836    
  39700000   0.24084804    -8.2230842     -7.8618173      0.27692423     50218.233      36.893836      36.893836      36.893836    
  39800000   0.24068736    -8.2255163     -7.8644904      0.25299662     50218.233      36.893836      36.893836      36.893836    
  39900000   0.2399678     -8.2229174     -7.8629708      0.27105563     50218.233      36.893836      36.893836      36.893836    
  40000000   0.24016629    -8.2247555     -7.8645112      0.25583511     50218.233      36.893836      36.893836      36.893836    
  40100000   0.23941816    -8.2240195     -7.8648974      0.25940913     50218.233      36.893836      36.893836      36.893836    
  40200000   0.24014989    -8.2250627     -7.864843       0.25821559     50218.233      36.893836      36.893836      36.893836    
  40300000   0.2391311     -8.2224615     -7.8637699      0.27902625     50218.233      36.893836      36.893836      36.893836    
  40400000   0.24003679    -8.2251458     -7.8650958      0.25229678     50218.233      36.893836      36.893836      36.893836    
  40500000   0.23999403    -8.2253632     -7.8653773      0.2564225      50218.233      36.893836      36.893836      36.893836    
  40600000   0.23957499    -8.221179      -7.8618217      0.29034969     50218.233      36.893836      36.893836      36.893836    
  40700000   0.24039466    -8.2233147     -7.8627279      0.26955326     50218.233      36.893836      36.893836      36.893836    
  40800000   0.2406607     -8.2228825     -7.8618966      0.2664822      50218.233      36.893836      36.893836      36.893836    
  40900000   0.239663      -8.2229672     -7.8634778      0.27566405     50218.233      36.893836      36.893836      36.893836    
  41000000   0.24045967    -8.2244336     -7.8637492      0.25071802     50218.233      36.893836      36.893836      36.893836    
  41100000   0.2392743     -8.2226455     -7.8637392      0.27285184     50218.233      36.893836      36.893836      36.893836    
  41200000   0.23957736    -8.2222023     -7.8628414      0.2780425      50218.233      36.893836      36.893836      36.893836    
  41300000   0.24018694    -8.2245182     -7.8642429      0.26567624     50218.233      36.893836      36.893836      36.893836    
  41400000   0.24108185    -8.2249355     -7.8633178      0.25465481     50218.233      36.893836      36.893836      36.893836    
  41500000   0.23977299    -8.2207664     -7.861112       0.28990157     50218.233      36.893836      36.893836      36.893836    
  41600000   0.2404651     -8.2233967     -7.8627041      0.27026807     50218.233      36.893836      36.893836      36.893836    
  41700000   0.23958011    -8.2229815     -7.8636165      0.26850463     50218.233      36.893836      36.893836      36.893836    
  41800000   0.24126285    -8.2234518     -7.8615626      0.27219139     50218.233      36.893836      36.893836      36.893836    
  41900000   0.24096834    -8.2213858     -7.8599384      0.28608587     50218.233      36.893836      36.893836      36.893836    
  42000000   0.24017858    -8.2237816     -7.8635189      0.26472748     50218.233      36.893836      36.893836      36.893836    
  42100000   0.23997737    -8.2219775     -7.8620166      0.28029075     50218.233      36.893836      36.893836      36.893836    
  42200000   0.24016385    -8.2224644     -7.8622237      0.27832155     50218.233      36.893836      36.893836      36.893836    
  42300000   0.23841555    -8.220876      -7.8632578      0.2833489      50218.233      36.893836      36.893836      36.893836    
  42400000   0.2403119     -8.2221899     -7.8617271      0.27791505     50218.233      36.893836      36.893836      36.893836    
  42500000   0.24021544    -8.2223046     -7.8619866      0.27881911     50218.233      36.893836      36.893836      36.893836    
  42600000   0.24019162    -8.2233121     -7.8630298      0.26659039     50218.233      36.893836      36.893836      36.893836    
  42700000   0.24048176    -8.2219982     -7.8612807      0.27993585     50218.233      36.893836      36.893836      36.893836    
  42800000   0.24012727    -8.2223357     -7.86215        0.2723212      50218.233      36.893836      36.893836      36.893836    
  42900000   0.23936003    -8.2233683     -7.8643334      0.2659918      50218.233      36.893836      36.893836      36.893836    
  43000000   0.24122788    -8.2212978     -7.8594611      0.28728152     50218.233      36.893836      36.893836      36.893836    
  43100000   0.24123692    -8.2224562     -7.8606059      0.27173949     50218.233      36.893836      36.893836      36.893836    
  43200000   0.23974541    -8.2239675     -7.8643545      0.25756943     50218.233      36.893836      36.893836      36.893836    
  43300000   0.23981201    -8.224531      -7.8648181      0.25276504     50218.233      36.893836      36.893836      36.893836    
  43400000   0.2397207     -8.223431      -7.8638551      0.26497799     50218.233      36.893836      36.893836      36.893836    
  43500000   0.24009001    -8.2222126     -7.8620827      0.26980949     50218.233      36.893836      36.893836      36.893836    
  43600000   0.23953723    -8.224         -7.8646993      0.26315245     50218.233      36.893836      36.893836      36.893836    
  43700000   0.2396408     -8.2251191     -7.865663       0.25421669     50218.233      36.893836      36.893836      36.893836    
  43800000   0.24105369    -8.2236563     -7.8620809      0.26449738     50218.233      36.893836      36.893836      36.893836    
  43900000   0.23955561    -8.2247765     -7.8654482      0.25377726     50218.233      36.893836      36.893836      36.893836    
  44000000   0.24118127    -8.2223645     -7.8605978      0.2792772      50218.233      36.893836      36.893836      36.893836    
  44100000   0.24056243    -8.2235979     -7.8627594      0.27001849     50218.233      36.893836      36.893836      36.893836    
  44200000   0.23884411    -8.2234383     -7.8651772      0.27487143     50218.233      36.893836      36.893836      36.893836    
  44300000   0.24014945    -8.223708      -7.8634889      0.27550691     50218.233      36.893836      36.893836      36.893836    
  44400000   0.23981614    -8.2256061     -7.865887       0.25394668     50218.233      36.893836      36.893836      36.893836    
  44500000   0.24150336    -8.2233692     -7.8611193      0.26904757     50218.233      36.893836      36.893836      36.893836    
  44600000   0.24147776    -8.2246832     -7.8624717      0.25506222     50218.233      36.893836      36.893836      36.893836    
  44700000   0.24135361    -8.224919      -7.8628937      0.25052682     50218.233      36.893836      36.893836      36.893836    
  44800000   0.24025096    -8.2228892     -7.8625179      0.27708084     50218.233      36.893836      36.893836      36.893836    
  44900000   0.2390381     -8.2241998     -7.8656477      0.2608383      50218.233      36.893836      36.893836      36.893836    
  45000000   0.2400009     -8.2259055     -7.8659092      0.25084012     50218.233      36.893836      36.893836      36.893836    
  45100000   0.24062213    -8.223256      -7.862328       0.26961431     50218.233      36.893836      36.893836      36.893836    
  45200000   0.2384599     -8.2249412     -7.8672564      0.25338797     50218.233      36.893836      36.893836      36.893836    
  45300000   0.23998442    -8.2224628     -7.8624913      0.2730451      50218.233      36.893836      36.893836      36.893836    
  45400000   0.24056023    -8.2240034     -7.8631682      0.26462083     50218.233      36.893836      36.893836      36.893836    
  45500000   0.24000876    -8.2224908     -7.8624828      0.2747644      50218.233      36.893836      36.893836      36.893836    
  45600000   0.24089009    -8.2239666     -7.8626366      0.26814137     50218.233      36.893836      36.893836      36.893836    
  45700000   0.24031864    -8.2233905     -7.8629176      0.26065464     50218.233      36.893836      36.893836      36.893836    
  45800000   0.24069511    -8.2242087     -7.8631712      0.26565221     50218.233      36.893836      36.893836      36.893836    
  45900000   0.24095652    -8.2253013     -7.8638717      0.26089134     50218.233      36.893836      36.893836      36.893836    
  46000000   0.239998      -8.2245581     -7.8645662      0.26258575     50218.233      36.893836      36.893836      36.893836    
  46100000   0.23970278    -8.225351      -7.8658019      0.25496563     50218.233      36.893836      36.893836      36.893836    
  46200000   0.2392381     -8.2218303     -7.8629783      0.27617564     50218.233      36.893836      36.893836      36.893836    
  46300000   0.24060992    -8.2220789     -7.8611692      0.28771519     50218.233      36.893836      36.893836      36.893836    
  46400000   0.23792822    -8.2233257     -7.8664385      0.27156556     50218.233      36.893836      36.893836      36.893836    
  46500000   0.24018458    -8.2225542     -7.8622825      0.27383355     50218.233      36.893836      36.893836      36.893836    
  46600000   0.23938248    -8.2234459     -7.8643772      0.2686399      50218.233      36.893836      36.893836      36.893836    
  46700000   0.2414501     -8.2229161     -7.8607461      0.26625352     50218.233      36.893836      36.893836      36.893836    
  46800000   0.23948853    -8.2237957     -7.864568       0.26995478     50218.233      36.893836      36.893836      36.893836    
  46900000   0.24266279    -8.2196455     -7.8556564      0.29945848     50218.233      36.893836      36.893836      36.893836    
  47000000   0.24074757    -8.2240345     -7.8629183      0.26002474     50218.233      36.893836      36.893836      36.893836    
  47100000   0.24012412    -8.222506      -7.8623249      0.27284517     50218.233      36.893836      36.893836      36.893836    
  47200000   0.24066544    -8.2219101     -7.8609171      0.28281366     50218.233      36.893836      36.893836      36.893836    
  47300000   0.23986935    -8.2227827     -7.8629838      0.27513766     50218.233      36.893836      36.893836      36.893836    
  47400000   0.23955843    -8.2228383     -7.8635058      0.2747975      50218.233      36.893836      36.893836      36.893836    
  47500000   0.24037222    -8.223013      -7.8624598      0.27257537     50218.233      36.893836      36.893836      36.893836    
  47600000   0.23889559    -8.2211131     -7.8627748      0.28397515     50218.233      36.893836      36.893836      36.893836    
  47700000   0.23981154    -8.2213928     -7.8616806      0.27507712     50218.233      36.893836      36.893836      36.893836    
  47800000   0.2392037     -8.2221915     -7.8633911      0.27237154     50218.233      36.893836      36.893836      36.893836    
  47900000   0.23998522    -8.224057      -7.8640843      0.2707315      50218.233      36.893836      36.893836      36.893836    
  48000000   0.24044368    -8.2227142     -7.8620538      0.27265876     50218.233      36.893836      36.893836      36.893836    
  48100000   0.24012017    -8.2234616     -7.8632864      0.26552652     50218.233      36.893836      36.893836      36.893836    
  48200000   0.2397057     -8.2241643     -7.8646109      0.26481511     50218.233      36.893836      36.893836      36.893836    
  48300000   0.2400731     -8.2235012     -7.8633966      0.26877451     50218.233      36.893836      36.893836      36.893836    
  48400000   0.24163618    -8.2219963     -7.8595471      0.28154466     50218.233      36.893836      36.893836      36.893836    
  48500000   0.2396299     -8.223775      -7.8643352      0.26404863     50218.233      36.893836      36.893836      36.893836    
  48600000   0.23861151    -8.2252074     -7.8672952      0.25414073     50218.233      36.893836      36.893836      36.893836    
  48700000   0.24039062    -8.2227256     -7.8621448      0.2758708      50218.233      36.893836      36.893836      36.893836    
  48800000   0.23955881    -8.2240506     -7.8647175      0.2582137      50218.233      36.893836      36.893836      36.893836    
  48900000   0.24026424    -8.2246943     -7.8643031      0.26332595     50218.233      36.893836      36.893836      36.893836    
  49000000   0.23936084    -8.2222932     -7.863257       0.27549033     50218.233      36.893836      36.893836      36.893836    
  49100000   0.23971039    -8.2241154     -7.8645549      0.26161527     50218.233      36.893836      36.893836      36.893836    
  49200000   0.23901429    -8.2235565     -7.8650402      0.26283047     50218.233      36.893836      36.893836      36.893836    
  49300000   0.23905081    -8.2226116     -7.8640405      0.2731747      50218.233      36.893836      36.893836      36.893836    
  49400000   0.23937126    -8.2232829     -7.8642311      0.27043447     50218.233      36.893836      36.893836      36.893836    
  49500000   0.2394332     -8.2250112     -7.8658665      0.24589288     50218.233      36.893836      36.893836      36.893836    
  49600000   0.23896025    -8.2249374     -7.8665022      0.25949082     50218.233      36.893836      36.893836      36.893836    
  49700000   0.24016747    -8.2249496     -7.8647035      0.25532764     50218.233      36.893836      36.893836      36.893836    
  49800000   0.24017952    -8.2230633     -7.8627992      0.26650882     50218.233      36.893836      36.893836      36.893836    
  49900000   0.23904388    -8.2223123     -7.8637516      0.28032956     50218.233      36.893836      36.893836      36.893836    
  50000000   0.24081619    -8.2254802     -7.8642611      0.25364        50218.233      36.893836      36.893836      36.893836    
Loop time of 74054 on 5 procs for 50000000 steps with 70304 atoms

Performance: 583358.098 tau/day, 675.183 timesteps/s, 47.468 Matom-step/s
94.3% CPU use with 5 MPI tasks x 1 OpenMP threads

MPI task timing breakdown:
Section |  min time  |  avg time  |  max time  |%varavg| %total
---------------------------------------------------------------
Pair    | 24808      | 27878      | 32185      |1509.6 | 37.65
Neigh   | 167.98     | 182.18     | 188.04     |  55.5 |  0.25
Comm    | 10509      | 10608      | 10666      |  60.3 | 14.32
Output  | 0.090355   | 0.093249   | 0.098203   |   0.9 |  0.00
Modify  | 27601      | 31815      | 34894      |1399.6 | 42.96
Other   |            | 3571       |            |       |  4.82

Nlocal:        14060.8 ave       14118 max       14017 min
Histogram: 1 1 0 0 0 2 0 0 0 1
Nghost:        18755.2 ave       18809 max       18709 min
Histogram: 1 0 1 1 0 0 0 1 0 1
Neighs:              0 ave           0 max           0 min
Histogram: 5 0 0 0 0 0 0 0 0 0

Total # of neighbors = 0
Ave neighs/atom = 0
Neighbor list builds = 7264680
Dangerous builds = 0
Total wall time: 294:08:14
