variable TLJ equal (${T}/1000)
variable TLJ equal (460/1000)
variable NCyle equal 5
variable iStep equal (${f})
variable iStep equal (100000)
variable dumpStep equal (${f}*100)
variable dumpStep equal (100000*100)
variable runStep equal (${f}*100*${NCyle})
variable runStep equal (100000*100*${NCyle})
variable runStep equal (100000*100*5)

units       lj
atom_style  atomic
dimension 3
boundary     p p p
pair_style  lj/cut 2.5
read_data  ../data/T${T}.dat
read_data  ../data/T460.dat
Reading data file ...
  orthogonal box = (0.97250269 0.97250269 0.97250269) to (37.866338 37.866338 37.866338)
  1 by 1 by 5 MPI processor grid
  reading atoms ...
  70304 atoms
  reading velocities ...
  70304 velocities
  read_data CPU = 0.209 seconds
change_box all triclinic
Changing box ...
  triclinic box = (0.97250269 0.97250269 0.97250269) to (37.866338 37.866338 37.866338) with tilt (0 0 0)
mass 1 1
mass 2 1
pair_modify shift yes
pair_coeff  1 1 1 1
pair_coeff  1 2 1.5 0.8
pair_coeff  2 2 0.5 0.88


timestep 0.01
thermo ${iStep}
thermo 100000
reset_timestep 0
thermo_style custom step temp pe etotal press vol lx ly lz
fix             1 all nvt temp ${TLJ}  ${TLJ}  0.1
fix             1 all nvt temp 0.46  ${TLJ}  0.1
fix             1 all nvt temp 0.46  0.46  0.1
thermo_modify flush yes

fix dsf all deform 1 xy  wiggle 0.5  ${f}   units box
fix dsf all deform 1 xy  wiggle 0.5  100000   units box
fix ps1 all ave/time 1 1 ${iStep} c_thermo_press[1] c_thermo_press[2]  c_thermo_press[3] c_thermo_press[4]  c_thermo_press[5] c_thermo_press[6]  file  stress.${T}
fix ps1 all ave/time 1 1 100000 c_thermo_press[1] c_thermo_press[2]  c_thermo_press[3] c_thermo_press[4]  c_thermo_press[5] c_thermo_press[6]  file  stress.${T}
fix ps1 all ave/time 1 1 100000 c_thermo_press[1] c_thermo_press[2]  c_thermo_press[3] c_thermo_press[4]  c_thermo_press[5] c_thermo_press[6]  file  stress.460
dump            1 all custom ${dumpStep} dump.${T} id type x y z
dump            1 all custom 10000000 dump.${T} id type x y z
dump            1 all custom 10000000 dump.460 id type x y z
dump_modify 1 sort id
fix nodrift all momentum 1  linear 1 1 1
fix com_seed all recenter INIT INIT INIT shift all
run ${runStep}
run 50000000
Generated 0 of 1 mixed pair_coeff terms from geometric mixing rule
Per MPI rank memory allocation (min/avg/max) = 6.665 | 8.016 | 8.92 Mbytes
   Step          Temp          PotEng         TotEng         Press          Volume           Lx             Ly             Lz      
         0   0.4590978     -7.8986281     -7.2099911      2.9759023      50218.233      36.893836      36.893836      36.893836    
    100000   0.45905791    -7.8941165     -7.2055394      3.014344       50218.233      36.893836      36.893836      36.893836    
    200000   0.4587096     -7.8906152     -7.2025605      3.0362738      50218.233      36.893836      36.893836      36.893836    
    300000   0.4580733     -7.891162      -7.2040618      3.0365137      50218.233      36.893836      36.893836      36.893836    
    400000   0.45855109    -7.8961958     -7.208379       3.0035603      50218.233      36.893836      36.893836      36.893836    
    500000   0.46142173    -7.8895562     -7.1974335      3.0478012      50218.233      36.893836      36.893836      36.893836    
    600000   0.4585196     -7.8938849     -7.2061153      3.0214927      50218.233      36.893836      36.893836      36.893836    
    700000   0.46031183    -7.8949633     -7.2045054      3.0079561      50218.233      36.893836      36.893836      36.893836    
    800000   0.45897585    -7.8919996     -7.2035456      3.0291671      50218.233      36.893836      36.893836      36.893836    
    900000   0.45907804    -7.8945013     -7.205894       3.0105235      50218.233      36.893836      36.893836      36.893836    
   1000000   0.45855415    -7.893148      -7.2053266      3.0261546      50218.233      36.893836      36.893836      36.893836    
   1100000   0.45887996    -7.891099      -7.2027889      3.0297833      50218.233      36.893836      36.893836      36.893836    
   1200000   0.46196455    -7.8892158     -7.1962788      3.0571477      50218.233      36.893836      36.893836      36.893836    
   1300000   0.46340563    -7.8920466     -7.196948       3.0357788      50218.233      36.893836      36.893836      36.893836    
   1400000   0.46019257    -7.8921491     -7.20187        3.0492772      50218.233      36.893836      36.893836      36.893836    
   1500000   0.45954417    -7.8899256     -7.2006191      3.0515919      50218.233      36.893836      36.893836      36.893836    
   1600000   0.4614965     -7.8882058     -7.1959709      3.0553731      50218.233      36.893836      36.893836      36.893836    
   1700000   0.46077825    -7.8952658     -7.2041083      3.0163854      50218.233      36.893836      36.893836      36.893836    
   1800000   0.46132926    -7.8923817     -7.2003977      3.0322651      50218.233      36.893836      36.893836      36.893836    
   1900000   0.46141062    -7.8943619     -7.2022558      3.0153644      50218.233      36.893836      36.893836      36.893836    
   2000000   0.45939582    -7.8914551     -7.2023712      3.0331603      50218.233      36.893836      36.893836      36.893836    
   2100000   0.45839219    -7.8932672     -7.2056887      3.0083732      50218.233      36.893836      36.893836      36.893836    
   2200000   0.46083047    -7.8950349     -7.203799       3.001099       50218.233      36.893836      36.893836      36.893836    
   2300000   0.46101293    -7.8930311     -7.2015215      3.0242014      50218.233      36.893836      36.893836      36.893836    
   2400000   0.45853208    -7.8931043     -7.2053159      3.0283234      50218.233      36.893836      36.893836      36.893836    
   2500000   0.46210978    -7.8918587     -7.1987039      3.0293245      50218.233      36.893836      36.893836      36.893836    
   2600000   0.45928777    -7.8909904     -7.2020685      3.0331071      50218.233      36.893836      36.893836      36.893836    
   2700000   0.45823206    -7.8930702     -7.2057319      3.0206068      50218.233      36.893836      36.893836      36.893836    
   2800000   0.46077699    -7.8915395     -7.2003838      3.0222412      50218.233      36.893836      36.893836      36.893836    
   2900000   0.4596391     -7.8942884     -7.2048395      3.004516       50218.233      36.893836      36.893836      36.893836    
   3000000   0.45953571    -7.8893416     -7.2000478      3.0553745      50218.233      36.893836      36.893836      36.893836    
   3100000   0.46029713    -7.8894334     -7.1989975      3.0537358      50218.233      36.893836      36.893836      36.893836    
   3200000   0.45757724    -7.8915859     -7.2052298      3.0288111      50218.233      36.893836      36.893836      36.893836    
   3300000   0.4588495     -7.8903436     -7.2020791      3.0389813      50218.233      36.893836      36.893836      36.893836    
   3400000   0.46034661    -7.8899666     -7.1994565      3.0449204      50218.233      36.893836      36.893836      36.893836    
   3500000   0.46055458    -7.8955935     -7.2047715      2.9923936      50218.233      36.893836      36.893836      36.893836    
   3600000   0.45674895    -7.8932021     -7.2080885      3.0090818      50218.233      36.893836      36.893836      36.893836    
   3700000   0.4609179     -7.8909273     -7.1995603      3.0405356      50218.233      36.893836      36.893836      36.893836    
   3800000   0.46061215    -7.891098      -7.2001896      3.0374063      50218.233      36.893836      36.893836      36.893836    
   3900000   0.45890061    -7.892227      -7.2038858      3.0306547      50218.233      36.893836      36.893836      36.893836    
   4000000   0.45979815    -7.8936835     -7.2039961      3.0340086      50218.233      36.893836      36.893836      36.893836    
   4100000   0.45753969    -7.889659      -7.2033592      3.0545258      50218.233      36.893836      36.893836      36.893836    
   4200000   0.45703942    -7.8935325     -7.2079831      3.0284836      50218.233      36.893836      36.893836      36.893836    
   4300000   0.46103726    -7.892988      -7.201442       3.0311564      50218.233      36.893836      36.893836      36.893836    
   4400000   0.46254918    -7.8927674     -7.1989535      3.0394174      50218.233      36.893836      36.893836      36.893836    
   4500000   0.46143376    -7.8942935     -7.2021527      3.0204911      50218.233      36.893836      36.893836      36.893836    
   4600000   0.46116829    -7.892364      -7.2006214      3.0343555      50218.233      36.893836      36.893836      36.893836    
   4700000   0.45965023    -7.8955983     -7.2061328      2.999701       50218.233      36.893836      36.893836      36.893836    
   4800000   0.45900532    -7.8891245     -7.2006264      3.0428467      50218.233      36.893836      36.893836      36.893836    
   4900000   0.45852523    -7.8953738     -7.2075957      3.0082134      50218.233      36.893836      36.893836      36.893836    
   5000000   0.46015801    -7.89279       -7.2025628      3.0300741      50218.233      36.893836      36.893836      36.893836    
   5100000   0.45782578    -7.8942199     -7.207491       3.0118131      50218.233      36.893836      36.893836      36.893836    
   5200000   0.45862006    -7.895983      -7.2080627      3.0056102      50218.233      36.893836      36.893836      36.893836    
   5300000   0.45888229    -7.8927471     -7.2044335      3.0179058      50218.233      36.893836      36.893836      36.893836    
   5400000   0.46005636    -7.8890873     -7.1990125      3.0455427      50218.233      36.893836      36.893836      36.893836    
   5500000   0.46146109    -7.8896081     -7.1974264      3.0460433      50218.233      36.893836      36.893836      36.893836    
   5600000   0.46014735    -7.8896528     -7.1994416      3.0428495      50218.233      36.893836      36.893836      36.893836    
   5700000   0.46171759    -7.8919406     -7.1993741      3.0343998      50218.233      36.893836      36.893836      36.893836    
   5800000   0.46038697    -7.890219      -7.1996484      3.0386812      50218.233      36.893836      36.893836      36.893836    
   5900000   0.45775869    -7.8931671     -7.2065389      3.0246122      50218.233      36.893836      36.893836      36.893836    
   6000000   0.45732906    -7.8972704     -7.2112865      2.9940742      50218.233      36.893836      36.893836      36.893836    
   6100000   0.46254862    -7.8946448     -7.2008318      3.0223903      50218.233      36.893836      36.893836      36.893836    
   6200000   0.45792302    -7.892971      -7.2060963      3.0195579      50218.233      36.893836      36.893836      36.893836    
   6300000   0.4585285     -7.8904487     -7.2026657      3.0383409      50218.233      36.893836      36.893836      36.893836    
   6400000   0.45824622    -7.8943125     -7.2069529      3.0209807      50218.233      36.893836      36.893836      36.893836    
   6500000   0.46234482    -7.8917317     -7.1982244      3.0457166      50218.233      36.893836      36.893836      36.893836    
   6600000   0.45978077    -7.8938661     -7.2042048      3.003641       50218.233      36.893836      36.893836      36.893836    
   6700000   0.45827958    -7.8886722     -7.2012626      3.0499895      50218.233      36.893836      36.893836      36.893836    
   6800000   0.45899541    -7.8896658     -7.2011825      3.0420129      50218.233      36.893836      36.893836      36.893836    
   6900000   0.45924298    -7.8922708     -7.2034161      3.030911       50218.233      36.893836      36.893836      36.893836    
   7000000   0.45979966    -7.8946763     -7.2049867      3.0019619      50218.233      36.893836      36.893836      36.893836    
   7100000   0.46021025    -7.8948573     -7.2045517      3.0083027      50218.233      36.893836      36.893836      36.893836    
   7200000   0.46054914    -7.8914661     -7.2006522      3.0321501      50218.233      36.893836      36.893836      36.893836    
   7300000   0.45872626    -7.8926924     -7.2046128      3.0256429      50218.233      36.893836      36.893836      36.893836    
   7400000   0.45936497    -7.8931544     -7.2041167      3.0246444      50218.233      36.893836      36.893836      36.893836    
   7500000   0.46055185    -7.890284      -7.1994661      3.0445529      50218.233      36.893836      36.893836      36.893836    
   7600000   0.45883513    -7.8898859     -7.201643       3.0467654      50218.233      36.893836      36.893836      36.893836    
   7700000   0.45898829    -7.8913991     -7.2029264      3.0390953      50218.233      36.893836      36.893836      36.893836    
   7800000   0.45965618    -7.8953551     -7.2058807      3.0087418      50218.233      36.893836      36.893836      36.893836    
   7900000   0.4606714     -7.8908843     -7.1998871      3.05407        50218.233      36.893836      36.893836      36.893836    
   8000000   0.46105101    -7.8989277     -7.2073611      2.9831044      50218.233      36.893836      36.893836      36.893836    
   8100000   0.45988112    -7.8923966     -7.2025847      3.0332134      50218.233      36.893836      36.893836      36.893836    
   8200000   0.46074943    -7.8951721     -7.2040577      3.0068478      50218.233      36.893836      36.893836      36.893836    
   8300000   0.45933822    -7.8939839     -7.2049864      3.0206528      50218.233      36.893836      36.893836      36.893836    
   8400000   0.46076232    -7.8942074     -7.2030738      3.0152579      50218.233      36.893836      36.893836      36.893836    
   8500000   0.45902682    -7.8946251     -7.2060947      3.0140002      50218.233      36.893836      36.893836      36.893836    
   8600000   0.4612527     -7.8943902     -7.202521       3.0126639      50218.233      36.893836      36.893836      36.893836    
   8700000   0.45943581    -7.8933758     -7.2042319      3.0193106      50218.233      36.893836      36.893836      36.893836    
   8800000   0.46036676    -7.8939184     -7.203378       3.0124087      50218.233      36.893836      36.893836      36.893836    
   8900000   0.46020995    -7.8938104     -7.2035053      3.0297651      50218.233      36.893836      36.893836      36.893836    
   9000000   0.45898706    -7.8956963     -7.2072255      3.0089137      50218.233      36.893836      36.893836      36.893836    
   9100000   0.45753359    -7.893777      -7.2074864      3.0166175      50218.233      36.893836      36.893836      36.893836    
   9200000   0.45861788    -7.8944593     -7.2065422      3.01865        50218.233      36.893836      36.893836      36.893836    
   9300000   0.46178476    -7.8943748     -7.2017075      3.0207694      50218.233      36.893836      36.893836      36.893836    
   9400000   0.46065508    -7.894662      -7.2036892      3.0127357      50218.233      36.893836      36.893836      36.893836    
   9500000   0.46015784    -7.8954408     -7.2052138      3.0064165      50218.233      36.893836      36.893836      36.893836    
   9600000   0.4611162     -7.8954712     -7.2038067      3.0008069      50218.233      36.893836      36.893836      36.893836    
   9700000   0.46018945    -7.8956055     -7.2053312      2.9977484      50218.233      36.893836      36.893836      36.893836    
   9800000   0.45910948    -7.8981863     -7.2095319      2.9848353      50218.233      36.893836      36.893836      36.893836    
   9900000   0.45943437    -7.8962743     -7.2071325      3.0026818      50218.233      36.893836      36.893836      36.893836    
  10000000   0.45889875    -7.8942323     -7.2058939      3.010874       50218.233      36.893836      36.893836      36.893836    
  10100000   0.45986956    -7.8962647     -7.2064701      2.9886373      50218.233      36.893836      36.893836      36.893836    
  10200000   0.45950579    -7.8910393     -7.2017904      3.0364652      50218.233      36.893836      36.893836      36.893836    
  10300000   0.4592215     -7.8976031     -7.2087806      3.0051985      50218.233      36.893836      36.893836      36.893836    
  10400000   0.46048811    -7.8959455     -7.2052231      3.0073754      50218.233      36.893836      36.893836      36.893836    
  10500000   0.45903791    -7.8933964     -7.2048494      3.0196845      50218.233      36.893836      36.893836      36.893836    
  10600000   0.46074693    -7.8988746     -7.207764       2.9890893      50218.233      36.893836      36.893836      36.893836    
  10700000   0.45629107    -7.8953534     -7.2109265      3.0098747      50218.233      36.893836      36.893836      36.893836    
  10800000   0.45790003    -7.893337      -7.2064967      3.0180744      50218.233      36.893836      36.893836      36.893836    
  10900000   0.46194925    -7.891639      -7.198725       3.0430558      50218.233      36.893836      36.893836      36.893836    
  11000000   0.4588079     -7.8941959     -7.2059939      3.0256014      50218.233      36.893836      36.893836      36.893836    
  11100000   0.45769058    -7.8956485     -7.2091224      3.0027443      50218.233      36.893836      36.893836      36.893836    
  11200000   0.45990387    -7.8938744     -7.2040284      3.0200958      50218.233      36.893836      36.893836      36.893836    
  11300000   0.45824326    -7.8919378     -7.2045827      3.0381966      50218.233      36.893836      36.893836      36.893836    
  11400000   0.46024797    -7.8948208     -7.2044586      3.0154282      50218.233      36.893836      36.893836      36.893836    
  11500000   0.45859097    -7.8941543     -7.2062777      3.0222345      50218.233      36.893836      36.893836      36.893836    
  11600000   0.46060464    -7.8917613     -7.2008642      3.039696       50218.233      36.893836      36.893836      36.893836    
  11700000   0.45891212    -7.8971026     -7.2087442      2.9972207      50218.233      36.893836      36.893836      36.893836    
  11800000   0.45843603    -7.8897702     -7.202126       3.0432548      50218.233      36.893836      36.893836      36.893836    
  11900000   0.45758479    -7.8939538     -7.2075864      3.0097671      50218.233      36.893836      36.893836      36.893836    
  12000000   0.45955101    -7.8937184     -7.2044017      3.0109343      50218.233      36.893836      36.893836      36.893836    
  12100000   0.45922028    -7.8929146     -7.204094       3.0252096      50218.233      36.893836      36.893836      36.893836    
  12200000   0.46192466    -7.8947151     -7.201838       3.0063641      50218.233      36.893836      36.893836      36.893836    
  12300000   0.46066516    -7.8929714     -7.2019835      3.0343201      50218.233      36.893836      36.893836      36.893836    
  12400000   0.45878617    -7.8936189     -7.2054495      3.0229611      50218.233      36.893836      36.893836      36.893836    
  12500000   0.45858794    -7.8914896     -7.2036175      3.0363551      50218.233      36.893836      36.893836      36.893836    
  12600000   0.46020114    -7.8915306     -7.2012387      3.0435229      50218.233      36.893836      36.893836      36.893836    
  12700000   0.4593362     -7.8921068     -7.2031123      3.0382749      50218.233      36.893836      36.893836      36.893836    
  12800000   0.46016319    -7.8973165     -7.2070815      3.0023456      50218.233      36.893836      36.893836      36.893836    
  12900000   0.46086783    -7.8940096     -7.2027177      3.021367       50218.233      36.893836      36.893836      36.893836    
  13000000   0.46131947    -7.8945719     -7.2026025      3.0191428      50218.233      36.893836      36.893836      36.893836    
  13100000   0.45972662    -7.8918342     -7.2022541      3.0332972      50218.233      36.893836      36.893836      36.893836    
  13200000   0.45765251    -7.8935679     -7.2070989      3.0061759      50218.233      36.893836      36.893836      36.893836    
  13300000   0.45688069    -7.8956606     -7.2103493      2.99968        50218.233      36.893836      36.893836      36.893836    
  13400000   0.46188323    -7.8919844     -7.1991694      3.0389412      50218.233      36.893836      36.893836      36.893836    
  13500000   0.45733505    -7.8917578     -7.2057649      3.0275601      50218.233      36.893836      36.893836      36.893836    
  13600000   0.4610232     -7.8970092     -7.2054843      3.0099959      50218.233      36.893836      36.893836      36.893836    
  13700000   0.45930772    -7.8928418     -7.20389        3.0306999      50218.233      36.893836      36.893836      36.893836    
  13800000   0.45892172    -7.8970472     -7.2086744      2.9895615      50218.233      36.893836      36.893836      36.893836    
  13900000   0.46163531    -7.8929829     -7.2005397      3.0266196      50218.233      36.893836      36.893836      36.893836    
  14000000   0.45999036    -7.8939094     -7.2039337      3.0124035      50218.233      36.893836      36.893836      36.893836    
  14100000   0.45915895    -7.8933273     -7.2045986      3.0261945      50218.233      36.893836      36.893836      36.893836    
  14200000   0.46212344    -7.8982734     -7.2050981      2.9834501      50218.233      36.893836      36.893836      36.893836    
  14300000   0.4598327     -7.8916903     -7.2019511      3.0286574      50218.233      36.893836      36.893836      36.893836    
  14400000   0.45902716    -7.8934128     -7.2048819      3.0231018      50218.233      36.893836      36.893836      36.893836    
  14500000   0.45739048    -7.8940792     -7.2080033      3.009248       50218.233      36.893836      36.893836      36.893836    
  14600000   0.46193166    -7.8979103     -7.2050227      2.994609       50218.233      36.893836      36.893836      36.893836    
  14700000   0.45799641    -7.8971271     -7.2101423      2.9920348      50218.233      36.893836      36.893836      36.893836    
  14800000   0.4625231     -7.8968088     -7.2030341      2.9885204      50218.233      36.893836      36.893836      36.893836    
  14900000   0.46030252    -7.8952538     -7.2048098      3.0101289      50218.233      36.893836      36.893836      36.893836    
  15000000   0.46025396    -7.8940289     -7.2036578      3.0118064      50218.233      36.893836      36.893836      36.893836    
  15100000   0.46076647    -7.8936413     -7.2025014      3.030072       50218.233      36.893836      36.893836      36.893836    
  15200000   0.46115614    -7.8944264     -7.2027021      3.0094728      50218.233      36.893836      36.893836      36.893836    
  15300000   0.45852009    -7.8975547     -7.2097844      2.9867867      50218.233      36.893836      36.893836      36.893836    
  15400000   0.46154702    -7.8954876     -7.2031769      3.0085765      50218.233      36.893836      36.893836      36.893836    
  15500000   0.45961809    -7.8944637     -7.2050464      3.0090955      50218.233      36.893836      36.893836      36.893836    
  15600000   0.46157057    -7.8933707     -7.2010246      3.0204824      50218.233      36.893836      36.893836      36.893836    
  15700000   0.45853804    -7.8936441     -7.2058468      3.0162273      50218.233      36.893836      36.893836      36.893836    
  15800000   0.45985221    -7.8924049     -7.2026364      3.0335107      50218.233      36.893836      36.893836      36.893836    
  15900000   0.4593995     -7.8926395     -7.20355        3.0335708      50218.233      36.893836      36.893836      36.893836    
  16000000   0.46022043    -7.8947803     -7.2044595      3.0038626      50218.233      36.893836      36.893836      36.893836    
  16100000   0.46080425    -7.8942191     -7.2030226      3.0263623      50218.233      36.893836      36.893836      36.893836    
  16200000   0.45793118    -7.8922233     -7.2053363      3.0267959      50218.233      36.893836      36.893836      36.893836    
  16300000   0.46077794    -7.8918002     -7.2006431      3.0346909      50218.233      36.893836      36.893836      36.893836    
  16400000   0.45863466    -7.8956901     -7.2077479      2.9989495      50218.233      36.893836      36.893836      36.893836    
  16500000   0.46070587    -7.8930121     -7.2019632      3.030996       50218.233      36.893836      36.893836      36.893836    
  16600000   0.45892019    -7.8926887     -7.2043182      3.0216662      50218.233      36.893836      36.893836      36.893836    
  16700000   0.45854491    -7.8919658     -7.2041582      3.0236183      50218.233      36.893836      36.893836      36.893836    
  16800000   0.45967886    -7.8910463     -7.2015379      3.0452646      50218.233      36.893836      36.893836      36.893836    
  16900000   0.46010814    -7.8923139     -7.2021615      3.0276217      50218.233      36.893836      36.893836      36.893836    
  17000000   0.45943056    -7.8912445     -7.2021084      3.0361032      50218.233      36.893836      36.893836      36.893836    
  17100000   0.4589925     -7.893185      -7.204706       3.0298175      50218.233      36.893836      36.893836      36.893836    
  17200000   0.46132888    -7.896145      -7.2041616      3.001191       50218.233      36.893836      36.893836      36.893836    
  17300000   0.45996499    -7.8933929     -7.2034553      3.0199273      50218.233      36.893836      36.893836      36.893836    
  17400000   0.4600338     -7.893136      -7.2030952      3.0266431      50218.233      36.893836      36.893836      36.893836    
  17500000   0.45823098    -7.8942734     -7.2069367      3.0019121      50218.233      36.893836      36.893836      36.893836    
  17600000   0.46043335    -7.8938931     -7.2032529      3.0100654      50218.233      36.893836      36.893836      36.893836    
  17700000   0.4613609     -7.8954197     -7.2033882      3.0068008      50218.233      36.893836      36.893836      36.893836    
  17800000   0.46029108    -7.8934719     -7.2030451      3.0190619      50218.233      36.893836      36.893836      36.893836    
  17900000   0.46048924    -7.8911471     -7.200423       3.0392995      50218.233      36.893836      36.893836      36.893836    
  18000000   0.46288439    -7.892436      -7.1981193      3.0336133      50218.233      36.893836      36.893836      36.893836    
  18100000   0.46064091    -7.8932921     -7.2023406      3.0216836      50218.233      36.893836      36.893836      36.893836    
  18200000   0.46069078    -7.8953508     -7.2043244      2.9985644      50218.233      36.893836      36.893836      36.893836    
  18300000   0.45893577    -7.8961942     -7.2078003      3.0002916      50218.233      36.893836      36.893836      36.893836    
  18400000   0.46163075    -7.8961046     -7.2036683      3.0033857      50218.233      36.893836      36.893836      36.893836    
  18500000   0.45782035    -7.8983572     -7.2116365      2.9828448      50218.233      36.893836      36.893836      36.893836    
  18600000   0.45822427    -7.8966312     -7.2093046      2.992711       50218.233      36.893836      36.893836      36.893836    
  18700000   0.46030213    -7.8946496     -7.2042062      3.0066996      50218.233      36.893836      36.893836      36.893836    
  18800000   0.46074425    -7.8951751     -7.2040686      3.012816       50218.233      36.893836      36.893836      36.893836    
  18900000   0.46178179    -7.8968238     -7.2041609      3.0008239      50218.233      36.893836      36.893836      36.893836    
  19000000   0.45849529    -7.8949581     -7.207225       3.0043556      50218.233      36.893836      36.893836      36.893836    
  19100000   0.46072709    -7.8952095     -7.2041287      3.0148907      50218.233      36.893836      36.893836      36.893836    
  19200000   0.45841887    -7.8970585     -7.20944        3.0008104      50218.233      36.893836      36.893836      36.893836    
  19300000   0.46001689    -7.8983288     -7.2083133      2.9828478      50218.233      36.893836      36.893836      36.893836    
  19400000   0.45685988    -7.8973894     -7.2121093      2.9969809      50218.233      36.893836      36.893836      36.893836    
  19500000   0.45959174    -7.8960329     -7.2066551      3.0044207      50218.233      36.893836      36.893836      36.893836    
  19600000   0.45863383    -7.8958088     -7.2078678      3.0089835      50218.233      36.893836      36.893836      36.893836    
  19700000   0.46053066    -7.8958163     -7.2050301      3.0067708      50218.233      36.893836      36.893836      36.893836    
  19800000   0.4592719     -7.8995169     -7.2106189      2.9774821      50218.233      36.893836      36.893836      36.893836    
  19900000   0.46165203    -7.8935345     -7.2010663      3.0221316      50218.233      36.893836      36.893836      36.893836    
  20000000   0.46056503    -7.8975166     -7.2066788      2.9998329      50218.233      36.893836      36.893836      36.893836    
  20100000   0.46071437    -7.8968063     -7.2057446      2.9990179      50218.233      36.893836      36.893836      36.893836    
  20200000   0.45960725    -7.8990433     -7.2096423      2.9920505      50218.233      36.893836      36.893836      36.893836    
  20300000   0.46055577    -7.8961614     -7.2053375      2.9983223      50218.233      36.893836      36.893836      36.893836    
  20400000   0.45957433    -7.8978772     -7.2085255      2.9885756      50218.233      36.893836      36.893836      36.893836    
  20500000   0.46144696    -7.8922239     -7.2000633      3.0433879      50218.233      36.893836      36.893836      36.893836    
  20600000   0.45900151    -7.8942314     -7.2057389      3.0243694      50218.233      36.893836      36.893836      36.893836    
  20700000   0.45957185    -7.8909803     -7.2016323      3.0438299      50218.233      36.893836      36.893836      36.893836    
  20800000   0.4603785     -7.8940172     -7.2034593      3.035821       50218.233      36.893836      36.893836      36.893836    
  20900000   0.46229516    -7.8925167     -7.1990839      3.0418517      50218.233      36.893836      36.893836      36.893836    
  21000000   0.4602515     -7.8949098     -7.2045424      3.0230937      50218.233      36.893836      36.893836      36.893836    
  21100000   0.45889435    -7.8938687     -7.205537       3.0178154      50218.233      36.893836      36.893836      36.893836    
  21200000   0.45755284    -7.8933173     -7.2069978      3.0187061      50218.233      36.893836      36.893836      36.893836    
  21300000   0.46033276    -7.8947212     -7.2042319      3.0051283      50218.233      36.893836      36.893836      36.893836    
  21400000   0.46243655    -7.8924522     -7.1988072      3.0372293      50218.233      36.893836      36.893836      36.893836    
  21500000   0.45995977    -7.8925305     -7.2026007      3.0273391      50218.233      36.893836      36.893836      36.893836    
  21600000   0.4581055     -7.8952806     -7.2081321      3.0148943      50218.233      36.893836      36.893836      36.893836    
  21700000   0.45977574    -7.8948182     -7.2051644      3.0105566      50218.233      36.893836      36.893836      36.893836    
  21800000   0.4578801     -7.8955746     -7.2087643      3.0038069      50218.233      36.893836      36.893836      36.893836    
  21900000   0.45990299    -7.895518      -7.2056733      3.0025152      50218.233      36.893836      36.893836      36.893836    
  22000000   0.46156546    -7.8955709     -7.2032326      3.003539       50218.233      36.893836      36.893836      36.893836    
  22100000   0.46056929    -7.8984065     -7.2075624      2.9769052      50218.233      36.893836      36.893836      36.893836    
  22200000   0.46134958    -7.8938119     -7.2017974      3.0321741      50218.233      36.893836      36.893836      36.893836    
  22300000   0.45961837    -7.8910727     -7.2016549      3.0471942      50218.233      36.893836      36.893836      36.893836    
  22400000   0.46049291    -7.8927468     -7.2020173      3.034135       50218.233      36.893836      36.893836      36.893836    
  22500000   0.45991034    -7.8942765     -7.2044208      3.0098822      50218.233      36.893836      36.893836      36.893836    
  22600000   0.46110102    -7.8957706     -7.2041289      3.0204453      50218.233      36.893836      36.893836      36.893836    
  22700000   0.46043107    -7.8894854     -7.1988487      3.0425798      50218.233      36.893836      36.893836      36.893836    
  22800000   0.45989462    -7.8888483     -7.1990162      3.0512337      50218.233      36.893836      36.893836      36.893836    
  22900000   0.46093153    -7.8913747     -7.1999872      3.0420238      50218.233      36.893836      36.893836      36.893836    
  23000000   0.4617733     -7.8923165     -7.1996664      3.0357032      50218.233      36.893836      36.893836      36.893836    
  23100000   0.46193577    -7.8951032     -7.2022094      3.0178582      50218.233      36.893836      36.893836      36.893836    
  23200000   0.46016609    -7.8942683     -7.204029       3.0198452      50218.233      36.893836      36.893836      36.893836    
  23300000   0.45928239    -7.8941711     -7.2052573      3.0263021      50218.233      36.893836      36.893836      36.893836    
  23400000   0.45989851    -7.8939298     -7.2040918      3.0232196      50218.233      36.893836      36.893836      36.893836    
  23500000   0.45918391    -7.8918929     -7.2031269      3.0342818      50218.233      36.893836      36.893836      36.893836    
  23600000   0.46051334    -7.8961426     -7.2053824      3.0117753      50218.233      36.893836      36.893836      36.893836    
  23700000   0.45963561    -7.8961601     -7.2067165      3.011112       50218.233      36.893836      36.893836      36.893836    
  23800000   0.46144671    -7.8933302     -7.20117        3.0190862      50218.233      36.893836      36.893836      36.893836    
  23900000   0.45881242    -7.8959448     -7.207736       3.0017397      50218.233      36.893836      36.893836      36.893836    
  24000000   0.46068773    -7.8962216     -7.2051998      3.0017607      50218.233      36.893836      36.893836      36.893836    
  24100000   0.46021956    -7.8908852     -7.2005657      3.0476187      50218.233      36.893836      36.893836      36.893836    
  24200000   0.45938707    -7.8949349     -7.2058641      3.0036064      50218.233      36.893836      36.893836      36.893836    
  24300000   0.46039719    -7.894812      -7.2042261      3.0111949      50218.233      36.893836      36.893836      36.893836    
  24400000   0.46136112    -7.8959298     -7.203898       3.0149129      50218.233      36.893836      36.893836      36.893836    
  24500000   0.46101137    -7.893096      -7.2015888      3.0202212      50218.233      36.893836      36.893836      36.893836    
  24600000   0.46022993    -7.8969577     -7.2066226      2.9941362      50218.233      36.893836      36.893836      36.893836    
  24700000   0.45906161    -7.8918472     -7.2032646      3.0331919      50218.233      36.893836      36.893836      36.893836    
  24800000   0.46160083    -7.8964135     -7.2040221      3.0086364      50218.233      36.893836      36.893836      36.893836    
  24900000   0.45926732    -7.8960141     -7.2071229      3.0030887      50218.233      36.893836      36.893836      36.893836    
  25000000   0.46092165    -7.8947418     -7.2033692      3.0241319      50218.233      36.893836      36.893836      36.893836    
  25100000   0.46151205    -7.8958686     -7.2036103      3.0124906      50218.233      36.893836      36.893836      36.893836    
  25200000   0.46158779    -7.8969597     -7.2045879      3.0083391      50218.233      36.893836      36.893836      36.893836    
  25300000   0.45916532    -7.8955962     -7.206858       3.0026215      50218.233      36.893836      36.893836      36.893836    
  25400000   0.45979405    -7.8976825     -7.2080013      2.9883149      50218.233      36.893836      36.893836      36.893836    
  25500000   0.46071519    -7.8954614     -7.2043984      3.0174051      50218.233      36.893836      36.893836      36.893836    
  25600000   0.45884951    -7.8950316     -7.2067672      3.0138041      50218.233      36.893836      36.893836      36.893836    
  25700000   0.46005689    -7.895719      -7.2056435      3.0053922      50218.233      36.893836      36.893836      36.893836    
  25800000   0.46017603    -7.893977      -7.2037227      3.0251337      50218.233      36.893836      36.893836      36.893836    
  25900000   0.45890435    -7.8973246     -7.2089779      2.9941043      50218.233      36.893836      36.893836      36.893836    
  26000000   0.459892      -7.8964197     -7.2065915      3.0025343      50218.233      36.893836      36.893836      36.893836    
  26100000   0.46023872    -7.8923759     -7.2020276      3.0466185      50218.233      36.893836      36.893836      36.893836    
  26200000   0.4609398     -7.8971959     -7.2057961      2.994126       50218.233      36.893836      36.893836      36.893836    
  26300000   0.4586253     -7.8929034     -7.2049752      3.0275986      50218.233      36.893836      36.893836      36.893836    
  26400000   0.45957522    -7.896299      -7.206946       2.9961055      50218.233      36.893836      36.893836      36.893836    
  26500000   0.45995248    -7.8940565     -7.2041376      3.0135263      50218.233      36.893836      36.893836      36.893836    
  26600000   0.45995842    -7.8981946     -7.2082667      3.0071526      50218.233      36.893836      36.893836      36.893836    
  26700000   0.45827914    -7.8939956     -7.2065867      3.0142975      50218.233      36.893836      36.893836      36.893836    
  26800000   0.45841308    -7.8969175     -7.2093077      2.9996592      50218.233      36.893836      36.893836      36.893836    
  26900000   0.46126224    -7.8907477     -7.1988642      3.0488067      50218.233      36.893836      36.893836      36.893836    
  27000000   0.46036418    -7.8979553     -7.2074188      2.9920416      50218.233      36.893836      36.893836      36.893836    
  27100000   0.46041855    -7.8932582     -7.2026402      3.0097603      50218.233      36.893836      36.893836      36.893836    
  27200000   0.45831714    -7.8930406     -7.2055747      3.0232905      50218.233      36.893836      36.893836      36.893836    
  27300000   0.46082435    -7.8967077     -7.205481       3.0123631      50218.233      36.893836      36.893836      36.893836    
  27400000   0.46027154    -7.892201      -7.2018035      3.0486989      50218.233      36.893836      36.893836      36.893836    
  27500000   0.45943211    -7.8959718     -7.2068335      2.9977172      50218.233      36.893836      36.893836      36.893836    
  27600000   0.45968383    -7.8910541     -7.2015382      3.0387651      50218.233      36.893836      36.893836      36.893836    
  27700000   0.46139649    -7.8916975     -7.1996126      3.0444603      50218.233      36.893836      36.893836      36.893836    
  27800000   0.46073004    -7.8938124     -7.2027272      3.0169024      50218.233      36.893836      36.893836      36.893836    
  27900000   0.45856421    -7.8989474     -7.2111109      2.9795039      50218.233      36.893836      36.893836      36.893836    
  28000000   0.46067077    -7.8940302     -7.2030339      3.0231326      50218.233      36.893836      36.893836      36.893836    
  28100000   0.46112196    -7.8962422     -7.2045691      3.0036835      50218.233      36.893836      36.893836      36.893836    
  28200000   0.46083776    -7.8935831     -7.2023363      3.0181072      50218.233      36.893836      36.893836      36.893836    
  28300000   0.45829323    -7.8956207     -7.2081906      3.0100005      50218.233      36.893836      36.893836      36.893836    
  28400000   0.46081583    -7.8980368     -7.2068229      2.9869978      50218.233      36.893836      36.893836      36.893836    
  28500000   0.45899577    -7.8973795     -7.2088957      2.9871839      50218.233      36.893836      36.893836      36.893836    
  28600000   0.46305941    -7.8974476     -7.2028683      2.9972783      50218.233      36.893836      36.893836      36.893836    
  28700000   0.4585597     -7.893641      -7.2058112      3.0173954      50218.233      36.893836      36.893836      36.893836    
  28800000   0.46323454    -7.8951247     -7.2002828      3.0198757      50218.233      36.893836      36.893836      36.893836    
  28900000   0.45879041    -7.896338      -7.2081622      3.0060135      50218.233      36.893836      36.893836      36.893836    
  29000000   0.45892316    -7.8945641     -7.2061891      3.0132499      50218.233      36.893836      36.893836      36.893836    
  29100000   0.46233505    -7.8966797     -7.203187       2.996748       50218.233      36.893836      36.893836      36.893836    
  29200000   0.46123097    -7.8942568     -7.2024202      3.0227953      50218.233      36.893836      36.893836      36.893836    
  29300000   0.46124023    -7.8939714     -7.2021209      3.0274403      50218.233      36.893836      36.893836      36.893836    
  29400000   0.46220842    -7.8971095     -7.2038068      2.9961865      50218.233      36.893836      36.893836      36.893836    
  29500000   0.45780499    -7.8963137     -7.2096159      2.9906681      50218.233      36.893836      36.893836      36.893836    
  29600000   0.46278841    -7.8948552     -7.2006825      3.0123075      50218.233      36.893836      36.893836      36.893836    
  29700000   0.45825079    -7.8981486     -7.2107822      2.9876692      50218.233      36.893836      36.893836      36.893836    
  29800000   0.45919434    -7.897496      -7.2087143      2.9906021      50218.233      36.893836      36.893836      36.893836    
  29900000   0.45922324    -7.892729      -7.2039039      3.0347205      50218.233      36.893836      36.893836      36.893836    
  30000000   0.45996088    -7.8936625     -7.203731       3.0087786      50218.233      36.893836      36.893836      36.893836    
  30100000   0.45889242    -7.8940457     -7.2057169      3.0095093      50218.233      36.893836      36.893836      36.893836    
  30200000   0.4580284     -7.8940624     -7.2070296      3.0132042      50218.233      36.893836      36.893836      36.893836    
  30300000   0.4587609     -7.8962507     -7.2081192      2.9999138      50218.233      36.893836      36.893836      36.893836    
  30400000   0.45951287    -7.8904263     -7.2011668      3.0427257      50218.233      36.893836      36.893836      36.893836    
  30500000   0.46009061    -7.8937805     -7.2036544      3.0142249      50218.233      36.893836      36.893836      36.893836    
  30600000   0.45905878    -7.8947255     -7.2061471      3.0159931      50218.233      36.893836      36.893836      36.893836    
  30700000   0.45924852    -7.8916754     -7.2028124      3.0278154      50218.233      36.893836      36.893836      36.893836    
  30800000   0.45928242    -7.8946312     -7.2057173      3.0176292      50218.233      36.893836      36.893836      36.893836    
  30900000   0.45889361    -7.8939403     -7.2056097      3.0260507      50218.233      36.893836      36.893836      36.893836    
  31000000   0.46026475    -7.8944126     -7.2040253      3.01918        50218.233      36.893836      36.893836      36.893836    
  31100000   0.46022182    -7.895934      -7.2056111      2.995107       50218.233      36.893836      36.893836      36.893836    
  31200000   0.46064136    -7.8936907     -7.2027385      3.0277224      50218.233      36.893836      36.893836      36.893836    
  31300000   0.46046806    -7.8967726     -7.2060804      2.9912186      50218.233      36.893836      36.893836      36.893836    
  31400000   0.46153952    -7.8918242     -7.1995248      3.0248323      50218.233      36.893836      36.893836      36.893836    
  31500000   0.46069293    -7.8956253     -7.2045958      3.0083768      50218.233      36.893836      36.893836      36.893836    
  31600000   0.46028201    -7.8966862     -7.206273       2.9993159      50218.233      36.893836      36.893836      36.893836    
  31700000   0.46091923    -7.8934299     -7.2020609      3.0325099      50218.233      36.893836      36.893836      36.893836    
  31800000   0.45836869    -7.8905839     -7.2030407      3.046713       50218.233      36.893836      36.893836      36.893836    
  31900000   0.45543738    -7.8959263     -7.2127799      2.9901012      50218.233      36.893836      36.893836      36.893836    
  32000000   0.45939412    -7.8939747     -7.2048933      3.0115117      50218.233      36.893836      36.893836      36.893836    
  32100000   0.4599614     -7.8932558     -7.2033236      3.020306       50218.233      36.893836      36.893836      36.893836    
  32200000   0.45944846    -7.8954016     -7.2062387      3.0150232      50218.233      36.893836      36.893836      36.893836    
  32300000   0.45772014    -7.8922449     -7.2056744      3.0256375      50218.233      36.893836      36.893836      36.893836    
  32400000   0.46188274    -7.8963586     -7.2035444      2.9981821      50218.233      36.893836      36.893836      36.893836    
  32500000   0.4613316     -7.8971123     -7.2051247      3.0012451      50218.233      36.893836      36.893836      36.893836    
  32600000   0.45819054    -7.8925988     -7.2053228      3.032428       50218.233      36.893836      36.893836      36.893836    
  32700000   0.46215995    -7.8970031     -7.2037731      2.9909563      50218.233      36.893836      36.893836      36.893836    
  32800000   0.46054133    -7.8935117     -7.2027095      3.0201928      50218.233      36.893836      36.893836      36.893836    
  32900000   0.46070202    -7.8920085     -7.2009653      3.0366754      50218.233      36.893836      36.893836      36.893836    
  33000000   0.46172354    -7.8959349     -7.2033595      3.0095475      50218.233      36.893836      36.893836      36.893836    
  33100000   0.46249595    -7.8926538     -7.1989198      3.0265301      50218.233      36.893836      36.893836      36.893836    
  33200000   0.46004886    -7.8931171     -7.2030536      3.0381552      50218.233      36.893836      36.893836      36.893836    
  33300000   0.45997535    -7.8925292     -7.202576       3.0246835      50218.233      36.893836      36.893836      36.893836    
  33400000   0.46005501    -7.8934971     -7.2034245      3.0258093      50218.233      36.893836      36.893836      36.893836    
  33500000   0.46310201    -7.8920649     -7.1974217      3.0307814      50218.233      36.893836      36.893836      36.893836    
  33600000   0.45867864    -7.8926481     -7.2046399      3.0273117      50218.233      36.893836      36.893836      36.893836    
  33700000   0.45716707    -7.8966641     -7.2109233      2.9956579      50218.233      36.893836      36.893836      36.893836    
  33800000   0.45957196    -7.8946649     -7.2053167      3.0069869      50218.233      36.893836      36.893836      36.893836    
  33900000   0.45892593    -7.8961351     -7.207756       2.9945009      50218.233      36.893836      36.893836      36.893836    
  34000000   0.46137978    -7.8918607     -7.1998009      3.0418112      50218.233      36.893836      36.893836      36.893836    
  34100000   0.46036603    -7.8963741     -7.2058349      2.9962552      50218.233      36.893836      36.893836      36.893836    
  34200000   0.45863274    -7.8933674     -7.205428       3.0242186      50218.233      36.893836      36.893836      36.893836    
  34300000   0.46091287    -7.8967867     -7.2054273      2.991871       50218.233      36.893836      36.893836      36.893836    
  34400000   0.46228933    -7.89266       -7.1992358      3.0357009      50218.233      36.893836      36.893836      36.893836    
  34500000   0.4600866     -7.8950884     -7.2049683      3.0124752      50218.233      36.893836      36.893836      36.893836    
  34600000   0.45980123    -7.8957459     -7.2060538      3.0122448      50218.233      36.893836      36.893836      36.893836    
  34700000   0.46107513    -7.8971469     -7.205544       2.9973519      50218.233      36.893836      36.893836      36.893836    
  34800000   0.45922202    -7.8959652     -7.207142       2.9851336      50218.233      36.893836      36.893836      36.893836    
  34900000   0.46085286    -7.8959533     -7.2046839      3.0126131      50218.233      36.893836      36.893836      36.893836    
  35000000   0.45972421    -7.8967278     -7.2071513      2.9942897      50218.233      36.893836      36.893836      36.893836    
  35100000   0.46215333    -7.8928932     -7.199673       3.018765       50218.233      36.893836      36.893836      36.893836    
  35200000   0.45885285    -7.8974173     -7.2091478      2.9898605      50218.233      36.893836      36.893836      36.893836    
  35300000   0.46126299    -7.8980952     -7.2062105      2.9861494      50218.233      36.893836      36.893836      36.893836    
  35400000   0.46071045    -7.8949614     -7.2039055      3.0133368      50218.233      36.893836      36.893836      36.893836    
  35500000   0.45984432    -7.9016043     -7.2118476      2.9616831      50218.233      36.893836      36.893836      36.893836    
  35600000   0.46026528    -7.8907861     -7.200398       3.0470433      50218.233      36.893836      36.893836      36.893836    
  35700000   0.46058484    -7.8959726     -7.2051051      3.0025063      50218.233      36.893836      36.893836      36.893836    
  35800000   0.46134214    -7.8958185     -7.2038151      3.0049541      50218.233      36.893836      36.893836      36.893836    
  35900000   0.46137986    -7.8937223     -7.2016624      3.0230485      50218.233      36.893836      36.893836      36.893836    
  36000000   0.45786611    -7.8989028     -7.2121134      2.97419        50218.233      36.893836      36.893836      36.893836    
  36100000   0.46317561    -7.8935714     -7.1988178      3.0294398      50218.233      36.893836      36.893836      36.893836    
  36200000   0.45840496    -7.8929891     -7.2053915      3.0152642      50218.233      36.893836      36.893836      36.893836    
  36300000   0.46057683    -7.8963905     -7.2055351      3.0023416      50218.233      36.893836      36.893836      36.893836    
  36400000   0.45787839    -7.8896098     -7.2028019      3.041848       50218.233      36.893836      36.893836      36.893836    
  36500000   0.46098766    -7.8973578     -7.2058862      3.0014913      50218.233      36.893836      36.893836      36.893836    
  36600000   0.45861555    -7.8947846     -7.2068711      3.0114912      50218.233      36.893836      36.893836      36.893836    
  36700000   0.45936941    -7.8910224     -7.2019781      3.0447992      50218.233      36.893836      36.893836      36.893836    
  36800000   0.4607027     -7.8952676     -7.2042233      3.0069569      50218.233      36.893836      36.893836      36.893836    
  36900000   0.45782209    -7.8897728     -7.2030495      3.0489436      50218.233      36.893836      36.893836      36.893836    
  37000000   0.45862165    -7.8950203     -7.2070976      3.0088963      50218.233      36.893836      36.893836      36.893836    
  37100000   0.45772201    -7.8887026     -7.2021293      3.055452       50218.233      36.893836      36.893836      36.893836    
  37200000   0.46112743    -7.8932405     -7.2015592      3.0378745      50218.233      36.893836      36.893836      36.893836    
  37300000   0.46148138    -7.8946567     -7.2024445      3.010877       50218.233      36.893836      36.893836      36.893836    
  37400000   0.45691878    -7.8934204     -7.2080519      3.0115907      50218.233      36.893836      36.893836      36.893836    
  37500000   0.45963733    -7.8926866     -7.2032404      3.0310748      50218.233      36.893836      36.893836      36.893836    
  37600000   0.46001115    -7.8915765     -7.2015696      3.0324512      50218.233      36.893836      36.893836      36.893836    
  37700000   0.46350215    -7.8915083     -7.196265       3.0423645      50218.233      36.893836      36.893836      36.893836    
  37800000   0.45637699    -7.8917924     -7.2072367      3.0370299      50218.233      36.893836      36.893836      36.893836    
  37900000   0.45913521    -7.8927974     -7.2041043      3.0273528      50218.233      36.893836      36.893836      36.893836    
  38000000   0.45852647    -7.8932744     -7.2054945      3.0281912      50218.233      36.893836      36.893836      36.893836    
  38100000   0.45958396    -7.8930642     -7.2036981      3.0195769      50218.233      36.893836      36.893836      36.893836    
  38200000   0.46032931    -7.8928551     -7.202371       3.0224141      50218.233      36.893836      36.893836      36.893836    
  38300000   0.45831629    -7.8918443     -7.2043796      3.0337818      50218.233      36.893836      36.893836      36.893836    
  38400000   0.46037652    -7.8941337     -7.2035788      3.0142144      50218.233      36.893836      36.893836      36.893836    
  38500000   0.46020673    -7.8912174     -7.2009171      3.0294246      50218.233      36.893836      36.893836      36.893836    
  38600000   0.46044458    -7.8950347     -7.2043777      3.0138414      50218.233      36.893836      36.893836      36.893836    
  38700000   0.45786333    -7.8930507     -7.2062655      3.0271043      50218.233      36.893836      36.893836      36.893836    
  38800000   0.46176983    -7.8994564     -7.2068115      2.9819782      50218.233      36.893836      36.893836      36.893836    
  38900000   0.4580836     -7.8955967     -7.208481       3.0106182      50218.233      36.893836      36.893836      36.893836    
  39000000   0.46152178    -7.8921759     -7.1999031      3.0337892      50218.233      36.893836      36.893836      36.893836    
  39100000   0.45783524    -7.8970281     -7.210285       2.9924425      50218.233      36.893836      36.893836      36.893836    
  39200000   0.45917794    -7.8974861     -7.208729       2.9982503      50218.233      36.893836      36.893836      36.893836    
  39300000   0.4607399     -7.896136      -7.205036       3.0128216      50218.233      36.893836      36.893836      36.893836    
  39400000   0.45739848    -7.8929808     -7.2068928      3.0266094      50218.233      36.893836      36.893836      36.893836    
  39500000   0.46083683    -7.8966265     -7.2053811      3.0073038      50218.233      36.893836      36.893836      36.893836    
  39600000   0.46028797    -7.8951889     -7.2047668      3.0214811      50218.233      36.893836      36.893836      36.893836    
  39700000   0.4611391     -7.8973151     -7.2056163      3.0088809      50218.233      36.893836      36.893836      36.893836    
  39800000   0.46006023    -7.8939653     -7.2038848      3.0206877      50218.233      36.893836      36.893836      36.893836    
  39900000   0.46011146    -7.8969253     -7.2067679      3.0009926      50218.233      36.893836      36.893836      36.893836    
  40000000   0.45969084    -7.8918074     -7.202281       3.0289503      50218.233      36.893836      36.893836      36.893836    
  40100000   0.45939337    -7.8898112     -7.2007309      3.0527083      50218.233      36.893836      36.893836      36.893836    
  40200000   0.4627822     -7.892527      -7.1983636      3.0361048      50218.233      36.893836      36.893836      36.893836    
  40300000   0.45955929    -7.8952689     -7.2059398      3.0089827      50218.233      36.893836      36.893836      36.893836    
  40400000   0.46002555    -7.8971673     -7.2071388      2.9986809      50218.233      36.893836      36.893836      36.893836    
  40500000   0.46436518    -7.8931167     -7.1965789      3.027644       50218.233      36.893836      36.893836      36.893836    
  40600000   0.46000705    -7.8951262     -7.2051255      3.007249       50218.233      36.893836      36.893836      36.893836    
  40700000   0.45922901    -7.8960609     -7.2072271      3.0035574      50218.233      36.893836      36.893836      36.893836    
  40800000   0.45542399    -7.8906827     -7.2075564      3.0411684      50218.233      36.893836      36.893836      36.893836    
  40900000   0.46106007    -7.8943033     -7.2027231      3.0162773      50218.233      36.893836      36.893836      36.893836    
  41000000   0.46019199    -7.8963056     -7.2060274      3.0003645      50218.233      36.893836      36.893836      36.893836    
  41100000   0.46291048    -7.8925291     -7.1981732      3.0402865      50218.233      36.893836      36.893836      36.893836    
  41200000   0.45956454    -7.8956199     -7.2062829      3.009156       50218.233      36.893836      36.893836      36.893836    
  41300000   0.45935382    -7.8926572     -7.2036363      3.0317264      50218.233      36.893836      36.893836      36.893836    
  41400000   0.46019378    -7.8969332     -7.2066523      2.9943807      50218.233      36.893836      36.893836      36.893836    
  41500000   0.46393666    -7.8942308     -7.1983357      3.018281       50218.233      36.893836      36.893836      36.893836    
  41600000   0.45985925    -7.8940839     -7.2043049      3.0163816      50218.233      36.893836      36.893836      36.893836    
  41700000   0.46131939    -7.8973173     -7.205348       3.0039696      50218.233      36.893836      36.893836      36.893836    
  41800000   0.45992046    -7.8942678     -7.204397       3.0256612      50218.233      36.893836      36.893836      36.893836    
  41900000   0.45870544    -7.8953907     -7.2073423      3.0073909      50218.233      36.893836      36.893836      36.893836    
  42000000   0.45977062    -7.8916021     -7.201956       3.0414549      50218.233      36.893836      36.893836      36.893836    
  42100000   0.4590574     -7.8938095     -7.2052332      3.0101033      50218.233      36.893836      36.893836      36.893836    
  42200000   0.45999944    -7.8937398     -7.2037504      3.0175972      50218.233      36.893836      36.893836      36.893836    
  42300000   0.46049854    -7.8911129     -7.2003749      3.0485226      50218.233      36.893836      36.893836      36.893836    
  42400000   0.46227473    -7.8977879     -7.2043857      2.9903894      50218.233      36.893836      36.893836      36.893836    
  42500000   0.46041152    -7.8916307     -7.2010232      3.0417955      50218.233      36.893836      36.893836      36.893836    
  42600000   0.45928338    -7.8943656     -7.2054503      3.0208063      50218.233      36.893836      36.893836      36.893836    
  42700000   0.46150702    -7.8986915     -7.2064409      2.9853279      50218.233      36.893836      36.893836      36.893836    
  42800000   0.46036416    -7.8949835     -7.2044471      3.0135941      50218.233      36.893836      36.893836      36.893836    
  42900000   0.46047091    -7.8930023     -7.2023057      3.0378723      50218.233      36.893836      36.893836      36.893836    
  43000000   0.46197254    -7.8935777     -7.2006287      3.0181362      50218.233      36.893836      36.893836      36.893836    
  43100000   0.46076749    -7.8975049     -7.2063635      2.9976634      50218.233      36.893836      36.893836      36.893836    
  43200000   0.45905716    -7.8945871     -7.2060112      3.0169328      50218.233      36.893836      36.893836      36.893836    
  43300000   0.45996874    -7.8970898     -7.2071465      3.0019054      50218.233      36.893836      36.893836      36.893836    
  43400000   0.4623388     -7.8935693     -7.200071       3.0324307      50218.233      36.893836      36.893836      36.893836    
  43500000   0.46058357    -7.895427      -7.2045615      3.0126085      50218.233      36.893836      36.893836      36.893836    
  43600000   0.46066876    -7.8965146     -7.2055213      3.00416        50218.233      36.893836      36.893836      36.893836    
  43700000   0.46086451    -7.8961709     -7.2048839      2.9988011      50218.233      36.893836      36.893836      36.893836    
  43800000   0.45743775    -7.8983802     -7.2122333      2.9816524      50218.233      36.893836      36.893836      36.893836    
  43900000   0.45848824    -7.8964285     -7.2087059      2.9965063      50218.233      36.893836      36.893836      36.893836    
  44000000   0.46205635    -7.896386      -7.2033113      3.0090397      50218.233      36.893836      36.893836      36.893836    
  44100000   0.45910734    -7.8978598     -7.2092086      2.9839061      50218.233      36.893836      36.893836      36.893836    
  44200000   0.46160495    -7.8977074     -7.2053098      2.9984332      50218.233      36.893836      36.893836      36.893836    
  44300000   0.46003801    -7.8981851     -7.2081379      2.9917671      50218.233      36.893836      36.893836      36.893836    
  44400000   0.45888944    -7.8913373     -7.203013       3.0369284      50218.233      36.893836      36.893836      36.893836    
  44500000   0.46123625    -7.8928479     -7.2010034      3.0286634      50218.233      36.893836      36.893836      36.893836    
  44600000   0.45895162    -7.8997842     -7.2113665      2.9739541      50218.233      36.893836      36.893836      36.893836    
  44700000   0.45813273    -7.8970303     -7.209841       3.0014944      50218.233      36.893836      36.893836      36.893836    
  44800000   0.45680477    -7.8940551     -7.2088577      3.0128022      50218.233      36.893836      36.893836      36.893836    
  44900000   0.46040845    -7.8965688     -7.2059659      2.9966211      50218.233      36.893836      36.893836      36.893836    
  45000000   0.45767746    -7.8946607     -7.2081542      3.0112198      50218.233      36.893836      36.893836      36.893836    
  45100000   0.45914843    -7.8981682     -7.2094554      2.9828304      50218.233      36.893836      36.893836      36.893836    
  45200000   0.46048311    -7.8979189     -7.2072041      2.9821284      50218.233      36.893836      36.893836      36.893836    
  45300000   0.4610063     -7.8938671     -7.2023675      3.0160299      50218.233      36.893836      36.893836      36.893836    
  45400000   0.46004651    -7.8970266     -7.2069667      2.9902551      50218.233      36.893836      36.893836      36.893836    
  45500000   0.46054485    -7.9007554     -7.209948       2.9684277      50218.233      36.893836      36.893836      36.893836    
  45600000   0.45924574    -7.8958399     -7.206981       3.0046407      50218.233      36.893836      36.893836      36.893836    
  45700000   0.45909821    -7.8992214     -7.2105839      2.9787671      50218.233      36.893836      36.893836      36.893836    
  45800000   0.46073673    -7.8966432     -7.2055479      2.9986144      50218.233      36.893836      36.893836      36.893836    
  45900000   0.4580247     -7.8976474     -7.2106201      2.9786177      50218.233      36.893836      36.893836      36.893836    
  46000000   0.46171777    -7.8977801     -7.2052133      2.9847687      50218.233      36.893836      36.893836      36.893836    
  46100000   0.45950531    -7.8976979     -7.2084498      2.9856057      50218.233      36.893836      36.893836      36.893836    
  46200000   0.45897598    -7.8942181     -7.2057639      3.0097758      50218.233      36.893836      36.893836      36.893836    
  46300000   0.4612876     -7.8972383     -7.2053167      2.996179       50218.233      36.893836      36.893836      36.893836    
  46400000   0.45988408    -7.8973674     -7.2075511      2.995932       50218.233      36.893836      36.893836      36.893836    
  46500000   0.46011013    -7.8973965     -7.2072411      2.9958033      50218.233      36.893836      36.893836      36.893836    
  46600000   0.4606661     -7.8982744     -7.207285       2.9863394      50218.233      36.893836      36.893836      36.893836    
  46700000   0.46112974    -7.8941164     -7.2024316      3.0256287      50218.233      36.893836      36.893836      36.893836    
  46800000   0.45844106    -7.8946138     -7.206962       3.0175513      50218.233      36.893836      36.893836      36.893836    
  46900000   0.45813614    -7.8930478     -7.2058533      3.0113215      50218.233      36.893836      36.893836      36.893836    
  47000000   0.45769007    -7.8958903     -7.209365       2.99252        50218.233      36.893836      36.893836      36.893836    
  47100000   0.45788785    -7.8967122     -7.2098902      2.9824396      50218.233      36.893836      36.893836      36.893836    
  47200000   0.45897731    -7.8959519     -7.2074957      2.9940091      50218.233      36.893836      36.893836      36.893836    
  47300000   0.45830569    -7.8961017     -7.208653       3.0020606      50218.233      36.893836      36.893836      36.893836    
  47400000   0.45689585    -7.8948355     -7.2095015      2.9941712      50218.233      36.893836      36.893836      36.893836    
  47500000   0.45941938    -7.8951483     -7.206029       3.0062496      50218.233      36.893836      36.893836      36.893836    
  47600000   0.46008636    -7.8944372     -7.2043175      3.0067155      50218.233      36.893836      36.893836      36.893836    
  47700000   0.46034865    -7.8962039     -7.2056908      2.9950823      50218.233      36.893836      36.893836      36.893836    
  47800000   0.46086614    -7.8926252     -7.2013358      3.0317906      50218.233      36.893836      36.893836      36.893836    
  47900000   0.45862906    -7.8984558     -7.210522       2.9787344      50218.233      36.893836      36.893836      36.893836    
  48000000   0.45763462    -7.8947029     -7.2082607      3.0127801      50218.233      36.893836      36.893836      36.893836    
  48100000   0.46221123    -7.8961335     -7.2028265      3.0026018      50218.233      36.893836      36.893836      36.893836    
  48200000   0.46085369    -7.893663      -7.2023923      3.0371507      50218.233      36.893836      36.893836      36.893836    
  48300000   0.45848384    -7.8947545     -7.2070385      3.0039466      50218.233      36.893836      36.893836      36.893836    
  48400000   0.45967534    -7.8947128     -7.2052095      3.0236467      50218.233      36.893836      36.893836      36.893836    
  48500000   0.46049616    -7.8952808     -7.2045464      3.0194537      50218.233      36.893836      36.893836      36.893836    
  48600000   0.45866527    -7.8960598     -7.2080716      3.0189972      50218.233      36.893836      36.893836      36.893836    
  48700000   0.45851556    -7.898744      -7.2109804      2.9886741      50218.233      36.893836      36.893836      36.893836    
  48800000   0.46028388    -7.8948768     -7.2044608      3.0132774      50218.233      36.893836      36.893836      36.893836    
  48900000   0.45830473    -7.8968837     -7.2094364      3.0014541      50218.233      36.893836      36.893836      36.893836    
  49000000   0.45952411    -7.9036468     -7.2143704      2.9503148      50218.233      36.893836      36.893836      36.893836    
  49100000   0.46099449    -7.8983921     -7.2069102      2.9915302      50218.233      36.893836      36.893836      36.893836    
  49200000   0.46125178    -7.8965656     -7.2046978      3.0075023      50218.233      36.893836      36.893836      36.893836    
  49300000   0.45954163    -7.8938109     -7.2045083      3.0308683      50218.233      36.893836      36.893836      36.893836    
  49400000   0.46096911    -7.8986382     -7.2071944      2.9817947      50218.233      36.893836      36.893836      36.893836    
  49500000   0.4606847     -7.8920005     -7.2009833      3.0369264      50218.233      36.893836      36.893836      36.893836    
  49600000   0.45901719    -7.8993821     -7.2108661      2.9855073      50218.233      36.893836      36.893836      36.893836    
  49700000   0.45920331    -7.8981201     -7.2093249      2.9938036      50218.233      36.893836      36.893836      36.893836    
  49800000   0.45876035    -7.8984096     -7.2102788      2.986071       50218.233      36.893836      36.893836      36.893836    
  49900000   0.45795813    -7.8968329     -7.2099054      2.9973848      50218.233      36.893836      36.893836      36.893836    
  50000000   0.46115486    -7.8979135     -7.2061911      2.9954614      50218.233      36.893836      36.893836      36.893836    
Loop time of 78668.6 on 5 procs for 50000000 steps with 70304 atoms

Performance: 549138.920 tau/day, 635.577 timesteps/s, 44.684 Matom-step/s
94.7% CPU use with 5 MPI tasks x 1 OpenMP threads

MPI task timing breakdown:
Section |  min time  |  avg time  |  max time  |%varavg| %total
---------------------------------------------------------------
Pair    | 27624      | 30853      | 33519      |1196.0 | 39.22
Neigh   | 248.95     | 257.14     | 262.64     |  38.3 |  0.33
Comm    | 11848      | 12091      | 12228      | 119.6 | 15.37
Output  | 0.090355   | 0.09411    | 0.10129    |   1.2 |  0.00
Modify  | 29104      | 31503      | 34777      |1137.1 | 40.05
Other   |            | 3964       |            |       |  5.04

Nlocal:        14060.8 ave       14094 max       14018 min
Histogram: 1 0 0 0 1 1 0 0 1 1
Nghost:        18752.8 ave       18799 max       18720 min
Histogram: 2 0 0 1 0 0 1 0 0 1
Neighs:              0 ave           0 max           0 min
Histogram: 5 0 0 0 0 0 0 0 0 0

Total # of neighbors = 0
Ave neighs/atom = 0
Neighbor list builds = 10066281
Dangerous builds = 0
clear
OMP_NUM_THREADS environment is not set. Defaulting to 1 thread. (src/comm.cpp:98)
  using 1 OpenMP thread(s) per MPI task
package gpu 0
jump dms440.lmp

variable T equal 440
# T = 1000* (temp in LJ unit)
variable f equal 100000
log log.${T}
log log.440
