variable TLJ equal (${T}/1000)
variable TLJ equal (410/1000)
variable NCyle equal 5
variable iStep equal (${f})
variable iStep equal (100000)
variable dumpStep equal (${f}*100)
variable dumpStep equal (100000*100)
variable runStep equal (${f}*100*${NCyle})
variable runStep equal (100000*100*${NCyle})
variable runStep equal (100000*100*5)

units       lj
atom_style  atomic
dimension 3
boundary     p p p
pair_style  lj/cut 2.5
read_data  ../data/T${T}.dat
read_data  ../data/T410.dat
Reading data file ...
  orthogonal box = (0.97250269 0.97250269 0.97250269) to (37.866338 37.866338 37.866338)
  1 by 1 by 5 MPI processor grid
  reading atoms ...
  70304 atoms
  reading velocities ...
  70304 velocities
  read_data CPU = 0.209 seconds
change_box all triclinic
Changing box ...
  triclinic box = (0.97250269 0.97250269 0.97250269) to (37.866338 37.866338 37.866338) with tilt (0 0 0)
mass 1 1
mass 2 1
pair_modify shift yes
pair_coeff  1 1 1 1
pair_coeff  1 2 1.5 0.8
pair_coeff  2 2 0.5 0.88


timestep 0.01
thermo ${iStep}
thermo 100000
reset_timestep 0
thermo_style custom step temp pe etotal press vol lx ly lz
fix             1 all nvt temp ${TLJ}  ${TLJ}  0.1
fix             1 all nvt temp 0.41  ${TLJ}  0.1
fix             1 all nvt temp 0.41  0.41  0.1
thermo_modify flush yes

fix dsf all deform 1 xy  wiggle 0.5  ${f}   units box
fix dsf all deform 1 xy  wiggle 0.5  100000   units box
fix ps1 all ave/time 1 1 ${iStep} c_thermo_press[1] c_thermo_press[2]  c_thermo_press[3] c_thermo_press[4]  c_thermo_press[5] c_thermo_press[6]  file  stress.${T}
fix ps1 all ave/time 1 1 100000 c_thermo_press[1] c_thermo_press[2]  c_thermo_press[3] c_thermo_press[4]  c_thermo_press[5] c_thermo_press[6]  file  stress.${T}
fix ps1 all ave/time 1 1 100000 c_thermo_press[1] c_thermo_press[2]  c_thermo_press[3] c_thermo_press[4]  c_thermo_press[5] c_thermo_press[6]  file  stress.410
dump            1 all custom ${dumpStep} dump.${T} id type x y z
dump            1 all custom 10000000 dump.${T} id type x y z
dump            1 all custom 10000000 dump.410 id type x y z
dump_modify 1 sort id
fix nodrift all momentum 1  linear 1 1 1
fix com_seed all recenter INIT INIT INIT shift all
run ${runStep}
run 50000000
Generated 0 of 1 mixed pair_coeff terms from geometric mixing rule
Per MPI rank memory allocation (min/avg/max) = 8.916 | 8.919 | 8.923 Mbytes
   Step          Temp          PotEng         TotEng         Press          Volume           Lx             Ly             Lz      
         0   0.4081531     -7.9800185     -7.3677976      2.308136       50218.233      36.893836      36.893836      36.893836    
    100000   0.41115505    -7.9727154     -7.3559916      2.3684019      50218.233      36.893836      36.893836      36.893836    
    200000   0.40997427    -7.9724126     -7.35746        2.3548118      50218.233      36.893836      36.893836      36.893836    
    300000   0.40983424    -7.9730445     -7.3583018      2.359165       50218.233      36.893836      36.893836      36.893836    
    400000   0.41115786    -7.9763714     -7.3596434      2.3349996      50218.233      36.893836      36.893836      36.893836    
    500000   0.41119416    -7.9709865     -7.3542041      2.3746794      50218.233      36.893836      36.893836      36.893836    
    600000   0.41156444    -7.9730371     -7.3556993      2.3586549      50218.233      36.893836      36.893836      36.893836    
    700000   0.40983043    -7.9725203     -7.3577834      2.3569966      50218.233      36.893836      36.893836      36.893836    
    800000   0.40850045    -7.9746583     -7.3619164      2.3436753      50218.233      36.893836      36.893836      36.893836    
    900000   0.40892281    -7.9734767     -7.3601012      2.3449326      50218.233      36.893836      36.893836      36.893836    
   1000000   0.40874151    -7.9722072     -7.3591037      2.3646538      50218.233      36.893836      36.893836      36.893836    
   1100000   0.40994673    -7.9702604     -7.3553491      2.3788235      50218.233      36.893836      36.893836      36.893836    
   1200000   0.40938725    -7.9765388     -7.3624667      2.3332211      50218.233      36.893836      36.893836      36.893836    
   1300000   0.41012949    -7.9730058     -7.3578203      2.3627989      50218.233      36.893836      36.893836      36.893836    
   1400000   0.40958886    -7.9701368     -7.3557622      2.3849941      50218.233      36.893836      36.893836      36.893836    
   1500000   0.41009262    -7.9740361     -7.3589059      2.3488162      50218.233      36.893836      36.893836      36.893836    
   1600000   0.40969886    -7.9716035     -7.3570639      2.3652613      50218.233      36.893836      36.893836      36.893836    
   1700000   0.41101325    -7.9744055     -7.3578944      2.3481153      50218.233      36.893836      36.893836      36.893836    
   1800000   0.4109566     -7.9725497     -7.3561235      2.3697968      50218.233      36.893836      36.893836      36.893836    
   1900000   0.41184726    -7.9712104     -7.3534483      2.37544        50218.233      36.893836      36.893836      36.893836    
   2000000   0.412796      -7.9729623     -7.3537771      2.3637031      50218.233      36.893836      36.893836      36.893836    
   2100000   0.4101952     -7.9702211     -7.354937       2.3855164      50218.233      36.893836      36.893836      36.893836    
   2200000   0.40836627    -7.9697562     -7.3572155      2.3729015      50218.233      36.893836      36.893836      36.893836    
   2300000   0.40931325    -7.9700698     -7.3561086      2.3747443      50218.233      36.893836      36.893836      36.893836    
   2400000   0.40984185    -7.9755878     -7.3608338      2.3460858      50218.233      36.893836      36.893836      36.893836    
   2500000   0.4112247     -7.9710859     -7.3542576      2.37912        50218.233      36.893836      36.893836      36.893836    
   2600000   0.409095      -7.9723819     -7.3587481      2.369317       50218.233      36.893836      36.893836      36.893836    
   2700000   0.40934039    -7.9723263     -7.3583245      2.3671512      50218.233      36.893836      36.893836      36.893836    
   2800000   0.41002308    -7.9704933     -7.3554675      2.3925582      50218.233      36.893836      36.893836      36.893836    
   2900000   0.4107606     -7.9748142     -7.3586821      2.3495806      50218.233      36.893836      36.893836      36.893836    
   3000000   0.41033532    -7.9707332     -7.355239       2.3729507      50218.233      36.893836      36.893836      36.893836    
   3100000   0.40824052    -7.9732534     -7.3609013      2.3467055      50218.233      36.893836      36.893836      36.893836    
   3200000   0.40680892    -7.9729948     -7.3627901      2.358397       50218.233      36.893836      36.893836      36.893836    
   3300000   0.40893782    -7.9760353     -7.3626373      2.3391152      50218.233      36.893836      36.893836      36.893836    
   3400000   0.40908054    -7.9752519     -7.3616398      2.3434845      50218.233      36.893836      36.893836      36.893836    
   3500000   0.40835219    -7.9733502     -7.3608306      2.3479989      50218.233      36.893836      36.893836      36.893836    
   3600000   0.40893305    -7.9740382     -7.3606473      2.3490864      50218.233      36.893836      36.893836      36.893836    
   3700000   0.40981412    -7.9727136     -7.3580011      2.3580145      50218.233      36.893836      36.893836      36.893836    
   3800000   0.40913596    -7.9735822     -7.359887       2.3535106      50218.233      36.893836      36.893836      36.893836    
   3900000   0.4088256     -7.9724322     -7.3592025      2.3662306      50218.233      36.893836      36.893836      36.893836    
   4000000   0.41004807    -7.9735987     -7.3585353      2.351873       50218.233      36.893836      36.893836      36.893836    
   4100000   0.40966056    -7.9754889     -7.3610068      2.3357686      50218.233      36.893836      36.893836      36.893836    
   4200000   0.41028499    -7.9744946     -7.3590759      2.344083       50218.233      36.893836      36.893836      36.893836    
   4300000   0.40894234    -7.9747497     -7.3613449      2.3470711      50218.233      36.893836      36.893836      36.893836    
   4400000   0.41044418    -7.9756564     -7.3599989      2.3421002      50218.233      36.893836      36.893836      36.893836    
   4500000   0.41174873    -7.9755797     -7.3579654      2.3495405      50218.233      36.893836      36.893836      36.893836    
   4600000   0.41174507    -7.9751375     -7.3575287      2.3508897      50218.233      36.893836      36.893836      36.893836    
   4700000   0.41028616    -7.9745384     -7.3591179      2.3586148      50218.233      36.893836      36.893836      36.893836    
   4800000   0.40968112    -7.9768725     -7.3623596      2.3323071      50218.233      36.893836      36.893836      36.893836    
   4900000   0.41075135    -7.974326      -7.3582077      2.3495987      50218.233      36.893836      36.893836      36.893836    
   5000000   0.40951685    -7.9779723     -7.3637058      2.3184669      50218.233      36.893836      36.893836      36.893836    
   5100000   0.40994902    -7.9749698     -7.360055       2.3428773      50218.233      36.893836      36.893836      36.893836    
   5200000   0.40847291    -7.9739729     -7.3612722      2.3518451      50218.233      36.893836      36.893836      36.893836    
   5300000   0.41012441    -7.9736046     -7.3584267      2.3566032      50218.233      36.893836      36.893836      36.893836    
   5400000   0.40988088    -7.9737828     -7.3589703      2.3493775      50218.233      36.893836      36.893836      36.893836    
   5500000   0.4109594     -7.9717917     -7.3553613      2.3759094      50218.233      36.893836      36.893836      36.893836    
   5600000   0.41205147    -7.9735737     -7.3555053      2.3511531      50218.233      36.893836      36.893836      36.893836    
   5700000   0.40957724    -7.9768181     -7.362461       2.330795       50218.233      36.893836      36.893836      36.893836    
   5800000   0.41030649    -7.9756848     -7.3602338      2.3413525      50218.233      36.893836      36.893836      36.893836    
   5900000   0.4125519     -7.9755456     -7.3567265      2.3332525      50218.233      36.893836      36.893836      36.893836    
   6000000   0.40854494    -7.9711224     -7.3583137      2.3729824      50218.233      36.893836      36.893836      36.893836    
   6100000   0.41017442    -7.9726701     -7.3574173      2.364368       50218.233      36.893836      36.893836      36.893836    
   6200000   0.41167619    -7.9726515     -7.355146       2.3701914      50218.233      36.893836      36.893836      36.893836    
   6300000   0.41197618    -7.9719872     -7.3540317      2.3656959      50218.233      36.893836      36.893836      36.893836    
   6400000   0.40970317    -7.9735308     -7.3589848      2.3512546      50218.233      36.893836      36.893836      36.893836    
   6500000   0.40806272    -7.9733365     -7.3612512      2.3569226      50218.233      36.893836      36.893836      36.893836    
   6600000   0.40895511    -7.9714616     -7.3580377      2.3608203      50218.233      36.893836      36.893836      36.893836    
   6700000   0.40914248    -7.9759402     -7.3622352      2.3334542      50218.233      36.893836      36.893836      36.893836    
   6800000   0.41145058    -7.9742689     -7.3571018      2.3516491      50218.233      36.893836      36.893836      36.893836    
   6900000   0.41097857    -7.9730774     -7.3566183      2.3627556      50218.233      36.893836      36.893836      36.893836    
   7000000   0.41143561    -7.9727578     -7.3556132      2.3631193      50218.233      36.893836      36.893836      36.893836    
   7100000   0.41054124    -7.9753556     -7.3595525      2.3360723      50218.233      36.893836      36.893836      36.893836    
   7200000   0.41123724    -7.9733748     -7.3565277      2.3610779      50218.233      36.893836      36.893836      36.893836    
   7300000   0.41011974    -7.971504      -7.3563331      2.365602       50218.233      36.893836      36.893836      36.893836    
   7400000   0.41070568    -7.9754177     -7.359368       2.334448       50218.233      36.893836      36.893836      36.893836    
   7500000   0.40927528    -7.9730805     -7.3591763      2.3559034      50218.233      36.893836      36.893836      36.893836    
   7600000   0.40832238    -7.97461       -7.3621351      2.3430912      50218.233      36.893836      36.893836      36.893836    
   7700000   0.41019585    -7.9721378     -7.3568527      2.3657015      50218.233      36.893836      36.893836      36.893836    
   7800000   0.41013163    -7.974279      -7.3590903      2.3419379      50218.233      36.893836      36.893836      36.893836    
   7900000   0.40854904    -7.9727254     -7.3599106      2.3569922      50218.233      36.893836      36.893836      36.893836    
   8000000   0.41231617    -7.9719567     -7.3534912      2.3687309      50218.233      36.893836      36.893836      36.893836    
   8100000   0.41088689    -7.9726393     -7.3563177      2.3639344      50218.233      36.893836      36.893836      36.893836    
   8200000   0.41127877    -7.9737507     -7.3568413      2.3599706      50218.233      36.893836      36.893836      36.893836    
   8300000   0.41063683    -7.9737146     -7.3577681      2.3553648      50218.233      36.893836      36.893836      36.893836    
   8400000   0.41004921    -7.9748864     -7.3598214      2.353455       50218.233      36.893836      36.893836      36.893836    
   8500000   0.40960241    -7.9747885     -7.3603936      2.3447947      50218.233      36.893836      36.893836      36.893836    
   8600000   0.41044678    -7.9748971     -7.3592357      2.3520156      50218.233      36.893836      36.893836      36.893836    
   8700000   0.4117264     -7.973229      -7.3556482      2.3554442      50218.233      36.893836      36.893836      36.893836    
   8800000   0.41136567    -7.9707499     -7.3537101      2.375844       50218.233      36.893836      36.893836      36.893836    
   8900000   0.41090428    -7.9724561     -7.3561084      2.3708893      50218.233      36.893836      36.893836      36.893836    
   9000000   0.41111677    -7.975796      -7.3591296      2.3337085      50218.233      36.893836      36.893836      36.893836    
   9100000   0.40919171    -7.9740416     -7.3602628      2.3513073      50218.233      36.893836      36.893836      36.893836    
   9200000   0.4129975     -7.9745318     -7.3550444      2.353696       50218.233      36.893836      36.893836      36.893836    
   9300000   0.4102364     -7.9726024     -7.3572566      2.3685311      50218.233      36.893836      36.893836      36.893836    
   9400000   0.40950952    -7.9746194     -7.3603638      2.3387336      50218.233      36.893836      36.893836      36.893836    
   9500000   0.40972364    -7.9748949     -7.3603182      2.3300783      50218.233      36.893836      36.893836      36.893836    
   9600000   0.4092518     -7.9721173     -7.3582484      2.3672298      50218.233      36.893836      36.893836      36.893836    
   9700000   0.41061692    -7.9765938     -7.3606772      2.332803       50218.233      36.893836      36.893836      36.893836    
   9800000   0.41166389    -7.9743365     -7.3568494      2.3511974      50218.233      36.893836      36.893836      36.893836    
   9900000   0.40924445    -7.9727472     -7.3588892      2.3661358      50218.233      36.893836      36.893836      36.893836    
  10000000   0.41137898    -7.9766021     -7.3595424      2.3396479      50218.233      36.893836      36.893836      36.893836    
  10100000   0.40881254    -7.9775607     -7.3643507      2.320224       50218.233      36.893836      36.893836      36.893836    
  10200000   0.40867303    -7.9734319     -7.3604311      2.3614012      50218.233      36.893836      36.893836      36.893836    
  10300000   0.41012256    -7.9730151     -7.35784        2.3565525      50218.233      36.893836      36.893836      36.893836    
  10400000   0.41016502    -7.9725916     -7.3573528      2.3707203      50218.233      36.893836      36.893836      36.893836    
  10500000   0.41274648    -7.9732478     -7.3541369      2.3589068      50218.233      36.893836      36.893836      36.893836    
  10600000   0.40791285    -7.9753624     -7.3635018      2.3456038      50218.233      36.893836      36.893836      36.893836    
  10700000   0.40912413    -7.9747913     -7.3611138      2.3510752      50218.233      36.893836      36.893836      36.893836    
  10800000   0.4092449     -7.9753326     -7.361474       2.3387707      50218.233      36.893836      36.893836      36.893836    
  10900000   0.41059961    -7.9717278     -7.3558372      2.3684214      50218.233      36.893836      36.893836      36.893836    
  11000000   0.41109749    -7.975307      -7.3586696      2.3461576      50218.233      36.893836      36.893836      36.893836    
  11100000   0.40931358    -7.9769052     -7.3629436      2.3244961      50218.233      36.893836      36.893836      36.893836    
  11200000   0.40959983    -7.9746623     -7.3602713      2.3368956      50218.233      36.893836      36.893836      36.893836    
  11300000   0.40937028    -7.974036      -7.3599893      2.3460152      50218.233      36.893836      36.893836      36.893836    
  11400000   0.4080644     -7.9743197     -7.3622318      2.3457362      50218.233      36.893836      36.893836      36.893836    
  11500000   0.41213       -7.9731432     -7.354957       2.3469203      50218.233      36.893836      36.893836      36.893836    
  11600000   0.41146067    -7.9732595     -7.3560772      2.3564954      50218.233      36.893836      36.893836      36.893836    
  11700000   0.4091872     -7.9744443     -7.3606723      2.3485396      50218.233      36.893836      36.893836      36.893836    
  11800000   0.41190106    -7.9735119     -7.3556691      2.3610086      50218.233      36.893836      36.893836      36.893836    
  11900000   0.41163829    -7.9748466     -7.3573979      2.3520429      50218.233      36.893836      36.893836      36.893836    
  12000000   0.40939157    -7.9698006     -7.3557219      2.3847836      50218.233      36.893836      36.893836      36.893836    
  12100000   0.40873116    -7.9725315     -7.3594435      2.3551063      50218.233      36.893836      36.893836      36.893836    
  12200000   0.40746111    -7.9721038     -7.3609209      2.364399       50218.233      36.893836      36.893836      36.893836    
  12300000   0.41248097    -7.9749462     -7.3562336      2.3500346      50218.233      36.893836      36.893836      36.893836    
  12400000   0.41222957    -7.9735788     -7.3552432      2.3573824      50218.233      36.893836      36.893836      36.893836    
  12500000   0.40955168    -7.9713608     -7.357042       2.3641409      50218.233      36.893836      36.893836      36.893836    
  12600000   0.40971069    -7.9739099     -7.3593526      2.353064       50218.233      36.893836      36.893836      36.893836    
  12700000   0.40956001    -7.9743694     -7.3600382      2.3374916      50218.233      36.893836      36.893836      36.893836    
  12800000   0.40999084    -7.9726644     -7.3576869      2.3652156      50218.233      36.893836      36.893836      36.893836    
  12900000   0.41082434    -7.9713169     -7.3550892      2.3682025      50218.233      36.893836      36.893836      36.893836    
  13000000   0.40971216    -7.9716406     -7.3570811      2.3681406      50218.233      36.893836      36.893836      36.893836    
  13100000   0.4096249     -7.973196      -7.3587674      2.3637914      50218.233      36.893836      36.893836      36.893836    
  13200000   0.41031969    -7.9737468     -7.358276       2.3466157      50218.233      36.893836      36.893836      36.893836    
  13300000   0.40885285    -7.9752839     -7.3620133      2.3483819      50218.233      36.893836      36.893836      36.893836    
  13400000   0.40968589    -7.9753021     -7.360782       2.3387892      50218.233      36.893836      36.893836      36.893836    
  13500000   0.41023873    -7.9733292     -7.3579799      2.354665       50218.233      36.893836      36.893836      36.893836    
  13600000   0.41223217    -7.9731963     -7.3548568      2.362218       50218.233      36.893836      36.893836      36.893836    
  13700000   0.41027705    -7.9747243     -7.3593175      2.3500359      50218.233      36.893836      36.893836      36.893836    
  13800000   0.40989068    -7.9741837     -7.3593564      2.3532639      50218.233      36.893836      36.893836      36.893836    
  13900000   0.40815539    -7.9717584     -7.359534       2.3634486      50218.233      36.893836      36.893836      36.893836    
  14000000   0.41041265    -7.9744668     -7.3588565      2.3474956      50218.233      36.893836      36.893836      36.893836    
  14100000   0.40935265    -7.9745754     -7.3605552      2.3499283      50218.233      36.893836      36.893836      36.893836    
  14200000   0.41041898    -7.9759506     -7.3603309      2.330139       50218.233      36.893836      36.893836      36.893836    
  14300000   0.40825871    -7.9736413     -7.361262       2.3438752      50218.233      36.893836      36.893836      36.893836    
  14400000   0.40912456    -7.9754859     -7.3618078      2.3518508      50218.233      36.893836      36.893836      36.893836    
  14500000   0.41021794    -7.977115      -7.3617968      2.3329049      50218.233      36.893836      36.893836      36.893836    
  14600000   0.41034796    -7.9740604     -7.3585472      2.352271       50218.233      36.893836      36.893836      36.893836    
  14700000   0.40854662    -7.9744219     -7.3616107      2.343339       50218.233      36.893836      36.893836      36.893836    
  14800000   0.40982289    -7.9756731     -7.3609476      2.3365725      50218.233      36.893836      36.893836      36.893836    
  14900000   0.4103455     -7.9727378     -7.3572283      2.3700933      50218.233      36.893836      36.893836      36.893836    
  15000000   0.41154726    -7.9781481     -7.360836       2.3344888      50218.233      36.893836      36.893836      36.893836    
  15100000   0.41074664    -7.9765986     -7.3604874      2.3301289      50218.233      36.893836      36.893836      36.893836    
  15200000   0.41053496    -7.9740223     -7.3582287      2.356205       50218.233      36.893836      36.893836      36.893836    
  15300000   0.41133472    -7.9777061     -7.3607128      2.3255194      50218.233      36.893836      36.893836      36.893836    
  15400000   0.41060981    -7.9772811     -7.3613752      2.3263174      50218.233      36.893836      36.893836      36.893836    
  15500000   0.4090078     -7.9766102     -7.3631072      2.3248797      50218.233      36.893836      36.893836      36.893836    
  15600000   0.40986082    -7.9756456     -7.3608631      2.3336224      50218.233      36.893836      36.893836      36.893836    
  15700000   0.41030073    -7.971564      -7.3561217      2.3678694      50218.233      36.893836      36.893836      36.893836    
  15800000   0.40920855    -7.9743139     -7.3605098      2.3498564      50218.233      36.893836      36.893836      36.893836    
  15900000   0.41225121    -7.9742738     -7.3559057      2.3535576      50218.233      36.893836      36.893836      36.893836    
  16000000   0.40862071    -7.9759775     -7.3630552      2.3483895      50218.233      36.893836      36.893836      36.893836    
  16100000   0.41080053    -7.9762511     -7.360059       2.3400842      50218.233      36.893836      36.893836      36.893836    
  16200000   0.41087488    -7.9737208     -7.3574172      2.3527983      50218.233      36.893836      36.893836      36.893836    
  16300000   0.41031509    -7.9759251     -7.3604613      2.3458036      50218.233      36.893836      36.893836      36.893836    
  16400000   0.40879934    -7.9729648     -7.3597745      2.3699047      50218.233      36.893836      36.893836      36.893836    
  16500000   0.4097338     -7.975099      -7.3605071      2.3462223      50218.233      36.893836      36.893836      36.893836    
  16600000   0.41003592    -7.975667      -7.3606218      2.3404629      50218.233      36.893836      36.893836      36.893836    
  16700000   0.40978305    -7.9719254     -7.3572596      2.3732137      50218.233      36.893836      36.893836      36.893836    
  16800000   0.40995465    -7.9746798     -7.3597566      2.3479911      50218.233      36.893836      36.893836      36.893836    
  16900000   0.41019371    -7.9741565     -7.3588747      2.3548624      50218.233      36.893836      36.893836      36.893836    
  17000000   0.40933088    -7.9707456     -7.356758       2.3794949      50218.233      36.893836      36.893836      36.893836    
  17100000   0.40905147    -7.9729061     -7.3593376      2.3643545      50218.233      36.893836      36.893836      36.893836    
  17200000   0.41087626    -7.9732291     -7.3569235      2.3625325      50218.233      36.893836      36.893836      36.893836    
  17300000   0.40760737    -7.9715089     -7.3601065      2.3791917      50218.233      36.893836      36.893836      36.893836    
  17400000   0.41141087    -7.9736273     -7.3565198      2.3524948      50218.233      36.893836      36.893836      36.893836    
  17500000   0.40840315    -7.9722611     -7.3596651      2.3629011      50218.233      36.893836      36.893836      36.893836    
  17600000   0.40824559    -7.9728229     -7.3604632      2.3553918      50218.233      36.893836      36.893836      36.893836    
  17700000   0.41292793    -7.9733439     -7.3539608      2.3577759      50218.233      36.893836      36.893836      36.893836    
  17800000   0.41066485    -7.9723277     -7.3563391      2.3714781      50218.233      36.893836      36.893836      36.893836    
  17900000   0.40858884    -7.9743137     -7.3614391      2.3492749      50218.233      36.893836      36.893836      36.893836    
  18000000   0.41072492    -7.9744585     -7.3583799      2.3530196      50218.233      36.893836      36.893836      36.893836    
  18100000   0.4096253     -7.975329      -7.3608998      2.3385208      50218.233      36.893836      36.893836      36.893836    
  18200000   0.41158112    -7.9724684     -7.3551055      2.3786951      50218.233      36.893836      36.893836      36.893836    
  18300000   0.41226428    -7.9728581     -7.3544704      2.3608776      50218.233      36.893836      36.893836      36.893836    
  18400000   0.40984205    -7.972735      -7.3579807      2.3661807      50218.233      36.893836      36.893836      36.893836    
  18500000   0.41172595    -7.9754517     -7.3578715      2.3538478      50218.233      36.893836      36.893836      36.893836    
  18600000   0.40836696    -7.9745244     -7.3619827      2.3521849      50218.233      36.893836      36.893836      36.893836    
  18700000   0.40847217    -7.9722892     -7.3595897      2.3622941      50218.233      36.893836      36.893836      36.893836    
  18800000   0.41056544    -7.9766395     -7.3608001      2.3307152      50218.233      36.893836      36.893836      36.893836    
  18900000   0.41177338    -7.9774192     -7.3597679      2.3280912      50218.233      36.893836      36.893836      36.893836    
  19000000   0.41035264    -7.9740765     -7.3585563      2.3549779      50218.233      36.893836      36.893836      36.893836    
  19100000   0.41060476    -7.9735343     -7.3576359      2.3648527      50218.233      36.893836      36.893836      36.893836    
  19200000   0.41033865    -7.9775707     -7.3620715      2.3309222      50218.233      36.893836      36.893836      36.893836    
  19300000   0.41034297    -7.9739957     -7.35849        2.3538126      50218.233      36.893836      36.893836      36.893836    
  19400000   0.41003555    -7.9774206     -7.362376       2.3299984      50218.233      36.893836      36.893836      36.893836    
  19500000   0.40800369    -7.9739898     -7.361993       2.3504673      50218.233      36.893836      36.893836      36.893836    
  19600000   0.409874      -7.9786396     -7.3638373      2.312871       50218.233      36.893836      36.893836      36.893836    
  19700000   0.40917396    -7.978533      -7.3647808      2.3257427      50218.233      36.893836      36.893836      36.893836    
  19800000   0.40959434    -7.9754081     -7.3610254      2.3379905      50218.233      36.893836      36.893836      36.893836    
  19900000   0.41068998    -7.9769047     -7.3608785      2.3362579      50218.233      36.893836      36.893836      36.893836    
  20000000   0.41182622    -7.9755401     -7.3578096      2.341211       50218.233      36.893836      36.893836      36.893836    
  20100000   0.41026134    -7.9775238     -7.3621406      2.3233218      50218.233      36.893836      36.893836      36.893836    
  20200000   0.40785909    -7.9747936     -7.3630137      2.3434048      50218.233      36.893836      36.893836      36.893836    
  20300000   0.40823629    -7.9756834     -7.3633377      2.3386694      50218.233      36.893836      36.893836      36.893836    
  20400000   0.41074377    -7.9756744     -7.3595675      2.3393359      50218.233      36.893836      36.893836      36.893836    
  20500000   0.4098619     -7.9771517     -7.3623676      2.3274721      50218.233      36.893836      36.893836      36.893836    
  20600000   0.40847071    -7.9752322     -7.3625348      2.3278009      50218.233      36.893836      36.893836      36.893836    
  20700000   0.41143691    -7.9738262     -7.3566796      2.3543482      50218.233      36.893836      36.893836      36.893836    
  20800000   0.4088        -7.977611      -7.3644197      2.3324086      50218.233      36.893836      36.893836      36.893836    
  20900000   0.40961787    -7.9768691     -7.3624511      2.3292551      50218.233      36.893836      36.893836      36.893836    
  21000000   0.40967033    -7.974064      -7.3595672      2.3500687      50218.233      36.893836      36.893836      36.893836    
  21100000   0.41035915    -7.9751637     -7.3596338      2.3436261      50218.233      36.893836      36.893836      36.893836    
  21200000   0.40740638    -7.9742641     -7.3631632      2.3376497      50218.233      36.893836      36.893836      36.893836    
  21300000   0.40876299    -7.9725959     -7.3594602      2.361493       50218.233      36.893836      36.893836      36.893836    
  21400000   0.40903738    -7.9751064     -7.361559       2.3492495      50218.233      36.893836      36.893836      36.893836    
  21500000   0.40806903    -7.9751498     -7.3630549      2.3354877      50218.233      36.893836      36.893836      36.893836    
  21600000   0.41027753    -7.9761196     -7.360712       2.3374489      50218.233      36.893836      36.893836      36.893836    
  21700000   0.40876438    -7.9738825     -7.3607446      2.3497411      50218.233      36.893836      36.893836      36.893836    
  21800000   0.41236554    -7.9774172     -7.3588777      2.3308144      50218.233      36.893836      36.893836      36.893836    
  21900000   0.41040269    -7.971839      -7.3562437      2.3709583      50218.233      36.893836      36.893836      36.893836    
  22000000   0.41053823    -7.9758098     -7.3600112      2.3482633      50218.233      36.893836      36.893836      36.893836    
  22100000   0.40813322    -7.9739172     -7.361726       2.3510066      50218.233      36.893836      36.893836      36.893836    
  22200000   0.4097963     -7.9738956     -7.3592099      2.3507237      50218.233      36.893836      36.893836      36.893836    
  22300000   0.40997268    -7.9748253     -7.359875       2.3399383      50218.233      36.893836      36.893836      36.893836    
  22400000   0.40973135    -7.9740945     -7.3595062      2.3395586      50218.233      36.893836      36.893836      36.893836    
  22500000   0.41075335    -7.9767443     -7.3606231      2.3301794      50218.233      36.893836      36.893836      36.893836    
  22600000   0.41078848    -7.9766167     -7.3604428      2.3375899      50218.233      36.893836      36.893836      36.893836    
  22700000   0.41147073    -7.9776979     -7.3605005      2.3252315      50218.233      36.893836      36.893836      36.893836    
  22800000   0.41006246    -7.9728018     -7.3577168      2.3570107      50218.233      36.893836      36.893836      36.893836    
  22900000   0.41045703    -7.9715721     -7.3558953      2.3703316      50218.233      36.893836      36.893836      36.893836    
  23000000   0.41075509    -7.9745262     -7.3584023      2.3493837      50218.233      36.893836      36.893836      36.893836    
  23100000   0.40966171    -7.9774885     -7.3630046      2.325466       50218.233      36.893836      36.893836      36.893836    
  23200000   0.41135986    -7.9737456     -7.3567146      2.3546063      50218.233      36.893836      36.893836      36.893836    
  23300000   0.4110984     -7.9749258     -7.3582869      2.3474256      50218.233      36.893836      36.893836      36.893836    
  23400000   0.41209114    -7.9751251     -7.3569972      2.3442289      50218.233      36.893836      36.893836      36.893836    
  23500000   0.4087777     -7.9759923     -7.3628345      2.3310467      50218.233      36.893836      36.893836      36.893836    
  23600000   0.40974275    -7.9782818     -7.3636764      2.3293444      50218.233      36.893836      36.893836      36.893836    
  23700000   0.41065857    -7.9748645     -7.3588854      2.3565172      50218.233      36.893836      36.893836      36.893836    
  23800000   0.41108194    -7.975635      -7.3590209      2.3373761      50218.233      36.893836      36.893836      36.893836    
  23900000   0.41163433    -7.9770687     -7.3596259      2.32631        50218.233      36.893836      36.893836      36.893836    
  24000000   0.41106578    -7.9778589     -7.361269       2.3174367      50218.233      36.893836      36.893836      36.893836    
  24100000   0.40696411    -7.9751523     -7.3647148      2.3378548      50218.233      36.893836      36.893836      36.893836    
  24200000   0.40801133    -7.9761918     -7.3641835      2.3389011      50218.233      36.893836      36.893836      36.893836    
  24300000   0.41079748    -7.976586      -7.3603985      2.3348617      50218.233      36.893836      36.893836      36.893836    
  24400000   0.41050625    -7.9768861     -7.3611354      2.3343433      50218.233      36.893836      36.893836      36.893836    
  24500000   0.41033304    -7.9790303     -7.3635395      2.3140887      50218.233      36.893836      36.893836      36.893836    
  24600000   0.40907042    -7.9745799     -7.360983       2.3423234      50218.233      36.893836      36.893836      36.893836    
  24700000   0.41130976    -7.9775604     -7.3606045      2.3284864      50218.233      36.893836      36.893836      36.893836    
  24800000   0.40986477    -7.9757486     -7.3609602      2.3406423      50218.233      36.893836      36.893836      36.893836    
  24900000   0.41176867    -7.9725091     -7.3548649      2.3526882      50218.233      36.893836      36.893836      36.893836    
  25000000   0.41069189    -7.9782989     -7.3622698      2.3178797      50218.233      36.893836      36.893836      36.893836    
  25100000   0.40910451    -7.9788087     -7.3651606      2.3118762      50218.233      36.893836      36.893836      36.893836    
  25200000   0.40752147    -7.9743636     -7.3630901      2.3445931      50218.233      36.893836      36.893836      36.893836    
  25300000   0.40847991    -7.9748703     -7.3621591      2.3466324      50218.233      36.893836      36.893836      36.893836    
  25400000   0.40959082    -7.9790249     -7.3646474      2.3239247      50218.233      36.893836      36.893836      36.893836    
  25500000   0.41123412    -7.9789882     -7.3621458      2.3188272      50218.233      36.893836      36.893836      36.893836    
  25600000   0.4088243     -7.9766973     -7.3634696      2.328377       50218.233      36.893836      36.893836      36.893836    
  25700000   0.40924656    -7.9777668     -7.3639057      2.3297705      50218.233      36.893836      36.893836      36.893836    
  25800000   0.40934791    -7.9770184     -7.3630053      2.3287113      50218.233      36.893836      36.893836      36.893836    
  25900000   0.4087305     -7.9752302     -7.3621432      2.3322383      50218.233      36.893836      36.893836      36.893836    
  26000000   0.41028404    -7.9752533     -7.359836       2.3477771      50218.233      36.893836      36.893836      36.893836    
  26100000   0.41067434    -7.9736449     -7.3576422      2.3586796      50218.233      36.893836      36.893836      36.893836    
  26200000   0.40881574    -7.9749176     -7.3617027      2.3393301      50218.233      36.893836      36.893836      36.893836    
  26300000   0.41018005    -7.9736432     -7.3583818      2.3548775      50218.233      36.893836      36.893836      36.893836    
  26400000   0.41111621    -7.9739359     -7.3572703      2.3498621      50218.233      36.893836      36.893836      36.893836    
  26500000   0.41105026    -7.9786295     -7.3620629      2.3114714      50218.233      36.893836      36.893836      36.893836    
  26600000   0.40796362    -7.9742187     -7.3622819      2.3415481      50218.233      36.893836      36.893836      36.893836    
  26700000   0.41028903    -7.9773636     -7.3619388      2.3272122      50218.233      36.893836      36.893836      36.893836    
  26800000   0.41096075    -7.9758849     -7.3594526      2.3400463      50218.233      36.893836      36.893836      36.893836    
  26900000   0.4089671     -7.974121      -7.3606791      2.3446947      50218.233      36.893836      36.893836      36.893836    
  27000000   0.41060221    -7.9761337     -7.3602392      2.3285377      50218.233      36.893836      36.893836      36.893836    
  27100000   0.40857581    -7.977369      -7.3645141      2.3318468      50218.233      36.893836      36.893836      36.893836    
  27200000   0.41313993    -7.9744878     -7.3547867      2.3507509      50218.233      36.893836      36.893836      36.893836    
  27300000   0.40914098    -7.9763052     -7.3626025      2.3386213      50218.233      36.893836      36.893836      36.893836    
  27400000   0.40838864    -7.9750662     -7.362492       2.3400242      50218.233      36.893836      36.893836      36.893836    
  27500000   0.40971623    -7.9743415     -7.3597759      2.3475385      50218.233      36.893836      36.893836      36.893836    
  27600000   0.41012074    -7.9764624     -7.3612901      2.331734       50218.233      36.893836      36.893836      36.893836    
  27700000   0.40971859    -7.9758046     -7.3612355      2.3405188      50218.233      36.893836      36.893836      36.893836    
  27800000   0.41025646    -7.9743166     -7.3589407      2.3419012      50218.233      36.893836      36.893836      36.893836    
  27900000   0.41111887    -7.9766054     -7.3599358      2.3330143      50218.233      36.893836      36.893836      36.893836    
  28000000   0.41270251    -7.9728931     -7.3538482      2.3729256      50218.233      36.893836      36.893836      36.893836    
  28100000   0.40946156    -7.9772137     -7.3630301      2.3285675      50218.233      36.893836      36.893836      36.893836    
  28200000   0.40937493    -7.9746099     -7.3605563      2.3433898      50218.233      36.893836      36.893836      36.893836    
  28300000   0.40811219    -7.9777306     -7.365571       2.3272027      50218.233      36.893836      36.893836      36.893836    
  28400000   0.41111378    -7.9740616     -7.3573997      2.3551211      50218.233      36.893836      36.893836      36.893836    
  28500000   0.41245911    -7.9768834     -7.3582035      2.3309105      50218.233      36.893836      36.893836      36.893836    
  28600000   0.41298278    -7.9798667     -7.3604013      2.3128897      50218.233      36.893836      36.893836      36.893836    
  28700000   0.41035124    -7.9811184     -7.3656003      2.3059545      50218.233      36.893836      36.893836      36.893836    
  28800000   0.41131211    -7.979429      -7.3624696      2.3141155      50218.233      36.893836      36.893836      36.893836    
  28900000   0.41058009    -7.9781933     -7.3623319      2.3278892      50218.233      36.893836      36.893836      36.893836    
  29000000   0.40823328    -7.9759292     -7.363588       2.3319681      50218.233      36.893836      36.893836      36.893836    
  29100000   0.40841633    -7.9746264     -7.3620106      2.3535629      50218.233      36.893836      36.893836      36.893836    
  29200000   0.40847697    -7.9758572     -7.3631504      2.3387412      50218.233      36.893836      36.893836      36.893836    
  29300000   0.41158267    -7.9777567     -7.3603915      2.3226066      50218.233      36.893836      36.893836      36.893836    
  29400000   0.40919958    -7.9753171     -7.3615265      2.3422044      50218.233      36.893836      36.893836      36.893836    
  29500000   0.41230468    -7.973862      -7.3554138      2.3522178      50218.233      36.893836      36.893836      36.893836    
  29600000   0.41061682    -7.976074      -7.3601575      2.3404796      50218.233      36.893836      36.893836      36.893836    
  29700000   0.41038159    -7.9770084     -7.3614448      2.321346       50218.233      36.893836      36.893836      36.893836    
  29800000   0.40998617    -7.97682       -7.3618495      2.3422003      50218.233      36.893836      36.893836      36.893836    
  29900000   0.40867983    -7.9786684     -7.3656574      2.3242069      50218.233      36.893836      36.893836      36.893836    
  30000000   0.40971418    -7.9781494     -7.3635869      2.3263161      50218.233      36.893836      36.893836      36.893836    
  30100000   0.40781814    -7.9758196     -7.3641011      2.3481488      50218.233      36.893836      36.893836      36.893836    
  30200000   0.40938254    -7.9791161     -7.3650511      2.3137467      50218.233      36.893836      36.893836      36.893836    
  30300000   0.41161567    -7.9769131     -7.3594984      2.3268069      50218.233      36.893836      36.893836      36.893836    
  30400000   0.41050073    -7.9770501     -7.3613078      2.3309004      50218.233      36.893836      36.893836      36.893836    
  30500000   0.40990543    -7.9756842     -7.3608348      2.3436252      50218.233      36.893836      36.893836      36.893836    
  30600000   0.41095847    -7.9741756     -7.3577467      2.3608913      50218.233      36.893836      36.893836      36.893836    
  30700000   0.40899033    -7.9765234     -7.3630466      2.3394638      50218.233      36.893836      36.893836      36.893836    
  30800000   0.4115886     -7.973204      -7.3558299      2.3631618      50218.233      36.893836      36.893836      36.893836    
  30900000   0.41115086    -7.9774666     -7.3607491      2.3386486      50218.233      36.893836      36.893836      36.893836    
  31000000   0.41116982    -7.9774233     -7.3606773      2.3352906      50218.233      36.893836      36.893836      36.893836    
  31100000   0.40820645    -7.9764041     -7.3641032      2.3335743      50218.233      36.893836      36.893836      36.893836    
  31200000   0.40979121    -7.97794       -7.3632619      2.3421293      50218.233      36.893836      36.893836      36.893836    
  31300000   0.41016037    -7.9758026     -7.3605707      2.3382275      50218.233      36.893836      36.893836      36.893836    
  31400000   0.41005262    -7.9766481     -7.361578       2.3358535      50218.233      36.893836      36.893836      36.893836    
  31500000   0.41048838    -7.9749014     -7.3591776      2.3418239      50218.233      36.893836      36.893836      36.893836    
  31600000   0.40989313    -7.9748747     -7.3600438      2.3609006      50218.233      36.893836      36.893836      36.893836    
  31700000   0.40977502    -7.9753914     -7.3607376      2.3415508      50218.233      36.893836      36.893836      36.893836    
  31800000   0.41011011    -7.9794436     -7.3642872      2.3153682      50218.233      36.893836      36.893836      36.893836    
  31900000   0.41161996    -7.9777884     -7.3603673      2.3256749      50218.233      36.893836      36.893836      36.893836    
  32000000   0.41187251    -7.9776889     -7.3598889      2.3385487      50218.233      36.893836      36.893836      36.893836    
  32100000   0.41016229    -7.9771038     -7.3618691      2.3361328      50218.233      36.893836      36.893836      36.893836    
  32200000   0.41027623    -7.9767471     -7.3613415      2.3326223      50218.233      36.893836      36.893836      36.893836    
  32300000   0.40947805    -7.9772582     -7.3630498      2.3304024      50218.233      36.893836      36.893836      36.893836    
  32400000   0.41081742    -7.9768199     -7.3606025      2.334513       50218.233      36.893836      36.893836      36.893836    
  32500000   0.40977919    -7.9750349     -7.3603749      2.3563483      50218.233      36.893836      36.893836      36.893836    
  32600000   0.41094881    -7.9753384     -7.358924       2.3472747      50218.233      36.893836      36.893836      36.893836    
  32700000   0.4122608     -7.9744934     -7.356111       2.3554727      50218.233      36.893836      36.893836      36.893836    
  32800000   0.41011903    -7.9736749     -7.3585051      2.366723       50218.233      36.893836      36.893836      36.893836    
  32900000   0.41111652    -7.9758467     -7.3591807      2.3463186      50218.233      36.893836      36.893836      36.893836    
  33000000   0.41146689    -7.9762563     -7.3590647      2.3466626      50218.233      36.893836      36.893836      36.893836    
  33100000   0.41119723    -7.9761349     -7.3593479      2.343261       50218.233      36.893836      36.893836      36.893836    
  33200000   0.40979183    -7.9754803     -7.3608013      2.3444396      50218.233      36.893836      36.893836      36.893836    
  33300000   0.40977218    -7.9768051     -7.3621555      2.3372372      50218.233      36.893836      36.893836      36.893836    
  33400000   0.4083546     -7.9742703     -7.3617472      2.3595096      50218.233      36.893836      36.893836      36.893836    
  33500000   0.40904573    -7.9749666     -7.3614067      2.3449033      50218.233      36.893836      36.893836      36.893836    
  33600000   0.41037107    -7.9766243     -7.3610765      2.3386314      50218.233      36.893836      36.893836      36.893836    
  33700000   0.40866641    -7.9799076     -7.3669167      2.3112653      50218.233      36.893836      36.893836      36.893836    
  33800000   0.40789043    -7.9784275     -7.3666006      2.3136947      50218.233      36.893836      36.893836      36.893836    
  33900000   0.4086923     -7.9768077     -7.363778       2.3291794      50218.233      36.893836      36.893836      36.893836    
  34000000   0.41121042    -7.9738185     -7.3570116      2.3537377      50218.233      36.893836      36.893836      36.893836    
  34100000   0.40867205    -7.9794638     -7.3664644      2.3086594      50218.233      36.893836      36.893836      36.893836    
  34200000   0.40766563    -7.9777133     -7.3662236      2.3228629      50218.233      36.893836      36.893836      36.893836    
  34300000   0.40899257    -7.9761418     -7.3626617      2.3340518      50218.233      36.893836      36.893836      36.893836    
  34400000   0.4107844     -7.9779236     -7.3617558      2.3264397      50218.233      36.893836      36.893836      36.893836    
  34500000   0.4068981     -7.979516      -7.3691775      2.3180047      50218.233      36.893836      36.893836      36.893836    
  34600000   0.41217078    -7.9774548     -7.3592074      2.3244799      50218.233      36.893836      36.893836      36.893836    
  34700000   0.40806069    -7.9741223     -7.36204        2.3574194      50218.233      36.893836      36.893836      36.893836    
  34800000   0.41135392    -7.9772425     -7.3602204      2.3371332      50218.233      36.893836      36.893836      36.893836    
  34900000   0.41129588    -7.9797094     -7.3627743      2.3127015      50218.233      36.893836      36.893836      36.893836    
  35000000   0.40819788    -7.9806014     -7.3683132      2.3005466      50218.233      36.893836      36.893836      36.893836    
  35100000   0.41020364    -7.9763822     -7.3610855      2.3292659      50218.233      36.893836      36.893836      36.893836    
  35200000   0.4094246     -7.9762464     -7.3621182      2.3401476      50218.233      36.893836      36.893836      36.893836    
  35300000   0.40911229    -7.9786347     -7.364975       2.3071951      50218.233      36.893836      36.893836      36.893836    
  35400000   0.409251      -7.9757496     -7.3618818      2.3419018      50218.233      36.893836      36.893836      36.893836    
  35500000   0.40872021    -7.979349      -7.3662774      2.3077271      50218.233      36.893836      36.893836      36.893836    
  35600000   0.40772054    -7.9818717     -7.3702995      2.2881978      50218.233      36.893836      36.893836      36.893836    
  35700000   0.41156541    -7.9808392     -7.3634999      2.3145242      50218.233      36.893836      36.893836      36.893836    
  35800000   0.41113189    -7.9784877     -7.3617987      2.3221896      50218.233      36.893836      36.893836      36.893836    
  35900000   0.41226118    -7.9774954     -7.3591124      2.3337076      50218.233      36.893836      36.893836      36.893836    
  36000000   0.41198632    -7.9755229     -7.3575522      2.3453912      50218.233      36.893836      36.893836      36.893836    
  36100000   0.40978869    -7.9741378     -7.3594635      2.3499319      50218.233      36.893836      36.893836      36.893836    
  36200000   0.41087606    -7.9789111     -7.3626058      2.3087914      50218.233      36.893836      36.893836      36.893836    
  36300000   0.40989217    -7.9752182     -7.3603887      2.346479       50218.233      36.893836      36.893836      36.893836    
  36400000   0.40839768    -7.9722721     -7.3596843      2.3656486      50218.233      36.893836      36.893836      36.893836    
  36500000   0.41117715    -7.9756506     -7.3588937      2.3468551      50218.233      36.893836      36.893836      36.893836    
  36600000   0.4085752     -7.9820839     -7.3692298      2.2898081      50218.233      36.893836      36.893836      36.893836    
  36700000   0.41075208    -7.9759822     -7.3598629      2.3376501      50218.233      36.893836      36.893836      36.893836    
  36800000   0.41035739    -7.9794223     -7.363895       2.3132039      50218.233      36.893836      36.893836      36.893836    
  36900000   0.41135097    -7.9775784     -7.3605607      2.3178242      50218.233      36.893836      36.893836      36.893836    
  37000000   0.40787996    -7.9744185     -7.3626073      2.3506964      50218.233      36.893836      36.893836      36.893836    
  37100000   0.40954817    -7.9777215     -7.363408       2.3214124      50218.233      36.893836      36.893836      36.893836    
  37200000   0.41085739    -7.9757436     -7.3594663      2.3517717      50218.233      36.893836      36.893836      36.893836    
  37300000   0.40952236    -7.9701231     -7.3558483      2.3826033      50218.233      36.893836      36.893836      36.893836    
  37400000   0.40897577    -7.9815341     -7.3680791      2.2973236      50218.233      36.893836      36.893836      36.893836    
  37500000   0.40927015    -7.9781754     -7.3642789      2.3145366      50218.233      36.893836      36.893836      36.893836    
  37600000   0.41321381    -7.9746208     -7.3548089      2.35228        50218.233      36.893836      36.893836      36.893836    
  37700000   0.40917889    -7.9739016     -7.360142       2.348837       50218.233      36.893836      36.893836      36.893836    
  37800000   0.41055015    -7.9763187     -7.3605022      2.3324958      50218.233      36.893836      36.893836      36.893836    
  37900000   0.41037888    -7.9774318     -7.3618723      2.3374624      50218.233      36.893836      36.893836      36.893836    
  38000000   0.41064973    -7.9748226     -7.3588568      2.3435646      50218.233      36.893836      36.893836      36.893836    
  38100000   0.41111424    -7.9794437     -7.3627811      2.3117756      50218.233      36.893836      36.893836      36.893836    
  38200000   0.41140446    -7.9759839     -7.3588859      2.3355541      50218.233      36.893836      36.893836      36.893836    
  38300000   0.41256083    -7.9768605     -7.3580281      2.3304118      50218.233      36.893836      36.893836      36.893836    
  38400000   0.40848257    -7.9752809     -7.3625657      2.3389693      50218.233      36.893836      36.893836      36.893836    
  38500000   0.40899749    -7.9786557     -7.3651682      2.3136289      50218.233      36.893836      36.893836      36.893836    
  38600000   0.40896788    -7.9796862     -7.3662431      2.3051248      50218.233      36.893836      36.893836      36.893836    
  38700000   0.4127661     -7.9768599     -7.3577195      2.3343594      50218.233      36.893836      36.893836      36.893836    
  38800000   0.41021424    -7.9749402     -7.3596276      2.3397843      50218.233      36.893836      36.893836      36.893836    
  38900000   0.41028935    -7.9765878     -7.3611625      2.3391486      50218.233      36.893836      36.893836      36.893836    
  39000000   0.40998702    -7.9765478     -7.361576       2.3428074      50218.233      36.893836      36.893836      36.893836    
  39100000   0.41072086    -7.976649      -7.3605764      2.3305055      50218.233      36.893836      36.893836      36.893836    
  39200000   0.40866476    -7.9798453     -7.3668569      2.3057766      50218.233      36.893836      36.893836      36.893836    
  39300000   0.40907133    -7.9792149     -7.3656167      2.3047865      50218.233      36.893836      36.893836      36.893836    
  39400000   0.41146867    -7.9806722     -7.363478       2.2988562      50218.233      36.893836      36.893836      36.893836    
  39500000   0.41181609    -7.9799661     -7.3622507      2.3200581      50218.233      36.893836      36.893836      36.893836    
  39600000   0.40668844    -7.9775032     -7.3674792      2.3173453      50218.233      36.893836      36.893836      36.893836    
  39700000   0.41102284    -7.9780574     -7.3615319      2.3238215      50218.233      36.893836      36.893836      36.893836    
  39800000   0.40934457    -7.9762666     -7.3622585      2.3299708      50218.233      36.893836      36.893836      36.893836    
  39900000   0.4097388     -7.974332      -7.3597325      2.357813       50218.233      36.893836      36.893836      36.893836    
  40000000   0.41119514    -7.9762195     -7.3594356      2.343274       50218.233      36.893836      36.893836      36.893836    
  40100000   0.40871094    -7.9770048     -7.3639471      2.3211443      50218.233      36.893836      36.893836      36.893836    
  40200000   0.41275449    -7.9815624     -7.3624395      2.3067188      50218.233      36.893836      36.893836      36.893836    
  40300000   0.40802652    -7.9816632     -7.3696321      2.2876109      50218.233      36.893836      36.893836      36.893836    
  40400000   0.4108793     -7.9768939     -7.3605838      2.322533       50218.233      36.893836      36.893836      36.893836    
  40500000   0.40878795    -7.9760167     -7.3628435      2.3377122      50218.233      36.893836      36.893836      36.893836    
  40600000   0.41049433    -7.978482      -7.3627493      2.3196802      50218.233      36.893836      36.893836      36.893836    
  40700000   0.41087555    -7.9791397     -7.3628351      2.3133284      50218.233      36.893836      36.893836      36.893836    
  40800000   0.41181944    -7.9775507     -7.3598303      2.3282956      50218.233      36.893836      36.893836      36.893836    
  40900000   0.41151785    -7.9771322     -7.3598642      2.3281255      50218.233      36.893836      36.893836      36.893836    
  41000000   0.40984383    -7.9767554     -7.3619984      2.3429689      50218.233      36.893836      36.893836      36.893836    
  41100000   0.40569151    -7.9777305     -7.3692019      2.3222285      50218.233      36.893836      36.893836      36.893836    
  41200000   0.40956018    -7.9798443     -7.3655128      2.3030105      50218.233      36.893836      36.893836      36.893836    
  41300000   0.41081869    -7.9798676     -7.3636483      2.3133564      50218.233      36.893836      36.893836      36.893836    
  41400000   0.4114363     -7.9757674     -7.3586218      2.333489       50218.233      36.893836      36.893836      36.893836    
  41500000   0.41011442    -7.9772985     -7.3621356      2.3281718      50218.233      36.893836      36.893836      36.893836    
  41600000   0.4101893     -7.9770081     -7.3617329      2.3279251      50218.233      36.893836      36.893836      36.893836    
  41700000   0.41028104    -7.9766262     -7.3612134      2.3432579      50218.233      36.893836      36.893836      36.893836    
  41800000   0.4093253     -7.9772536     -7.3632744      2.3248157      50218.233      36.893836      36.893836      36.893836    
  41900000   0.41031283    -7.9789123     -7.3634518      2.3151993      50218.233      36.893836      36.893836      36.893836    
  42000000   0.40737808    -7.9796055     -7.368547       2.3030844      50218.233      36.893836      36.893836      36.893836    
  42100000   0.41096248    -7.9763872     -7.3599522      2.3459213      50218.233      36.893836      36.893836      36.893836    
  42200000   0.40857675    -7.9771066     -7.3642502      2.3318964      50218.233      36.893836      36.893836      36.893836    
  42300000   0.41055555    -7.9802545     -7.3644299      2.3054187      50218.233      36.893836      36.893836      36.893836    
  42400000   0.40865522    -7.9812255     -7.3682514      2.2963266      50218.233      36.893836      36.893836      36.893836    
  42500000   0.41008558    -7.9713816     -7.356262       2.3810508      50218.233      36.893836      36.893836      36.893836    
  42600000   0.41152433    -7.9804025     -7.3631248      2.3107055      50218.233      36.893836      36.893836      36.893836    
  42700000   0.4082797     -7.9770801     -7.3646692      2.3279832      50218.233      36.893836      36.893836      36.893836    
  42800000   0.40836234    -7.9773196     -7.3647848      2.3189233      50218.233      36.893836      36.893836      36.893836    
  42900000   0.41124458    -7.9740977     -7.3572396      2.3646684      50218.233      36.893836      36.893836      36.893836    
  43000000   0.40759996    -7.9791147     -7.3677235      2.3080183      50218.233      36.893836      36.893836      36.893836    
  43100000   0.41049093    -7.9776239     -7.3618963      2.3315526      50218.233      36.893836      36.893836      36.893836    
  43200000   0.40986559    -7.9764239     -7.3616342      2.3270746      50218.233      36.893836      36.893836      36.893836    
  43300000   0.41114719    -7.977918      -7.361206       2.3134518      50218.233      36.893836      36.893836      36.893836    
  43400000   0.41031197    -7.9773023     -7.3618431      2.3310341      50218.233      36.893836      36.893836      36.893836    
  43500000   0.41050935    -7.9798121     -7.3640568      2.3155816      50218.233      36.893836      36.893836      36.893836    
  43600000   0.41048649    -7.9758699     -7.3601489      2.3409594      50218.233      36.893836      36.893836      36.893836    
  43700000   0.41120064    -7.9756986     -7.3589064      2.3487301      50218.233      36.893836      36.893836      36.893836    
  43800000   0.4073632     -7.9756601     -7.364624       2.3212606      50218.233      36.893836      36.893836      36.893836    
  43900000   0.41187042    -7.9790888     -7.3612919      2.3147296      50218.233      36.893836      36.893836      36.893836    
  44000000   0.41010661    -7.9799759     -7.3648247      2.3176654      50218.233      36.893836      36.893836      36.893836    
  44100000   0.41085585    -7.9785389     -7.3622639      2.3274721      50218.233      36.893836      36.893836      36.893836    
  44200000   0.41022507    -7.9787915     -7.3634627      2.3187424      50218.233      36.893836      36.893836      36.893836    
  44300000   0.40971217    -7.9782029     -7.3636434      2.3134825      50218.233      36.893836      36.893836      36.893836    
  44400000   0.41051224    -7.9789734     -7.3632138      2.3119634      50218.233      36.893836      36.893836      36.893836    
  44500000   0.40853433    -7.9764984     -7.3637056      2.346841       50218.233      36.893836      36.893836      36.893836    
  44600000   0.41100898    -7.9778013     -7.3612966      2.3216068      50218.233      36.893836      36.893836      36.893836    
  44700000   0.41067979    -7.9789558     -7.3629448      2.3188797      50218.233      36.893836      36.893836      36.893836    
  44800000   0.41072362    -7.979675      -7.3635983      2.3120927      50218.233      36.893836      36.893836      36.893836    
  44900000   0.4082098     -7.9784697     -7.3661637      2.3102433      50218.233      36.893836      36.893836      36.893836    
  45000000   0.41270838    -7.9794744     -7.3604207      2.3148792      50218.233      36.893836      36.893836      36.893836    
  45100000   0.40897562    -7.978087      -7.3646323      2.312528       50218.233      36.893836      36.893836      36.893836    
  45200000   0.4096606     -7.9787703     -7.3642881      2.3155362      50218.233      36.893836      36.893836      36.893836    
  45300000   0.40990937    -7.9817026     -7.3668473      2.3020227      50218.233      36.893836      36.893836      36.893836    
  45400000   0.40992266    -7.9780668     -7.3631916      2.3279985      50218.233      36.893836      36.893836      36.893836    
  45500000   0.41020795    -7.9795514     -7.3642482      2.3005147      50218.233      36.893836      36.893836      36.893836    
  45600000   0.41036361    -7.9772742     -7.3617376      2.3307153      50218.233      36.893836      36.893836      36.893836    
  45700000   0.41048821    -7.9798868     -7.3641632      2.3106254      50218.233      36.893836      36.893836      36.893836    
  45800000   0.40992688    -7.9782194     -7.3633379      2.3270213      50218.233      36.893836      36.893836      36.893836    
  45900000   0.41031142    -7.9785594     -7.363101       2.321899       50218.233      36.893836      36.893836      36.893836    
  46000000   0.40946214    -7.9806805     -7.366496       2.3053974      50218.233      36.893836      36.893836      36.893836    
  46100000   0.41016724    -7.97938       -7.3641379      2.3243029      50218.233      36.893836      36.893836      36.893836    
  46200000   0.41080931    -7.9766036     -7.3603984      2.340808       50218.233      36.893836      36.893836      36.893836    
  46300000   0.40951056    -7.9790554     -7.3647983      2.316719       50218.233      36.893836      36.893836      36.893836    
  46400000   0.40851877    -7.9792568     -7.3664873      2.3102632      50218.233      36.893836      36.893836      36.893836    
  46500000   0.41086215    -7.9799951     -7.3637106      2.3125242      50218.233      36.893836      36.893836      36.893836    
  46600000   0.41004342    -7.9764106     -7.3613542      2.3412426      50218.233      36.893836      36.893836      36.893836    
  46700000   0.41041401    -7.9779635     -7.3623512      2.3274965      50218.233      36.893836      36.893836      36.893836    
  46800000   0.41146781    -7.9787128     -7.3615198      2.3159285      50218.233      36.893836      36.893836      36.893836    
  46900000   0.40894046    -7.9791418     -7.3657399      2.3060289      50218.233      36.893836      36.893836      36.893836    
  47000000   0.4091828     -7.9789774     -7.3652119      2.3117618      50218.233      36.893836      36.893836      36.893836    
  47100000   0.40858355    -7.9790719     -7.3662053      2.3122536      50218.233      36.893836      36.893836      36.893836    
  47200000   0.40993903    -7.9769504     -7.3620507      2.3334169      50218.233      36.893836      36.893836      36.893836    
  47300000   0.41080713    -7.9766218     -7.3604198      2.3383179      50218.233      36.893836      36.893836      36.893836    
  47400000   0.4121028     -7.9793904     -7.361245       2.3085526      50218.233      36.893836      36.893836      36.893836    
  47500000   0.41073178    -7.9774381     -7.3613492      2.3341843      50218.233      36.893836      36.893836      36.893836    
  47600000   0.40722053    -7.9774302     -7.366608       2.3278257      50218.233      36.893836      36.893836      36.893836    
  47700000   0.41016264    -7.9788682     -7.363633       2.3068374      50218.233      36.893836      36.893836      36.893836    
  47800000   0.41237019    -7.9769631     -7.3584166      2.3393692      50218.233      36.893836      36.893836      36.893836    
  47900000   0.41000595    -7.9784218     -7.3634217      2.3195739      50218.233      36.893836      36.893836      36.893836    
  48000000   0.41106126    -7.9785847     -7.3620015      2.3197016      50218.233      36.893836      36.893836      36.893836    
  48100000   0.40907407    -7.9790039     -7.3654016      2.3083001      50218.233      36.893836      36.893836      36.893836    
  48200000   0.41163419    -7.9745289     -7.3570864      2.350978       50218.233      36.893836      36.893836      36.893836    
  48300000   0.40970781    -7.9771931     -7.3626401      2.3301587      50218.233      36.893836      36.893836      36.893836    
  48400000   0.41062009    -7.9792125     -7.3632911      2.3171279      50218.233      36.893836      36.893836      36.893836    
  48500000   0.41122631    -7.9787795     -7.3619488      2.3200511      50218.233      36.893836      36.893836      36.893836    
  48600000   0.40845303    -7.9773843     -7.3647135      2.3206527      50218.233      36.893836      36.893836      36.893836    
  48700000   0.41116733    -7.9797367     -7.3629945      2.3162235      50218.233      36.893836      36.893836      36.893836    
  48800000   0.40812903    -7.9758735     -7.3636887      2.3416037      50218.233      36.893836      36.893836      36.893836    
  48900000   0.41109626    -7.9802314     -7.3635958      2.3086502      50218.233      36.893836      36.893836      36.893836    
  49000000   0.40976336    -7.9779551     -7.3633188      2.3250107      50218.233      36.893836      36.893836      36.893836    
  49100000   0.41056976    -7.9778117     -7.3619658      2.3276798      50218.233      36.893836      36.893836      36.893836    
  49200000   0.41112646    -7.9790702     -7.3623892      2.3194608      50218.233      36.893836      36.893836      36.893836    
  49300000   0.40731988    -7.9765527     -7.3655815      2.3452528      50218.233      36.893836      36.893836      36.893836    
  49400000   0.41024726    -7.9801159     -7.3647537      2.2958547      50218.233      36.893836      36.893836      36.893836    
  49500000   0.4105851     -7.9802628     -7.3643939      2.3084293      50218.233      36.893836      36.893836      36.893836    
  49600000   0.41109816    -7.979155      -7.3625166      2.3247969      50218.233      36.893836      36.893836      36.893836    
  49700000   0.4102244     -7.9776248     -7.3622969      2.3245668      50218.233      36.893836      36.893836      36.893836    
  49800000   0.40940082    -7.9803235     -7.366231       2.3067381      50218.233      36.893836      36.893836      36.893836    
  49900000   0.41049323    -7.9800309     -7.3642998      2.3092478      50218.233      36.893836      36.893836      36.893836    
  50000000   0.4103239     -7.9761155     -7.3606384      2.3304907      50218.233      36.893836      36.893836      36.893836    
Loop time of 74932.1 on 5 procs for 50000000 steps with 70304 atoms

Performance: 576521.880 tau/day, 667.271 timesteps/s, 46.912 Matom-step/s
94.9% CPU use with 5 MPI tasks x 1 OpenMP threads

MPI task timing breakdown:
Section |  min time  |  avg time  |  max time  |%varavg| %total
---------------------------------------------------------------
Pair    | 25226      | 28489      | 29786      | 978.3 | 38.02
Neigh   | 244.93     | 265.9      | 291.08     | 109.7 |  0.35
Comm    | 11439      | 11572      | 11803      | 120.3 | 15.44
Output  | 0.089941   | 0.093109   | 0.099058   |   1.0 |  0.00
Modify  | 29654      | 30751      | 33948      | 919.8 | 41.04
Other   |            | 3854       |            |       |  5.14

Nlocal:        14060.8 ave       14128 max       14013 min
Histogram: 1 1 0 1 0 0 1 0 0 1
Nghost:        18776.8 ave       18831 max       18736 min
Histogram: 2 0 0 1 0 0 0 1 0 1
Neighs:              0 ave           0 max           0 min
Histogram: 5 0 0 0 0 0 0 0 0 0

Total # of neighbors = 0
Ave neighs/atom = 0
Neighbor list builds = 9712497
Dangerous builds = 0
Total wall time: 151:34:41
