variable TLJ equal (${T}/1000)
variable TLJ equal (450/1000)
variable NCyle equal 8
variable iStep equal (${f})
variable iStep equal (10000)
variable dumpStep equal (${f}*100)
variable dumpStep equal (10000*100)
variable runStep equal (${f}*100*${NCyle})
variable runStep equal (10000*100*${NCyle})
variable runStep equal (10000*100*8)

units       lj
atom_style  atomic
dimension 3
boundary     p p p
pair_style  lj/cut 2.5
read_data  ../data/T${T}.dat
read_data  ../data/T450.dat
Reading data file ...
  orthogonal box = (0.97250269 0.97250269 0.97250269) to (37.866338 37.866338 37.866338)
  1 by 1 by 5 MPI processor grid
  reading atoms ...
  70304 atoms
  reading velocities ...
  70304 velocities
  read_data CPU = 0.211 seconds
change_box all triclinic
Changing box ...
  triclinic box = (0.97250269 0.97250269 0.97250269) to (37.866338 37.866338 37.866338) with tilt (0 0 0)
mass 1 1
mass 2 1
pair_modify shift yes
pair_coeff  1 1 1 1
pair_coeff  1 2 1.5 0.8
pair_coeff  2 2 0.5 0.88


timestep 0.01
thermo ${iStep}
thermo 10000
reset_timestep 0
thermo_style custom step temp pe etotal press vol lx ly lz
fix             1 all nvt temp ${TLJ}  ${TLJ}  0.1
fix             1 all nvt temp 0.45  ${TLJ}  0.1
fix             1 all nvt temp 0.45  0.45  0.1
thermo_modify flush yes

fix dsf all deform 1 xy  wiggle 0.5  ${f}   units box
fix dsf all deform 1 xy  wiggle 0.5  10000   units box
fix ps1 all ave/time 1 1 ${iStep} c_thermo_press[1] c_thermo_press[2]  c_thermo_press[3] c_thermo_press[4]  c_thermo_press[5] c_thermo_press[6]  file  stress.${T}
fix ps1 all ave/time 1 1 10000 c_thermo_press[1] c_thermo_press[2]  c_thermo_press[3] c_thermo_press[4]  c_thermo_press[5] c_thermo_press[6]  file  stress.${T}
fix ps1 all ave/time 1 1 10000 c_thermo_press[1] c_thermo_press[2]  c_thermo_press[3] c_thermo_press[4]  c_thermo_press[5] c_thermo_press[6]  file  stress.450
dump            1 all custom ${dumpStep} dump.${T} id type x y z
dump            1 all custom 1000000 dump.${T} id type x y z
dump            1 all custom 1000000 dump.450 id type x y z
dump_modify 1 sort id
fix nodrift all momentum 1  linear 1 1 1
fix com_seed all recenter INIT INIT INIT shift all
run ${runStep}
run 8000000
Generated 0 of 1 mixed pair_coeff terms from geometric mixing rule
Per MPI rank memory allocation (min/avg/max) = 8.916 | 8.919 | 8.923 Mbytes
   Step          Temp          PotEng         TotEng         Press          Volume           Lx             Ly             Lz      
         0   0.44832476    -7.915889      -7.2434115      2.8432628      50218.233      36.893836      36.893836      36.893836    
     10000   0.4505143     -7.9103923     -7.2346305      2.8918476      50218.233      36.893836      36.893836      36.893836    
     20000   0.44968581    -7.9110773     -7.2365582      2.8805856      50218.233      36.893836      36.893836      36.893836    
     30000   0.45088973    -7.9079412     -7.2316163      2.9073682      50218.233      36.893836      36.893836      36.893836    
     40000   0.44949322    -7.9077077     -7.2334774      2.9013805      50218.233      36.893836      36.893836      36.893836    
     50000   0.45042279    -7.9104343     -7.2348097      2.8820858      50218.233      36.893836      36.893836      36.893836    
     60000   0.45161343    -7.9088761     -7.2314656      2.9034067      50218.233      36.893836      36.893836      36.893836    
     70000   0.44874555    -7.908889      -7.2357802      2.8934494      50218.233      36.893836      36.893836      36.893836    
     80000   0.45106509    -7.9062994     -7.2297114      2.9124414      50218.233      36.893836      36.893836      36.893836    
     90000   0.44961687    -7.9075384     -7.2331227      2.8980764      50218.233      36.893836      36.893836      36.893836    
    100000   0.45033925    -7.910464      -7.2349647      2.8831479      50218.233      36.893836      36.893836      36.893836    
    110000   0.44956025    -7.9081258     -7.233795       2.8988768      50218.233      36.893836      36.893836      36.893836    
    120000   0.44907727    -7.9073602     -7.2337539      2.9176051      50218.233      36.893836      36.893836      36.893836    
    130000   0.44820808    -7.9112145     -7.238912       2.8802805      50218.233      36.893836      36.893836      36.893836    
    140000   0.44800076    -7.9101198     -7.2381283      2.8807721      50218.233      36.893836      36.893836      36.893836    
    150000   0.45081443    -7.9076896     -7.2314776      2.904336       50218.233      36.893836      36.893836      36.893836    
    160000   0.45072382    -7.9079325     -7.2318564      2.9043197      50218.233      36.893836      36.893836      36.893836    
    170000   0.45078793    -7.9073845     -7.2312122      2.9064118      50218.233      36.893836      36.893836      36.893836    
    180000   0.44741464    -7.912878      -7.2417656      2.8690139      50218.233      36.893836      36.893836      36.893836    
    190000   0.4502099     -7.9058049     -7.2304997      2.9217985      50218.233      36.893836      36.893836      36.893836    
    200000   0.44848348    -7.9063975     -7.2336818      2.9154493      50218.233      36.893836      36.893836      36.893836    
    210000   0.45061743    -7.9101712     -7.2342546      2.8794891      50218.233      36.893836      36.893836      36.893836    
    220000   0.44736434    -7.9094689     -7.2384319      2.8907166      50218.233      36.893836      36.893836      36.893836    
    230000   0.44992721    -7.9106821     -7.2358009      2.8743777      50218.233      36.893836      36.893836      36.893836    
    240000   0.45248617    -7.9106796     -7.23196        2.8892775      50218.233      36.893836      36.893836      36.893836    
    250000   0.44822593    -7.9064367     -7.2341074      2.9173857      50218.233      36.893836      36.893836      36.893836    
    260000   0.4498303     -7.9077885     -7.2330526      2.9163406      50218.233      36.893836      36.893836      36.893836    
    270000   0.45295958    -7.9084488     -7.2290191      2.9094824      50218.233      36.893836      36.893836      36.893836    
    280000   0.44761826    -7.910035      -7.2386172      2.884783       50218.233      36.893836      36.893836      36.893836    
    290000   0.45175523    -7.9061246     -7.2285014      2.914058       50218.233      36.893836      36.893836      36.893836    
    300000   0.45178574    -7.9095803     -7.2319113      2.9005432      50218.233      36.893836      36.893836      36.893836    
    310000   0.45077974    -7.9057315     -7.2295715      2.9194889      50218.233      36.893836      36.893836      36.893836    
    320000   0.45064164    -7.908403      -7.2324502      2.9032603      50218.233      36.893836      36.893836      36.893836    
    330000   0.45021599    -7.9094197     -7.2341053      2.8912833      50218.233      36.893836      36.893836      36.893836    
    340000   0.44761794    -7.9091927     -7.2377753      2.8870291      50218.233      36.893836      36.893836      36.893836    
    350000   0.45047695    -7.9105217     -7.2348159      2.8883004      50218.233      36.893836      36.893836      36.893836    
    360000   0.44968244    -7.9120637     -7.2375496      2.8677497      50218.233      36.893836      36.893836      36.893836    
    370000   0.44928448    -7.9079539     -7.2340368      2.8963008      50218.233      36.893836      36.893836      36.893836    
    380000   0.45011571    -7.9069485     -7.2317845      2.9089387      50218.233      36.893836      36.893836      36.893836    
    390000   0.45172699    -7.912826      -7.2352452      2.8730959      50218.233      36.893836      36.893836      36.893836    
    400000   0.44956906    -7.911733      -7.237389       2.8794222      50218.233      36.893836      36.893836      36.893836    
    410000   0.4505911     -7.9087828     -7.2329057      2.8995383      50218.233      36.893836      36.893836      36.893836    
    420000   0.44798305    -7.9119857     -7.2400207      2.8720129      50218.233      36.893836      36.893836      36.893836    
    430000   0.45112198    -7.9087834     -7.2321101      2.8979711      50218.233      36.893836      36.893836      36.893836    
    440000   0.45151518    -7.9129204     -7.2356572      2.8731227      50218.233      36.893836      36.893836      36.893836    
    450000   0.44923689    -7.9094637     -7.2356179      2.8904601      50218.233      36.893836      36.893836      36.893836    
    460000   0.45137215    -7.9110376     -7.233989       2.8815072      50218.233      36.893836      36.893836      36.893836    
    470000   0.45062611    -7.9128106     -7.236881       2.8653063      50218.233      36.893836      36.893836      36.893836    
    480000   0.45086969    -7.9077604     -7.2314655      2.9046261      50218.233      36.893836      36.893836      36.893836    
    490000   0.44879858    -7.9095053     -7.236317       2.8885068      50218.233      36.893836      36.893836      36.893836    
    500000   0.44971117    -7.9109655     -7.2364084      2.8714939      50218.233      36.893836      36.893836      36.893836    
    510000   0.44972648    -7.9068548     -7.2322747      2.9185428      50218.233      36.893836      36.893836      36.893836    
    520000   0.45244725    -7.9127193     -7.2340581      2.8727373      50218.233      36.893836      36.893836      36.893836    
    530000   0.45004939    -7.9055567     -7.2304922      2.9236076      50218.233      36.893836      36.893836      36.893836    
    540000   0.45127793    -7.9101044     -7.2331972      2.8896778      50218.233      36.893836      36.893836      36.893836    
    550000   0.4488445     -7.9090855     -7.2358283      2.8918415      50218.233      36.893836      36.893836      36.893836    
    560000   0.44827758    -7.9097017     -7.2372949      2.8888737      50218.233      36.893836      36.893836      36.893836    
    570000   0.44919494    -7.9073908     -7.233608       2.9059093      50218.233      36.893836      36.893836      36.893836    
    580000   0.4514967     -7.9101616     -7.2329262      2.8804606      50218.233      36.893836      36.893836      36.893836    
    590000   0.44995928    -7.9093406     -7.2344113      2.8829311      50218.233      36.893836      36.893836      36.893836    
    600000   0.44814398    -7.9085248     -7.2363184      2.889591       50218.233      36.893836      36.893836      36.893836    
    610000   0.45050181    -7.9068268     -7.2310837      2.9082155      50218.233      36.893836      36.893836      36.893836    
    620000   0.45220368    -7.9101916     -7.2318958      2.890705       50218.233      36.893836      36.893836      36.893836    
    630000   0.44986423    -7.906571      -7.2317842      2.8985045      50218.233      36.893836      36.893836      36.893836    
    640000   0.44947145    -7.9090444     -7.2348468      2.8946541      50218.233      36.893836      36.893836      36.893836    
    650000   0.45216007    -7.9098372     -7.2316068      2.8985525      50218.233      36.893836      36.893836      36.893836    
    660000   0.44793018    -7.9096523     -7.2377666      2.8885202      50218.233      36.893836      36.893836      36.893836    
    670000   0.45153195    -7.9069339     -7.2296457      2.9166352      50218.233      36.893836      36.893836      36.893836    
    680000   0.45182804    -7.9119477     -7.2342153      2.8665843      50218.233      36.893836      36.893836      36.893836    
    690000   0.44851827    -7.9109911     -7.2382233      2.8781912      50218.233      36.893836      36.893836      36.893836    
    700000   0.44903825    -7.9106994     -7.2371516      2.8759196      50218.233      36.893836      36.893836      36.893836    
    710000   0.44820796    -7.9082307     -7.2359283      2.8996937      50218.233      36.893836      36.893836      36.893836    
    720000   0.45154591    -7.9071318     -7.2298225      2.9147676      50218.233      36.893836      36.893836      36.893836    
    730000   0.45153998    -7.9103622     -7.2330619      2.890655       50218.233      36.893836      36.893836      36.893836    
    740000   0.4492635     -7.9112818     -7.2373961      2.8678291      50218.233      36.893836      36.893836      36.893836    
    750000   0.44970734    -7.9074169     -7.2328655      2.9100062      50218.233      36.893836      36.893836      36.893836    
    760000   0.45022663    -7.9094486     -7.2341182      2.883391       50218.233      36.893836      36.893836      36.893836    
    770000   0.45002136    -7.9110012     -7.2359788      2.8745231      50218.233      36.893836      36.893836      36.893836    
    780000   0.44872434    -7.9094036     -7.2363267      2.8955631      50218.233      36.893836      36.893836      36.893836    
    790000   0.45167827    -7.9110993     -7.2335915      2.8874959      50218.233      36.893836      36.893836      36.893836    
    800000   0.44754519    -7.9069266     -7.2356184      2.8991865      50218.233      36.893836      36.893836      36.893836    
    810000   0.44737199    -7.9101425     -7.2390941      2.8782136      50218.233      36.893836      36.893836      36.893836    
    820000   0.45053078    -7.9094297     -7.2336432      2.8928323      50218.233      36.893836      36.893836      36.893836    
    830000   0.44957667    -7.9114609     -7.2371055      2.8794034      50218.233      36.893836      36.893836      36.893836    
    840000   0.45037916    -7.9066373     -7.2310781      2.9031965      50218.233      36.893836      36.893836      36.893836    
    850000   0.44691168    -7.9086566     -7.2382987      2.8852986      50218.233      36.893836      36.893836      36.893836    
    860000   0.44697798    -7.9067738     -7.2363164      2.9111544      50218.233      36.893836      36.893836      36.893836    
    870000   0.4517175     -7.9111675     -7.2336009      2.8836842      50218.233      36.893836      36.893836      36.893836    
    880000   0.45058732    -7.9071606     -7.2312892      2.9077697      50218.233      36.893836      36.893836      36.893836    
    890000   0.45263086    -7.9085501     -7.2296134      2.8901457      50218.233      36.893836      36.893836      36.893836    
    900000   0.45034045    -7.9094756     -7.2339745      2.8796115      50218.233      36.893836      36.893836      36.893836    
    910000   0.45072563    -7.9092905     -7.2332117      2.8970623      50218.233      36.893836      36.893836      36.893836    
    920000   0.45097061    -7.9071809     -7.2307346      2.9032743      50218.233      36.893836      36.893836      36.893836    
    930000   0.45104337    -7.907698      -7.2311426      2.9013755      50218.233      36.893836      36.893836      36.893836    
    940000   0.44920839    -7.909543      -7.23574        2.886228       50218.233      36.893836      36.893836      36.893836    
    950000   0.45159226    -7.9129058     -7.235527       2.8710502      50218.233      36.893836      36.893836      36.893836    
    960000   0.45150761    -7.9086949     -7.2314431      2.8945233      50218.233      36.893836      36.893836      36.893836    
    970000   0.45020861    -7.9124045     -7.2371012      2.8756496      50218.233      36.893836      36.893836      36.893836    
    980000   0.44961009    -7.9073796     -7.2329741      2.8991596      50218.233      36.893836      36.893836      36.893836    
    990000   0.45094368    -7.9112445     -7.2348386      2.8768951      50218.233      36.893836      36.893836      36.893836    
   1000000   0.44877821    -7.9141717     -7.2410139      2.8527533      50218.233      36.893836      36.893836      36.893836    
   1010000   0.44990795    -7.9070814     -7.232229       2.9151001      50218.233      36.893836      36.893836      36.893836    
   1020000   0.45025744    -7.9118975     -7.236521       2.8757801      50218.233      36.893836      36.893836      36.893836    
   1030000   0.45250267    -7.9126416     -7.2338973      2.8738677      50218.233      36.893836      36.893836      36.893836    
   1040000   0.45153651    -7.9087077     -7.2314125      2.8955308      50218.233      36.893836      36.893836      36.893836    
   1050000   0.45018035    -7.909789      -7.234528       2.8906484      50218.233      36.893836      36.893836      36.893836    
   1060000   0.45099365    -7.910964      -7.2344831      2.8711611      50218.233      36.893836      36.893836      36.893836    
   1070000   0.44984733    -7.9067221     -7.2319607      2.912547       50218.233      36.893836      36.893836      36.893836    
   1080000   0.45071149    -7.9065587     -7.2305011      2.9128758      50218.233      36.893836      36.893836      36.893836    
   1090000   0.44835221    -7.9073165     -7.2347978      2.890969       50218.233      36.893836      36.893836      36.893836    
   1100000   0.45115455    -7.908129      -7.2314068      2.9008381      50218.233      36.893836      36.893836      36.893836    
   1110000   0.45036561    -7.907338      -7.2317992      2.9017701      50218.233      36.893836      36.893836      36.893836    
   1120000   0.45155256    -7.9061959     -7.2288767      2.9144021      50218.233      36.893836      36.893836      36.893836    
   1130000   0.45097827    -7.9103889     -7.2339311      2.8859899      50218.233      36.893836      36.893836      36.893836    
   1140000   0.44607782    -7.9060526     -7.2369454      2.9169963      50218.233      36.893836      36.893836      36.893836    
   1150000   0.45184091    -7.9097601     -7.2320084      2.8899074      50218.233      36.893836      36.893836      36.893836    
   1160000   0.45362131    -7.9073161     -7.2268938      2.9229838      50218.233      36.893836      36.893836      36.893836    
   1170000   0.45083851    -7.9059195     -7.2296714      2.9222751      50218.233      36.893836      36.893836      36.893836    
   1180000   0.45194833    -7.9124858     -7.234573       2.8631992      50218.233      36.893836      36.893836      36.893836    
   1190000   0.45065674    -7.9066866     -7.2307111      2.9055349      50218.233      36.893836      36.893836      36.893836    
   1200000   0.44887542    -7.9070107     -7.2337072      2.8945211      50218.233      36.893836      36.893836      36.893836    
   1210000   0.45049631    -7.912104      -7.2363692      2.8821083      50218.233      36.893836      36.893836      36.893836    
   1220000   0.45024931    -7.9088598     -7.2334955      2.8928655      50218.233      36.893836      36.893836      36.893836    
   1230000   0.44865271    -7.9056921     -7.2327226      2.9160522      50218.233      36.893836      36.893836      36.893836    
   1240000   0.44937634    -7.9059544     -7.2318994      2.9190467      50218.233      36.893836      36.893836      36.893836    
   1250000   0.4514487     -7.9113288     -7.2341654      2.8853381      50218.233      36.893836      36.893836      36.893836    
   1260000   0.44718599    -7.9099754     -7.2392059      2.8801193      50218.233      36.893836      36.893836      36.893836    
   1270000   0.44882633    -7.9102251     -7.2369952      2.8886239      50218.233      36.893836      36.893836      36.893836    
   1280000   0.4493969     -7.9110113     -7.2369256      2.8768905      50218.233      36.893836      36.893836      36.893836    
   1290000   0.45024327    -7.9103449     -7.2349896      2.8826902      50218.233      36.893836      36.893836      36.893836    
   1300000   0.45188147    -7.9092108     -7.2313982      2.8939233      50218.233      36.893836      36.893836      36.893836    
   1310000   0.45171105    -7.9096395     -7.2320826      2.8855064      50218.233      36.893836      36.893836      36.893836    
   1320000   0.44977124    -7.9098691     -7.2352219      2.8810322      50218.233      36.893836      36.893836      36.893836    
   1330000   0.44916251    -7.9121073     -7.2383731      2.872812       50218.233      36.893836      36.893836      36.893836    
   1340000   0.45140414    -7.9057247     -7.2286281      2.922325       50218.233      36.893836      36.893836      36.893836    
   1350000   0.45018727    -7.910966      -7.2356947      2.8780004      50218.233      36.893836      36.893836      36.893836    
   1360000   0.44890545    -7.9088273     -7.2354788      2.8971809      50218.233      36.893836      36.893836      36.893836    
   1370000   0.45014057    -7.9122802     -7.237079       2.8766415      50218.233      36.893836      36.893836      36.893836    
   1380000   0.44985744    -7.9092133     -7.2344368      2.8866882      50218.233      36.893836      36.893836      36.893836    
   1390000   0.45023997    -7.9087953     -7.233445       2.8983584      50218.233      36.893836      36.893836      36.893836    
   1400000   0.4500791     -7.9095924     -7.2344834      2.888836       50218.233      36.893836      36.893836      36.893836    
   1410000   0.45028486    -7.9108462     -7.2354285      2.8895568      50218.233      36.893836      36.893836      36.893836    
   1420000   0.45166053    -7.9079314     -7.2304502      2.9093496      50218.233      36.893836      36.893836      36.893836    
   1430000   0.45077642    -7.9099763     -7.2338213      2.8870024      50218.233      36.893836      36.893836      36.893836    
   1440000   0.45017992    -7.9094884     -7.2342282      2.8876543      50218.233      36.893836      36.893836      36.893836    
   1450000   0.45139122    -7.9095191     -7.2324419      2.8998625      50218.233      36.893836      36.893836      36.893836    
   1460000   0.44988752    -7.9092591     -7.2344374      2.8908591      50218.233      36.893836      36.893836      36.893836    
   1470000   0.44865188    -7.9088877     -7.2359195      2.8929248      50218.233      36.893836      36.893836      36.893836    
   1480000   0.45015735    -7.908153      -7.2329265      2.8975404      50218.233      36.893836      36.893836      36.893836    
   1490000   0.44850872    -7.9135358     -7.2407823      2.8599231      50218.233      36.893836      36.893836      36.893836    
   1500000   0.45043764    -7.909261      -7.2336141      2.8992812      50218.233      36.893836      36.893836      36.893836    
   1510000   0.44805449    -7.9103409     -7.2382688      2.8751005      50218.233      36.893836      36.893836      36.893836    
   1520000   0.450311      -7.9119797     -7.2365228      2.8697963      50218.233      36.893836      36.893836      36.893836    
   1530000   0.44965189    -7.9065723     -7.2321041      2.9093425      50218.233      36.893836      36.893836      36.893836    
   1540000   0.45193317    -7.9104149     -7.2325248      2.8818796      50218.233      36.893836      36.893836      36.893836    
   1550000   0.44985514    -7.9069655     -7.2321924      2.920941       50218.233      36.893836      36.893836      36.893836    
   1560000   0.44898599    -7.9141839     -7.2407145      2.8532469      50218.233      36.893836      36.893836      36.893836    
   1570000   0.44988872    -7.9125193     -7.2376958      2.8618999      50218.233      36.893836      36.893836      36.893836    
   1580000   0.45101835    -7.9118726     -7.2353547      2.8701475      50218.233      36.893836      36.893836      36.893836    
   1590000   0.44916595    -7.9086645     -7.2349251      2.9010036      50218.233      36.893836      36.893836      36.893836    
   1600000   0.44809981    -7.9097403     -7.2376001      2.8894524      50218.233      36.893836      36.893836      36.893836    
   1610000   0.45046468    -7.9099621     -7.2342747      2.896402       50218.233      36.893836      36.893836      36.893836    
   1620000   0.45141398    -7.9085257     -7.2314143      2.9023166      50218.233      36.893836      36.893836      36.893836    
   1630000   0.44817366    -7.9082625     -7.2360115      2.8933182      50218.233      36.893836      36.893836      36.893836    
   1640000   0.45097856    -7.9087787     -7.2323204      2.8865115      50218.233      36.893836      36.893836      36.893836    
   1650000   0.44929288    -7.9064356     -7.2325058      2.9107921      50218.233      36.893836      36.893836      36.893836    
   1660000   0.44938325    -7.9100093     -7.235944       2.8856702      50218.233      36.893836      36.893836      36.893836    
   1670000   0.44882639    -7.9087497     -7.2355197      2.9003407      50218.233      36.893836      36.893836      36.893836    
   1680000   0.45018199    -7.909186      -7.2339226      2.8982929      50218.233      36.893836      36.893836      36.893836    
   1690000   0.45017295    -7.905044      -7.2297941      2.9178951      50218.233      36.893836      36.893836      36.893836    
   1700000   0.4526009     -7.9079099     -7.2290182      2.910701       50218.233      36.893836      36.893836      36.893836    
   1710000   0.44911907    -7.9109914     -7.2373224      2.8784394      50218.233      36.893836      36.893836      36.893836    
   1720000   0.45216996    -7.9056565     -7.2274112      2.9168503      50218.233      36.893836      36.893836      36.893836    
   1730000   0.4512381     -7.9111158     -7.2342683      2.8791106      50218.233      36.893836      36.893836      36.893836    
   1740000   0.44968988    -7.9108569     -7.2363317      2.8861276      50218.233      36.893836      36.893836      36.893836    
   1750000   0.45046613    -7.9067168     -7.2310272      2.9136211      50218.233      36.893836      36.893836      36.893836    
   1760000   0.44980065    -7.9105144     -7.235823       2.8806223      50218.233      36.893836      36.893836      36.893836    
   1770000   0.45090346    -7.9122573     -7.2359117      2.8668141      50218.233      36.893836      36.893836      36.893836    
   1780000   0.45024165    -7.9120178     -7.236665       2.8791344      50218.233      36.893836      36.893836      36.893836    
   1790000   0.45130783    -7.9048823     -7.2279302      2.9218588      50218.233      36.893836      36.893836      36.893836    
   1800000   0.44902845    -7.9116617     -7.2381286      2.8763089      50218.233      36.893836      36.893836      36.893836    
   1810000   0.44818518    -7.9130234     -7.2407552      2.8759988      50218.233      36.893836      36.893836      36.893836    
   1820000   0.45248568    -7.9096818     -7.2309629      2.8815986      50218.233      36.893836      36.893836      36.893836    
   1830000   0.45197333    -7.9099167     -7.2319663      2.8891206      50218.233      36.893836      36.893836      36.893836    
   1840000   0.45018343    -7.9107236     -7.235458       2.8776045      50218.233      36.893836      36.893836      36.893836    
   1850000   0.45073627    -7.9087189     -7.2326241      2.9004241      50218.233      36.893836      36.893836      36.893836    
   1860000   0.4513496     -7.9049682     -7.2279534      2.9294407      50218.233      36.893836      36.893836      36.893836    
   1870000   0.44954953    -7.907657      -7.2333423      2.9021659      50218.233      36.893836      36.893836      36.893836    
   1880000   0.44930154    -7.9107623     -7.2368195      2.889356       50218.233      36.893836      36.893836      36.893836    
   1890000   0.45104155    -7.9089154     -7.2323627      2.8917041      50218.233      36.893836      36.893836      36.893836    
   1900000   0.4496759     -7.9132916     -7.2387873      2.8555431      50218.233      36.893836      36.893836      36.893836    
   1910000   0.44870116    -7.9098411     -7.2367989      2.884619       50218.233      36.893836      36.893836      36.893836    
   1920000   0.44836509    -7.9091586     -7.2366205      2.8892234      50218.233      36.893836      36.893836      36.893836    
   1930000   0.44945975    -7.9114823     -7.2373023      2.8803043      50218.233      36.893836      36.893836      36.893836    
   1940000   0.44674217    -7.909851      -7.2397472      2.8849675      50218.233      36.893836      36.893836      36.893836    
   1950000   0.45129627    -7.9102246     -7.2332898      2.8923419      50218.233      36.893836      36.893836      36.893836    
   1960000   0.44989162    -7.9119013     -7.2370735      2.8729722      50218.233      36.893836      36.893836      36.893836    
   1970000   0.45128147    -7.911271      -7.2343584      2.8710629      50218.233      36.893836      36.893836      36.893836    
   1980000   0.45047408    -7.9096204     -7.2339189      2.8812034      50218.233      36.893836      36.893836      36.893836    
   1990000   0.45030018    -7.9117162     -7.2362755      2.8729806      50218.233      36.893836      36.893836      36.893836    
   2000000   0.44968122    -7.9067256     -7.2322134      2.9083788      50218.233      36.893836      36.893836      36.893836    
   2010000   0.45190205    -7.9102947     -7.2324513      2.8856793      50218.233      36.893836      36.893836      36.893836    
   2020000   0.4486107     -7.9081718     -7.2352653      2.8810383      50218.233      36.893836      36.893836      36.893836    
   2030000   0.45092761    -7.9081617     -7.23178        2.895978       50218.233      36.893836      36.893836      36.893836    
   2040000   0.44868219    -7.9065458     -7.2335321      2.921059       50218.233      36.893836      36.893836      36.893836    
   2050000   0.45202013    -7.9100849     -7.2320643      2.8840237      50218.233      36.893836      36.893836      36.893836    
   2060000   0.44859059    -7.9115156     -7.2386393      2.8714863      50218.233      36.893836      36.893836      36.893836    
   2070000   0.45022901    -7.9071956     -7.2318617      2.9051873      50218.233      36.893836      36.893836      36.893836    
   2080000   0.45149147    -7.9092028     -7.2319752      2.8913674      50218.233      36.893836      36.893836      36.893836    
   2090000   0.45053962    -7.9122603     -7.2364604      2.8715215      50218.233      36.893836      36.893836      36.893836    
   2100000   0.45064333    -7.9063584     -7.230403       2.911407       50218.233      36.893836      36.893836      36.893836    
   2110000   0.45280326    -7.9094495     -7.2302543      2.8910889      50218.233      36.893836      36.893836      36.893836    
   2120000   0.45015627    -7.9096569     -7.2344321      2.8855799      50218.233      36.893836      36.893836      36.893836    
   2130000   0.44994419    -7.9062024     -7.2312957      2.9072104      50218.233      36.893836      36.893836      36.893836    
   2140000   0.45079859    -7.906756      -7.2305677      2.9045217      50218.233      36.893836      36.893836      36.893836    
   2150000   0.44976079    -7.9057403     -7.2311087      2.9229668      50218.233      36.893836      36.893836      36.893836    
   2160000   0.44767606    -7.9056337     -7.2341292      2.9264106      50218.233      36.893836      36.893836      36.893836    
   2170000   0.45019682    -7.909388      -7.2341023      2.8824007      50218.233      36.893836      36.893836      36.893836    
   2180000   0.44972191    -7.9066565     -7.2320832      2.9119407      50218.233      36.893836      36.893836      36.893836    
   2190000   0.44802396    -7.9050369     -7.2330105      2.9136405      50218.233      36.893836      36.893836      36.893836    
   2200000   0.45093262    -7.9068673     -7.230478       2.9073888      50218.233      36.893836      36.893836      36.893836    
   2210000   0.45119375    -7.9108456     -7.2340646      2.8746014      50218.233      36.893836      36.893836      36.893836    
   2220000   0.45050818    -7.9085378     -7.2327852      2.8924434      50218.233      36.893836      36.893836      36.893836    
   2230000   0.45023       -7.910468      -7.2351326      2.8822764      50218.233      36.893836      36.893836      36.893836    
   2240000   0.45141958    -7.9076011     -7.2304814      2.9092917      50218.233      36.893836      36.893836      36.893836    
   2250000   0.45123885    -7.9107425     -7.2338938      2.8807588      50218.233      36.893836      36.893836      36.893836    
   2260000   0.4487809     -7.9085568     -7.2353951      2.8901601      50218.233      36.893836      36.893836      36.893836    
   2270000   0.44902798    -7.9057678     -7.2322354      2.9159335      50218.233      36.893836      36.893836      36.893836    
   2280000   0.44834785    -7.9071556     -7.2346434      2.9061391      50218.233      36.893836      36.893836      36.893836    
   2290000   0.4481313     -7.9047362     -7.2325488      2.9284478      50218.233      36.893836      36.893836      36.893836    
   2300000   0.45361704    -7.9083865     -7.2279706      2.9087127      50218.233      36.893836      36.893836      36.893836    
   2310000   0.44972197    -7.9098868     -7.2353134      2.8847414      50218.233      36.893836      36.893836      36.893836    
   2320000   0.44903206    -7.9105981     -7.2370596      2.8819983      50218.233      36.893836      36.893836      36.893836    
   2330000   0.45137104    -7.9093997     -7.2323527      2.8905727      50218.233      36.893836      36.893836      36.893836    
   2340000   0.45015914    -7.9089398     -7.2337107      2.8923892      50218.233      36.893836      36.893836      36.893836    
   2350000   0.45009248    -7.9142719     -7.2391428      2.8482322      50218.233      36.893836      36.893836      36.893836    
   2360000   0.4491741     -7.9079686     -7.2342171      2.8901698      50218.233      36.893836      36.893836      36.893836    
   2370000   0.44896163    -7.9095901     -7.2361572      2.8911846      50218.233      36.893836      36.893836      36.893836    
   2380000   0.45209451    -7.90755       -7.2294179      2.9075682      50218.233      36.893836      36.893836      36.893836    
   2390000   0.45191987    -7.9088166     -7.2309464      2.8935758      50218.233      36.893836      36.893836      36.893836    
   2400000   0.45028047    -7.9087625     -7.2333514      2.8973587      50218.233      36.893836      36.893836      36.893836    
   2410000   0.44936756    -7.9077745     -7.2337328      2.9017508      50218.233      36.893836      36.893836      36.893836    
   2420000   0.45033644    -7.9087957     -7.2333007      2.8928219      50218.233      36.893836      36.893836      36.893836    
   2430000   0.45063408    -7.9103767     -7.2344352      2.8984438      50218.233      36.893836      36.893836      36.893836    
   2440000   0.45023875    -7.9094649     -7.2341164      2.8894104      50218.233      36.893836      36.893836      36.893836    
   2450000   0.44750674    -7.9107405     -7.2394899      2.8750283      50218.233      36.893836      36.893836      36.893836    
   2460000   0.44905022    -7.9065142     -7.2329484      2.9182251      50218.233      36.893836      36.893836      36.893836    
   2470000   0.44883481    -7.9100599     -7.2368172      2.8797549      50218.233      36.893836      36.893836      36.893836    
   2480000   0.4516278     -7.9117966     -7.2343645      2.8729952      50218.233      36.893836      36.893836      36.893836    
   2490000   0.45084389    -7.9067363     -7.2304801      2.9147763      50218.233      36.893836      36.893836      36.893836    
   2500000   0.45140967    -7.9098374     -7.2327325      2.8911385      50218.233      36.893836      36.893836      36.893836    
   2510000   0.45086875    -7.9092976     -7.2330041      2.8894813      50218.233      36.893836      36.893836      36.893836    
   2520000   0.44957839    -7.9105602     -7.2362022      2.8858252      50218.233      36.893836      36.893836      36.893836    
   2530000   0.44918772    -7.9083973     -7.2346253      2.8943232      50218.233      36.893836      36.893836      36.893836    
   2540000   0.44916079    -7.9051299     -7.2313983      2.9201486      50218.233      36.893836      36.893836      36.893836    
   2550000   0.45046018    -7.9071448     -7.2314641      2.894389       50218.233      36.893836      36.893836      36.893836    
   2560000   0.45194838    -7.9104072     -7.2324943      2.8815968      50218.233      36.893836      36.893836      36.893836    
   2570000   0.45076488    -7.9103821     -7.2342444      2.8885863      50218.233      36.893836      36.893836      36.893836    
   2580000   0.45023276    -7.907339      -7.2319995      2.8955764      50218.233      36.893836      36.893836      36.893836    
   2590000   0.45163998    -7.9072153     -7.2297649      2.908623       50218.233      36.893836      36.893836      36.893836    
   2600000   0.4496812     -7.9090398     -7.2345276      2.8978098      50218.233      36.893836      36.893836      36.893836    
   2610000   0.45032085    -7.9103761     -7.2349044      2.8879229      50218.233      36.893836      36.893836      36.893836    
   2620000   0.44993177    -7.9055355     -7.2306474      2.9246753      50218.233      36.893836      36.893836      36.893836    
   2630000   0.45054484    -7.9108908     -7.2350832      2.879869       50218.233      36.893836      36.893836      36.893836    
   2640000   0.45065839    -7.9095584     -7.2335805      2.8889274      50218.233      36.893836      36.893836      36.893836    
   2650000   0.45011565    -7.9076868     -7.232523       2.895302       50218.233      36.893836      36.893836      36.893836    
   2660000   0.45115241    -7.9073643     -7.2306453      2.9090411      50218.233      36.893836      36.893836      36.893836    
   2670000   0.45167827    -7.9039164     -7.2264086      2.9295897      50218.233      36.893836      36.893836      36.893836    
   2680000   0.44986351    -7.9104391     -7.2356534      2.8801945      50218.233      36.893836      36.893836      36.893836    
   2690000   0.44978095    -7.9108773     -7.2362155      2.874521       50218.233      36.893836      36.893836      36.893836    
   2700000   0.44675901    -7.9068573     -7.2367283      2.8904887      50218.233      36.893836      36.893836      36.893836    
   2710000   0.45128169    -7.905871      -7.2289581      2.9210845      50218.233      36.893836      36.893836      36.893836    
   2720000   0.4498698     -7.9108758     -7.2360807      2.8707451      50218.233      36.893836      36.893836      36.893836    
   2730000   0.45168698    -7.9105719     -7.233051       2.8936306      50218.233      36.893836      36.893836      36.893836    
   2740000   0.45025017    -7.9087392     -7.2333735      2.8851801      50218.233      36.893836      36.893836      36.893836    
   2750000   0.44694721    -7.9062162     -7.2358049      2.8974798      50218.233      36.893836      36.893836      36.893836    
   2760000   0.45163668    -7.9079209     -7.2304755      2.9041423      50218.233      36.893836      36.893836      36.893836    
   2770000   0.44827124    -7.9082059     -7.2358086      2.8929934      50218.233      36.893836      36.893836      36.893836    
   2780000   0.44963303    -7.9069587     -7.2325187      2.9087667      50218.233      36.893836      36.893836      36.893836    
   2790000   0.45257892    -7.9094205     -7.2305617      2.8932909      50218.233      36.893836      36.893836      36.893836    
   2800000   0.44805753    -7.9075522     -7.2354755      2.8997665      50218.233      36.893836      36.893836      36.893836    
   2810000   0.44979951    -7.905821      -7.2311314      2.9085844      50218.233      36.893836      36.893836      36.893836    
   2820000   0.44970795    -7.906426      -7.2318737      2.90673        50218.233      36.893836      36.893836      36.893836    
   2830000   0.45064061    -7.9097029     -7.2337516      2.8888191      50218.233      36.893836      36.893836      36.893836    
   2840000   0.44901719    -7.9083104     -7.2347942      2.8999782      50218.233      36.893836      36.893836      36.893836    
   2850000   0.45069007    -7.9012988     -7.2252733      2.94075        50218.233      36.893836      36.893836      36.893836    
   2860000   0.45045421    -7.9071828     -7.2315111      2.9007536      50218.233      36.893836      36.893836      36.893836    
   2870000   0.45122632    -7.9091538     -7.2323239      2.8964915      50218.233      36.893836      36.893836      36.893836    
   2880000   0.4503169     -7.9097376     -7.2342719      2.8884997      50218.233      36.893836      36.893836      36.893836    
   2890000   0.44946244    -7.9064467     -7.2322627      2.9074938      50218.233      36.893836      36.893836      36.893836    
   2900000   0.45116982    -7.9081697     -7.2314246      2.8900537      50218.233      36.893836      36.893836      36.893836    
   2910000   0.44704839    -7.9093851     -7.238822       2.8795672      50218.233      36.893836      36.893836      36.893836    
   2920000   0.44935906    -7.9086935     -7.2346645      2.8948148      50218.233      36.893836      36.893836      36.893836    
   2930000   0.44899253    -7.9115148     -7.2380356      2.8772377      50218.233      36.893836      36.893836      36.893836    
   2940000   0.44966904    -7.9105845     -7.2360905      2.8705951      50218.233      36.893836      36.893836      36.893836    
   2950000   0.45111421    -7.911588      -7.2349264      2.8730254      50218.233      36.893836      36.893836      36.893836    
   2960000   0.45124495    -7.9058806     -7.2290228      2.9166908      50218.233      36.893836      36.893836      36.893836    
   2970000   0.44934195    -7.9126267     -7.2386233      2.8567241      50218.233      36.893836      36.893836      36.893836    
   2980000   0.44925604    -7.9053915     -7.2315171      2.924713       50218.233      36.893836      36.893836      36.893836    
   2990000   0.45008823    -7.9075445     -7.2324218      2.8953848      50218.233      36.893836      36.893836      36.893836    
   3000000   0.45110593    -7.9088856     -7.2322364      2.8838856      50218.233      36.893836      36.893836      36.893836    
   3010000   0.45076165    -7.9089471     -7.2328143      2.8892049      50218.233      36.893836      36.893836      36.893836    
   3020000   0.4517491     -7.9067445     -7.2291305      2.9006948      50218.233      36.893836      36.893836      36.893836    
   3030000   0.44943458    -7.9114194     -7.2372771      2.8641326      50218.233      36.893836      36.893836      36.893836    
   3040000   0.44862215    -7.9120354     -7.2391118      2.8655417      50218.233      36.893836      36.893836      36.893836    
   3050000   0.45002351    -7.9082086     -7.233183       2.8910651      50218.233      36.893836      36.893836      36.893836    
   3060000   0.44838521    -7.9069932     -7.234425       2.9162509      50218.233      36.893836      36.893836      36.893836    
   3070000   0.45092927    -7.9109018     -7.2345175      2.8761525      50218.233      36.893836      36.893836      36.893836    
   3080000   0.45231273    -7.9074772     -7.2290177      2.90287        50218.233      36.893836      36.893836      36.893836    
   3090000   0.44959459    -7.9120308     -7.2376485      2.8793648      50218.233      36.893836      36.893836      36.893836    
   3100000   0.45102533    -7.907756      -7.2312276      2.9106314      50218.233      36.893836      36.893836      36.893836    
   3110000   0.4490577     -7.9055492     -7.2319722      2.9137264      50218.233      36.893836      36.893836      36.893836    
   3120000   0.44825462    -7.9093905     -7.2370181      2.8876771      50218.233      36.893836      36.893836      36.893836    
   3130000   0.45136679    -7.9067939     -7.2297534      2.9165724      50218.233      36.893836      36.893836      36.893836    
   3140000   0.44961296    -7.9056563     -7.2312465      2.9192118      50218.233      36.893836      36.893836      36.893836    
   3150000   0.45122586    -7.9066179     -7.2297887      2.9154648      50218.233      36.893836      36.893836      36.893836    
   3160000   0.44911016    -7.90684       -7.2331844      2.901639       50218.233      36.893836      36.893836      36.893836    
   3170000   0.45122702    -7.9030316     -7.2262007      2.937225       50218.233      36.893836      36.893836      36.893836    
   3180000   0.44998428    -7.9095943     -7.2346275      2.8823028      50218.233      36.893836      36.893836      36.893836    
   3190000   0.44750352    -7.905664      -7.2344183      2.9165586      50218.233      36.893836      36.893836      36.893836    
   3200000   0.45362398    -7.9067742     -7.2263479      2.921542       50218.233      36.893836      36.893836      36.893836    
   3210000   0.45071929    -7.9082642     -7.2321949      2.9069427      50218.233      36.893836      36.893836      36.893836    
   3220000   0.44874342    -7.9063793     -7.2332738      2.9169985      50218.233      36.893836      36.893836      36.893836    
   3230000   0.45145126    -7.9072767     -7.2301095      2.9030569      50218.233      36.893836      36.893836      36.893836    
   3240000   0.45035217    -7.9130817     -7.237563       2.8727141      50218.233      36.893836      36.893836      36.893836    
   3250000   0.44805094    -7.9102382     -7.2381714      2.8888079      50218.233      36.893836      36.893836      36.893836    
   3260000   0.44956084    -7.9070506     -7.2327189      2.9061753      50218.233      36.893836      36.893836      36.893836    
   3270000   0.44938532    -7.9053284     -7.23126        2.921823       50218.233      36.893836      36.893836      36.893836    
   3280000   0.44807132    -7.9075068     -7.2354094      2.9009667      50218.233      36.893836      36.893836      36.893836    
   3290000   0.45166359    -7.9039376     -7.2264519      2.9358865      50218.233      36.893836      36.893836      36.893836    
   3300000   0.44876985    -7.9084485     -7.2353032      2.912725       50218.233      36.893836      36.893836      36.893836    
   3310000   0.44876625    -7.9038318     -7.230692       2.9313005      50218.233      36.893836      36.893836      36.893836    
   3320000   0.45138008    -7.9073052     -7.2302448      2.9153944      50218.233      36.893836      36.893836      36.893836    
   3330000   0.45126788    -7.9092211     -7.2323289      2.8955981      50218.233      36.893836      36.893836      36.893836    
   3340000   0.44990202    -7.90765       -7.2328066      2.9070615      50218.233      36.893836      36.893836      36.893836    
   3350000   0.44902943    -7.9084349     -7.2349004      2.8984191      50218.233      36.893836      36.893836      36.893836    
   3360000   0.45031038    -7.9069991     -7.2315432      2.9051014      50218.233      36.893836      36.893836      36.893836    
   3370000   0.45166717    -7.9066736     -7.2291825      2.9206889      50218.233      36.893836      36.893836      36.893836    
   3380000   0.44801206    -7.9094696     -7.2374611      2.8876864      50218.233      36.893836      36.893836      36.893836    
   3390000   0.44854385    -7.9104078     -7.2376016      2.8778683      50218.233      36.893836      36.893836      36.893836    
   3400000   0.44784486    -7.9116981     -7.2399403      2.8757843      50218.233      36.893836      36.893836      36.893836    
   3410000   0.45065784    -7.9083429     -7.2323658      2.8949418      50218.233      36.893836      36.893836      36.893836    
   3420000   0.45254483    -7.9069498     -7.2281422      2.9144184      50218.233      36.893836      36.893836      36.893836    
   3430000   0.44783929    -7.9046935     -7.2329441      2.9323658      50218.233      36.893836      36.893836      36.893836    
   3440000   0.4490391     -7.909086      -7.235537       2.899308       50218.233      36.893836      36.893836      36.893836    
   3450000   0.44976075    -7.9084858     -7.2338543      2.9039804      50218.233      36.893836      36.893836      36.893836    
   3460000   0.45126321    -7.9070687     -7.2301835      2.9136118      50218.233      36.893836      36.893836      36.893836    
   3470000   0.45007016    -7.9076253     -7.2325296      2.9039421      50218.233      36.893836      36.893836      36.893836    
   3480000   0.44888024    -7.9089226     -7.2356118      2.8887103      50218.233      36.893836      36.893836      36.893836    
   3490000   0.45032015    -7.9062763     -7.2308057      2.9131906      50218.233      36.893836      36.893836      36.893836    
   3500000   0.44730731    -7.9066213     -7.2356699      2.9076133      50218.233      36.893836      36.893836      36.893836    
   3510000   0.4497519     -7.9094847     -7.2348665      2.8832264      50218.233      36.893836      36.893836      36.893836    
   3520000   0.45032209    -7.9076043     -7.2321308      2.9041638      50218.233      36.893836      36.893836      36.893836    
   3530000   0.45077148    -7.9075629     -7.2314153      2.9025953      50218.233      36.893836      36.893836      36.893836    
   3540000   0.44823723    -7.9104282     -7.2380819      2.8830275      50218.233      36.893836      36.893836      36.893836    
   3550000   0.45117741    -7.9108213     -7.2340648      2.8709621      50218.233      36.893836      36.893836      36.893836    
   3560000   0.45088876    -7.9067407     -7.2304172      2.9214414      50218.233      36.893836      36.893836      36.893836    
   3570000   0.44757702    -7.909491      -7.238135       2.8805095      50218.233      36.893836      36.893836      36.893836    
   3580000   0.45265753    -7.9076422     -7.2286656      2.9028506      50218.233      36.893836      36.893836      36.893836    
   3590000   0.45128238    -7.9081468     -7.2312328      2.900641       50218.233      36.893836      36.893836      36.893836    
   3600000   0.4526345     -7.9066354     -7.2276933      2.9121783      50218.233      36.893836      36.893836      36.893836    
   3610000   0.45166326    -7.9063117     -7.2288264      2.9069944      50218.233      36.893836      36.893836      36.893836    
   3620000   0.45058511    -7.9086181     -7.2327501      2.8873764      50218.233      36.893836      36.893836      36.893836    
   3630000   0.45014268    -7.9083945     -7.2331901      2.9001596      50218.233      36.893836      36.893836      36.893836    
   3640000   0.45198598    -7.9126599     -7.2346906      2.8713264      50218.233      36.893836      36.893836      36.893836    
   3650000   0.45110271    -7.9080582     -7.2314138      2.8948879      50218.233      36.893836      36.893836      36.893836    
   3660000   0.45058688    -7.9084208     -7.2325501      2.9124307      50218.233      36.893836      36.893836      36.893836    
   3670000   0.44975309    -7.9110216     -7.2364015      2.8806127      50218.233      36.893836      36.893836      36.893836    
   3680000   0.45004082    -7.906592      -7.2315404      2.9080825      50218.233      36.893836      36.893836      36.893836    
   3690000   0.45044766    -7.9062735     -7.2306116      2.9196442      50218.233      36.893836      36.893836      36.893836    
   3700000   0.44987485    -7.9094619     -7.2346592      2.8947341      50218.233      36.893836      36.893836      36.893836    
   3710000   0.44919114    -7.9076448     -7.2338677      2.908822       50218.233      36.893836      36.893836      36.893836    
   3720000   0.44981565    -7.9065131     -7.2317992      2.9134632      50218.233      36.893836      36.893836      36.893836    
   3730000   0.45045247    -7.9077676     -7.2320985      2.9015222      50218.233      36.893836      36.893836      36.893836    
   3740000   0.45128387    -7.908377      -7.2314608      2.8915111      50218.233      36.893836      36.893836      36.893836    
   3750000   0.45126539    -7.9052648     -7.2283764      2.9187998      50218.233      36.893836      36.893836      36.893836    
   3760000   0.44843134    -7.9111814     -7.2385439      2.8743676      50218.233      36.893836      36.893836      36.893836    
   3770000   0.45039455    -7.9109389     -7.2353567      2.8853109      50218.233      36.893836      36.893836      36.893836    
   3780000   0.44979173    -7.9069606     -7.2322826      2.9042788      50218.233      36.893836      36.893836      36.893836    
   3790000   0.45095796    -7.9069189     -7.2304915      2.9162919      50218.233      36.893836      36.893836      36.893836    
   3800000   0.44928659    -7.907637      -7.2337167      2.8979531      50218.233      36.893836      36.893836      36.893836    
   3810000   0.45032055    -7.9061718     -7.2307005      2.9093378      50218.233      36.893836      36.893836      36.893836    
   3820000   0.44943934    -7.9086894     -7.23454        2.8885825      50218.233      36.893836      36.893836      36.893836    
   3830000   0.44873444    -7.9091265     -7.2360344      2.889166       50218.233      36.893836      36.893836      36.893836    
   3840000   0.44779246    -7.9144099     -7.2427308      2.8612069      50218.233      36.893836      36.893836      36.893836    
   3850000   0.4488636     -7.9088619     -7.2355761      2.8986943      50218.233      36.893836      36.893836      36.893836    
   3860000   0.44855289    -7.9079677     -7.2351479      2.9053497      50218.233      36.893836      36.893836      36.893836    
   3870000   0.44745903    -7.908112      -7.236933       2.9026759      50218.233      36.893836      36.893836      36.893836    
   3880000   0.45183814    -7.9068418     -7.2290942      2.9187968      50218.233      36.893836      36.893836      36.893836    
   3890000   0.4481923     -7.9076328     -7.2353539      2.8984427      50218.233      36.893836      36.893836      36.893836    
   3900000   0.45194728    -7.9077195     -7.2298083      2.9065257      50218.233      36.893836      36.893836      36.893836    
   3910000   0.44911516    -7.91052       -7.2368569      2.8784107      50218.233      36.893836      36.893836      36.893836    
   3920000   0.45044256    -7.9091571     -7.2335029      2.8817292      50218.233      36.893836      36.893836      36.893836    
   3930000   0.45115655    -7.9083457     -7.2316205      2.8877765      50218.233      36.893836      36.893836      36.893836    
   3940000   0.45023449    -7.9073757     -7.2320336      2.8924218      50218.233      36.893836      36.893836      36.893836    
   3950000   0.44943514    -7.9085456     -7.2344025      2.8832003      50218.233      36.893836      36.893836      36.893836    
   3960000   0.4494781     -7.9078119     -7.2336044      2.9126956      50218.233      36.893836      36.893836      36.893836    
   3970000   0.44785545    -7.9031677     -7.2313941      2.9282682      50218.233      36.893836      36.893836      36.893836    
   3980000   0.44894674    -7.9076633     -7.2342527      2.8980133      50218.233      36.893836      36.893836      36.893836    
   3990000   0.44798166    -7.9079723     -7.2360094      2.8937377      50218.233      36.893836      36.893836      36.893836    
   4000000   0.4487707     -7.9098646     -7.2367181      2.888276       50218.233      36.893836      36.893836      36.893836    
   4010000   0.45041688    -7.908138      -7.2325223      2.8989669      50218.233      36.893836      36.893836      36.893836    
   4020000   0.45234122    -7.9100134     -7.2315113      2.892515       50218.233      36.893836      36.893836      36.893836    
   4030000   0.45097896    -7.9065142     -7.2300554      2.9089504      50218.233      36.893836      36.893836      36.893836    
   4040000   0.45108775    -7.9090336     -7.2324116      2.8834155      50218.233      36.893836      36.893836      36.893836    
   4050000   0.4511218     -7.9068405     -7.2301675      2.904394       50218.233      36.893836      36.893836      36.893836    
   4060000   0.45038953    -7.9065792     -7.2310045      2.9078279      50218.233      36.893836      36.893836      36.893836    
   4070000   0.45092316    -7.9076646     -7.2312895      2.9040314      50218.233      36.893836      36.893836      36.893836    
   4080000   0.45085585    -7.9098211     -7.2335469      2.8945228      50218.233      36.893836      36.893836      36.893836    
   4090000   0.44896194    -7.9090029     -7.2355695      2.8799881      50218.233      36.893836      36.893836      36.893836    
   4100000   0.44781326    -7.9046257     -7.2329153      2.9189182      50218.233      36.893836      36.893836      36.893836    
   4110000   0.4500294     -7.9102251     -7.2351906      2.8799763      50218.233      36.893836      36.893836      36.893836    
   4120000   0.45186513    -7.905274      -7.2274859      2.9227943      50218.233      36.893836      36.893836      36.893836    
   4130000   0.450022      -7.9052602     -7.2302368      2.9178112      50218.233      36.893836      36.893836      36.893836    
   4140000   0.44824451    -7.907392      -7.2350348      2.9022975      50218.233      36.893836      36.893836      36.893836    
   4150000   0.45243924    -7.9048868     -7.2262376      2.9180747      50218.233      36.893836      36.893836      36.893836    
   4160000   0.44872791    -7.9068342     -7.2337519      2.9013017      50218.233      36.893836      36.893836      36.893836    
   4170000   0.44998685    -7.906894      -7.2319234      2.906294       50218.233      36.893836      36.893836      36.893836    
   4180000   0.45166822    -7.9090846     -7.2315919      2.9018569      50218.233      36.893836      36.893836      36.893836    
   4190000   0.44956064    -7.9083225     -7.2339912      2.8946313      50218.233      36.893836      36.893836      36.893836    
   4200000   0.44757718    -7.9064277     -7.2350715      2.8954107      50218.233      36.893836      36.893836      36.893836    
   4210000   0.44937676    -7.9072236     -7.233168       2.9007675      50218.233      36.893836      36.893836      36.893836    
   4220000   0.45236504    -7.9076353     -7.2290974      2.9065508      50218.233      36.893836      36.893836      36.893836    
   4230000   0.44954952    -7.9059406     -7.2316259      2.9055409      50218.233      36.893836      36.893836      36.893836    
   4240000   0.44796861    -7.9090794     -7.237136       2.8874613      50218.233      36.893836      36.893836      36.893836    
   4250000   0.45018528    -7.9069461     -7.2316777      2.9113833      50218.233      36.893836      36.893836      36.893836    
   4260000   0.4505072     -7.9083456     -7.2325944      2.9038946      50218.233      36.893836      36.893836      36.893836    
   4270000   0.45043798    -7.9052668     -7.2296194      2.9135869      50218.233      36.893836      36.893836      36.893836    
   4280000   0.45065776    -7.9114598     -7.2354828      2.8706623      50218.233      36.893836      36.893836      36.893836    
   4290000   0.45027058    -7.9054521     -7.2300559      2.9254186      50218.233      36.893836      36.893836      36.893836    
   4300000   0.45055078    -7.9066486     -7.230832       2.902689       50218.233      36.893836      36.893836      36.893836    
   4310000   0.44982988    -7.9116019     -7.2368667      2.8778998      50218.233      36.893836      36.893836      36.893836    
   4320000   0.45048946    -7.9056623     -7.2299377      2.9101187      50218.233      36.893836      36.893836      36.893836    
   4330000   0.4494567     -7.9089686     -7.2347931      2.8829376      50218.233      36.893836      36.893836      36.893836    
   4340000   0.45007734    -7.9064597     -7.2313533      2.907356       50218.233      36.893836      36.893836      36.893836    
   4350000   0.44811152    -7.9066856     -7.2345279      2.9048445      50218.233      36.893836      36.893836      36.893836    
   4360000   0.45211009    -7.9040653     -7.2259098      2.933836       50218.233      36.893836      36.893836      36.893836    
   4370000   0.44875444    -7.907348      -7.2342259      2.9049602      50218.233      36.893836      36.893836      36.893836    
   4380000   0.45051525    -7.9085661     -7.2328028      2.8926463      50218.233      36.893836      36.893836      36.893836    
   4390000   0.44888277    -7.9079046     -7.23459        2.9013523      50218.233      36.893836      36.893836      36.893836    
   4400000   0.4495215     -7.908312      -7.2340393      2.8903331      50218.233      36.893836      36.893836      36.893836    
   4410000   0.44945065    -7.9128387     -7.2386723      2.85598        50218.233      36.893836      36.893836      36.893836    
   4420000   0.44958001    -7.9107404     -7.23638        2.8769626      50218.233      36.893836      36.893836      36.893836    
   4430000   0.44965601    -7.9074921     -7.2330177      2.9055775      50218.233      36.893836      36.893836      36.893836    
   4440000   0.45070057    -7.9062404     -7.2301992      2.9141714      50218.233      36.893836      36.893836      36.893836    
   4450000   0.45113794    -7.9103228     -7.2336255      2.8860448      50218.233      36.893836      36.893836      36.893836    
   4460000   0.4494004     -7.9076186     -7.2335276      2.8827489      50218.233      36.893836      36.893836      36.893836    
   4470000   0.44853401    -7.9113267     -7.2385353      2.8712017      50218.233      36.893836      36.893836      36.893836    
   4480000   0.45191527    -7.9076115     -7.2297482      2.905348       50218.233      36.893836      36.893836      36.893836    
   4490000   0.45032222    -7.9100012     -7.2345275      2.883372       50218.233      36.893836      36.893836      36.893836    
   4500000   0.44850673    -7.9112077     -7.2384572      2.8764023      50218.233      36.893836      36.893836      36.893836    
   4510000   0.44962122    -7.9087075     -7.2342853      2.8849464      50218.233      36.893836      36.893836      36.893836    
   4520000   0.45051136    -7.9117522     -7.2359947      2.8829184      50218.233      36.893836      36.893836      36.893836    
   4530000   0.45247409    -7.9147533     -7.2360518      2.8440625      50218.233      36.893836      36.893836      36.893836    
   4540000   0.45079457    -7.9066483     -7.2304661      2.9105767      50218.233      36.893836      36.893836      36.893836    
   4550000   0.45099226    -7.9098636     -7.2333848      2.8797716      50218.233      36.893836      36.893836      36.893836    
   4560000   0.45156438    -7.9072232     -7.2298862      2.9007081      50218.233      36.893836      36.893836      36.893836    
   4570000   0.44812225    -7.9113309     -7.2391571      2.8647142      50218.233      36.893836      36.893836      36.893836    
   4580000   0.44967223    -7.9068157     -7.2323169      2.8972776      50218.233      36.893836      36.893836      36.893836    
   4590000   0.45357606    -7.9099776     -7.2296232      2.891785       50218.233      36.893836      36.893836      36.893836    
   4600000   0.45046591    -7.9119866     -7.2362974      2.8724764      50218.233      36.893836      36.893836      36.893836    
   4610000   0.44991492    -7.9099177     -7.2350549      2.8828346      50218.233      36.893836      36.893836      36.893836    
   4620000   0.45182803    -7.9115239     -7.2337915      2.8769907      50218.233      36.893836      36.893836      36.893836    
   4630000   0.44990524    -7.9066786     -7.2318304      2.9080419      50218.233      36.893836      36.893836      36.893836    
   4640000   0.45157313    -7.9085569     -7.2312068      2.8927776      50218.233      36.893836      36.893836      36.893836    
   4650000   0.44790763    -7.9050046     -7.2331527      2.9134219      50218.233      36.893836      36.893836      36.893836    
   4660000   0.45168308    -7.9084842     -7.2309692      2.9025599      50218.233      36.893836      36.893836      36.893836    
   4670000   0.44759072    -7.9104707     -7.2390942      2.8840403      50218.233      36.893836      36.893836      36.893836    
   4680000   0.44964736    -7.9106166     -7.2361551      2.8859595      50218.233      36.893836      36.893836      36.893836    
   4690000   0.44997871    -7.905334      -7.2303755      2.9166873      50218.233      36.893836      36.893836      36.893836    
   4700000   0.45180372    -7.9015594     -7.2238635      2.9501602      50218.233      36.893836      36.893836      36.893836    
   4710000   0.45018649    -7.9088421     -7.233572       2.895799       50218.233      36.893836      36.893836      36.893836    
   4720000   0.45086511    -7.9065798     -7.2302917      2.9130833      50218.233      36.893836      36.893836      36.893836    
   4730000   0.45144363    -7.9044323     -7.2272765      2.9329259      50218.233      36.893836      36.893836      36.893836    
   4740000   0.45025359    -7.9063688     -7.230998       2.9035831      50218.233      36.893836      36.893836      36.893836    
   4750000   0.44953109    -7.9092214     -7.2349344      2.9035861      50218.233      36.893836      36.893836      36.893836    
   4760000   0.4503334     -7.9063329     -7.2308424      2.9124725      50218.233      36.893836      36.893836      36.893836    
   4770000   0.45151052    -7.9041425     -7.2268863      2.9275737      50218.233      36.893836      36.893836      36.893836    
   4780000   0.4526826     -7.9053188     -7.2263045      2.9248813      50218.233      36.893836      36.893836      36.893836    
   4790000   0.44915189    -7.9090228     -7.2353046      2.8979657      50218.233      36.893836      36.893836      36.893836    
   4800000   0.45020546    -7.9070824     -7.2317838      2.9035212      50218.233      36.893836      36.893836      36.893836    
   4810000   0.44980773    -7.90669       -7.231988       2.9067255      50218.233      36.893836      36.893836      36.893836    
   4820000   0.44768821    -7.9087261     -7.2372033      2.8891448      50218.233      36.893836      36.893836      36.893836    
   4830000   0.44868909    -7.9086788     -7.2356547      2.8925297      50218.233      36.893836      36.893836      36.893836    
   4840000   0.45299405    -7.90713       -7.2276486      2.9026456      50218.233      36.893836      36.893836      36.893836    
   4850000   0.45064736    -7.9071773     -7.2312158      2.8977803      50218.233      36.893836      36.893836      36.893836    
   4860000   0.44743935    -7.9022647     -7.2311153      2.9329624      50218.233      36.893836      36.893836      36.893836    
   4870000   0.45013833    -7.904247      -7.2290491      2.9244179      50218.233      36.893836      36.893836      36.893836    
   4880000   0.45089289    -7.9089691     -7.2326394      2.8878443      50218.233      36.893836      36.893836      36.893836    
   4890000   0.45169378    -7.9074223     -7.2298913      2.8947107      50218.233      36.893836      36.893836      36.893836    
   4900000   0.44985315    -7.9062663     -7.2314961      2.9167611      50218.233      36.893836      36.893836      36.893836    
   4910000   0.45069623    -7.908426      -7.2323913      2.893958       50218.233      36.893836      36.893836      36.893836    
   4920000   0.44905214    -7.9084144     -7.2348457      2.8889627      50218.233      36.893836      36.893836      36.893836    
   4930000   0.44917989    -7.9117116     -7.2379514      2.8704541      50218.233      36.893836      36.893836      36.893836    
   4940000   0.45233995    -7.9088142     -7.2303139      2.8961115      50218.233      36.893836      36.893836      36.893836    
   4950000   0.44993332    -7.9069549     -7.2320645      2.9068175      50218.233      36.893836      36.893836      36.893836    
   4960000   0.44930014    -7.9096638     -7.2357232      2.8819342      50218.233      36.893836      36.893836      36.893836    
   4970000   0.45090929    -7.9060544     -7.2297         2.9136367      50218.233      36.893836      36.893836      36.893836    
   4980000   0.45074559    -7.9082254     -7.2321167      2.8999832      50218.233      36.893836      36.893836      36.893836    
   4990000   0.44640857    -7.909255      -7.2396517      2.8801697      50218.233      36.893836      36.893836      36.893836    
   5000000   0.4499555     -7.9073481     -7.2324245      2.9034824      50218.233      36.893836      36.893836      36.893836    
   5010000   0.44896214    -7.9085649     -7.2351313      2.8953486      50218.233      36.893836      36.893836      36.893836    
   5020000   0.45188204    -7.9078807     -7.2300673      2.8950067      50218.233      36.893836      36.893836      36.893836    
   5030000   0.44907259    -7.9061465     -7.2325472      2.899104       50218.233      36.893836      36.893836      36.893836    
   5040000   0.44875885    -7.9076777     -7.234549       2.8959783      50218.233      36.893836      36.893836      36.893836    
   5050000   0.44924696    -7.9079345     -7.2340736      2.8921899      50218.233      36.893836      36.893836      36.893836    
   5060000   0.45055536    -7.9080971     -7.2322736      2.899925       50218.233      36.893836      36.893836      36.893836    
   5070000   0.44929253    -7.9078178     -7.2338885      2.8886304      50218.233      36.893836      36.893836      36.893836    
   5080000   0.45105004    -7.9077154     -7.2311499      2.903897       50218.233      36.893836      36.893836      36.893836    
   5090000   0.4491762     -7.9059918     -7.2322371      2.9007159      50218.233      36.893836      36.893836      36.893836    
   5100000   0.450362      -7.9090462     -7.2335128      2.8827627      50218.233      36.893836      36.893836      36.893836    
   5110000   0.44712657    -7.9061596     -7.2354793      2.9042345      50218.233      36.893836      36.893836      36.893836    
   5120000   0.44950367    -7.9059585     -7.2317126      2.9096473      50218.233      36.893836      36.893836      36.893836    
   5130000   0.45171033    -7.9059785     -7.2284227      2.9197264      50218.233      36.893836      36.893836      36.893836    
   5140000   0.4508597     -7.9068849     -7.2306049      2.9098093      50218.233      36.893836      36.893836      36.893836    
   5150000   0.4509783     -7.9074194     -7.2309616      2.9002214      50218.233      36.893836      36.893836      36.893836    
   5160000   0.4478905     -7.9068367     -7.2350105      2.9013714      50218.233      36.893836      36.893836      36.893836    
   5170000   0.4494166     -7.9076354     -7.2335201      2.8966358      50218.233      36.893836      36.893836      36.893836    
   5180000   0.44883828    -7.906974      -7.2337262      2.8998906      50218.233      36.893836      36.893836      36.893836    
   5190000   0.45022541    -7.9091463     -7.2338178      2.8852878      50218.233      36.893836      36.893836      36.893836    
   5200000   0.44760322    -7.9054295     -7.2340342      2.9068849      50218.233      36.893836      36.893836      36.893836    
   5210000   0.44914602    -7.9053064     -7.231597       2.9171445      50218.233      36.893836      36.893836      36.893836    
   5220000   0.4503323     -7.9058321     -7.2303433      2.9227637      50218.233      36.893836      36.893836      36.893836    
   5230000   0.44961323    -7.9071777     -7.2327674      2.897783       50218.233      36.893836      36.893836      36.893836    
   5240000   0.44803033    -7.9056578     -7.2336219      2.9075957      50218.233      36.893836      36.893836      36.893836    
   5250000   0.44775364    -7.9026435     -7.2310226      2.9391188      50218.233      36.893836      36.893836      36.893836    
   5260000   0.451579      -7.9069091     -7.2295503      2.9041975      50218.233      36.893836      36.893836      36.893836    
   5270000   0.45244981    -7.9044608     -7.2257957      2.9258455      50218.233      36.893836      36.893836      36.893836    
   5280000   0.44867882    -7.9072103     -7.2342016      2.8950829      50218.233      36.893836      36.893836      36.893836    
   5290000   0.44911441    -7.9052858     -7.2316238      2.9106293      50218.233      36.893836      36.893836      36.893836    
   5300000   0.44939326    -7.9078839     -7.2338036      2.8952303      50218.233      36.893836      36.893836      36.893836    
   5310000   0.44941589    -7.9102677     -7.2361535      2.881134       50218.233      36.893836      36.893836      36.893836    
   5320000   0.45141141    -7.9090198     -7.2319123      2.9034303      50218.233      36.893836      36.893836      36.893836    
   5330000   0.45111635    -7.9046254     -7.2279605      2.9173987      50218.233      36.893836      36.893836      36.893836    
   5340000   0.44852376    -7.9058486     -7.2330725      2.9129867      50218.233      36.893836      36.893836      36.893836    
   5350000   0.4490796     -7.9109212     -7.2373113      2.8815198      50218.233      36.893836      36.893836      36.893836    
   5360000   0.45060472    -7.9076642     -7.2317667      2.8984181      50218.233      36.893836      36.893836      36.893836    
   5370000   0.44798897    -7.90366       -7.2316861      2.9310273      50218.233      36.893836      36.893836      36.893836    
   5380000   0.44775371    -7.9103075     -7.2386865      2.8741804      50218.233      36.893836      36.893836      36.893836    
   5390000   0.45269191    -7.9141215     -7.2350933      2.8513923      50218.233      36.893836      36.893836      36.893836    
   5400000   0.45059076    -7.9074993     -7.2316227      2.9038284      50218.233      36.893836      36.893836      36.893836    
   5410000   0.4495033     -7.9088637     -7.2346184      2.8805059      50218.233      36.893836      36.893836      36.893836    
   5420000   0.45093811    -7.906998      -7.2306004      2.9030893      50218.233      36.893836      36.893836      36.893836    
   5430000   0.44987542    -7.9032915     -7.2284879      2.9324908      50218.233      36.893836      36.893836      36.893836    
   5440000   0.4497063     -7.9089451     -7.2343952      2.8964007      50218.233      36.893836      36.893836      36.893836    
   5450000   0.45090828    -7.9086884     -7.2323356      2.8930209      50218.233      36.893836      36.893836      36.893836    
   5460000   0.45089445    -7.9076931     -7.2313611      2.8949649      50218.233      36.893836      36.893836      36.893836    
   5470000   0.44958828    -7.9075751     -7.2332022      2.8875128      50218.233      36.893836      36.893836      36.893836    
   5480000   0.44899661    -7.9113301     -7.2378448      2.8755536      50218.233      36.893836      36.893836      36.893836    
   5490000   0.45018685    -7.9101871     -7.2349164      2.8794379      50218.233      36.893836      36.893836      36.893836    
   5500000   0.45019712    -7.9101578     -7.2348718      2.8724897      50218.233      36.893836      36.893836      36.893836    
   5510000   0.44843029    -7.9101551     -7.2375192      2.8686963      50218.233      36.893836      36.893836      36.893836    
   5520000   0.4519224     -7.9088584     -7.2309844      2.8871889      50218.233      36.893836      36.893836      36.893836    
   5530000   0.45013589    -7.9091665     -7.2339723      2.8801428      50218.233      36.893836      36.893836      36.893836    
   5540000   0.44840837    -7.9115269     -7.2389239      2.8701805      50218.233      36.893836      36.893836      36.893836    
   5550000   0.44855373    -7.9059564     -7.2331353      2.9117295      50218.233      36.893836      36.893836      36.893836    
   5560000   0.45076706    -7.9106481     -7.2345072      2.8891334      50218.233      36.893836      36.893836      36.893836    
   5570000   0.450688      -7.9079618     -7.2319394      2.897567       50218.233      36.893836      36.893836      36.893836    
   5580000   0.45255989    -7.9073607     -7.2285306      2.9028597      50218.233      36.893836      36.893836      36.893836    
   5590000   0.45029103    -7.9079566     -7.2325296      2.8949432      50218.233      36.893836      36.893836      36.893836    
   5600000   0.44864145    -7.910092      -7.2371394      2.8769845      50218.233      36.893836      36.893836      36.893836    
   5610000   0.44965055    -7.9078195     -7.2333533      2.8929076      50218.233      36.893836      36.893836      36.893836    
   5620000   0.44901515    -7.9063883     -7.2328751      2.9130261      50218.233      36.893836      36.893836      36.893836    
   5630000   0.45148466    -7.9049226     -7.2277052      2.9202213      50218.233      36.893836      36.893836      36.893836    
   5640000   0.44986811    -7.9079417     -7.2331491      2.8946391      50218.233      36.893836      36.893836      36.893836    
   5650000   0.44792533    -7.9092118     -7.2373334      2.8867061      50218.233      36.893836      36.893836      36.893836    
   5660000   0.44925908    -7.9070159     -7.2331369      2.9073354      50218.233      36.893836      36.893836      36.893836    
   5670000   0.44707165    -7.9090352     -7.2384372      2.8787911      50218.233      36.893836      36.893836      36.893836    
   5680000   0.45029273    -7.9100539     -7.2346244      2.8802523      50218.233      36.893836      36.893836      36.893836    
   5690000   0.45101438    -7.9097015     -7.2331896      2.8805953      50218.233      36.893836      36.893836      36.893836    
   5700000   0.45323188    -7.905689      -7.2258509      2.9171866      50218.233      36.893836      36.893836      36.893836    
   5710000   0.45080406    -7.9078449     -7.2316485      2.9046525      50218.233      36.893836      36.893836      36.893836    
   5720000   0.45232944    -7.9060048     -7.2275203      2.9131188      50218.233      36.893836      36.893836      36.893836    
   5730000   0.44821578    -7.9048633     -7.2325492      2.920152       50218.233      36.893836      36.893836      36.893836    
   5740000   0.44935412    -7.9035827     -7.2295612      2.9232816      50218.233      36.893836      36.893836      36.893836    
   5750000   0.44937116    -7.9102454     -7.2361983      2.8890517      50218.233      36.893836      36.893836      36.893836    
   5760000   0.45159276    -7.9062151     -7.2288356      2.9119885      50218.233      36.893836      36.893836      36.893836    
   5770000   0.45163181    -7.906459      -7.2290209      2.903322       50218.233      36.893836      36.893836      36.893836    
   5780000   0.45091678    -7.907616      -7.2312504      2.9037598      50218.233      36.893836      36.893836      36.893836    
   5790000   0.45078527    -7.9075113     -7.231343       2.8962891      50218.233      36.893836      36.893836      36.893836    
   5800000   0.44712173    -7.9042962     -7.2336232      2.9089053      50218.233      36.893836      36.893836      36.893836    
   5810000   0.45063971    -7.9069089     -7.230959       2.904319       50218.233      36.893836      36.893836      36.893836    
   5820000   0.45016358    -7.9095785     -7.2343427      2.8846923      50218.233      36.893836      36.893836      36.893836    
   5830000   0.44949047    -7.9059911     -7.231765       2.9212291      50218.233      36.893836      36.893836      36.893836    
   5840000   0.45060016    -7.9099781     -7.2340875      2.8828576      50218.233      36.893836      36.893836      36.893836    
   5850000   0.45011188    -7.9092111     -7.2340529      2.8949298      50218.233      36.893836      36.893836      36.893836    
   5860000   0.44943667    -7.9062461     -7.2321007      2.9138567      50218.233      36.893836      36.893836      36.893836    
   5870000   0.44651719    -7.9118649     -7.2420986      2.864697       50218.233      36.893836      36.893836      36.893836    
   5880000   0.45007436    -7.9070906     -7.2319887      2.9143585      50218.233      36.893836      36.893836      36.893836    
   5890000   0.45027132    -7.907487      -7.2320896      2.9036789      50218.233      36.893836      36.893836      36.893836    
   5900000   0.45169484    -7.906305      -7.2287724      2.9125923      50218.233      36.893836      36.893836      36.893836    
   5910000   0.45124895    -7.906546      -7.2296822      2.9061625      50218.233      36.893836      36.893836      36.893836    
   5920000   0.45112089    -7.9111787     -7.234507       2.8764479      50218.233      36.893836      36.893836      36.893836    
   5930000   0.44830211    -7.9082424     -7.2357988      2.8858584      50218.233      36.893836      36.893836      36.893836    
   5940000   0.45186484    -7.9131965     -7.2354088      2.8648379      50218.233      36.893836      36.893836      36.893836    
   5950000   0.44920285    -7.90527       -7.2314754      2.9163925      50218.233      36.893836      36.893836      36.893836    
   5960000   0.44965075    -7.9072624     -7.2327959      2.9009016      50218.233      36.893836      36.893836      36.893836    
   5970000   0.44812619    -7.9076058     -7.2354261      2.8937007      50218.233      36.893836      36.893836      36.893836    
   5980000   0.44845943    -7.9120204     -7.2393408      2.8630913      50218.233      36.893836      36.893836      36.893836    
   5990000   0.45057925    -7.9097476     -7.2338884      2.8970398      50218.233      36.893836      36.893836      36.893836    
   6000000   0.45119306    -7.9067283     -7.2299483      2.9159242      50218.233      36.893836      36.893836      36.893836    
   6010000   0.45065477    -7.9093921     -7.2334196      2.8909009      50218.233      36.893836      36.893836      36.893836    
   6020000   0.44908029    -7.9144987     -7.2408879      2.8505791      50218.233      36.893836      36.893836      36.893836    
   6030000   0.45224733    -7.907259      -7.2288976      2.9139788      50218.233      36.893836      36.893836      36.893836    
   6040000   0.44916287    -7.9089545     -7.2352198      2.8783073      50218.233      36.893836      36.893836      36.893836    
   6050000   0.45000433    -7.9101114     -7.2351145      2.8824522      50218.233      36.893836      36.893836      36.893836    
   6060000   0.45062735    -7.9081309     -7.2321995      2.9056429      50218.233      36.893836      36.893836      36.893836    
   6070000   0.45000262    -7.9064923     -7.231498       2.9090436      50218.233      36.893836      36.893836      36.893836    
   6080000   0.44853237    -7.9076818     -7.2348928      2.8988926      50218.233      36.893836      36.893836      36.893836    
   6090000   0.44955454    -7.9057358     -7.2314135      2.9171099      50218.233      36.893836      36.893836      36.893836    
   6100000   0.44918587    -7.9079065     -7.2341373      2.9149028      50218.233      36.893836      36.893836      36.893836    
   6110000   0.4491853     -7.910575      -7.2368067      2.8757311      50218.233      36.893836      36.893836      36.893836    
   6120000   0.44943842    -7.905871      -7.2317229      2.9092017      50218.233      36.893836      36.893836      36.893836    
   6130000   0.44973704    -7.9043325     -7.2297365      2.9193236      50218.233      36.893836      36.893836      36.893836    
   6140000   0.4493995     -7.9039775     -7.2298879      2.9268606      50218.233      36.893836      36.893836      36.893836    
   6150000   0.44841794    -7.907682      -7.2350647      2.8973104      50218.233      36.893836      36.893836      36.893836    
   6160000   0.45127076    -7.9036469     -7.2267503      2.9291839      50218.233      36.893836      36.893836      36.893836    
   6170000   0.44997243    -7.9035843     -7.2286352      2.9225878      50218.233      36.893836      36.893836      36.893836    
   6180000   0.45033519    -7.9038975     -7.2284044      2.934963       50218.233      36.893836      36.893836      36.893836    
   6190000   0.45042616    -7.9083818     -7.2327521      2.8943614      50218.233      36.893836      36.893836      36.893836    
   6200000   0.45062773    -7.9056333     -7.2297013      2.9216991      50218.233      36.893836      36.893836      36.893836    
   6210000   0.45069766    -7.9079327     -7.2318959      2.9007325      50218.233      36.893836      36.893836      36.893836    
   6220000   0.45089472    -7.9080295     -7.2316971      2.9001723      50218.233      36.893836      36.893836      36.893836    
   6230000   0.44869428    -7.9049357     -7.2319038      2.9322138      50218.233      36.893836      36.893836      36.893836    
   6240000   0.4490024     -7.9083418     -7.2348478      2.9036076      50218.233      36.893836      36.893836      36.893836    
   6250000   0.45029027    -7.9069027     -7.2314769      2.9199641      50218.233      36.893836      36.893836      36.893836    
   6260000   0.45046224    -7.9042995     -7.2286158      2.9192718      50218.233      36.893836      36.893836      36.893836    
   6270000   0.45032446    -7.9075578     -7.2320808      2.9018461      50218.233      36.893836      36.893836      36.893836    
   6280000   0.44897728    -7.9080741     -7.2346178      2.8999372      50218.233      36.893836      36.893836      36.893836    
   6290000   0.45125807    -7.9058935     -7.229016       2.9162415      50218.233      36.893836      36.893836      36.893836    
   6300000   0.44985934    -7.9094749     -7.2346955      2.8844848      50218.233      36.893836      36.893836      36.893836    
   6310000   0.44981209    -7.9085724     -7.2338639      2.8936323      50218.233      36.893836      36.893836      36.893836    
   6320000   0.45037543    -7.9028478     -7.2272942      2.9314451      50218.233      36.893836      36.893836      36.893836    
   6330000   0.45195963    -7.909667      -7.2317372      2.8857157      50218.233      36.893836      36.893836      36.893836    
   6340000   0.44999439    -7.9062777     -7.2312958      2.9016626      50218.233      36.893836      36.893836      36.893836    
   6350000   0.45031763    -7.9083281     -7.2328612      2.8941684      50218.233      36.893836      36.893836      36.893836    
   6360000   0.45032261    -7.9081248     -7.2326505      2.8985408      50218.233      36.893836      36.893836      36.893836    
   6370000   0.45032321    -7.90838       -7.2329048      2.9061617      50218.233      36.893836      36.893836      36.893836    
   6380000   0.44895227    -7.9070505     -7.2336317      2.8997436      50218.233      36.893836      36.893836      36.893836    
   6390000   0.44901583    -7.9122405     -7.2387263      2.8575515      50218.233      36.893836      36.893836      36.893836    
   6400000   0.45056602    -7.9108409     -7.2350015      2.8729637      50218.233      36.893836      36.893836      36.893836    
   6410000   0.44831989    -7.9062589     -7.2337886      2.9040201      50218.233      36.893836      36.893836      36.893836    
   6420000   0.44920734    -7.9126093     -7.2388079      2.8655019      50218.233      36.893836      36.893836      36.893836    
   6430000   0.45100409    -7.9102406     -7.2337441      2.8817827      50218.233      36.893836      36.893836      36.893836    
   6440000   0.45056787    -7.9093759     -7.2335337      2.8915407      50218.233      36.893836      36.893836      36.893836    
   6450000   0.44989383    -7.9124789     -7.2376478      2.8585055      50218.233      36.893836      36.893836      36.893836    
   6460000   0.45027223    -7.907468      -7.2320692      2.8957934      50218.233      36.893836      36.893836      36.893836    
   6470000   0.44912863    -7.91152       -7.2378367      2.8666665      50218.233      36.893836      36.893836      36.893836    
   6480000   0.44927769    -7.9078133     -7.2339063      2.8927477      50218.233      36.893836      36.893836      36.893836    
   6490000   0.45098323    -7.9054429     -7.2289777      2.9157426      50218.233      36.893836      36.893836      36.893836    
   6500000   0.45167063    -7.9091329     -7.2316366      2.8890116      50218.233      36.893836      36.893836      36.893836    
   6510000   0.44843311    -7.9071558     -7.2345158      2.8997334      50218.233      36.893836      36.893836      36.893836    
   6520000   0.44996884    -7.9094745     -7.2345308      2.8885322      50218.233      36.893836      36.893836      36.893836    
   6530000   0.448433      -7.9088768     -7.2362368      2.8888913      50218.233      36.893836      36.893836      36.893836    
   6540000   0.44843058    -7.9099264     -7.2372901      2.8758386      50218.233      36.893836      36.893836      36.893836    
   6550000   0.45105657    -7.9125451     -7.2359699      2.8602399      50218.233      36.893836      36.893836      36.893836    
   6560000   0.44876368    -7.9106425     -7.2375065      2.8767762      50218.233      36.893836      36.893836      36.893836    
   6570000   0.4505829     -7.9100566     -7.2341919      2.8855581      50218.233      36.893836      36.893836      36.893836    
   6580000   0.45097395    -7.9105886     -7.2341373      2.8807663      50218.233      36.893836      36.893836      36.893836    
   6590000   0.45157725    -7.9092305     -7.2318743      2.8771624      50218.233      36.893836      36.893836      36.893836    
   6600000   0.44921332    -7.9082008     -7.2343904      2.8948722      50218.233      36.893836      36.893836      36.893836    
   6610000   0.44944806    -7.9088337     -7.2346712      2.8930131      50218.233      36.893836      36.893836      36.893836    
   6620000   0.44737989    -7.9117887     -7.2407284      2.8622575      50218.233      36.893836      36.893836      36.893836    
   6630000   0.44994378    -7.9082393     -7.2333332      2.9007942      50218.233      36.893836      36.893836      36.893836    
   6640000   0.44881723    -7.9069018     -7.2336855      2.9001376      50218.233      36.893836      36.893836      36.893836    
   6650000   0.44988903    -7.9069145     -7.2320905      2.9015635      50218.233      36.893836      36.893836      36.893836    
   6660000   0.44867052    -7.9124535     -7.2394573      2.8628063      50218.233      36.893836      36.893836      36.893836    
   6670000   0.44856892    -7.9101914     -7.2373476      2.8817669      50218.233      36.893836      36.893836      36.893836    
   6680000   0.45037023    -7.9110669     -7.2355212      2.8756505      50218.233      36.893836      36.893836      36.893836    
   6690000   0.44809557    -7.9069207     -7.2347869      2.9078886      50218.233      36.893836      36.893836      36.893836    
   6700000   0.45044333    -7.9053586     -7.2297032      2.9171654      50218.233      36.893836      36.893836      36.893836    
   6710000   0.44919645    -7.9113748     -7.2375897      2.8694163      50218.233      36.893836      36.893836      36.893836    
   6720000   0.45284655    -7.9080401     -7.2287799      2.8984868      50218.233      36.893836      36.893836      36.893836    
   6730000   0.45144301    -7.9075517     -7.2303968      2.911329       50218.233      36.893836      36.893836      36.893836    
   6740000   0.44908928    -7.9044594     -7.230835       2.9198174      50218.233      36.893836      36.893836      36.893836    
   6750000   0.44961566    -7.9089728     -7.2345589      2.9010743      50218.233      36.893836      36.893836      36.893836    
   6760000   0.45190778    -7.910463      -7.232611       2.8814346      50218.233      36.893836      36.893836      36.893836    
   6770000   0.45099061    -7.9109978     -7.2345215      2.8729327      50218.233      36.893836      36.893836      36.893836    
   6780000   0.45119462    -7.9088714     -7.2320891      2.8932969      50218.233      36.893836      36.893836      36.893836    
   6790000   0.45055527    -7.9097773     -7.233954       2.8882778      50218.233      36.893836      36.893836      36.893836    
   6800000   0.45103491    -7.9095618     -7.233019       2.8977258      50218.233      36.893836      36.893836      36.893836    
   6810000   0.45107007    -7.9061681     -7.2295726      2.9169569      50218.233      36.893836      36.893836      36.893836    
   6820000   0.44887042    -7.9074399     -7.2341439      2.8952467      50218.233      36.893836      36.893836      36.893836    
   6830000   0.44850966    -7.9062435     -7.2334886      2.9105656      50218.233      36.893836      36.893836      36.893836    
   6840000   0.44996465    -7.9094975     -7.2345601      2.8899002      50218.233      36.893836      36.893836      36.893836    
   6850000   0.44925163    -7.9102609     -7.236393       2.877259       50218.233      36.893836      36.893836      36.893836    
   6860000   0.44867634    -7.9092201     -7.2362152      2.8828332      50218.233      36.893836      36.893836      36.893836    
   6870000   0.44963953    -7.9084194     -7.2339697      2.8996839      50218.233      36.893836      36.893836      36.893836    
   6880000   0.4488292     -7.9090978     -7.2358636      2.8926676      50218.233      36.893836      36.893836      36.893836    
   6890000   0.45094874    -7.9120963     -7.2356828      2.8652498      50218.233      36.893836      36.893836      36.893836    
   6900000   0.44953288    -7.9100719     -7.2357822      2.8812225      50218.233      36.893836      36.893836      36.893836    
   6910000   0.45158001    -7.9090305     -7.2316702      2.8932849      50218.233      36.893836      36.893836      36.893836    
   6920000   0.45073628    -7.913041      -7.2369462      2.8685497      50218.233      36.893836      36.893836      36.893836    
   6930000   0.44989272    -7.9094733     -7.2346439      2.8952257      50218.233      36.893836      36.893836      36.893836    
   6940000   0.45067843    -7.9108662     -7.2348582      2.886314       50218.233      36.893836      36.893836      36.893836    
   6950000   0.45101852    -7.9106666     -7.2341485      2.8900883      50218.233      36.893836      36.893836      36.893836    
   6960000   0.45043789    -7.9107947     -7.2351474      2.8782855      50218.233      36.893836      36.893836      36.893836    
   6970000   0.44952332    -7.9090925     -7.2348171      2.8879176      50218.233      36.893836      36.893836      36.893836    
   6980000   0.44872353    -7.9079385     -7.2348627      2.9011174      50218.233      36.893836      36.893836      36.893836    
   6990000   0.44882187    -7.9103089     -7.2370857      2.880984       50218.233      36.893836      36.893836      36.893836    
   7000000   0.4512025     -7.9101452     -7.2333511      2.8831563      50218.233      36.893836      36.893836      36.893836    
   7010000   0.45196653    -7.9077817     -7.2298415      2.9045929      50218.233      36.893836      36.893836      36.893836    
   7020000   0.4497375     -7.9071527     -7.2325561      2.9052963      50218.233      36.893836      36.893836      36.893836    
   7030000   0.45090201    -7.9108223     -7.2344789      2.875676       50218.233      36.893836      36.893836      36.893836    
   7040000   0.45112655    -7.9078321     -7.2311519      2.9047277      50218.233      36.893836      36.893836      36.893836    
   7050000   0.449346      -7.9059379     -7.2319285      2.9172237      50218.233      36.893836      36.893836      36.893836    
   7060000   0.45107495    -7.9095337     -7.2329309      2.8867405      50218.233      36.893836      36.893836      36.893836    
   7070000   0.45018649    -7.9103111     -7.235041       2.8882081      50218.233      36.893836      36.893836      36.893836    
   7080000   0.44907619    -7.9112927     -7.237688       2.8700424      50218.233      36.893836      36.893836      36.893836    
   7090000   0.45117982    -7.908434      -7.2316739      2.8932827      50218.233      36.893836      36.893836      36.893836    
   7100000   0.45170914    -7.9102563     -7.2327023      2.8857867      50218.233      36.893836      36.893836      36.893836    
   7110000   0.44967396    -7.9109029     -7.2364016      2.8758493      50218.233      36.893836      36.893836      36.893836    
   7120000   0.44933404    -7.9089654     -7.2349739      2.8953215      50218.233      36.893836      36.893836      36.893836    
   7130000   0.45036435    -7.9116765     -7.2361396      2.8743717      50218.233      36.893836      36.893836      36.893836    
   7140000   0.44877199    -7.9068417     -7.2336932      2.9049277      50218.233      36.893836      36.893836      36.893836    
   7150000   0.45034374    -7.9079483     -7.2324423      2.906391       50218.233      36.893836      36.893836      36.893836    
   7160000   0.45120346    -7.911774      -7.2349784      2.8848482      50218.233      36.893836      36.893836      36.893836    
   7170000   0.45054342    -7.9055874     -7.2297818      2.9108697      50218.233      36.893836      36.893836      36.893836    
   7180000   0.45070871    -7.9085893     -7.2325359      2.8891685      50218.233      36.893836      36.893836      36.893836    
   7190000   0.45049969    -7.9078244     -7.2320845      2.8961681      50218.233      36.893836      36.893836      36.893836    
   7200000   0.4511389     -7.9102309     -7.2335322      2.8929571      50218.233      36.893836      36.893836      36.893836    
   7210000   0.45254365    -7.905217      -7.2264112      2.9248607      50218.233      36.893836      36.893836      36.893836    
   7220000   0.45029045    -7.9102082     -7.2347822      2.8747484      50218.233      36.893836      36.893836      36.893836    
   7230000   0.44885381    -7.9070868     -7.2338157      2.9085931      50218.233      36.893836      36.893836      36.893836    
   7240000   0.45083272    -7.9074411     -7.2312016      2.8990306      50218.233      36.893836      36.893836      36.893836    
   7250000   0.44881241    -7.9092066     -7.2359976      2.891086       50218.233      36.893836      36.893836      36.893836    
   7260000   0.45093084    -7.9063657     -7.2299791      2.9054203      50218.233      36.893836      36.893836      36.893836    
   7270000   0.44985544    -7.9043809     -7.2296073      2.9247986      50218.233      36.893836      36.893836      36.893836    
   7280000   0.44942903    -7.9118643     -7.2377303      2.8671718      50218.233      36.893836      36.893836      36.893836    
   7290000   0.45250727    -7.9055606     -7.2268094      2.9256382      50218.233      36.893836      36.893836      36.893836    
   7300000   0.45315144    -7.9086602     -7.2289427      2.9044769      50218.233      36.893836      36.893836      36.893836    
   7310000   0.44989712    -7.9055262     -7.2306901      2.9104814      50218.233      36.893836      36.893836      36.893836    
   7320000   0.44871182    -7.9049733     -7.2319152      2.9231398      50218.233      36.893836      36.893836      36.893836    
   7330000   0.44941919    -7.9103448     -7.2362256      2.8818485      50218.233      36.893836      36.893836      36.893836    
   7340000   0.448636      -7.9099343     -7.2369899      2.8812993      50218.233      36.893836      36.893836      36.893836    
   7350000   0.4475933     -7.9097957     -7.2384153      2.8723854      50218.233      36.893836      36.893836      36.893836    
   7360000   0.44820287    -7.9097519     -7.2374572      2.8821983      50218.233      36.893836      36.893836      36.893836    
   7370000   0.44918973    -7.9078646     -7.2340896      2.8978474      50218.233      36.893836      36.893836      36.893836    
   7380000   0.45110475    -7.9034257     -7.2267782      2.9280926      50218.233      36.893836      36.893836      36.893836    
   7390000   0.45015664    -7.9096909     -7.2344655      2.8897566      50218.233      36.893836      36.893836      36.893836    
   7400000   0.44931364    -7.908761      -7.2348002      2.8843022      50218.233      36.893836      36.893836      36.893836    
   7410000   0.45098369    -7.9074368     -7.2309709      2.8945443      50218.233      36.893836      36.893836      36.893836    
   7420000   0.45176007    -7.9077671     -7.2301366      2.8939256      50218.233      36.893836      36.893836      36.893836    
   7430000   0.44922766    -7.9103128     -7.2364808      2.8784043      50218.233      36.893836      36.893836      36.893836    
   7440000   0.44996375    -7.9101908     -7.2352548      2.8878609      50218.233      36.893836      36.893836      36.893836    
   7450000   0.45207209    -7.906834      -7.2287355      2.9145638      50218.233      36.893836      36.893836      36.893836    
   7460000   0.44924279    -7.9090224     -7.2351678      2.8907398      50218.233      36.893836      36.893836      36.893836    
   7470000   0.45041077    -7.9047953     -7.2291888      2.9215601      50218.233      36.893836      36.893836      36.893836    
   7480000   0.44911573    -7.9069408     -7.2332768      2.903929       50218.233      36.893836      36.893836      36.893836    
   7490000   0.45152741    -7.9091347     -7.2318532      2.8884069      50218.233      36.893836      36.893836      36.893836    
   7500000   0.45264598    -7.9077023     -7.2287429      2.9014704      50218.233      36.893836      36.893836      36.893836    
   7510000   0.44997752    -7.9077622     -7.2328055      2.8954025      50218.233      36.893836      36.893836      36.893836    
   7520000   0.44859521    -7.9102772     -7.2373939      2.8818793      50218.233      36.893836      36.893836      36.893836    
   7530000   0.45189494    -7.9114702     -7.2336375      2.8737248      50218.233      36.893836      36.893836      36.893836    
   7540000   0.45122623    -7.9105944     -7.2337647      2.8917356      50218.233      36.893836      36.893836      36.893836    
   7550000   0.44792255    -7.9092532     -7.237379       2.8825878      50218.233      36.893836      36.893836      36.893836    
   7560000   0.4488911     -7.9072166     -7.2338895      2.9044347      50218.233      36.893836      36.893836      36.893836    
   7570000   0.44833901    -7.9053876     -7.2328887      2.9185875      50218.233      36.893836      36.893836      36.893836    
   7580000   0.4509528     -7.9057362     -7.2293167      2.9193627      50218.233      36.893836      36.893836      36.893836    
   7590000   0.45267598    -7.9062611     -7.2272568      2.9140284      50218.233      36.893836      36.893836      36.893836    
   7600000   0.44942166    -7.9098414     -7.2357185      2.8766195      50218.233      36.893836      36.893836      36.893836    
   7610000   0.45025469    -7.9067698     -7.2313974      2.9032727      50218.233      36.893836      36.893836      36.893836    
   7620000   0.4492945     -7.9072203     -7.2332881      2.8930941      50218.233      36.893836      36.893836      36.893836    
   7630000   0.44835199    -7.9088366     -7.2363182      2.8989574      50218.233      36.893836      36.893836      36.893836    
   7640000   0.45025989    -7.9059593     -7.2305791      2.9214936      50218.233      36.893836      36.893836      36.893836    
   7650000   0.44815401    -7.9058994     -7.2336779      2.9161776      50218.233      36.893836      36.893836      36.893836    
   7660000   0.44940245    -7.9115508     -7.2374568      2.8767448      50218.233      36.893836      36.893836      36.893836    
   7670000   0.45007912    -7.9085314     -7.2334223      2.899196       50218.233      36.893836      36.893836      36.893836    
   7680000   0.44834456    -7.9083794     -7.2358721      2.9004154      50218.233      36.893836      36.893836      36.893836    
   7690000   0.44928444    -7.9089276     -7.2350106      2.8915352      50218.233      36.893836      36.893836      36.893836    
   7700000   0.45065458    -7.9080404     -7.2320682      2.8953847      50218.233      36.893836      36.893836      36.893836    
   7710000   0.45085572    -7.9093544     -7.2330804      2.8818641      50218.233      36.893836      36.893836      36.893836    
   7720000   0.4502297     -7.9055036     -7.2301687      2.9226409      50218.233      36.893836      36.893836      36.893836    
   7730000   0.4524098     -7.909368      -7.230763       2.8952072      50218.233      36.893836      36.893836      36.893836    
   7740000   0.44993552    -7.905148      -7.2302543      2.9224911      50218.233      36.893836      36.893836      36.893836    
   7750000   0.45154057    -7.9089536     -7.2316524      2.8866326      50218.233      36.893836      36.893836      36.893836    
   7760000   0.4501651     -7.9080939     -7.2328558      2.8931922      50218.233      36.893836      36.893836      36.893836    
   7770000   0.45106665    -7.9133399     -7.2367495      2.8721923      50218.233      36.893836      36.893836      36.893836    
   7780000   0.44973701    -7.9068908     -7.2322949      2.9108635      50218.233      36.893836      36.893836      36.893836    
   7790000   0.45150957    -7.9096181     -7.2323634      2.8884559      50218.233      36.893836      36.893836      36.893836    
   7800000   0.44900541    -7.9085042     -7.2350057      2.894883       50218.233      36.893836      36.893836      36.893836    
   7810000   0.44981488    -7.9122671     -7.2375544      2.8641341      50218.233      36.893836      36.893836      36.893836    
   7820000   0.45129463    -7.911331      -7.2343987      2.8839403      50218.233      36.893836      36.893836      36.893836    
   7830000   0.45071175    -7.9108105     -7.2347525      2.8780036      50218.233      36.893836      36.893836      36.893836    
   7840000   0.44806606    -7.9078728     -7.2357832      2.8958858      50218.233      36.893836      36.893836      36.893836    
   7850000   0.45148144    -7.9116666     -7.2344541      2.8777631      50218.233      36.893836      36.893836      36.893836    
   7860000   0.45058444    -7.9076965     -7.2318295      2.9073402      50218.233      36.893836      36.893836      36.893836    
   7870000   0.45153038    -7.9082777     -7.2309918      2.8948659      50218.233      36.893836      36.893836      36.893836    
   7880000   0.45091874    -7.9065706     -7.2302021      2.9201126      50218.233      36.893836      36.893836      36.893836    
   7890000   0.45025761    -7.904552      -7.2291752      2.9196358      50218.233      36.893836      36.893836      36.893836    
   7900000   0.44985332    -7.9073514     -7.232581       2.9183652      50218.233      36.893836      36.893836      36.893836    
   7910000   0.45122715    -7.9105973     -7.2337662      2.8808695      50218.233      36.893836      36.893836      36.893836    
   7920000   0.45050974    -7.9108446     -7.2350896      2.8826941      50218.233      36.893836      36.893836      36.893836    
   7930000   0.44919766    -7.9095684     -7.2357815      2.8721423      50218.233      36.893836      36.893836      36.893836    
   7940000   0.44965013    -7.9135208     -7.2390552      2.8578967      50218.233      36.893836      36.893836      36.893836    
   7950000   0.45006431    -7.9096714     -7.2345845      2.888813       50218.233      36.893836      36.893836      36.893836    
   7960000   0.45065321    -7.9057503     -7.2297801      2.9120328      50218.233      36.893836      36.893836      36.893836    
   7970000   0.44968165    -7.9080208     -7.233508       2.8935728      50218.233      36.893836      36.893836      36.893836    
   7980000   0.44921013    -7.9076639     -7.2338583      2.8982854      50218.233      36.893836      36.893836      36.893836    
   7990000   0.45027763    -7.9094554     -7.2340486      2.8945017      50218.233      36.893836      36.893836      36.893836    
   8000000   0.44950173    -7.9095575     -7.2353145      2.8878607      50218.233      36.893836      36.893836      36.893836    
Loop time of 12515.2 on 5 procs for 8000000 steps with 70304 atoms

Performance: 552288.390 tau/day, 639.223 timesteps/s, 44.940 Matom-step/s
94.7% CPU use with 5 MPI tasks x 1 OpenMP threads

MPI task timing breakdown:
Section |  min time  |  avg time  |  max time  |%varavg| %total
---------------------------------------------------------------
Pair    | 4468.8     | 5018.7     | 5655.7     | 587.4 | 40.10
Neigh   | 36.775     | 40.452     | 45.127     |  50.5 |  0.32
Comm    | 1858.4     | 1878.5     | 1908.3     |  44.0 | 15.01
Output  | 0.14351    | 0.14806    | 0.15622    |   1.2 |  0.00
Modify  | 4327.5     | 4964.3     | 5485.4     | 577.1 | 39.67
Other   |            | 613.1      |            |       |  4.90

Nlocal:        14060.8 ave       14114 max       14016 min
Histogram: 1 0 0 1 1 1 0 0 0 1
Nghost:        18738.4 ave       18840 max       18693 min
Histogram: 2 1 1 0 0 0 0 0 0 1
Neighs:              0 ave           0 max           0 min
Histogram: 5 0 0 0 0 0 0 0 0 0

Total # of neighbors = 0
Ave neighs/atom = 0
Neighbor list builds = 1605941
Dangerous builds = 0
clear
OMP_NUM_THREADS environment is not set. Defaulting to 1 thread. (src/comm.cpp:98)
  using 1 OpenMP thread(s) per MPI task
package gpu 0
jump dms545.lmp

variable T equal 545
# T = 1000* (temp in LJ unit)
variable f equal 10000
log log.${T}
log log.545
