variable TLJ equal (${T}/1000)
variable TLJ equal (465/1000)
variable NCyle equal 8
variable iStep equal (${f})
variable iStep equal (10000)
variable dumpStep equal (${f}*100)
variable dumpStep equal (10000*100)
variable runStep equal (${f}*100*${NCyle})
variable runStep equal (10000*100*${NCyle})
variable runStep equal (10000*100*8)

units       lj
atom_style  atomic
dimension 3
boundary     p p p
pair_style  lj/cut 2.5
read_data  ../data/T${T}.dat
read_data  ../data/T465.dat
Reading data file ...
  orthogonal box = (0.97250269 0.97250269 0.97250269) to (37.866338 37.866338 37.866338)
  1 by 1 by 5 MPI processor grid
  reading atoms ...
  70304 atoms
  reading velocities ...
  70304 velocities
  read_data CPU = 0.210 seconds
change_box all triclinic
Changing box ...
  triclinic box = (0.97250269 0.97250269 0.97250269) to (37.866338 37.866338 37.866338) with tilt (0 0 0)
mass 1 1
mass 2 1
pair_modify shift yes
pair_coeff  1 1 1 1
pair_coeff  1 2 1.5 0.8
pair_coeff  2 2 0.5 0.88


timestep 0.01
thermo ${iStep}
thermo 10000
reset_timestep 0
thermo_style custom step temp pe etotal press vol lx ly lz
fix             1 all nvt temp ${TLJ}  ${TLJ}  0.1
fix             1 all nvt temp 0.465  ${TLJ}  0.1
fix             1 all nvt temp 0.465  0.465  0.1
thermo_modify flush yes

fix dsf all deform 1 xy  wiggle 0.5  ${f}   units box
fix dsf all deform 1 xy  wiggle 0.5  10000   units box
fix ps1 all ave/time 1 1 ${iStep} c_thermo_press[1] c_thermo_press[2]  c_thermo_press[3] c_thermo_press[4]  c_thermo_press[5] c_thermo_press[6]  file  stress.${T}
fix ps1 all ave/time 1 1 10000 c_thermo_press[1] c_thermo_press[2]  c_thermo_press[3] c_thermo_press[4]  c_thermo_press[5] c_thermo_press[6]  file  stress.${T}
fix ps1 all ave/time 1 1 10000 c_thermo_press[1] c_thermo_press[2]  c_thermo_press[3] c_thermo_press[4]  c_thermo_press[5] c_thermo_press[6]  file  stress.465
dump            1 all custom ${dumpStep} dump.${T} id type x y z
dump            1 all custom 1000000 dump.${T} id type x y z
dump            1 all custom 1000000 dump.465 id type x y z
dump_modify 1 sort id
fix nodrift all momentum 1  linear 1 1 1
fix com_seed all recenter INIT INIT INIT shift all
run ${runStep}
run 8000000
Generated 0 of 1 mixed pair_coeff terms from geometric mixing rule
Per MPI rank memory allocation (min/avg/max) = 6.661 | 8.465 | 8.919 Mbytes
   Step          Temp          PotEng         TotEng         Press          Volume           Lx             Ly             Lz      
         0   0.46511584    -7.8917267     -7.1940629      3.0426982      50218.233      36.893836      36.893836      36.893836    
     10000   0.46353691    -7.8853966     -7.1901011      3.0783347      50218.233      36.893836      36.893836      36.893836    
     20000   0.46440304    -7.8817103     -7.1851157      3.1068284      50218.233      36.893836      36.893836      36.893836    
     30000   0.46627131    -7.8829784     -7.1835814      3.1016103      50218.233      36.893836      36.893836      36.893836    
     40000   0.46312799    -7.8806232     -7.1859411      3.1205646      50218.233      36.893836      36.893836      36.893836    
     50000   0.46421254    -7.8779155     -7.1816066      3.1385076      50218.233      36.893836      36.893836      36.893836    
     60000   0.4678122     -7.8861066     -7.1843983      3.084073       50218.233      36.893836      36.893836      36.893836    
     70000   0.46712177    -7.8887018     -7.1880291      3.0551815      50218.233      36.893836      36.893836      36.893836    
     80000   0.46591293    -7.882439      -7.1835796      3.1076088      50218.233      36.893836      36.893836      36.893836    
     90000   0.46407063    -7.8839627     -7.1878666      3.0891384      50218.233      36.893836      36.893836      36.893836    
    100000   0.46505317    -7.8841977     -7.1866278      3.0952693      50218.233      36.893836      36.893836      36.893836    
    110000   0.467585      -7.8789354     -7.1775679      3.1425316      50218.233      36.893836      36.893836      36.893836    
    120000   0.46718485    -7.8832265     -7.1824592      3.0999671      50218.233      36.893836      36.893836      36.893836    
    130000   0.46544749    -7.8811838     -7.1830225      3.1203094      50218.233      36.893836      36.893836      36.893836    
    140000   0.4656353     -7.8802167     -7.1817737      3.1392746      50218.233      36.893836      36.893836      36.893836    
    150000   0.46595609    -7.8846064     -7.1856822      3.101423       50218.233      36.893836      36.893836      36.893836    
    160000   0.46398358    -7.8797156     -7.1837502      3.1222425      50218.233      36.893836      36.893836      36.893836    
    170000   0.4644556     -7.8825197     -7.1858462      3.1070391      50218.233      36.893836      36.893836      36.893836    
    180000   0.46521125    -7.8789082     -7.1811012      3.1378058      50218.233      36.893836      36.893836      36.893836    
    190000   0.46782359    -7.8808302     -7.1791048      3.1266444      50218.233      36.893836      36.893836      36.893836    
    200000   0.46471412    -7.8817036     -7.1846424      3.1120601      50218.233      36.893836      36.893836      36.893836    
    210000   0.46342852    -7.8834702     -7.1883373      3.1079799      50218.233      36.893836      36.893836      36.893836    
    220000   0.4635642     -7.8793792     -7.1840428      3.1357197      50218.233      36.893836      36.893836      36.893836    
    230000   0.46574872    -7.8810434     -7.1824303      3.1174503      50218.233      36.893836      36.893836      36.893836    
    240000   0.46539479    -7.8813418     -7.1832596      3.1081673      50218.233      36.893836      36.893836      36.893836    
    250000   0.46474361    -7.8797805     -7.182675       3.125947       50218.233      36.893836      36.893836      36.893836    
    260000   0.46450904    -7.8785434     -7.1817897      3.1305301      50218.233      36.893836      36.893836      36.893836    
    270000   0.46246822    -7.8817797     -7.1880872      3.1030976      50218.233      36.893836      36.893836      36.893836    
    280000   0.46367612    -7.8816089     -7.1861047      3.1145521      50218.233      36.893836      36.893836      36.893836    
    290000   0.46391701    -7.8804357     -7.18457        3.1195111      50218.233      36.893836      36.893836      36.893836    
    300000   0.4635011     -7.878468      -7.1832262      3.1397263      50218.233      36.893836      36.893836      36.893836    
    310000   0.46435287    -7.8798243     -7.1833049      3.1166782      50218.233      36.893836      36.893836      36.893836    
    320000   0.46567828    -7.8799879     -7.1814804      3.1379264      50218.233      36.893836      36.893836      36.893836    
    330000   0.46643129    -7.8816189     -7.1819819      3.1219656      50218.233      36.893836      36.893836      36.893836    
    340000   0.46358692    -7.8806654     -7.1852949      3.1218188      50218.233      36.893836      36.893836      36.893836    
    350000   0.46263019    -7.8799903     -7.1860549      3.1164509      50218.233      36.893836      36.893836      36.893836    
    360000   0.46351212    -7.8822087     -7.1869504      3.0902482      50218.233      36.893836      36.893836      36.893836    
    370000   0.46757428    -7.8819443     -7.1805929      3.115332       50218.233      36.893836      36.893836      36.893836    
    380000   0.46631578    -7.8844295     -7.1849658      3.0918942      50218.233      36.893836      36.893836      36.893836    
    390000   0.46416699    -7.8803003     -7.1840597      3.126514       50218.233      36.893836      36.893836      36.893836    
    400000   0.46595134    -7.8822853     -7.1833682      3.1037438      50218.233      36.893836      36.893836      36.893836    
    410000   0.46468641    -7.8824717     -7.185452       3.1163587      50218.233      36.893836      36.893836      36.893836    
    420000   0.46569967    -7.8796735     -7.1811339      3.1334235      50218.233      36.893836      36.893836      36.893836    
    430000   0.46546935    -7.8804444     -7.1822503      3.1160225      50218.233      36.893836      36.893836      36.893836    
    440000   0.46847172    -7.8840342     -7.1813366      3.1046232      50218.233      36.893836      36.893836      36.893836    
    450000   0.46433202    -7.8814966     -7.1850085      3.1233907      50218.233      36.893836      36.893836      36.893836    
    460000   0.46219749    -7.8838754     -7.190589       3.0953158      50218.233      36.893836      36.893836      36.893836    
    470000   0.46283638    -7.8803992     -7.1861545      3.1146565      50218.233      36.893836      36.893836      36.893836    
    480000   0.46297669    -7.8799089     -7.1854537      3.1232389      50218.233      36.893836      36.893836      36.893836    
    490000   0.46528827    -7.8816912     -7.1837687      3.1212484      50218.233      36.893836      36.893836      36.893836    
    500000   0.46355061    -7.8809295     -7.1856135      3.1217194      50218.233      36.893836      36.893836      36.893836    
    510000   0.46401302    -7.8837597     -7.1877501      3.0941895      50218.233      36.893836      36.893836      36.893836    
    520000   0.46459593    -7.8822978     -7.1854138      3.1006907      50218.233      36.893836      36.893836      36.893836    
    530000   0.46511738    -7.8789715     -7.1813053      3.1371065      50218.233      36.893836      36.893836      36.893836    
    540000   0.46329951    -7.8794423     -7.1845029      3.1369578      50218.233      36.893836      36.893836      36.893836    
    550000   0.46516414    -7.8790026     -7.1812663      3.1471737      50218.233      36.893836      36.893836      36.893836    
    560000   0.46470544    -7.8811287     -7.1840804      3.1279331      50218.233      36.893836      36.893836      36.893836    
    570000   0.4631358     -7.8800131     -7.1853193      3.1230222      50218.233      36.893836      36.893836      36.893836    
    580000   0.46705785    -7.8810597     -7.1804829      3.1322425      50218.233      36.893836      36.893836      36.893836    
    590000   0.46645589    -7.8813062     -7.1816324      3.1333334      50218.233      36.893836      36.893836      36.893836    
    600000   0.46469197    -7.8850826     -7.1880546      3.0929313      50218.233      36.893836      36.893836      36.893836    
    610000   0.46618465    -7.8814464     -7.1821793      3.1155862      50218.233      36.893836      36.893836      36.893836    
    620000   0.46522527    -7.8816513     -7.1838234      3.1219495      50218.233      36.893836      36.893836      36.893836    
    630000   0.46445386    -7.8802547     -7.1835838      3.1296         50218.233      36.893836      36.893836      36.893836    
    640000   0.46553008    -7.8826825     -7.1843973      3.1124571      50218.233      36.893836      36.893836      36.893836    
    650000   0.46503223    -7.8816874     -7.1841489      3.1100897      50218.233      36.893836      36.893836      36.893836    
    660000   0.46722544    -7.8826929     -7.1818647      3.0971419      50218.233      36.893836      36.893836      36.893836    
    670000   0.46838256    -7.8804604     -7.1778966      3.1242591      50218.233      36.893836      36.893836      36.893836    
    680000   0.46526521    -7.8805582     -7.1826703      3.1217519      50218.233      36.893836      36.893836      36.893836    
    690000   0.46998403    -7.8844201     -7.1794541      3.0967222      50218.233      36.893836      36.893836      36.893836    
    700000   0.46660192    -7.8830447     -7.1831518      3.1049906      50218.233      36.893836      36.893836      36.893836    
    710000   0.46574262    -7.8834138     -7.1848098      3.1075407      50218.233      36.893836      36.893836      36.893836    
    720000   0.46277451    -7.879777      -7.1856251      3.1318494      50218.233      36.893836      36.893836      36.893836    
    730000   0.4645838     -7.8814306     -7.1845648      3.1153326      50218.233      36.893836      36.893836      36.893836    
    740000   0.46482554    -7.8819166     -7.1846882      3.1136214      50218.233      36.893836      36.893836      36.893836    
    750000   0.46519136    -7.8806784     -7.1829013      3.1249836      50218.233      36.893836      36.893836      36.893836    
    760000   0.46318383    -7.8793942     -7.1846283      3.1365304      50218.233      36.893836      36.893836      36.893836    
    770000   0.46368745    -7.8808395     -7.1853182      3.1187631      50218.233      36.893836      36.893836      36.893836    
    780000   0.46725924    -7.8818052     -7.1809263      3.1206147      50218.233      36.893836      36.893836      36.893836    
    790000   0.46207951    -7.8811229     -7.1880134      3.119572       50218.233      36.893836      36.893836      36.893836    
    800000   0.46536472    -7.8823056     -7.1842685      3.1074398      50218.233      36.893836      36.893836      36.893836    
    810000   0.46557199    -7.8825685     -7.1842205      3.1069787      50218.233      36.893836      36.893836      36.893836    
    820000   0.46465918    -7.8753184     -7.1783395      3.1603032      50218.233      36.893836      36.893836      36.893836    
    830000   0.46564692    -7.8826453     -7.1841849      3.1064547      50218.233      36.893836      36.893836      36.893836    
    840000   0.46336845    -7.879519      -7.1844762      3.12846        50218.233      36.893836      36.893836      36.893836    
    850000   0.46380549    -7.879837      -7.1841386      3.1254019      50218.233      36.893836      36.893836      36.893836    
    860000   0.46499424    -7.8806741     -7.1831926      3.121391       50218.233      36.893836      36.893836      36.893836    
    870000   0.46517702    -7.8827543     -7.1849987      3.1062341      50218.233      36.893836      36.893836      36.893836    
    880000   0.46448189    -7.8819828     -7.1852698      3.09248        50218.233      36.893836      36.893836      36.893836    
    890000   0.46560848    -7.8802971     -7.1818943      3.1223825      50218.233      36.893836      36.893836      36.893836    
    900000   0.46388347    -7.8760639     -7.1802486      3.1628235      50218.233      36.893836      36.893836      36.893836    
    910000   0.46458237    -7.8791423     -7.1822787      3.1271924      50218.233      36.893836      36.893836      36.893836    
    920000   0.46574552    -7.8820158     -7.1834074      3.125348       50218.233      36.893836      36.893836      36.893836    
    930000   0.46568875    -7.882637      -7.1841138      3.1151734      50218.233      36.893836      36.893836      36.893836    
    940000   0.46226652    -7.8840054     -7.1906154      3.0891206      50218.233      36.893836      36.893836      36.893836    
    950000   0.46433609    -7.880339      -7.1838448      3.1266088      50218.233      36.893836      36.893836      36.893836    
    960000   0.46415032    -7.8780376     -7.181822       3.15121        50218.233      36.893836      36.893836      36.893836    
    970000   0.46524008    -7.877254      -7.1794038      3.1464481      50218.233      36.893836      36.893836      36.893836    
    980000   0.46629743    -7.8817609     -7.1823247      3.107366       50218.233      36.893836      36.893836      36.893836    
    990000   0.46639211    -7.8824865     -7.1829083      3.105681       50218.233      36.893836      36.893836      36.893836    
   1000000   0.46549413    -7.8829946     -7.1847633      3.1001864      50218.233      36.893836      36.893836      36.893836    
   1010000   0.46653569    -7.8817693     -7.1819757      3.1202718      50218.233      36.893836      36.893836      36.893836    
   1020000   0.46404329    -7.8783879     -7.1823329      3.1434285      50218.233      36.893836      36.893836      36.893836    
   1030000   0.46824101    -7.8825664     -7.1802149      3.1166961      50218.233      36.893836      36.893836      36.893836    
   1040000   0.4633145     -7.886149      -7.1911871      3.0752185      50218.233      36.893836      36.893836      36.893836    
   1050000   0.46741373    -7.8830768     -7.1819662      3.1124467      50218.233      36.893836      36.893836      36.893836    
   1060000   0.46822276    -7.881885      -7.1795608      3.1182623      50218.233      36.893836      36.893836      36.893836    
   1070000   0.46308019    -7.8829056     -7.1882952      3.1061141      50218.233      36.893836      36.893836      36.893836    
   1080000   0.46581321    -7.8794165     -7.1807066      3.1324545      50218.233      36.893836      36.893836      36.893836    
   1090000   0.46496013    -7.8806576     -7.1832273      3.112922       50218.233      36.893836      36.893836      36.893836    
   1100000   0.46393696    -7.8823201     -7.1864245      3.1099111      50218.233      36.893836      36.893836      36.893836    
   1110000   0.46574998    -7.8803628     -7.1817477      3.1216772      50218.233      36.893836      36.893836      36.893836    
   1120000   0.46737376    -7.8798603     -7.1788096      3.131731       50218.233      36.893836      36.893836      36.893836    
   1130000   0.4651957     -7.8821224     -7.1843387      3.1110689      50218.233      36.893836      36.893836      36.893836    
   1140000   0.46433808    -7.8839344     -7.1874372      3.0935776      50218.233      36.893836      36.893836      36.893836    
   1150000   0.46538568    -7.8813412     -7.1832726      3.1218848      50218.233      36.893836      36.893836      36.893836    
   1160000   0.46396468    -7.8824856     -7.1865485      3.1023262      50218.233      36.893836      36.893836      36.893836    
   1170000   0.46273544    -7.878408      -7.1843147      3.1349412      50218.233      36.893836      36.893836      36.893836    
   1180000   0.465721      -7.8814399     -7.1828683      3.113735       50218.233      36.893836      36.893836      36.893836    
   1190000   0.46565855    -7.8806707     -7.1821929      3.1163267      50218.233      36.893836      36.893836      36.893836    
   1200000   0.46405211    -7.8775644     -7.1814962      3.1439183      50218.233      36.893836      36.893836      36.893836    
   1210000   0.46466344    -7.8808471     -7.1838619      3.1107571      50218.233      36.893836      36.893836      36.893836    
   1220000   0.46591746    -7.8773272     -7.178461       3.1465077      50218.233      36.893836      36.893836      36.893836    
   1230000   0.46485595    -7.8812691     -7.1839951      3.1098576      50218.233      36.893836      36.893836      36.893836    
   1240000   0.46677692    -7.8816661     -7.1815107      3.1176475      50218.233      36.893836      36.893836      36.893836    
   1250000   0.46495693    -7.8795798     -7.1821543      3.1293724      50218.233      36.893836      36.893836      36.893836    
   1260000   0.46543248    -7.8804468     -7.182308       3.1190286      50218.233      36.893836      36.893836      36.893836    
   1270000   0.46503933    -7.8841696     -7.1866205      3.0900414      50218.233      36.893836      36.893836      36.893836    
   1280000   0.46623117    -7.8818022     -7.1824654      3.1128936      50218.233      36.893836      36.893836      36.893836    
   1290000   0.46323886    -7.8799021     -7.1850537      3.1236522      50218.233      36.893836      36.893836      36.893836    
   1300000   0.46423553    -7.8806004     -7.184257       3.1123026      50218.233      36.893836      36.893836      36.893836    
   1310000   0.46476331    -7.8799237     -7.1827887      3.1325994      50218.233      36.893836      36.893836      36.893836    
   1320000   0.46455074    -7.8806117     -7.1837955      3.122182       50218.233      36.893836      36.893836      36.893836    
   1330000   0.46535885    -7.8811827     -7.1831544      3.1136619      50218.233      36.893836      36.893836      36.893836    
   1340000   0.46517064    -7.883295      -7.185549       3.104952       50218.233      36.893836      36.893836      36.893836    
   1350000   0.46630213    -7.879865      -7.1804217      3.1350943      50218.233      36.893836      36.893836      36.893836    
   1360000   0.46451221    -7.8832619     -7.1865035      3.1000346      50218.233      36.893836      36.893836      36.893836    
   1370000   0.46446663    -7.8807552     -7.1840652      3.1212505      50218.233      36.893836      36.893836      36.893836    
   1380000   0.46652718    -7.8838653     -7.1840845      3.1059212      50218.233      36.893836      36.893836      36.893836    
   1390000   0.46564062    -7.8804037     -7.1819527      3.1274546      50218.233      36.893836      36.893836      36.893836    
   1400000   0.46278591    -7.8816628     -7.1874938      3.1094         50218.233      36.893836      36.893836      36.893836    
   1410000   0.46714181    -7.8821666     -7.1814638      3.1139709      50218.233      36.893836      36.893836      36.893836    
   1420000   0.46566317    -7.8800481     -7.1815633      3.1242776      50218.233      36.893836      36.893836      36.893836    
   1430000   0.46533477    -7.8789352     -7.1809429      3.1422855      50218.233      36.893836      36.893836      36.893836    
   1440000   0.46648564    -7.8803382     -7.1806197      3.1228708      50218.233      36.893836      36.893836      36.893836    
   1450000   0.46452716    -7.8832513     -7.1864705      3.0984408      50218.233      36.893836      36.893836      36.893836    
   1460000   0.46394822    -7.8830508     -7.1871384      3.1047205      50218.233      36.893836      36.893836      36.893836    
   1470000   0.46602585    -7.8852679     -7.1862391      3.0890392      50218.233      36.893836      36.893836      36.893836    
   1480000   0.46710054    -7.8854699     -7.1848291      3.0841984      50218.233      36.893836      36.893836      36.893836    
   1490000   0.46618144    -7.8789425     -7.1796803      3.1357506      50218.233      36.893836      36.893836      36.893836    
   1500000   0.46589677    -7.8763629     -7.1775277      3.1502321      50218.233      36.893836      36.893836      36.893836    
   1510000   0.46450802    -7.8825738     -7.1858217      3.10287        50218.233      36.893836      36.893836      36.893836    
   1520000   0.46547186    -7.8796275     -7.1814297      3.1299676      50218.233      36.893836      36.893836      36.893836    
   1530000   0.46524937    -7.8782626     -7.1803984      3.1391442      50218.233      36.893836      36.893836      36.893836    
   1540000   0.46185716    -7.8824901     -7.1897142      3.1053044      50218.233      36.893836      36.893836      36.893836    
   1550000   0.46412609    -7.8838717     -7.1876925      3.0917215      50218.233      36.893836      36.893836      36.893836    
   1560000   0.46607384    -7.879109      -7.1800082      3.1195045      50218.233      36.893836      36.893836      36.893836    
   1570000   0.46630388    -7.8817686     -7.1823227      3.108318       50218.233      36.893836      36.893836      36.893836    
   1580000   0.46166346    -7.8818158     -7.1893304      3.1168072      50218.233      36.893836      36.893836      36.893836    
   1590000   0.4649172     -7.8818315     -7.1844657      3.117708       50218.233      36.893836      36.893836      36.893836    
   1600000   0.46382665    -7.8824467     -7.1867166      3.1059133      50218.233      36.893836      36.893836      36.893836    
   1610000   0.46574654    -7.882502      -7.1838921      3.1255054      50218.233      36.893836      36.893836      36.893836    
   1620000   0.46408225    -7.8826126     -7.1864992      3.1008552      50218.233      36.893836      36.893836      36.893836    
   1630000   0.46721745    -7.8837942     -7.182978       3.114451       50218.233      36.893836      36.893836      36.893836    
   1640000   0.46530686    -7.8814065     -7.1834561      3.1178463      50218.233      36.893836      36.893836      36.893836    
   1650000   0.46717957    -7.8836401     -7.1828807      3.0938857      50218.233      36.893836      36.893836      36.893836    
   1660000   0.46506009    -7.881543      -7.1839628      3.1116003      50218.233      36.893836      36.893836      36.893836    
   1670000   0.46396105    -7.8813035     -7.1853718      3.1175119      50218.233      36.893836      36.893836      36.893836    
   1680000   0.46412979    -7.8839641     -7.1877793      3.1036224      50218.233      36.893836      36.893836      36.893836    
   1690000   0.4639723     -7.8805734     -7.1846249      3.1231282      50218.233      36.893836      36.893836      36.893836    
   1700000   0.46536492    -7.8805203     -7.1824828      3.1286327      50218.233      36.893836      36.893836      36.893836    
   1710000   0.46888709    -7.8797868     -7.1764662      3.1354013      50218.233      36.893836      36.893836      36.893836    
   1720000   0.46448724    -7.8793396     -7.1826186      3.1362359      50218.233      36.893836      36.893836      36.893836    
   1730000   0.46463108    -7.8861667     -7.18923        3.0882636      50218.233      36.893836      36.893836      36.893836    
   1740000   0.46791245    -7.8848373     -7.1829787      3.0874028      50218.233      36.893836      36.893836      36.893836    
   1750000   0.46622339    -7.8808364     -7.1815113      3.1180289      50218.233      36.893836      36.893836      36.893836    
   1760000   0.46464381    -7.8863439     -7.1893881      3.0896719      50218.233      36.893836      36.893836      36.893836    
   1770000   0.4638938     -7.8829487     -7.1871179      3.1064517      50218.233      36.893836      36.893836      36.893836    
   1780000   0.46242811    -7.883496      -7.1898637      3.0970766      50218.233      36.893836      36.893836      36.893836    
   1790000   0.46322014    -7.8797431     -7.1849227      3.129096       50218.233      36.893836      36.893836      36.893836    
   1800000   0.46593963    -7.8742164     -7.1753169      3.1668985      50218.233      36.893836      36.893836      36.893836    
   1810000   0.46724203    -7.8808405     -7.1799874      3.1247657      50218.233      36.893836      36.893836      36.893836    
   1820000   0.46597863    -7.8813692     -7.1824112      3.1129329      50218.233      36.893836      36.893836      36.893836    
   1830000   0.46457895    -7.8797008     -7.1828423      3.139316       50218.233      36.893836      36.893836      36.893836    
   1840000   0.46414517    -7.887309      -7.1911011      3.0710062      50218.233      36.893836      36.893836      36.893836    
   1850000   0.46328855    -7.880718      -7.1857951      3.1269388      50218.233      36.893836      36.893836      36.893836    
   1860000   0.46413496    -7.8833185     -7.1871259      3.0958704      50218.233      36.893836      36.893836      36.893836    
   1870000   0.4647665     -7.8797357     -7.1825958      3.1330458      50218.233      36.893836      36.893836      36.893836    
   1880000   0.4639827     -7.8825143     -7.1865502      3.1092611      50218.233      36.893836      36.893836      36.893836    
   1890000   0.46681146    -7.8827773     -7.1825701      3.1080562      50218.233      36.893836      36.893836      36.893836    
   1900000   0.46486415    -7.8816013     -7.184315       3.1186757      50218.233      36.893836      36.893836      36.893836    
   1910000   0.46367072    -7.8779888     -7.1824926      3.1355509      50218.233      36.893836      36.893836      36.893836    
   1920000   0.46337093    -7.8816871     -7.1866406      3.1222705      50218.233      36.893836      36.893836      36.893836    
   1930000   0.46267208    -7.8769216     -7.1829234      3.1464482      50218.233      36.893836      36.893836      36.893836    
   1940000   0.46259044    -7.8830657     -7.1891899      3.0979725      50218.233      36.893836      36.893836      36.893836    
   1950000   0.46316561    -7.8791543     -7.1844158      3.1419633      50218.233      36.893836      36.893836      36.893836    
   1960000   0.46594327    -7.8843489     -7.185444       3.1004457      50218.233      36.893836      36.893836      36.893836    
   1970000   0.46826239    -7.8811171     -7.1787335      3.1193673      50218.233      36.893836      36.893836      36.893836    
   1980000   0.46432168    -7.8776631     -7.1811905      3.1466688      50218.233      36.893836      36.893836      36.893836    
   1990000   0.46424259    -7.8831595     -7.1868055      3.1089499      50218.233      36.893836      36.893836      36.893836    
   2000000   0.4641829     -7.8849103     -7.1886459      3.0840528      50218.233      36.893836      36.893836      36.893836    
   2010000   0.4627539     -7.8807145     -7.1865936      3.1165964      50218.233      36.893836      36.893836      36.893836    
   2020000   0.46327625    -7.8820805     -7.187176       3.099222       50218.233      36.893836      36.893836      36.893836    
   2030000   0.46437184    -7.8832276     -7.1866797      3.1019876      50218.233      36.893836      36.893836      36.893836    
   2040000   0.46399596    -7.885008      -7.189024       3.0956315      50218.233      36.893836      36.893836      36.893836    
   2050000   0.46644346    -7.8843844     -7.1847292      3.1096716      50218.233      36.893836      36.893836      36.893836    
   2060000   0.46683551    -7.8814399     -7.1811966      3.1218633      50218.233      36.893836      36.893836      36.893836    
   2070000   0.46567508    -7.8824324     -7.1839297      3.1163676      50218.233      36.893836      36.893836      36.893836    
   2080000   0.46507518    -7.8849535     -7.1873506      3.082348       50218.233      36.893836      36.893836      36.893836    
   2090000   0.46556132    -7.8815492     -7.1832172      3.1150801      50218.233      36.893836      36.893836      36.893836    
   2100000   0.46698866    -7.8818474     -7.1813744      3.1202883      50218.233      36.893836      36.893836      36.893836    
   2110000   0.46498951    -7.8792895     -7.1818151      3.1317101      50218.233      36.893836      36.893836      36.893836    
   2120000   0.46613614    -7.8815829     -7.1823886      3.1230917      50218.233      36.893836      36.893836      36.893836    
   2130000   0.46378924    -7.8842492     -7.1885752      3.0992098      50218.233      36.893836      36.893836      36.893836    
   2140000   0.4656075     -7.8805888     -7.1821874      3.1292116      50218.233      36.893836      36.893836      36.893836    
   2150000   0.46454114    -7.8812292     -7.1844274      3.1154134      50218.233      36.893836      36.893836      36.893836    
   2160000   0.46550799    -7.8830762     -7.1848242      3.0947544      50218.233      36.893836      36.893836      36.893836    
   2170000   0.46499372    -7.8813913     -7.1839107      3.118722       50218.233      36.893836      36.893836      36.893836    
   2180000   0.46518788    -7.8831452     -7.1853733      3.1055794      50218.233      36.893836      36.893836      36.893836    
   2190000   0.46440979    -7.8826203     -7.1860156      3.1081839      50218.233      36.893836      36.893836      36.893836    
   2200000   0.4659886     -7.8804944     -7.1815214      3.1100764      50218.233      36.893836      36.893836      36.893836    
   2210000   0.46230915    -7.8822969     -7.1888431      3.1102816      50218.233      36.893836      36.893836      36.893836    
   2220000   0.46465039    -7.8796558     -7.1826902      3.1281528      50218.233      36.893836      36.893836      36.893836    
   2230000   0.46402705    -7.8811567     -7.185126       3.1137614      50218.233      36.893836      36.893836      36.893836    
   2240000   0.46305237    -7.8824772     -7.1879086      3.1136237      50218.233      36.893836      36.893836      36.893836    
   2250000   0.4656844     -7.8793773     -7.1808606      3.1212169      50218.233      36.893836      36.893836      36.893836    
   2260000   0.46227239    -7.8797191     -7.1863203      3.1305056      50218.233      36.893836      36.893836      36.893836    
   2270000   0.46400059    -7.8798929     -7.183902       3.1259629      50218.233      36.893836      36.893836      36.893836    
   2280000   0.46571104    -7.8752228     -7.1766662      3.1699324      50218.233      36.893836      36.893836      36.893836    
   2290000   0.46284542    -7.8803891     -7.1861308      3.1228165      50218.233      36.893836      36.893836      36.893836    
   2300000   0.46654234    -7.8840264     -7.1842229      3.1049809      50218.233      36.893836      36.893836      36.893836    
   2310000   0.46564226    -7.883495      -7.1850415      3.0970083      50218.233      36.893836      36.893836      36.893836    
   2320000   0.46434642    -7.8758188     -7.1793091      3.166901       50218.233      36.893836      36.893836      36.893836    
   2330000   0.46670663    -7.8812355     -7.1811855      3.1199514      50218.233      36.893836      36.893836      36.893836    
   2340000   0.46502153    -7.878509      -7.1809866      3.1380312      50218.233      36.893836      36.893836      36.893836    
   2350000   0.46502924    -7.8799441     -7.1824102      3.1271894      50218.233      36.893836      36.893836      36.893836    
   2360000   0.46586082    -7.8822082     -7.1834269      3.1101298      50218.233      36.893836      36.893836      36.893836    
   2370000   0.46417796    -7.8829875     -7.1867305      3.0991368      50218.233      36.893836      36.893836      36.893836    
   2380000   0.46638338    -7.8838413     -7.1842762      3.08601        50218.233      36.893836      36.893836      36.893836    
   2390000   0.46480282    -7.8805305     -7.1833362      3.1209476      50218.233      36.893836      36.893836      36.893836    
   2400000   0.46653245    -7.8813921     -7.1816034      3.1159744      50218.233      36.893836      36.893836      36.893836    
   2410000   0.46468877    -7.8796327     -7.1826094      3.1301944      50218.233      36.893836      36.893836      36.893836    
   2420000   0.46291552    -7.8842857     -7.1899223      3.0854928      50218.233      36.893836      36.893836      36.893836    
   2430000   0.46655013    -7.8825839     -7.1827686      3.1039763      50218.233      36.893836      36.893836      36.893836    
   2440000   0.46377609    -7.883346      -7.1876917      3.0988019      50218.233      36.893836      36.893836      36.893836    
   2450000   0.46789019    -7.8795327     -7.1777074      3.1286635      50218.233      36.893836      36.893836      36.893836    
   2460000   0.46479717    -7.8816512     -7.1844653      3.1150093      50218.233      36.893836      36.893836      36.893836    
   2470000   0.46883437    -7.8788589     -7.1756174      3.1449467      50218.233      36.893836      36.893836      36.893836    
   2480000   0.46193346    -7.8815113     -7.188621       3.1059399      50218.233      36.893836      36.893836      36.893836    
   2490000   0.46649976    -7.8815906     -7.1818509      3.1065281      50218.233      36.893836      36.893836      36.893836    
   2500000   0.46352296    -7.8800024     -7.1847278      3.1260555      50218.233      36.893836      36.893836      36.893836    
   2510000   0.46667804    -7.8819415     -7.1819344      3.1143046      50218.233      36.893836      36.893836      36.893836    
   2520000   0.4624625     -7.8865915     -7.1929076      3.0676676      50218.233      36.893836      36.893836      36.893836    
   2530000   0.46166315    -7.8779249     -7.18544        3.1287896      50218.233      36.893836      36.893836      36.893836    
   2540000   0.46494721    -7.8804079     -7.182997       3.1163954      50218.233      36.893836      36.893836      36.893836    
   2550000   0.46750979    -7.8818379     -7.1805832      3.114721       50218.233      36.893836      36.893836      36.893836    
   2560000   0.4660649     -7.8794551     -7.1803677      3.1272805      50218.233      36.893836      36.893836      36.893836    
   2570000   0.46543974    -7.8836645     -7.1855148      3.093608       50218.233      36.893836      36.893836      36.893836    
   2580000   0.46410295    -7.8838169     -7.1876724      3.0876832      50218.233      36.893836      36.893836      36.893836    
   2590000   0.46255463    -7.8823152     -7.1884931      3.0996823      50218.233      36.893836      36.893836      36.893836    
   2600000   0.46310451    -7.8814499     -7.186803       3.1029811      50218.233      36.893836      36.893836      36.893836    
   2610000   0.46386354    -7.8815557     -7.1857703      3.1049294      50218.233      36.893836      36.893836      36.893836    
   2620000   0.46436435    -7.8838752     -7.1873386      3.1061328      50218.233      36.893836      36.893836      36.893836    
   2630000   0.46649726    -7.8776778     -7.1779418      3.1399454      50218.233      36.893836      36.893836      36.893836    
   2640000   0.46839052    -7.8785704     -7.1759946      3.1422446      50218.233      36.893836      36.893836      36.893836    
   2650000   0.46656203    -7.8800754     -7.1802423      3.1170841      50218.233      36.893836      36.893836      36.893836    
   2660000   0.46299233    -7.8833681     -7.1888895      3.1064783      50218.233      36.893836      36.893836      36.893836    
   2670000   0.46530736    -7.8819505     -7.1839994      3.1177592      50218.233      36.893836      36.893836      36.893836    
   2680000   0.46728183    -7.8799838     -7.179071       3.138096       50218.233      36.893836      36.893836      36.893836    
   2690000   0.4664022     -7.8762667     -7.1766734      3.1556877      50218.233      36.893836      36.893836      36.893836    
   2700000   0.46518322    -7.8788138     -7.1810489      3.1301468      50218.233      36.893836      36.893836      36.893836    
   2710000   0.46169856    -7.8780754     -7.1855374      3.1395527      50218.233      36.893836      36.893836      36.893836    
   2720000   0.46525313    -7.8806381     -7.1827683      3.1209206      50218.233      36.893836      36.893836      36.893836    
   2730000   0.46350564    -7.8810392     -7.1857906      3.1170349      50218.233      36.893836      36.893836      36.893836    
   2740000   0.46652042    -7.8825608     -7.1827901      3.1040823      50218.233      36.893836      36.893836      36.893836    
   2750000   0.46870873    -7.8808598     -7.1778067      3.1229917      50218.233      36.893836      36.893836      36.893836    
   2760000   0.46596496    -7.8797053     -7.1807678      3.1350827      50218.233      36.893836      36.893836      36.893836    
   2770000   0.46379819    -7.8823649     -7.1866775      3.1024162      50218.233      36.893836      36.893836      36.893836    
   2780000   0.46602029    -7.8792296     -7.1802091      3.1328152      50218.233      36.893836      36.893836      36.893836    
   2790000   0.46591075    -7.8787998     -7.1799436      3.1381758      50218.233      36.893836      36.893836      36.893836    
   2800000   0.46449951    -7.8802204     -7.183481       3.1369162      50218.233      36.893836      36.893836      36.893836    
   2810000   0.46671969    -7.8759703     -7.1759007      3.1521477      50218.233      36.893836      36.893836      36.893836    
   2820000   0.46498532    -7.8797499     -7.1822819      3.124285       50218.233      36.893836      36.893836      36.893836    
   2830000   0.46586404    -7.8802083     -7.1814222      3.127413       50218.233      36.893836      36.893836      36.893836    
   2840000   0.4650305     -7.882837      -7.1853011      3.1124858      50218.233      36.893836      36.893836      36.893836    
   2850000   0.46272075    -7.8795528     -7.1854816      3.1328575      50218.233      36.893836      36.893836      36.893836    
   2860000   0.46515516    -7.8806539     -7.1829311      3.1268993      50218.233      36.893836      36.893836      36.893836    
   2870000   0.46523965    -7.87863       -7.1807804      3.1342302      50218.233      36.893836      36.893836      36.893836    
   2880000   0.4673011     -7.8797064     -7.1787647      3.1396129      50218.233      36.893836      36.893836      36.893836    
   2890000   0.46944432    -7.8780572     -7.1739007      3.1472549      50218.233      36.893836      36.893836      36.893836    
   2900000   0.46434976    -7.8820262     -7.1855115      3.1136586      50218.233      36.893836      36.893836      36.893836    
   2910000   0.46473457    -7.8800268     -7.1829349      3.1253706      50218.233      36.893836      36.893836      36.893836    
   2920000   0.46360865    -7.8829536     -7.1875505      3.1069945      50218.233      36.893836      36.893836      36.893836    
   2930000   0.46598964    -7.880213      -7.1812384      3.1377737      50218.233      36.893836      36.893836      36.893836    
   2940000   0.46885282    -7.878022      -7.1747528      3.1442899      50218.233      36.893836      36.893836      36.893836    
   2950000   0.46336874    -7.8840159     -7.1889726      3.1005606      50218.233      36.893836      36.893836      36.893836    
   2960000   0.4643725     -7.8833534     -7.1868046      3.1044894      50218.233      36.893836      36.893836      36.893836    
   2970000   0.46535255    -7.8820806     -7.1840617      3.1071701      50218.233      36.893836      36.893836      36.893836    
   2980000   0.46749884    -7.8800283     -7.17879        3.1260911      50218.233      36.893836      36.893836      36.893836    
   2990000   0.46355979    -7.8810363     -7.1857065      3.1131073      50218.233      36.893836      36.893836      36.893836    
   3000000   0.4651001     -7.8869296     -7.1892894      3.0779885      50218.233      36.893836      36.893836      36.893836    
   3010000   0.4657697     -7.8812067     -7.1825621      3.1234343      50218.233      36.893836      36.893836      36.893836    
   3020000   0.46599966    -7.8861301     -7.1871405      3.0852409      50218.233      36.893836      36.893836      36.893836    
   3030000   0.46552709    -7.8811739     -7.1828932      3.1269072      50218.233      36.893836      36.893836      36.893836    
   3040000   0.46557881    -7.8795011     -7.1811428      3.1333924      50218.233      36.893836      36.893836      36.893836    
   3050000   0.46605178    -7.8806038     -7.181536       3.1380828      50218.233      36.893836      36.893836      36.893836    
   3060000   0.46560289    -7.8775164     -7.179122       3.1485636      50218.233      36.893836      36.893836      36.893836    
   3070000   0.46599101    -7.8797703     -7.1807937      3.1367376      50218.233      36.893836      36.893836      36.893836    
   3080000   0.4651015     -7.8785217     -7.1808794      3.1398882      50218.233      36.893836      36.893836      36.893836    
   3090000   0.46125098    -7.8800606     -7.1881939      3.1268927      50218.233      36.893836      36.893836      36.893836    
   3100000   0.46497392    -7.8805588     -7.1831078      3.1267351      50218.233      36.893836      36.893836      36.893836    
   3110000   0.4655759     -7.8815744     -7.1832205      3.1157424      50218.233      36.893836      36.893836      36.893836    
   3120000   0.4667353     -7.8824012     -7.1823082      3.1134166      50218.233      36.893836      36.893836      36.893836    
   3130000   0.46265951    -7.8807732     -7.1867938      3.1233538      50218.233      36.893836      36.893836      36.893836    
   3140000   0.4642196     -7.8779833     -7.1816638      3.143985       50218.233      36.893836      36.893836      36.893836    
   3150000   0.46385311    -7.8799501     -7.1841803      3.1313785      50218.233      36.893836      36.893836      36.893836    
   3160000   0.46269767    -7.880002      -7.1859653      3.1274253      50218.233      36.893836      36.893836      36.893836    
   3170000   0.46423981    -7.8768208     -7.180471       3.1540548      50218.233      36.893836      36.893836      36.893836    
   3180000   0.46482433    -7.8816035     -7.1843769      3.1161947      50218.233      36.893836      36.893836      36.893836    
   3190000   0.46515783    -7.8808109     -7.1830841      3.1187939      50218.233      36.893836      36.893836      36.893836    
   3200000   0.46684946    -7.8818141     -7.1815499      3.118819       50218.233      36.893836      36.893836      36.893836    
   3210000   0.46388299    -7.8792575     -7.1834429      3.1319265      50218.233      36.893836      36.893836      36.893836    
   3220000   0.46430534    -7.8806428     -7.1841947      3.1205935      50218.233      36.893836      36.893836      36.893836    
   3230000   0.46614444    -7.8790478     -7.1798411      3.1417141      50218.233      36.893836      36.893836      36.893836    
   3240000   0.46570506    -7.8798172     -7.1812695      3.1242304      50218.233      36.893836      36.893836      36.893836    
   3250000   0.46086147    -7.8800644     -7.188782       3.125823       50218.233      36.893836      36.893836      36.893836    
   3260000   0.46558218    -7.8783687     -7.1800053      3.1315141      50218.233      36.893836      36.893836      36.893836    
   3270000   0.46483559    -7.8814564     -7.1842129      3.1146003      50218.233      36.893836      36.893836      36.893836    
   3280000   0.46490705    -7.8832551     -7.1859044      3.1036225      50218.233      36.893836      36.893836      36.893836    
   3290000   0.46440884    -7.8807056     -7.1841023      3.1099689      50218.233      36.893836      36.893836      36.893836    
   3300000   0.46789448    -7.8782796     -7.1764479      3.1475765      50218.233      36.893836      36.893836      36.893836    
   3310000   0.46229382    -7.883229      -7.1897982      3.0966435      50218.233      36.893836      36.893836      36.893836    
   3320000   0.4647341     -7.8787336     -7.1816423      3.1312495      50218.233      36.893836      36.893836      36.893836    
   3330000   0.46559479    -7.8822379     -7.1838556      3.1044657      50218.233      36.893836      36.893836      36.893836    
   3340000   0.46383486    -7.8818863     -7.186144       3.1122387      50218.233      36.893836      36.893836      36.893836    
   3350000   0.46548595    -7.8797019     -7.1814829      3.1275403      50218.233      36.893836      36.893836      36.893836    
   3360000   0.46493468    -7.8804424     -7.1830503      3.1216207      50218.233      36.893836      36.893836      36.893836    
   3370000   0.46325595    -7.8841031     -7.189229       3.0953701      50218.233      36.893836      36.893836      36.893836    
   3380000   0.46550545    -7.8814248     -7.1831766      3.1122288      50218.233      36.893836      36.893836      36.893836    
   3390000   0.46473113    -7.8812138     -7.184127       3.1113978      50218.233      36.893836      36.893836      36.893836    
   3400000   0.46558958    -7.8793044     -7.18093        3.1323836      50218.233      36.893836      36.893836      36.893836    
   3410000   0.46551979    -7.8777048     -7.179435       3.1443844      50218.233      36.893836      36.893836      36.893836    
   3420000   0.46490194    -7.8776061     -7.1802631      3.1346383      50218.233      36.893836      36.893836      36.893836    
   3430000   0.46444269    -7.881551      -7.1848969      3.1147702      50218.233      36.893836      36.893836      36.893836    
   3440000   0.46513324    -7.8826619     -7.184972       3.1124057      50218.233      36.893836      36.893836      36.893836    
   3450000   0.46444118    -7.8823674     -7.1857155      3.1151212      50218.233      36.893836      36.893836      36.893836    
   3460000   0.46567406    -7.8836023     -7.1851012      3.1037462      50218.233      36.893836      36.893836      36.893836    
   3470000   0.46684844    -7.8832742     -7.1830115      3.1049769      50218.233      36.893836      36.893836      36.893836    
   3480000   0.4665624     -7.8826422     -7.1828086      3.1161154      50218.233      36.893836      36.893836      36.893836    
   3490000   0.4651258     -7.885744      -7.1880652      3.1001089      50218.233      36.893836      36.893836      36.893836    
   3500000   0.46509388    -7.8828491     -7.1852182      3.1012193      50218.233      36.893836      36.893836      36.893836    
   3510000   0.46505263    -7.8829178     -7.1853488      3.1146512      50218.233      36.893836      36.893836      36.893836    
   3520000   0.46584014    -7.8815103     -7.18276        3.1153924      50218.233      36.893836      36.893836      36.893836    
   3530000   0.46138288    -7.8775317     -7.1854673      3.1304894      50218.233      36.893836      36.893836      36.893836    
   3540000   0.4646687     -7.882318      -7.1853249      3.1089665      50218.233      36.893836      36.893836      36.893836    
   3550000   0.46496726    -7.8801198     -7.1826788      3.1317675      50218.233      36.893836      36.893836      36.893836    
   3560000   0.46548363    -7.8799037     -7.1816882      3.1199975      50218.233      36.893836      36.893836      36.893836    
   3570000   0.46668787    -7.8828303     -7.1828084      3.0991766      50218.233      36.893836      36.893836      36.893836    
   3580000   0.46533289    -7.8795902     -7.1816008      3.1235711      50218.233      36.893836      36.893836      36.893836    
   3590000   0.46564979    -7.8832277     -7.1847629      3.1059147      50218.233      36.893836      36.893836      36.893836    
   3600000   0.46591536    -7.8813168     -7.1824538      3.1181669      50218.233      36.893836      36.893836      36.893836    
   3610000   0.46443493    -7.8834409     -7.1867984      3.0961756      50218.233      36.893836      36.893836      36.893836    
   3620000   0.46431261    -7.8795081     -7.1830491      3.1333857      50218.233      36.893836      36.893836      36.893836    
   3630000   0.46580099    -7.8762293     -7.1775377      3.154567       50218.233      36.893836      36.893836      36.893836    
   3640000   0.46188789    -7.876881      -7.184059       3.1437793      50218.233      36.893836      36.893836      36.893836    
   3650000   0.46324966    -7.8813268     -7.1864622      3.1231122      50218.233      36.893836      36.893836      36.893836    
   3660000   0.46302284    -7.8784639     -7.1839395      3.1265868      50218.233      36.893836      36.893836      36.893836    
   3670000   0.46506344    -7.8787911     -7.1812059      3.1375976      50218.233      36.893836      36.893836      36.893836    
   3680000   0.46499469    -7.8782623     -7.1807802      3.1318794      50218.233      36.893836      36.893836      36.893836    
   3690000   0.46494889    -7.8776893     -7.1802758      3.1366438      50218.233      36.893836      36.893836      36.893836    
   3700000   0.46551292    -7.8791374     -7.180878       3.1318277      50218.233      36.893836      36.893836      36.893836    
   3710000   0.46682985    -7.881524      -7.1812891      3.1164246      50218.233      36.893836      36.893836      36.893836    
   3720000   0.46512454    -7.87949       -7.1818131      3.129078       50218.233      36.893836      36.893836      36.893836    
   3730000   0.46433568    -7.8805107     -7.1840171      3.123523       50218.233      36.893836      36.893836      36.893836    
   3740000   0.46769148    -7.8777511     -7.1762239      3.1439703      50218.233      36.893836      36.893836      36.893836    
   3750000   0.46403399    -7.8798176     -7.1837765      3.1228431      50218.233      36.893836      36.893836      36.893836    
   3760000   0.46551989    -7.8794971     -7.1812272      3.1331587      50218.233      36.893836      36.893836      36.893836    
   3770000   0.46628809    -7.8807758     -7.1813536      3.1131623      50218.233      36.893836      36.893836      36.893836    
   3780000   0.4651331     -7.8777445     -7.1800548      3.1381495      50218.233      36.893836      36.893836      36.893836    
   3790000   0.46510932    -7.87942       -7.1817659      3.1264338      50218.233      36.893836      36.893836      36.893836    
   3800000   0.46587793    -7.8803313     -7.1815244      3.1274948      50218.233      36.893836      36.893836      36.893836    
   3810000   0.46562       -7.8822444     -7.1838243      3.1168593      50218.233      36.893836      36.893836      36.893836    
   3820000   0.46644448    -7.884978      -7.1853212      3.086771       50218.233      36.893836      36.893836      36.893836    
   3830000   0.46528324    -7.8778804     -7.1799655      3.144908       50218.233      36.893836      36.893836      36.893836    
   3840000   0.46120049    -7.8759365     -7.1841456      3.153838       50218.233      36.893836      36.893836      36.893836    
   3850000   0.46380261    -7.8821845     -7.1864904      3.111995       50218.233      36.893836      36.893836      36.893836    
   3860000   0.46559887    -7.8803952     -7.1820068      3.1239421      50218.233      36.893836      36.893836      36.893836    
   3870000   0.4639885     -7.8805928     -7.18462        3.1228748      50218.233      36.893836      36.893836      36.893836    
   3880000   0.46270973    -7.8794412     -7.1853865      3.1265718      50218.233      36.893836      36.893836      36.893836    
   3890000   0.46709562    -7.8812466     -7.1806131      3.1177542      50218.233      36.893836      36.893836      36.893836    
   3900000   0.46475822    -7.8830053     -7.1858779      3.1198372      50218.233      36.893836      36.893836      36.893836    
   3910000   0.46721476    -7.8832514     -7.1824393      3.1000292      50218.233      36.893836      36.893836      36.893836    
   3920000   0.46605704    -7.8795218     -7.1804462      3.1253959      50218.233      36.893836      36.893836      36.893836    
   3930000   0.46377953    -7.8845223     -7.1888629      3.1010413      50218.233      36.893836      36.893836      36.893836    
   3940000   0.46393925    -7.8822593     -7.1863604      3.1135903      50218.233      36.893836      36.893836      36.893836    
   3950000   0.46339524    -7.8821009     -7.187018       3.1016401      50218.233      36.893836      36.893836      36.893836    
   3960000   0.46785505    -7.8829481     -7.1811755      3.1114882      50218.233      36.893836      36.893836      36.893836    
   3970000   0.46476011    -7.8838579     -7.1867276      3.0934221      50218.233      36.893836      36.893836      36.893836    
   3980000   0.46540373    -7.8831139     -7.1850182      3.1025484      50218.233      36.893836      36.893836      36.893836    
   3990000   0.46272992    -7.8823867     -7.1883017      3.1074145      50218.233      36.893836      36.893836      36.893836    
   4000000   0.46412028    -7.8849574     -7.1887869      3.0870798      50218.233      36.893836      36.893836      36.893836    
   4010000   0.46387141    -7.8808093     -7.1850121      3.1127346      50218.233      36.893836      36.893836      36.893836    
   4020000   0.46601906    -7.8793854     -7.1803668      3.1233637      50218.233      36.893836      36.893836      36.893836    
   4030000   0.46545352    -7.8869005     -7.1887301      3.0772377      50218.233      36.893836      36.893836      36.893836    
   4040000   0.46432592    -7.8784945     -7.1820155      3.1401075      50218.233      36.893836      36.893836      36.893836    
   4050000   0.46583608    -7.8814488     -7.1827047      3.105228       50218.233      36.893836      36.893836      36.893836    
   4060000   0.46513079    -7.8828922     -7.185206       3.1019079      50218.233      36.893836      36.893836      36.893836    
   4070000   0.463676      -7.8840525     -7.1885484      3.0989203      50218.233      36.893836      36.893836      36.893836    
   4080000   0.4650694     -7.8842249     -7.1866307      3.1062811      50218.233      36.893836      36.893836      36.893836    
   4090000   0.46495424    -7.883496      -7.1860745      3.0942454      50218.233      36.893836      36.893836      36.893836    
   4100000   0.46619309    -7.8826874     -7.1834077      3.1077888      50218.233      36.893836      36.893836      36.893836    
   4110000   0.46715561    -7.8831495     -7.1824261      3.1020355      50218.233      36.893836      36.893836      36.893836    
   4120000   0.46676725    -7.8835329     -7.183392       3.1031418      50218.233      36.893836      36.893836      36.893836    
   4130000   0.46610198    -7.8832291     -7.1840861      3.1077446      50218.233      36.893836      36.893836      36.893836    
   4140000   0.46493193    -7.8834822     -7.1860942      3.1062039      50218.233      36.893836      36.893836      36.893836    
   4150000   0.4638018     -7.8786389     -7.1829461      3.1333219      50218.233      36.893836      36.893836      36.893836    
   4160000   0.46629576    -7.8819146     -7.1824809      3.1167382      50218.233      36.893836      36.893836      36.893836    
   4170000   0.46511521    -7.880168      -7.1825051      3.1314902      50218.233      36.893836      36.893836      36.893836    
   4180000   0.46361248    -7.8824293     -7.1870204      3.1089901      50218.233      36.893836      36.893836      36.893836    
   4190000   0.4632524     -7.8827301     -7.1878614      3.1152238      50218.233      36.893836      36.893836      36.893836    
   4200000   0.46625289    -7.8830691     -7.1836997      3.1092277      50218.233      36.893836      36.893836      36.893836    
   4210000   0.46553395    -7.8782215     -7.1799305      3.1420877      50218.233      36.893836      36.893836      36.893836    
   4220000   0.46567891    -7.8803819     -7.1818735      3.129025       50218.233      36.893836      36.893836      36.893836    
   4230000   0.46284372    -7.880557      -7.1863013      3.1208669      50218.233      36.893836      36.893836      36.893836    
   4240000   0.46495245    -7.8815223     -7.1841035      3.1091798      50218.233      36.893836      36.893836      36.893836    
   4250000   0.46371378    -7.8850746     -7.1895138      3.0860306      50218.233      36.893836      36.893836      36.893836    
   4260000   0.46283869    -7.8816236     -7.1873754      3.1211752      50218.233      36.893836      36.893836      36.893836    
   4270000   0.46394427    -7.8831504     -7.1872439      3.1099332      50218.233      36.893836      36.893836      36.893836    
   4280000   0.46357021    -7.8799517     -7.1846063      3.1333009      50218.233      36.893836      36.893836      36.893836    
   4290000   0.46604266    -7.8831609     -7.1841068      3.1066314      50218.233      36.893836      36.893836      36.893836    
   4300000   0.4669837     -7.8835964     -7.1831308      3.1105552      50218.233      36.893836      36.893836      36.893836    
   4310000   0.46558575    -7.8817154     -7.1833467      3.1086645      50218.233      36.893836      36.893836      36.893836    
   4320000   0.46476937    -7.8845446     -7.1874005      3.0862561      50218.233      36.893836      36.893836      36.893836    
   4330000   0.46292828    -7.8786284     -7.1842459      3.1365991      50218.233      36.893836      36.893836      36.893836    
   4340000   0.46433508    -7.881765      -7.1852723      3.108818       50218.233      36.893836      36.893836      36.893836    
   4350000   0.46624156    -7.8825058     -7.1831534      3.1047921      50218.233      36.893836      36.893836      36.893836    
   4360000   0.46201177    -7.8798994     -7.1868916      3.1195241      50218.233      36.893836      36.893836      36.893836    
   4370000   0.46301623    -7.8839772     -7.1894628      3.0892122      50218.233      36.893836      36.893836      36.893836    
   4380000   0.46522942    -7.8827127     -7.1848785      3.1075751      50218.233      36.893836      36.893836      36.893836    
   4390000   0.46615167    -7.8821817     -7.1829642      3.107783       50218.233      36.893836      36.893836      36.893836    
   4400000   0.46356673    -7.8808848     -7.1855446      3.1223043      50218.233      36.893836      36.893836      36.893836    
   4410000   0.46516699    -7.882971      -7.1852304      3.1058629      50218.233      36.893836      36.893836      36.893836    
   4420000   0.46423922    -7.8825892     -7.1862403      3.1164324      50218.233      36.893836      36.893836      36.893836    
   4430000   0.46512959    -7.8782537     -7.1805692      3.1486121      50218.233      36.893836      36.893836      36.893836    
   4440000   0.4637367     -7.8852902     -7.1896951      3.0875754      50218.233      36.893836      36.893836      36.893836    
   4450000   0.46382194    -7.8829375     -7.1872145      3.1009041      50218.233      36.893836      36.893836      36.893836    
   4460000   0.46607147    -7.8804357     -7.1813384      3.1164534      50218.233      36.893836      36.893836      36.893836    
   4470000   0.4669592     -7.882217      -7.1817881      3.1070755      50218.233      36.893836      36.893836      36.893836    
   4480000   0.46428512    -7.886485      -7.1900673      3.0765485      50218.233      36.893836      36.893836      36.893836    
   4490000   0.46577628    -7.8840869     -7.1854324      3.0932574      50218.233      36.893836      36.893836      36.893836    
   4500000   0.46359645    -7.8828198     -7.187435       3.0972483      50218.233      36.893836      36.893836      36.893836    
   4510000   0.4639028     -7.8824075     -7.1865632      3.1088168      50218.233      36.893836      36.893836      36.893836    
   4520000   0.46352694    -7.8825266     -7.1872461      3.1088849      50218.233      36.893836      36.893836      36.893836    
   4530000   0.46583607    -7.8838586     -7.1851145      3.0955805      50218.233      36.893836      36.893836      36.893836    
   4540000   0.4649705     -7.8794524     -7.1820065      3.1265339      50218.233      36.893836      36.893836      36.893836    
   4550000   0.46429858    -7.8862934     -7.1898554      3.0826943      50218.233      36.893836      36.893836      36.893836    
   4560000   0.46651411    -7.8831103     -7.1833491      3.1010435      50218.233      36.893836      36.893836      36.893836    
   4570000   0.46553812    -7.8828142     -7.184517       3.1068416      50218.233      36.893836      36.893836      36.893836    
   4580000   0.46665972    -7.8842261     -7.1842465      3.0989788      50218.233      36.893836      36.893836      36.893836    
   4590000   0.46301636    -7.8821426     -7.1876279      3.1013245      50218.233      36.893836      36.893836      36.893836    
   4600000   0.46344919    -7.8860403     -7.1908764      3.0783108      50218.233      36.893836      36.893836      36.893836    
   4610000   0.4630044     -7.8838946     -7.1893979      3.0995847      50218.233      36.893836      36.893836      36.893836    
   4620000   0.46438933    -7.8846604     -7.1880863      3.0940034      50218.233      36.893836      36.893836      36.893836    
   4630000   0.46217864    -7.8831795     -7.1899214      3.0929902      50218.233      36.893836      36.893836      36.893836    
   4640000   0.46587164    -7.8795364     -7.1807389      3.1443145      50218.233      36.893836      36.893836      36.893836    
   4650000   0.46189297    -7.8807616     -7.187932       3.1103725      50218.233      36.893836      36.893836      36.893836    
   4660000   0.46692537    -7.8851705     -7.1847924      3.0849964      50218.233      36.893836      36.893836      36.893836    
   4670000   0.46519137    -7.879897      -7.1821199      3.1213644      50218.233      36.893836      36.893836      36.893836    
   4680000   0.4641602     -7.8781921     -7.1819617      3.1432095      50218.233      36.893836      36.893836      36.893836    
   4690000   0.46382578    -7.8810942     -7.1853654      3.1119476      50218.233      36.893836      36.893836      36.893836    
   4700000   0.46507481    -7.8803847     -7.1827824      3.1214311      50218.233      36.893836      36.893836      36.893836    
   4710000   0.46480069    -7.8811317     -7.1839406      3.1155223      50218.233      36.893836      36.893836      36.893836    
   4720000   0.46323756    -7.8836777     -7.1888312      3.1028967      50218.233      36.893836      36.893836      36.893836    
   4730000   0.46388233    -7.8841399     -7.1883263      3.1061995      50218.233      36.893836      36.893836      36.893836    
   4740000   0.46493274    -7.8788945     -7.1815054      3.1332899      50218.233      36.893836      36.893836      36.893836    
   4750000   0.46618447    -7.8792477     -7.1799809      3.1490101      50218.233      36.893836      36.893836      36.893836    
   4760000   0.46469699    -7.8843827     -7.1873471      3.0976244      50218.233      36.893836      36.893836      36.893836    
   4770000   0.46573131    -7.8803292     -7.1817422      3.129786       50218.233      36.893836      36.893836      36.893836    
   4780000   0.46742165    -7.8810962     -7.1799737      3.1133294      50218.233      36.893836      36.893836      36.893836    
   4790000   0.46527084    -7.8823897     -7.1844934      3.0984396      50218.233      36.893836      36.893836      36.893836    
   4800000   0.46377771    -7.8810293     -7.1853726      3.1112887      50218.233      36.893836      36.893836      36.893836    
   4810000   0.46824304    -7.8800889     -7.1777343      3.1299543      50218.233      36.893836      36.893836      36.893836    
   4820000   0.46608609    -7.8789219     -7.1798027      3.1345611      50218.233      36.893836      36.893836      36.893836    
   4830000   0.46093199    -7.8794704     -7.1880823      3.1264801      50218.233      36.893836      36.893836      36.893836    
   4840000   0.46658233    -7.8838617     -7.1839982      3.0999177      50218.233      36.893836      36.893836      36.893836    
   4850000   0.46387924    -7.880632      -7.1848231      3.1337362      50218.233      36.893836      36.893836      36.893836    
   4860000   0.4658036     -7.8786109     -7.1799154      3.1246852      50218.233      36.893836      36.893836      36.893836    
   4870000   0.46595869    -7.8840392     -7.1851111      3.0967988      50218.233      36.893836      36.893836      36.893836    
   4880000   0.46691513    -7.8807443     -7.1803816      3.1217501      50218.233      36.893836      36.893836      36.893836    
   4890000   0.46371873    -7.8823572     -7.186789       3.1069134      50218.233      36.893836      36.893836      36.893836    
   4900000   0.46513554    -7.8836892     -7.1859958      3.100062       50218.233      36.893836      36.893836      36.893836    
   4910000   0.46238084    -7.8812314     -7.18767        3.115978       50218.233      36.893836      36.893836      36.893836    
   4920000   0.46509721    -7.88065       -7.1830141      3.1307952      50218.233      36.893836      36.893836      36.893836    
   4930000   0.46479186    -7.8812175     -7.1840397      3.1198919      50218.233      36.893836      36.893836      36.893836    
   4940000   0.46471318    -7.8824348     -7.185375       3.1050525      50218.233      36.893836      36.893836      36.893836    
   4950000   0.46517313    -7.8839833     -7.1862335      3.0927409      50218.233      36.893836      36.893836      36.893836    
   4960000   0.46524785    -7.8821561     -7.1842942      3.120149       50218.233      36.893836      36.893836      36.893836    
   4970000   0.46399833    -7.8802868     -7.1842992      3.1216274      50218.233      36.893836      36.893836      36.893836    
   4980000   0.4650082     -7.8784713     -7.180969       3.1335389      50218.233      36.893836      36.893836      36.893836    
   4990000   0.46783059    -7.8829115     -7.1811756      3.1086277      50218.233      36.893836      36.893836      36.893836    
   5000000   0.4617649     -7.8831825     -7.190545       3.1033401      50218.233      36.893836      36.893836      36.893836    
   5010000   0.46294587    -7.8830377     -7.1886287      3.1026105      50218.233      36.893836      36.893836      36.893836    
   5020000   0.46677227    -7.8807905     -7.180642       3.1303224      50218.233      36.893836      36.893836      36.893836    
   5030000   0.46481985    -7.8837156     -7.1864957      3.1038252      50218.233      36.893836      36.893836      36.893836    
   5040000   0.46665054    -7.8831503     -7.1831844      3.1110912      50218.233      36.893836      36.893836      36.893836    
   5050000   0.46493206    -7.8863869     -7.1889987      3.0799937      50218.233      36.893836      36.893836      36.893836    
   5060000   0.46584489    -7.8804458     -7.1816885      3.122898       50218.233      36.893836      36.893836      36.893836    
   5070000   0.46276724    -7.8805205     -7.1863795      3.1226905      50218.233      36.893836      36.893836      36.893836    
   5080000   0.46544533    -7.8847105     -7.1865524      3.0945708      50218.233      36.893836      36.893836      36.893836    
   5090000   0.46340735    -7.8834489     -7.1883478      3.1055927      50218.233      36.893836      36.893836      36.893836    
   5100000   0.46701512    -7.8764848     -7.175972       3.1647547      50218.233      36.893836      36.893836      36.893836    
   5110000   0.46538006    -7.8846255     -7.1865654      3.0994171      50218.233      36.893836      36.893836      36.893836    
   5120000   0.46518408    -7.8798976     -7.1821314      3.1328639      50218.233      36.893836      36.893836      36.893836    
   5130000   0.46337651    -7.8845375     -7.1894826      3.0864756      50218.233      36.893836      36.893836      36.893836    
   5140000   0.46616913    -7.8815746     -7.1823309      3.1204789      50218.233      36.893836      36.893836      36.893836    
   5150000   0.46458739    -7.8760479     -7.1791767      3.1616833      50218.233      36.893836      36.893836      36.893836    
   5160000   0.4663011     -7.8799517     -7.18051        3.1324377      50218.233      36.893836      36.893836      36.893836    
   5170000   0.46592581    -7.8795715     -7.1806928      3.1429582      50218.233      36.893836      36.893836      36.893836    
   5180000   0.46410606    -7.8788587     -7.1827095      3.1287374      50218.233      36.893836      36.893836      36.893836    
   5190000   0.46645224    -7.8777754     -7.178107       3.1351197      50218.233      36.893836      36.893836      36.893836    
   5200000   0.46592963    -7.8819366     -7.1830521      3.1133799      50218.233      36.893836      36.893836      36.893836    
   5210000   0.46411849    -7.880368      -7.1842001      3.1200246      50218.233      36.893836      36.893836      36.893836    
   5220000   0.46188047    -7.8796007     -7.1867899      3.1140998      50218.233      36.893836      36.893836      36.893836    
   5230000   0.46505665    -7.8827135     -7.1851385      3.0946219      50218.233      36.893836      36.893836      36.893836    
   5240000   0.46440109    -7.8835873     -7.1869956      3.1019401      50218.233      36.893836      36.893836      36.893836    
   5250000   0.46408288    -7.8831236     -7.1870092      3.1161186      50218.233      36.893836      36.893836      36.893836    
   5260000   0.46659683    -7.8774869     -7.1776016      3.1659882      50218.233      36.893836      36.893836      36.893836    
   5270000   0.46461341    -7.8796358     -7.1827256      3.1155024      50218.233      36.893836      36.893836      36.893836    
   5280000   0.4627396     -7.8787807     -7.1846812      3.1374971      50218.233      36.893836      36.893836      36.893836    
   5290000   0.4658029     -7.8815804     -7.182886       3.0985065      50218.233      36.893836      36.893836      36.893836    
   5300000   0.46514764    -7.8770998     -7.1793882      3.1489641      50218.233      36.893836      36.893836      36.893836    
   5310000   0.46497394    -7.8855584     -7.1881074      3.0806505      50218.233      36.893836      36.893836      36.893836    
   5320000   0.4637803     -7.8804232     -7.1847626      3.1186407      50218.233      36.893836      36.893836      36.893836    
   5330000   0.46801882    -7.8816781     -7.1796598      3.1229426      50218.233      36.893836      36.893836      36.893836    
   5340000   0.46496527    -7.8802824     -7.1828444      3.1199777      50218.233      36.893836      36.893836      36.893836    
   5350000   0.46586325    -7.8831667     -7.1843818      3.0943689      50218.233      36.893836      36.893836      36.893836    
   5360000   0.46577267    -7.8809791     -7.1823301      3.1180748      50218.233      36.893836      36.893836      36.893836    
   5370000   0.46647142    -7.8814604     -7.1817632      3.1196588      50218.233      36.893836      36.893836      36.893836    
   5380000   0.46606898    -7.8798305     -7.1807369      3.1188016      50218.233      36.893836      36.893836      36.893836    
   5390000   0.4658074     -7.8802781     -7.181577       3.1334756      50218.233      36.893836      36.893836      36.893836    
   5400000   0.46571597    -7.8803057     -7.1817417      3.1222667      50218.233      36.893836      36.893836      36.893836    
   5410000   0.46454774    -7.8796199     -7.1828082      3.1261162      50218.233      36.893836      36.893836      36.893836    
   5420000   0.46580234    -7.8801051     -7.1814115      3.1198241      50218.233      36.893836      36.893836      36.893836    
   5430000   0.46314738    -7.8795035     -7.1847923      3.1281815      50218.233      36.893836      36.893836      36.893836    
   5440000   0.46392085    -7.8815394     -7.185668       3.116092       50218.233      36.893836      36.893836      36.893836    
   5450000   0.46720401    -7.8793357     -7.1785396      3.1393799      50218.233      36.893836      36.893836      36.893836    
   5460000   0.46549355    -7.8818085     -7.1835781      3.1128477      50218.233      36.893836      36.893836      36.893836    
   5470000   0.46446661    -7.8846279     -7.1879379      3.089905       50218.233      36.893836      36.893836      36.893836    
   5480000   0.46352827    -7.883783      -7.1885004      3.0967226      50218.233      36.893836      36.893836      36.893836    
   5490000   0.46632091    -7.8803047     -7.1808333      3.1299673      50218.233      36.893836      36.893836      36.893836    
   5500000   0.46386334    -7.8820219     -7.1862368      3.1139576      50218.233      36.893836      36.893836      36.893836    
   5510000   0.4653409     -7.8792799     -7.1812784      3.1278424      50218.233      36.893836      36.893836      36.893836    
   5520000   0.46751445    -7.8781867     -7.176925       3.1369855      50218.233      36.893836      36.893836      36.893836    
   5530000   0.46362723    -7.8811464     -7.1857154      3.1087538      50218.233      36.893836      36.893836      36.893836    
   5540000   0.4657793     -7.8853346     -7.1866756      3.0755722      50218.233      36.893836      36.893836      36.893836    
   5550000   0.46446026    -7.8830961     -7.1864157      3.1062511      50218.233      36.893836      36.893836      36.893836    
   5560000   0.46378114    -7.8766124     -7.1809506      3.1542151      50218.233      36.893836      36.893836      36.893836    
   5570000   0.46240633    -7.8784921     -7.1848924      3.1385731      50218.233      36.893836      36.893836      36.893836    
   5580000   0.46582674    -7.880356      -7.1816258      3.1302677      50218.233      36.893836      36.893836      36.893836    
   5590000   0.46647904    -7.8780321     -7.1783235      3.1488371      50218.233      36.893836      36.893836      36.893836    
   5600000   0.46631919    -7.8795434     -7.1800746      3.1217976      50218.233      36.893836      36.893836      36.893836    
   5610000   0.46590579    -7.88209       -7.1832413      3.1229867      50218.233      36.893836      36.893836      36.893836    
   5620000   0.46587721    -7.8773594     -7.1785536      3.1445265      50218.233      36.893836      36.893836      36.893836    
   5630000   0.46479417    -7.8800505     -7.1828692      3.1302119      50218.233      36.893836      36.893836      36.893836    
   5640000   0.46409327    -7.8805246     -7.1843946      3.1295954      50218.233      36.893836      36.893836      36.893836    
   5650000   0.46623302    -7.8774602     -7.1781206      3.1391158      50218.233      36.893836      36.893836      36.893836    
   5660000   0.46604736    -7.8798558     -7.1807947      3.1283481      50218.233      36.893836      36.893836      36.893836    
   5670000   0.46432986    -7.8809495     -7.1844646      3.1134449      50218.233      36.893836      36.893836      36.893836    
   5680000   0.46529405    -7.8793382     -7.1814071      3.1201021      50218.233      36.893836      36.893836      36.893836    
   5690000   0.46416288    -7.8821464     -7.185912       3.1183167      50218.233      36.893836      36.893836      36.893836    
   5700000   0.46525454    -7.8788658     -7.1809939      3.1354246      50218.233      36.893836      36.893836      36.893836    
   5710000   0.46737646    -7.8815396     -7.1804848      3.1232298      50218.233      36.893836      36.893836      36.893836    
   5720000   0.46270261    -7.8822083     -7.1881643      3.1226291      50218.233      36.893836      36.893836      36.893836    
   5730000   0.46411147    -7.8808639     -7.1847066      3.1109225      50218.233      36.893836      36.893836      36.893836    
   5740000   0.46425152    -7.8760563     -7.1796889      3.1582085      50218.233      36.893836      36.893836      36.893836    
   5750000   0.46559876    -7.8776217     -7.1792335      3.1470653      50218.233      36.893836      36.893836      36.893836    
   5760000   0.46843146    -7.8819009     -7.1792637      3.1180672      50218.233      36.893836      36.893836      36.893836    
   5770000   0.46864475    -7.8807303     -7.1777732      3.1178619      50218.233      36.893836      36.893836      36.893836    
   5780000   0.46475932    -7.8799585     -7.1828294      3.1252064      50218.233      36.893836      36.893836      36.893836    
   5790000   0.46247921    -7.881345      -7.1876361      3.1063807      50218.233      36.893836      36.893836      36.893836    
   5800000   0.46634757    -7.8799377     -7.1804263      3.1216258      50218.233      36.893836      36.893836      36.893836    
   5810000   0.46566654    -7.8802945     -7.1818046      3.1340801      50218.233      36.893836      36.893836      36.893836    
   5820000   0.46447459    -7.8850499     -7.1883479      3.0937619      50218.233      36.893836      36.893836      36.893836    
   5830000   0.46488942    -7.8795076     -7.1821834      3.1350273      50218.233      36.893836      36.893836      36.893836    
   5840000   0.4664219     -7.8807203     -7.1810974      3.1312921      50218.233      36.893836      36.893836      36.893836    
   5850000   0.46649148    -7.8796847     -7.1799574      3.1235277      50218.233      36.893836      36.893836      36.893836    
   5860000   0.4665986     -7.8793383     -7.1794504      3.1430503      50218.233      36.893836      36.893836      36.893836    
   5870000   0.46465578    -7.8808943     -7.1839205      3.1143132      50218.233      36.893836      36.893836      36.893836    
   5880000   0.46457018    -7.8801279     -7.1832826      3.1391483      50218.233      36.893836      36.893836      36.893836    
   5890000   0.46299561    -7.8819351     -7.1874516      3.1100667      50218.233      36.893836      36.893836      36.893836    
   5900000   0.46168248    -7.8828883     -7.1903744      3.099476       50218.233      36.893836      36.893836      36.893836    
   5910000   0.46423467    -7.8838304     -7.1874883      3.0952655      50218.233      36.893836      36.893836      36.893836    
   5920000   0.46330839    -7.8783939     -7.1834412      3.1322258      50218.233      36.893836      36.893836      36.893836    
   5930000   0.46574686    -7.8789027     -7.1802924      3.1323391      50218.233      36.893836      36.893836      36.893836    
   5940000   0.46236299    -7.883682      -7.1901474      3.0886469      50218.233      36.893836      36.893836      36.893836    
   5950000   0.46659233    -7.8813092     -7.1814306      3.1145486      50218.233      36.893836      36.893836      36.893836    
   5960000   0.46521379    -7.8829825     -7.1851718      3.0976503      50218.233      36.893836      36.893836      36.893836    
   5970000   0.46513211    -7.8784541     -7.1807658      3.1348014      50218.233      36.893836      36.893836      36.893836    
   5980000   0.464776      -7.8790682     -7.1819141      3.1177119      50218.233      36.893836      36.893836      36.893836    
   5990000   0.46479859    -7.876195      -7.179007       3.1534794      50218.233      36.893836      36.893836      36.893836    
   6000000   0.46465374    -7.8808636     -7.1838929      3.124215       50218.233      36.893836      36.893836      36.893836    
   6010000   0.46702016    -7.8784833     -7.177963       3.1440638      50218.233      36.893836      36.893836      36.893836    
   6020000   0.46589637    -7.8809319     -7.1820973      3.1121445      50218.233      36.893836      36.893836      36.893836    
   6030000   0.46523572    -7.881568      -7.1837243      3.1118725      50218.233      36.893836      36.893836      36.893836    
   6040000   0.46345959    -7.8782847     -7.1831053      3.1385442      50218.233      36.893836      36.893836      36.893836    
   6050000   0.46452556    -7.8820338     -7.1852553      3.1185801      50218.233      36.893836      36.893836      36.893836    
   6060000   0.46383818    -7.8825459     -7.1867985      3.1069626      50218.233      36.893836      36.893836      36.893836    
   6070000   0.46732365    -7.8811984     -7.1802228      3.1165468      50218.233      36.893836      36.893836      36.893836    
   6080000   0.46585233    -7.8835549     -7.1847863      3.1025591      50218.233      36.893836      36.893836      36.893836    
   6090000   0.46523936    -7.8846499     -7.1868008      3.096067       50218.233      36.893836      36.893836      36.893836    
   6100000   0.46329264    -7.8841219     -7.1891928      3.0878362      50218.233      36.893836      36.893836      36.893836    
   6110000   0.46511917    -7.8810693     -7.1834005      3.1160087      50218.233      36.893836      36.893836      36.893836    
   6120000   0.46329396    -7.8806106     -7.1856795      3.1225297      50218.233      36.893836      36.893836      36.893836    
   6130000   0.46042057    -7.8768559     -7.1862349      3.1364589      50218.233      36.893836      36.893836      36.893836    
   6140000   0.4640538     -7.8837609     -7.1876901      3.1003401      50218.233      36.893836      36.893836      36.893836    
   6150000   0.46587665    -7.8800943     -7.1812893      3.1263217      50218.233      36.893836      36.893836      36.893836    
   6160000   0.46695583    -7.8845819     -7.1841582      3.0967045      50218.233      36.893836      36.893836      36.893836    
   6170000   0.46617894    -7.8814682     -7.1822098      3.1272794      50218.233      36.893836      36.893836      36.893836    
   6180000   0.46452316    -7.8824967     -7.1857219      3.1125629      50218.233      36.893836      36.893836      36.893836    
   6190000   0.46414636    -7.8812326     -7.1850229      3.1168884      50218.233      36.893836      36.893836      36.893836    
   6200000   0.46685202    -7.8798516     -7.1795835      3.1263829      50218.233      36.893836      36.893836      36.893836    
   6210000   0.46384865    -7.8835161     -7.187753       3.0951386      50218.233      36.893836      36.893836      36.893836    
   6220000   0.46668357    -7.8811317     -7.1811163      3.1213524      50218.233      36.893836      36.893836      36.893836    
   6230000   0.46077003    -7.886098      -7.1949528      3.0767407      50218.233      36.893836      36.893836      36.893836    
   6240000   0.46598817    -7.8832932     -7.1843208      3.1113046      50218.233      36.893836      36.893836      36.893836    
   6250000   0.46346014    -7.8797884     -7.1846081      3.1367777      50218.233      36.893836      36.893836      36.893836    
   6260000   0.46280549    -7.8793644     -7.185166       3.1260255      50218.233      36.893836      36.893836      36.893836    
   6270000   0.46657889    -7.8802977     -7.1804393      3.1197422      50218.233      36.893836      36.893836      36.893836    
   6280000   0.46401034    -7.8819376     -7.185932       3.1147861      50218.233      36.893836      36.893836      36.893836    
   6290000   0.46589218    -7.8816432     -7.1828148      3.1180224      50218.233      36.893836      36.893836      36.893836    
   6300000   0.46327299    -7.8847976     -7.189898       3.0959569      50218.233      36.893836      36.893836      36.893836    
   6310000   0.46386981    -7.8802309     -7.1844361      3.1288917      50218.233      36.893836      36.893836      36.893836    
   6320000   0.46441428    -7.8838543     -7.1872428      3.1034578      50218.233      36.893836      36.893836      36.893836    
   6330000   0.46495611    -7.8788712     -7.181447       3.1303762      50218.233      36.893836      36.893836      36.893836    
   6340000   0.46699167    -7.8827914     -7.1823138      3.1113829      50218.233      36.893836      36.893836      36.893836    
   6350000   0.46520615    -7.8790661     -7.1812668      3.139376       50218.233      36.893836      36.893836      36.893836    
   6360000   0.46626167    -7.8829191     -7.1835365      3.1091495      50218.233      36.893836      36.893836      36.893836    
   6370000   0.46667371    -7.8776924     -7.1776917      3.1478922      50218.233      36.893836      36.893836      36.893836    
   6380000   0.46590738    -7.8810859     -7.1822348      3.1087171      50218.233      36.893836      36.893836      36.893836    
   6390000   0.46346271    -7.8855424     -7.1903583      3.0802068      50218.233      36.893836      36.893836      36.893836    
   6400000   0.46321708    -7.8793704     -7.1845546      3.1318937      50218.233      36.893836      36.893836      36.893836    
   6410000   0.46416095    -7.8802107     -7.1839792      3.1210489      50218.233      36.893836      36.893836      36.893836    
   6420000   0.46393541    -7.8780393     -7.1821461      3.1306346      50218.233      36.893836      36.893836      36.893836    
   6430000   0.46234098    -7.8766001     -7.1830985      3.1450293      50218.233      36.893836      36.893836      36.893836    
   6440000   0.46713572    -7.8793086     -7.178615       3.1341017      50218.233      36.893836      36.893836      36.893836    
   6450000   0.46627501    -7.8801967     -7.1807941      3.1337257      50218.233      36.893836      36.893836      36.893836    
   6460000   0.4700142     -7.8798672     -7.1748559      3.1391072      50218.233      36.893836      36.893836      36.893836    
   6470000   0.46880643    -7.8799771     -7.1767774      3.1275369      50218.233      36.893836      36.893836      36.893836    
   6480000   0.46299495    -7.8800233     -7.1855408      3.119929       50218.233      36.893836      36.893836      36.893836    
   6490000   0.46532856    -7.8794075     -7.1814246      3.1277701      50218.233      36.893836      36.893836      36.893836    
   6500000   0.46472675    -7.8781374     -7.1810572      3.1357098      50218.233      36.893836      36.893836      36.893836    
   6510000   0.46642605    -7.8813494     -7.1817202      3.1156922      50218.233      36.893836      36.893836      36.893836    
   6520000   0.46380149    -7.8796852     -7.1839928      3.1342896      50218.233      36.893836      36.893836      36.893836    
   6530000   0.46574134    -7.8809945     -7.1823925      3.1249497      50218.233      36.893836      36.893836      36.893836    
   6540000   0.46250187    -7.8792259     -7.185483       3.124094       50218.233      36.893836      36.893836      36.893836    
   6550000   0.46518113    -7.8816775     -7.1839157      3.1142113      50218.233      36.893836      36.893836      36.893836    
   6560000   0.46437781    -7.8819311     -7.1853743      3.1196477      50218.233      36.893836      36.893836      36.893836    
   6570000   0.46654296    -7.8862226     -7.1864181      3.0780023      50218.233      36.893836      36.893836      36.893836    
   6580000   0.46815273    -7.8833058     -7.1810867      3.0989661      50218.233      36.893836      36.893836      36.893836    
   6590000   0.4642299     -7.8795099     -7.1831749      3.1317861      50218.233      36.893836      36.893836      36.893836    
   6600000   0.46461273    -7.8807358     -7.1838266      3.1232158      50218.233      36.893836      36.893836      36.893836    
   6610000   0.4665299     -7.8814662     -7.1816813      3.1187015      50218.233      36.893836      36.893836      36.893836    
   6620000   0.46653828    -7.8803046     -7.1805072      3.1289807      50218.233      36.893836      36.893836      36.893836    
   6630000   0.46540539    -7.8841197     -7.1860215      3.1026877      50218.233      36.893836      36.893836      36.893836    
   6640000   0.46523388    -7.8829384     -7.1850975      3.1040758      50218.233      36.893836      36.893836      36.893836    
   6650000   0.46388651    -7.8822218     -7.1864019      3.1099936      50218.233      36.893836      36.893836      36.893836    
   6660000   0.46669662    -7.8831163     -7.1830814      3.1033916      50218.233      36.893836      36.893836      36.893836    
   6670000   0.4629669     -7.8789531     -7.1845126      3.1349402      50218.233      36.893836      36.893836      36.893836    
   6680000   0.46535951    -7.8815499     -7.1835206      3.107903       50218.233      36.893836      36.893836      36.893836    
   6690000   0.4657816     -7.8786547     -7.1799923      3.13972        50218.233      36.893836      36.893836      36.893836    
   6700000   0.46507794    -7.8794564     -7.1818494      3.1346458      50218.233      36.893836      36.893836      36.893836    
   6710000   0.4680438     -7.8806459     -7.1785901      3.1308816      50218.233      36.893836      36.893836      36.893836    
   6720000   0.46715871    -7.8839509     -7.1832228      3.1078292      50218.233      36.893836      36.893836      36.893836    
   6730000   0.46702504    -7.8783854     -7.1778578      3.1448972      50218.233      36.893836      36.893836      36.893836    
   6740000   0.4648687     -7.8810449     -7.1837518      3.1281444      50218.233      36.893836      36.893836      36.893836    
   6750000   0.46435573    -7.879439      -7.1829153      3.1318539      50218.233      36.893836      36.893836      36.893836    
   6760000   0.46588136    -7.878887      -7.1800749      3.1505404      50218.233      36.893836      36.893836      36.893836    
   6770000   0.46657449    -7.8797037     -7.1798519      3.1296275      50218.233      36.893836      36.893836      36.893836    
   6780000   0.46502913    -7.8790859     -7.1815521      3.1380538      50218.233      36.893836      36.893836      36.893836    
   6790000   0.46520713    -7.8816485     -7.1838477      3.1046057      50218.233      36.893836      36.893836      36.893836    
   6800000   0.46556176    -7.8811648     -7.1828321      3.1247402      50218.233      36.893836      36.893836      36.893836    
   6810000   0.46458643    -7.8813451     -7.1844753      3.1227441      50218.233      36.893836      36.893836      36.893836    
   6820000   0.46376355    -7.8790474     -7.1834119      3.138229       50218.233      36.893836      36.893836      36.893836    
   6830000   0.46690642    -7.8808816     -7.1805319      3.1302906      50218.233      36.893836      36.893836      36.893836    
   6840000   0.46279668    -7.8817825     -7.1875973      3.1168361      50218.233      36.893836      36.893836      36.893836    
   6850000   0.46166633    -7.886386      -7.1938964      3.0899238      50218.233      36.893836      36.893836      36.893836    
   6860000   0.4666655     -7.8823713     -7.182383       3.1118042      50218.233      36.893836      36.893836      36.893836    
   6870000   0.46813935    -7.886484      -7.184285       3.0782542      50218.233      36.893836      36.893836      36.893836    
   6880000   0.46442178    -7.8802293     -7.1836066      3.1321992      50218.233      36.893836      36.893836      36.893836    
   6890000   0.46286056    -7.8811075     -7.1868265      3.1311115      50218.233      36.893836      36.893836      36.893836    
   6900000   0.46522196    -7.8832342     -7.1854112      3.1084808      50218.233      36.893836      36.893836      36.893836    
   6910000   0.46366663    -7.8797046     -7.1842145      3.1410368      50218.233      36.893836      36.893836      36.893836    
   6920000   0.46525944    -7.8802365     -7.1823573      3.1196567      50218.233      36.893836      36.893836      36.893836    
   6930000   0.46394598    -7.8841769     -7.1882679      3.097255       50218.233      36.893836      36.893836      36.893836    
   6940000   0.4653816     -7.8791575     -7.1810951      3.1421162      50218.233      36.893836      36.893836      36.893836    
   6950000   0.46686748    -7.8829019     -7.1826106      3.1149914      50218.233      36.893836      36.893836      36.893836    
   6960000   0.46600859    -7.8823824     -7.1833794      3.1070173      50218.233      36.893836      36.893836      36.893836    
   6970000   0.46512366    -7.8827728     -7.1850973      3.1020763      50218.233      36.893836      36.893836      36.893836    
   6980000   0.46840268    -7.8801893     -7.1775953      3.1293379      50218.233      36.893836      36.893836      36.893836    
   6990000   0.4643516     -7.8846676     -7.1881501      3.0926544      50218.233      36.893836      36.893836      36.893836    
   7000000   0.46687854    -7.8776592     -7.1773513      3.1540395      50218.233      36.893836      36.893836      36.893836    
   7010000   0.46637471    -7.8752111     -7.1756589      3.1706024      50218.233      36.893836      36.893836      36.893836    
   7020000   0.46756632    -7.8848553     -7.1835158      3.106506       50218.233      36.893836      36.893836      36.893836    
   7030000   0.46628752    -7.8838816     -7.1844602      3.1121556      50218.233      36.893836      36.893836      36.893836    
   7040000   0.46422785    -7.8821727     -7.1858408      3.1059528      50218.233      36.893836      36.893836      36.893836    
   7050000   0.46511955    -7.8825175     -7.1848481      3.1119996      50218.233      36.893836      36.893836      36.893836    
   7060000   0.46386086    -7.8796126     -7.1838312      3.1294851      50218.233      36.893836      36.893836      36.893836    
   7070000   0.46297605    -7.881036      -7.1865818      3.1258268      50218.233      36.893836      36.893836      36.893836    
   7080000   0.46581272    -7.8810073     -7.1822981      3.122713       50218.233      36.893836      36.893836      36.893836    
   7090000   0.46509816    -7.8849273     -7.18729        3.0979206      50218.233      36.893836      36.893836      36.893836    
   7100000   0.46370975    -7.8830753     -7.1875206      3.1044727      50218.233      36.893836      36.893836      36.893836    
   7110000   0.46728791    -7.8802577     -7.1793359      3.1236466      50218.233      36.893836      36.893836      36.893836    
   7120000   0.46340351    -7.8809449     -7.1858495      3.1216468      50218.233      36.893836      36.893836      36.893836    
   7130000   0.46496137    -7.8851862     -7.187754       3.0965288      50218.233      36.893836      36.893836      36.893836    
   7140000   0.46475671    -7.8823375     -7.1852124      3.118132       50218.233      36.893836      36.893836      36.893836    
   7150000   0.46586189    -7.8796578     -7.1808749      3.1380581      50218.233      36.893836      36.893836      36.893836    
   7160000   0.464629      -7.882239      -7.1853055      3.1102908      50218.233      36.893836      36.893836      36.893836    
   7170000   0.46216732    -7.8846951     -7.191454       3.0826907      50218.233      36.893836      36.893836      36.893836    
   7180000   0.4644711     -7.8812351     -7.1845383      3.1241772      50218.233      36.893836      36.893836      36.893836    
   7190000   0.46517266    -7.8806145     -7.1828654      3.126476       50218.233      36.893836      36.893836      36.893836    
   7200000   0.46593288    -7.8826369     -7.1837475      3.1125258      50218.233      36.893836      36.893836      36.893836    
   7210000   0.46507824    -7.8784992     -7.1808917      3.137454       50218.233      36.893836      36.893836      36.893836    
   7220000   0.46593965    -7.8808966     -7.181997       3.1238613      50218.233      36.893836      36.893836      36.893836    
   7230000   0.46530431    -7.8799656     -7.182019       3.1379568      50218.233      36.893836      36.893836      36.893836    
   7240000   0.46586773    -7.8795188     -7.1807272      3.1300706      50218.233      36.893836      36.893836      36.893836    
   7250000   0.46682851    -7.8848374     -7.1846046      3.0978674      50218.233      36.893836      36.893836      36.893836    
   7260000   0.46380809    -7.8840967     -7.1883944      3.0903897      50218.233      36.893836      36.893836      36.893836    
   7270000   0.46423427    -7.8801646     -7.1838231      3.1302642      50218.233      36.893836      36.893836      36.893836    
   7280000   0.46627781    -7.8787368     -7.17933        3.1351811      50218.233      36.893836      36.893836      36.893836    
   7290000   0.4663533     -7.8798168     -7.1802968      3.1361982      50218.233      36.893836      36.893836      36.893836    
   7300000   0.46426131    -7.8844942     -7.1881121      3.1002725      50218.233      36.893836      36.893836      36.893836    
   7310000   0.46642473    -7.8823675     -7.1827403      3.1141204      50218.233      36.893836      36.893836      36.893836    
   7320000   0.46401417    -7.8840768     -7.1880655      3.0955661      50218.233      36.893836      36.893836      36.893836    
   7330000   0.4643619     -7.8825698     -7.1860368      3.1155119      50218.233      36.893836      36.893836      36.893836    
   7340000   0.46207962    -7.8831179     -7.1900083      3.1037413      50218.233      36.893836      36.893836      36.893836    
   7350000   0.46459102    -7.8816345     -7.1847579      3.1132384      50218.233      36.893836      36.893836      36.893836    
   7360000   0.46551837    -7.8815056     -7.183238       3.1194373      50218.233      36.893836      36.893836      36.893836    
   7370000   0.46572287    -7.8796902     -7.1811158      3.1283058      50218.233      36.893836      36.893836      36.893836    
   7380000   0.46379041    -7.8820082     -7.1863325      3.1028067      50218.233      36.893836      36.893836      36.893836    
   7390000   0.46622975    -7.8819067     -7.182572       3.1160466      50218.233      36.893836      36.893836      36.893836    
   7400000   0.46411185    -7.8818163     -7.1856584      3.1134473      50218.233      36.893836      36.893836      36.893836    
   7410000   0.4663073     -7.8814531     -7.1820021      3.1317779      50218.233      36.893836      36.893836      36.893836    
   7420000   0.46377716    -7.8804945     -7.1848386      3.1198356      50218.233      36.893836      36.893836      36.893836    
   7430000   0.46434294    -7.8793321     -7.1828276      3.1324203      50218.233      36.893836      36.893836      36.893836    
   7440000   0.463761      -7.8798686     -7.184237       3.124861       50218.233      36.893836      36.893836      36.893836    
   7450000   0.46323394    -7.8798217     -7.1849807      3.1271214      50218.233      36.893836      36.893836      36.893836    
   7460000   0.46621474    -7.8799181     -7.180606       3.131621       50218.233      36.893836      36.893836      36.893836    
   7470000   0.46717141    -7.8797291     -7.1789819      3.1270913      50218.233      36.893836      36.893836      36.893836    
   7480000   0.46460692    -7.8805367     -7.1836362      3.1292942      50218.233      36.893836      36.893836      36.893836    
   7490000   0.4616776     -7.8825103     -7.1900038      3.0969969      50218.233      36.893836      36.893836      36.893836    
   7500000   0.46206242    -7.8808499     -7.1877662      3.1167252      50218.233      36.893836      36.893836      36.893836    
   7510000   0.46560253    -7.883392      -7.1849981      3.1055295      50218.233      36.893836      36.893836      36.893836    
   7520000   0.46553216    -7.8833571     -7.1850688      3.1020803      50218.233      36.893836      36.893836      36.893836    
   7530000   0.46427395    -7.8824931     -7.1860921      3.1105032      50218.233      36.893836      36.893836      36.893836    
   7540000   0.46466902    -7.882841      -7.1858474      3.1046998      50218.233      36.893836      36.893836      36.893836    
   7550000   0.46376069    -7.8817973     -7.1861661      3.1011145      50218.233      36.893836      36.893836      36.893836    
   7560000   0.46470231    -7.8858552     -7.1888116      3.0834686      50218.233      36.893836      36.893836      36.893836    
   7570000   0.46474707    -7.8831724     -7.1860618      3.1169455      50218.233      36.893836      36.893836      36.893836    
   7580000   0.46590911    -7.8806259     -7.1817722      3.135614       50218.233      36.893836      36.893836      36.893836    
   7590000   0.46535595    -7.8800925     -7.1820685      3.1164935      50218.233      36.893836      36.893836      36.893836    
   7600000   0.46567761    -7.8798803     -7.1813738      3.1376619      50218.233      36.893836      36.893836      36.893836    
   7610000   0.46334768    -7.8823865     -7.1873749      3.1075762      50218.233      36.893836      36.893836      36.893836    
   7620000   0.46554891    -7.8801057     -7.1817923      3.1327565      50218.233      36.893836      36.893836      36.893836    
   7630000   0.46669548    -7.8812239     -7.1811906      3.1194477      50218.233      36.893836      36.893836      36.893836    
   7640000   0.46664845    -7.8795682     -7.1796055      3.1319115      50218.233      36.893836      36.893836      36.893836    
   7650000   0.4682158     -7.8792902     -7.1769765      3.1340402      50218.233      36.893836      36.893836      36.893836    
   7660000   0.46258166    -7.8817197     -7.1878571      3.0925276      50218.233      36.893836      36.893836      36.893836    
   7670000   0.4626667     -7.878293      -7.1843028      3.1331101      50218.233      36.893836      36.893836      36.893836    
   7680000   0.46592181    -7.8781596     -7.1792869      3.1378793      50218.233      36.893836      36.893836      36.893836    
   7690000   0.46610365    -7.8859482     -7.1868027      3.0794546      50218.233      36.893836      36.893836      36.893836    
   7700000   0.46294702    -7.8785873     -7.1841766      3.1368791      50218.233      36.893836      36.893836      36.893836    
   7710000   0.46584354    -7.879891      -7.1811357      3.1156012      50218.233      36.893836      36.893836      36.893836    
   7720000   0.46202667    -7.8759815     -7.1829514      3.1414003      50218.233      36.893836      36.893836      36.893836    
   7730000   0.46757591    -7.8803542     -7.1790003      3.1298525      50218.233      36.893836      36.893836      36.893836    
   7740000   0.46419521    -7.8826301     -7.1863472      3.0991559      50218.233      36.893836      36.893836      36.893836    
   7750000   0.46712389    -7.8776896     -7.1770137      3.146681       50218.233      36.893836      36.893836      36.893836    
   7760000   0.46475428    -7.8792979     -7.1821764      3.1284212      50218.233      36.893836      36.893836      36.893836    
   7770000   0.46661661    -7.8824871     -7.1825722      3.1130811      50218.233      36.893836      36.893836      36.893836    
   7780000   0.46343806    -7.8826681     -7.1875209      3.1055548      50218.233      36.893836      36.893836      36.893836    
   7790000   0.4659775     -7.8792471     -7.1802908      3.1263859      50218.233      36.893836      36.893836      36.893836    
   7800000   0.46292993    -7.87992       -7.185535       3.1171484      50218.233      36.893836      36.893836      36.893836    
   7810000   0.46467053    -7.880372      -7.1833761      3.1191821      50218.233      36.893836      36.893836      36.893836    
   7820000   0.46627086    -7.8849396     -7.1855433      3.0844645      50218.233      36.893836      36.893836      36.893836    
   7830000   0.46170405    -7.8785044     -7.1859582      3.1270062      50218.233      36.893836      36.893836      36.893836    
   7840000   0.46604708    -7.8812251     -7.1821645      3.1197208      50218.233      36.893836      36.893836      36.893836    
   7850000   0.46600528    -7.8829823     -7.1839843      3.1060349      50218.233      36.893836      36.893836      36.893836    
   7860000   0.4646493     -7.8846727     -7.1877086      3.0992836      50218.233      36.893836      36.893836      36.893836    
   7870000   0.46412351    -7.8795475     -7.1833721      3.1243609      50218.233      36.893836      36.893836      36.893836    
   7880000   0.46473217    -7.8796888     -7.1826004      3.1356512      50218.233      36.893836      36.893836      36.893836    
   7890000   0.46542118    -7.8825358     -7.184414       3.1044827      50218.233      36.893836      36.893836      36.893836    
   7900000   0.46578027    -7.8815429     -7.1828825      3.1125038      50218.233      36.893836      36.893836      36.893836    
   7910000   0.4674555     -7.8836839     -7.1825107      3.1083813      50218.233      36.893836      36.893836      36.893836    
   7920000   0.46613512    -7.8805393     -7.1813465      3.1266639      50218.233      36.893836      36.893836      36.893836    
   7930000   0.46541136    -7.8825107     -7.1844036      3.1156438      50218.233      36.893836      36.893836      36.893836    
   7940000   0.46561123    -7.8825203     -7.1841134      3.1176022      50218.233      36.893836      36.893836      36.893836    
   7950000   0.46501177    -7.8827931     -7.1852854      3.0948945      50218.233      36.893836      36.893836      36.893836    
   7960000   0.46555937    -7.8813052     -7.1829761      3.1192029      50218.233      36.893836      36.893836      36.893836    
   7970000   0.4621952     -7.8824443     -7.1891614      3.1128399      50218.233      36.893836      36.893836      36.893836    
   7980000   0.46882145    -7.8797987     -7.1765765      3.1276293      50218.233      36.893836      36.893836      36.893836    
   7990000   0.46566154    -7.8820524     -7.18357        3.1145127      50218.233      36.893836      36.893836      36.893836    
   8000000   0.46751395    -7.8831782     -7.1819172      3.1082723      50218.233      36.893836      36.893836      36.893836    
Loop time of 12591 on 5 procs for 8000000 steps with 70304 atoms

Performance: 548964.411 tau/day, 635.375 timesteps/s, 44.669 Matom-step/s
94.4% CPU use with 5 MPI tasks x 1 OpenMP threads

MPI task timing breakdown:
Section |  min time  |  avg time  |  max time  |%varavg| %total
---------------------------------------------------------------
Pair    | 4277.7     | 4875.9     | 5395.8     | 512.8 | 38.73
Neigh   | 42.127     | 44.914     | 52.274     |  58.0 |  0.36
Comm    | 1890.3     | 1903.3     | 1931       |  34.6 | 15.12
Output  | 0.14557    | 0.15017    | 0.15822    |   1.1 |  0.00
Modify  | 4617.4     | 5124.2     | 5742       | 508.2 | 40.70
Other   |            | 642.6      |            |       |  5.10

Nlocal:        14060.8 ave       14131 max       14013 min
Histogram: 1 1 1 0 0 0 1 0 0 1
Nghost:        18749.6 ave       18784 max       18681 min
Histogram: 1 0 0 0 0 0 1 0 2 1
Neighs:              0 ave           0 max           0 min
Histogram: 5 0 0 0 0 0 0 0 0 0

Total # of neighbors = 0
Ave neighs/atom = 0
Neighbor list builds = 1612782
Dangerous builds = 0
clear
OMP_NUM_THREADS environment is not set. Defaulting to 1 thread. (src/comm.cpp:98)
  using 1 OpenMP thread(s) per MPI task
package gpu 0
jump dms445.lmp

variable T equal 445
# T = 1000* (temp in LJ unit)
variable f equal 10000
log log.${T}
log log.445
