variable TLJ equal (${T}/1000)
variable TLJ equal (580/1000)
variable NCyle equal 10
variable iStep equal (${f})
variable iStep equal (10000)
variable dumpStep equal (${f}*100)
variable dumpStep equal (10000*100)
variable runStep equal (${f}*100*${NCyle})
variable runStep equal (10000*100*${NCyle})
variable runStep equal (10000*100*10)

units       lj
atom_style  atomic
dimension 3
boundary     p p p
pair_style  lj/cut 2.5
read_data  ../data/T${T}.dat
read_data  ../data/T580.dat
Reading data file ...
  orthogonal box = (0.97250269 0.97250269 0.97250269) to (37.866338 37.866338 37.866338)
  1 by 1 by 5 MPI processor grid
  reading atoms ...
  70304 atoms
  reading velocities ...
  70304 velocities
  read_data CPU = 0.209 seconds
change_box all triclinic
Changing box ...
  triclinic box = (0.97250269 0.97250269 0.97250269) to (37.866338 37.866338 37.866338) with tilt (0 0 0)
mass 1 1
mass 2 1
pair_modify shift yes
pair_coeff  1 1 1 1
pair_coeff  1 2 1.5 0.8
pair_coeff  2 2 0.5 0.88


timestep 0.01
thermo ${iStep}
thermo 10000
reset_timestep 0
thermo_style custom step temp pe etotal press vol lx ly lz
fix             1 all nvt temp ${TLJ}  ${TLJ}  0.1
fix             1 all nvt temp 0.58  ${TLJ}  0.1
fix             1 all nvt temp 0.58  0.58  0.1
thermo_modify flush yes

fix dsf all deform 1 xy  wiggle 0.5  ${f}   units box
fix dsf all deform 1 xy  wiggle 0.5  10000   units box
fix ps1 all ave/time 1 1 ${iStep} c_thermo_press[1] c_thermo_press[2]  c_thermo_press[3] c_thermo_press[4]  c_thermo_press[5] c_thermo_press[6]  file  stress.${T}
fix ps1 all ave/time 1 1 10000 c_thermo_press[1] c_thermo_press[2]  c_thermo_press[3] c_thermo_press[4]  c_thermo_press[5] c_thermo_press[6]  file  stress.${T}
fix ps1 all ave/time 1 1 10000 c_thermo_press[1] c_thermo_press[2]  c_thermo_press[3] c_thermo_press[4]  c_thermo_press[5] c_thermo_press[6]  file  stress.580
dump            1 all custom ${dumpStep} dump.${T} id type x y z
dump            1 all custom 1000000 dump.${T} id type x y z
dump            1 all custom 1000000 dump.580 id type x y z
dump_modify 1 sort id
fix nodrift all momentum 1  linear 1 1 1
fix com_seed all recenter INIT INIT INIT shift all
run ${runStep}
run 10000000
Generated 0 of 1 mixed pair_coeff terms from geometric mixing rule
Per MPI rank memory allocation (min/avg/max) = 6.661 | 8.47 | 8.926 Mbytes
   Step          Temp          PotEng         TotEng         Press          Volume           Lx             Ly             Lz      
         0   0.578947      -7.6543028     -6.7858946      4.9611572      50218.233      36.893836      36.893836      36.893836    
     10000   0.58049547    -7.6396035     -6.7688727      5.0561301      50218.233      36.893836      36.893836      36.893836    
     20000   0.57980931    -7.6442469     -6.7745453      5.0204203      50218.233      36.893836      36.893836      36.893836    
     30000   0.57986193    -7.6471175     -6.7773369      5.0056553      50218.233      36.893836      36.893836      36.893836    
     40000   0.57880914    -7.6388038     -6.7706024      5.0730249      50218.233      36.893836      36.893836      36.893836    
     50000   0.57961794    -7.6439879     -6.7745733      5.0272394      50218.233      36.893836      36.893836      36.893836    
     60000   0.58204153    -7.6440417     -6.7709918      5.0299662      50218.233      36.893836      36.893836      36.893836    
     70000   0.58227643    -7.6401986     -6.7667964      5.0535013      50218.233      36.893836      36.893836      36.893836    
     80000   0.57960057    -7.6355231     -6.7661346      5.0799325      50218.233      36.893836      36.893836      36.893836    
     90000   0.58189366    -7.6373826     -6.7645545      5.0746038      50218.233      36.893836      36.893836      36.893836    
    100000   0.57953694    -7.6380904     -6.7687973      5.0687806      50218.233      36.893836      36.893836      36.893836    
    110000   0.58009007    -7.6407575     -6.7706348      5.0546737      50218.233      36.893836      36.893836      36.893836    
    120000   0.58167481    -7.632971      -6.7604712      5.1197764      50218.233      36.893836      36.893836      36.893836    
    130000   0.57929111    -7.641799      -6.7728747      5.0412688      50218.233      36.893836      36.893836      36.893836    
    140000   0.58336568    -7.6416851     -6.766649       5.0542702      50218.233      36.893836      36.893836      36.893836    
    150000   0.58061316    -7.6367195     -6.7658121      5.0780605      50218.233      36.893836      36.893836      36.893836    
    160000   0.57994469    -7.6396803     -6.7697756      5.0593561      50218.233      36.893836      36.893836      36.893836    
    170000   0.58299283    -7.6442991     -6.7698223      5.0455249      50218.233      36.893836      36.893836      36.893836    
    180000   0.58311442    -7.6385368     -6.7638776      5.0699436      50218.233      36.893836      36.893836      36.893836    
    190000   0.57744538    -7.6354852     -6.7693294      5.0846601      50218.233      36.893836      36.893836      36.893836    
    200000   0.5788313     -7.6415909     -6.7733563      5.0386791      50218.233      36.893836      36.893836      36.893836    
    210000   0.57913814    -7.632202      -6.7635071      5.127196       50218.233      36.893836      36.893836      36.893836    
    220000   0.57932811    -7.636426      -6.7674462      5.0780492      50218.233      36.893836      36.893836      36.893836    
    230000   0.58082614    -7.636207      -6.7649802      5.0761232      50218.233      36.893836      36.893836      36.893836    
    240000   0.57862272    -7.6364142     -6.7684925      5.0895841      50218.233      36.893836      36.893836      36.893836    
    250000   0.57758114    -7.6365292     -6.7701698      5.0873365      50218.233      36.893836      36.893836      36.893836    
    260000   0.579868      -7.6372341     -6.7674444      5.0833536      50218.233      36.893836      36.893836      36.893836    
    270000   0.58242544    -7.6343258     -6.7607001      5.1065817      50218.233      36.893836      36.893836      36.893836    
    280000   0.58020938    -7.6410145     -6.7707128      5.0388725      50218.233      36.893836      36.893836      36.893836    
    290000   0.57931788    -7.6345497     -6.7655853      5.1041078      50218.233      36.893836      36.893836      36.893836    
    300000   0.58232738    -7.6416771     -6.7681985      5.0487857      50218.233      36.893836      36.893836      36.893836    
    310000   0.58001074    -7.633439      -6.7634353      5.1008135      50218.233      36.893836      36.893836      36.893836    
    320000   0.57892485    -7.6359942     -6.7676192      5.0732888      50218.233      36.893836      36.893836      36.893836    
    330000   0.57860738    -7.6443889     -6.7764902      5.0160086      50218.233      36.893836      36.893836      36.893836    
    340000   0.58270163    -7.6384875     -6.7644475      5.0710739      50218.233      36.893836      36.893836      36.893836    
    350000   0.58502162    -7.6407049     -6.7631849      5.0531517      50218.233      36.893836      36.893836      36.893836    
    360000   0.57791268    -7.6415639     -6.7747072      5.0358658      50218.233      36.893836      36.893836      36.893836    
    370000   0.58438122    -7.6423013     -6.765742       5.043553       50218.233      36.893836      36.893836      36.893836    
    380000   0.57790867    -7.6423329     -6.7754822      5.0308379      50218.233      36.893836      36.893836      36.893836    
    390000   0.57800489    -7.6395132     -6.7725182      5.0593814      50218.233      36.893836      36.893836      36.893836    
    400000   0.57992952    -7.640666      -6.7707841      5.0480977      50218.233      36.893836      36.893836      36.893836    
    410000   0.57697522    -7.6417796     -6.776329       5.0533366      50218.233      36.893836      36.893836      36.893836    
    420000   0.58092622    -7.6360701     -6.7646932      5.0957103      50218.233      36.893836      36.893836      36.893836    
    430000   0.58085149    -7.6394012     -6.7681364      5.0576004      50218.233      36.893836      36.893836      36.893836    
    440000   0.57698751    -7.6366887     -6.7712197      5.0681526      50218.233      36.893836      36.893836      36.893836    
    450000   0.58034984    -7.6406228     -6.7701104      5.051507       50218.233      36.893836      36.893836      36.893836    
    460000   0.58092028    -7.6382841     -6.7669161      5.0566999      50218.233      36.893836      36.893836      36.893836    
    470000   0.57928751    -7.6385779     -6.769659       5.0558126      50218.233      36.893836      36.893836      36.893836    
    480000   0.58079648    -7.6375864     -6.7664041      5.071852       50218.233      36.893836      36.893836      36.893836    
    490000   0.57820295    -7.6392249     -6.7719328      5.0515442      50218.233      36.893836      36.893836      36.893836    
    500000   0.58067565    -7.6417609     -6.7707598      5.0420168      50218.233      36.893836      36.893836      36.893836    
    510000   0.58192243    -7.6414452     -6.768574       5.0455786      50218.233      36.893836      36.893836      36.893836    
    520000   0.58115898    -7.6392636     -6.7675376      5.0539457      50218.233      36.893836      36.893836      36.893836    
    530000   0.57793728    -7.6392946     -6.772401       5.0475305      50218.233      36.893836      36.893836      36.893836    
    540000   0.57973392    -7.6380606     -6.7684721      5.0801638      50218.233      36.893836      36.893836      36.893836    
    550000   0.58121064    -7.6342478     -6.7624443      5.1122929      50218.233      36.893836      36.893836      36.893836    
    560000   0.580534      -7.6394179     -6.7686293      5.0782648      50218.233      36.893836      36.893836      36.893836    
    570000   0.57798064    -7.6382202     -6.7712616      5.0667506      50218.233      36.893836      36.893836      36.893836    
    580000   0.58140628    -7.6390326     -6.7669356      5.0689071      50218.233      36.893836      36.893836      36.893836    
    590000   0.58001621    -7.6379781     -6.7679662      5.0615726      50218.233      36.893836      36.893836      36.893836    
    600000   0.57605736    -7.6372165     -6.7731428      5.0632649      50218.233      36.893836      36.893836      36.893836    
    610000   0.57700268    -7.6471613     -6.7816696      5.0012478      50218.233      36.893836      36.893836      36.893836    
    620000   0.58077398    -7.6402688     -6.7691202      5.0599131      50218.233      36.893836      36.893836      36.893836    
    630000   0.57899688    -7.6360576     -6.7675747      5.078319       50218.233      36.893836      36.893836      36.893836    
    640000   0.57672894    -7.6401506     -6.7750695      5.0579076      50218.233      36.893836      36.893836      36.893836    
    650000   0.57980748    -7.6336904     -6.7639916      5.1058899      50218.233      36.893836      36.893836      36.893836    
    660000   0.58093087    -7.6376895     -6.7663056      5.0747125      50218.233      36.893836      36.893836      36.893836    
    670000   0.57790248    -7.6392116     -6.7723702      5.0534498      50218.233      36.893836      36.893836      36.893836    
    680000   0.58072682    -7.6413408     -6.7702629      5.0498798      50218.233      36.893836      36.893836      36.893836    
    690000   0.58063912    -7.6428361     -6.7718898      5.0387774      50218.233      36.893836      36.893836      36.893836    
    700000   0.57848408    -7.6355672     -6.7678534      5.081055       50218.233      36.893836      36.893836      36.893836    
    710000   0.57911023    -7.6359581     -6.7673051      5.0817674      50218.233      36.893836      36.893836      36.893836    
    720000   0.58202818    -7.6386715     -6.7656416      5.0676666      50218.233      36.893836      36.893836      36.893836    
    730000   0.57821969    -7.6383605     -6.7710433      5.0545001      50218.233      36.893836      36.893836      36.893836    
    740000   0.57866457    -7.637221      -6.7692365      5.0718761      50218.233      36.893836      36.893836      36.893836    
    750000   0.58098317    -7.6361516     -6.7646893      5.0756133      50218.233      36.893836      36.893836      36.893836    
    760000   0.57855694    -7.6394066     -6.7715835      5.0584076      50218.233      36.893836      36.893836      36.893836    
    770000   0.58257661    -7.6342504     -6.7603979      5.1002004      50218.233      36.893836      36.893836      36.893836    
    780000   0.57931899    -7.640919      -6.7719529      5.0462234      50218.233      36.893836      36.893836      36.893836    
    790000   0.57944399    -7.6374103     -6.7682567      5.0863126      50218.233      36.893836      36.893836      36.893836    
    800000   0.58067878    -7.6376913     -6.7666856      5.0870932      50218.233      36.893836      36.893836      36.893836    
    810000   0.5799058     -7.6383768     -6.7685304      5.0694964      50218.233      36.893836      36.893836      36.893836    
    820000   0.5766903     -7.6407106     -6.7756874      5.0483397      50218.233      36.893836      36.893836      36.893836    
    830000   0.58024536    -7.6426925     -6.7723368      5.042931       50218.233      36.893836      36.893836      36.893836    
    840000   0.5788093     -7.6362006     -6.767999       5.0950098      50218.233      36.893836      36.893836      36.893836    
    850000   0.58016803    -7.637277      -6.7670374      5.0765871      50218.233      36.893836      36.893836      36.893836    
    860000   0.58162515    -7.6298762     -6.7574509      5.1427756      50218.233      36.893836      36.893836      36.893836    
    870000   0.57844707    -7.6403875     -6.7727292      5.0578976      50218.233      36.893836      36.893836      36.893836    
    880000   0.57853461    -7.6347727     -6.7669831      5.1039673      50218.233      36.893836      36.893836      36.893836    
    890000   0.57931878    -7.6376622     -6.7686964      5.0830799      50218.233      36.893836      36.893836      36.893836    
    900000   0.57923765    -7.6346927     -6.7658486      5.0994812      50218.233      36.893836      36.893836      36.893836    
    910000   0.58322609    -7.6398818     -6.7650551      5.0678877      50218.233      36.893836      36.893836      36.893836    
    920000   0.57592296    -7.6381014     -6.7742292      5.0678457      50218.233      36.893836      36.893836      36.893836    
    930000   0.57874738    -7.6317851     -6.7636764      5.1170306      50218.233      36.893836      36.893836      36.893836    
    940000   0.58179741    -7.6385075     -6.7658238      5.0574496      50218.233      36.893836      36.893836      36.893836    
    950000   0.57990833    -7.6365563     -6.7667061      5.0734891      50218.233      36.893836      36.893836      36.893836    
    960000   0.57912598    -7.6428663     -6.7741897      5.0437387      50218.233      36.893836      36.893836      36.893836    
    970000   0.58235944    -7.6341214     -6.7605946      5.0966421      50218.233      36.893836      36.893836      36.893836    
    980000   0.57804563    -7.6355228     -6.7684667      5.0882868      50218.233      36.893836      36.893836      36.893836    
    990000   0.5800866     -7.636392      -6.7662745      5.0795848      50218.233      36.893836      36.893836      36.893836    
   1000000   0.58025275    -7.6381955     -6.7678288      5.0766715      50218.233      36.893836      36.893836      36.893836    
   1010000   0.57928264    -7.6358729     -6.7669613      5.0816626      50218.233      36.893836      36.893836      36.893836    
   1020000   0.58039169    -7.6336205     -6.7630454      5.1018623      50218.233      36.893836      36.893836      36.893836    
   1030000   0.57908569    -7.6354014     -6.7667852      5.0914141      50218.233      36.893836      36.893836      36.893836    
   1040000   0.57886045    -7.635685      -6.7674067      5.089089       50218.233      36.893836      36.893836      36.893836    
   1050000   0.58098802    -7.6300064     -6.7585368      5.1422981      50218.233      36.893836      36.893836      36.893836    
   1060000   0.58242484    -7.6381769     -6.7645521      5.0804097      50218.233      36.893836      36.893836      36.893836    
   1070000   0.57830423    -7.6343285     -6.7668845      5.1086059      50218.233      36.893836      36.893836      36.893836    
   1080000   0.58031791    -7.6340947     -6.7636302      5.0989452      50218.233      36.893836      36.893836      36.893836    
   1090000   0.57948838    -7.6366033     -6.7673831      5.0867951      50218.233      36.893836      36.893836      36.893836    
   1100000   0.58146673    -7.6449577     -6.77277        5.0207581      50218.233      36.893836      36.893836      36.893836    
   1110000   0.58039864    -7.6368506     -6.7662651      5.0725137      50218.233      36.893836      36.893836      36.893836    
   1120000   0.58090644    -7.6403292     -6.768982       5.0583234      50218.233      36.893836      36.893836      36.893836    
   1130000   0.58061197    -7.6367906     -6.765885       5.0833748      50218.233      36.893836      36.893836      36.893836    
   1140000   0.57915309    -7.6385258     -6.7698085      5.0685491      50218.233      36.893836      36.893836      36.893836    
   1150000   0.58241665    -7.6401601     -6.7665475      5.0633202      50218.233      36.893836      36.893836      36.893836    
   1160000   0.58060629    -7.6365801     -6.765683       5.0909811      50218.233      36.893836      36.893836      36.893836    
   1170000   0.58221414    -7.636727      -6.7634182      5.070611       50218.233      36.893836      36.893836      36.893836    
   1180000   0.58115799    -7.6368082     -6.7650836      5.0683034      50218.233      36.893836      36.893836      36.893836    
   1190000   0.58060075    -7.6393897     -6.768501       5.0662507      50218.233      36.893836      36.893836      36.893836    
   1200000   0.57955335    -7.6400552     -6.7707376      5.0458638      50218.233      36.893836      36.893836      36.893836    
   1210000   0.57878758    -7.6344439     -6.7662749      5.1025669      50218.233      36.893836      36.893836      36.893836    
   1220000   0.58117051    -7.6326279     -6.7608846      5.1164015      50218.233      36.893836      36.893836      36.893836    
   1230000   0.57793669    -7.6368146     -6.7699219      5.0902327      50218.233      36.893836      36.893836      36.893836    
   1240000   0.57847994    -7.6353019     -6.7675943      5.0907727      50218.233      36.893836      36.893836      36.893836    
   1250000   0.57993052    -7.636754      -6.7668706      5.0847167      50218.233      36.893836      36.893836      36.893836    
   1260000   0.58020891    -7.6388883     -6.7685873      5.0712683      50218.233      36.893836      36.893836      36.893836    
   1270000   0.57969188    -7.6368479     -6.7673224      5.0753451      50218.233      36.893836      36.893836      36.893836    
   1280000   0.58211759    -7.6384814     -6.7653175      5.0712428      50218.233      36.893836      36.893836      36.893836    
   1290000   0.58205424    -7.6447719     -6.771703       5.0260567      50218.233      36.893836      36.893836      36.893836    
   1300000   0.57969857    -7.6418205     -6.772285       5.0259449      50218.233      36.893836      36.893836      36.893836    
   1310000   0.58152601    -7.637833      -6.7655564      5.0743647      50218.233      36.893836      36.893836      36.893836    
   1320000   0.58076139    -7.6438252     -6.7726955      5.0262762      50218.233      36.893836      36.893836      36.893836    
   1330000   0.58258707    -7.6387619     -6.7648938      5.0613027      50218.233      36.893836      36.893836      36.893836    
   1340000   0.57736426    -7.6375932     -6.7715592      5.0831488      50218.233      36.893836      36.893836      36.893836    
   1350000   0.57939508    -7.6400889     -6.7710087      5.0694636      50218.233      36.893836      36.893836      36.893836    
   1360000   0.58029905    -7.6377597     -6.7673235      5.0643896      50218.233      36.893836      36.893836      36.893836    
   1370000   0.57911709    -7.642001      -6.7733377      5.0422769      50218.233      36.893836      36.893836      36.893836    
   1380000   0.57988557    -7.6418053     -6.7719893      5.028454       50218.233      36.893836      36.893836      36.893836    
   1390000   0.58067296    -7.6406538     -6.7696568      5.0519003      50218.233      36.893836      36.893836      36.893836    
   1400000   0.57998646    -7.6442463     -6.774279       5.0294844      50218.233      36.893836      36.893836      36.893836    
   1410000   0.58083083    -7.6350368     -6.7638029      5.0985636      50218.233      36.893836      36.893836      36.893836    
   1420000   0.57968559    -7.6476723     -6.7781563      5.0016821      50218.233      36.893836      36.893836      36.893836    
   1430000   0.57946027    -7.6398764     -6.7706984      5.0594774      50218.233      36.893836      36.893836      36.893836    
   1440000   0.57812957    -7.6335517     -6.7663697      5.0906141      50218.233      36.893836      36.893836      36.893836    
   1450000   0.5799385     -7.6383103     -6.768415       5.0627638      50218.233      36.893836      36.893836      36.893836    
   1460000   0.58040563    -7.6394235     -6.7688274      5.0483995      50218.233      36.893836      36.893836      36.893836    
   1470000   0.57928566    -7.6391891     -6.7702729      5.067413       50218.233      36.893836      36.893836      36.893836    
   1480000   0.57863642    -7.640086      -6.7721438      5.0568317      50218.233      36.893836      36.893836      36.893836    
   1490000   0.58183422    -7.642402      -6.7696631      5.0442626      50218.233      36.893836      36.893836      36.893836    
   1500000   0.58379829    -7.6431745     -6.7674895      5.0369141      50218.233      36.893836      36.893836      36.893836    
   1510000   0.57911055    -7.6413485     -6.772695       5.0402682      50218.233      36.893836      36.893836      36.893836    
   1520000   0.57895253    -7.6386755     -6.7702591      5.070433       50218.233      36.893836      36.893836      36.893836    
   1530000   0.58164774    -7.6403649     -6.7679057      5.0567018      50218.233      36.893836      36.893836      36.893836    
   1540000   0.57911473    -7.6387891     -6.7701293      5.0693612      50218.233      36.893836      36.893836      36.893836    
   1550000   0.57942869    -7.6338395     -6.7647088      5.103466       50218.233      36.893836      36.893836      36.893836    
   1560000   0.57974325    -7.6341333     -6.7645308      5.0956867      50218.233      36.893836      36.893836      36.893836    
   1570000   0.58147271    -7.637963      -6.7657664      5.0773246      50218.233      36.893836      36.893836      36.893836    
   1580000   0.57945993    -7.6421811     -6.7730036      5.040133       50218.233      36.893836      36.893836      36.893836    
   1590000   0.58098905    -7.6414176     -6.7699465      5.0472935      50218.233      36.893836      36.893836      36.893836    
   1600000   0.57895089    -7.6401703     -6.7717563      5.0526648      50218.233      36.893836      36.893836      36.893836    
   1610000   0.57933816    -7.6416498     -6.772655       5.0508801      50218.233      36.893836      36.893836      36.893836    
   1620000   0.57925279    -7.6442989     -6.775432       5.0231729      50218.233      36.893836      36.893836      36.893836    
   1630000   0.57981601    -7.6433745     -6.7736629      5.0221358      50218.233      36.893836      36.893836      36.893836    
   1640000   0.5790243     -7.6428573     -6.7743332      5.0367157      50218.233      36.893836      36.893836      36.893836    
   1650000   0.57575006    -7.6408171     -6.7772043      5.0446533      50218.233      36.893836      36.893836      36.893836    
   1660000   0.58113189    -7.6394376     -6.7677522      5.0710579      50218.233      36.893836      36.893836      36.893836    
   1670000   0.58079469    -7.6360272     -6.7648476      5.0935306      50218.233      36.893836      36.893836      36.893836    
   1680000   0.57731714    -7.634955      -6.7689916      5.0985811      50218.233      36.893836      36.893836      36.893836    
   1690000   0.58326834    -7.6385974     -6.7637073      5.0728566      50218.233      36.893836      36.893836      36.893836    
   1700000   0.57903167    -7.6383208     -6.7697856      5.0609183      50218.233      36.893836      36.893836      36.893836    
   1710000   0.58052598    -7.63739       -6.7666134      5.0715251      50218.233      36.893836      36.893836      36.893836    
   1720000   0.5779667     -7.6381943     -6.7712566      5.0786324      50218.233      36.893836      36.893836      36.893836    
   1730000   0.58224423    -7.6370942     -6.7637402      5.0837501      50218.233      36.893836      36.893836      36.893836    
   1740000   0.57902563    -7.6362667     -6.7677406      5.0795152      50218.233      36.893836      36.893836      36.893836    
   1750000   0.5784504     -7.6420911     -6.7744278      5.0311975      50218.233      36.893836      36.893836      36.893836    
   1760000   0.57932158    -7.6381583     -6.7691883      5.0590617      50218.233      36.893836      36.893836      36.893836    
   1770000   0.57821547    -7.6357547     -6.7684438      5.0843731      50218.233      36.893836      36.893836      36.893836    
   1780000   0.58022459    -7.638074      -6.7677495      5.0809609      50218.233      36.893836      36.893836      36.893836    
   1790000   0.58171324    -7.6379967     -6.7654392      5.0709928      50218.233      36.893836      36.893836      36.893836    
   1800000   0.57898208    -7.637883      -6.7694223      5.0796591      50218.233      36.893836      36.893836      36.893836    
   1810000   0.58068298    -7.6342873     -6.7632753      5.0954019      50218.233      36.893836      36.893836      36.893836    
   1820000   0.58224808    -7.6382524     -6.7648927      5.0717415      50218.233      36.893836      36.893836      36.893836    
   1830000   0.58103051    -7.6327952     -6.7612618      5.1090485      50218.233      36.893836      36.893836      36.893836    
   1840000   0.57849068    -7.6332369     -6.7655132      5.0897187      50218.233      36.893836      36.893836      36.893836    
   1850000   0.5805897     -7.6384604     -6.7675882      5.0604832      50218.233      36.893836      36.893836      36.893836    
   1860000   0.57869319    -7.6414078     -6.7733803      5.0471021      50218.233      36.893836      36.893836      36.893836    
   1870000   0.58253186    -7.6367523     -6.7629669      5.0868362      50218.233      36.893836      36.893836      36.893836    
   1880000   0.57875982    -7.6339231     -6.7657957      5.0933796      50218.233      36.893836      36.893836      36.893836    
   1890000   0.57786923    -7.6398803     -6.7730888      5.0529447      50218.233      36.893836      36.893836      36.893836    
   1900000   0.58059862    -7.6394818     -6.7685962      5.0648296      50218.233      36.893836      36.893836      36.893836    
   1910000   0.58596434    -7.637482      -6.758548       5.0848047      50218.233      36.893836      36.893836      36.893836    
   1920000   0.57909141    -7.6299528     -6.761328       5.1321861      50218.233      36.893836      36.893836      36.893836    
   1930000   0.57918902    -7.6376397     -6.7688685      5.0787376      50218.233      36.893836      36.893836      36.893836    
   1940000   0.58100879    -7.638334      -6.7668332      5.0712179      50218.233      36.893836      36.893836      36.893836    
   1950000   0.58069328    -7.634379      -6.7633515      5.1071353      50218.233      36.893836      36.893836      36.893836    
   1960000   0.58009263    -7.6389944     -6.7688678      5.0750654      50218.233      36.893836      36.893836      36.893836    
   1970000   0.57809321    -7.6400468     -6.7729193      5.0504781      50218.233      36.893836      36.893836      36.893836    
   1980000   0.58075304    -7.6375427     -6.7664255      5.0742685      50218.233      36.893836      36.893836      36.893836    
   1990000   0.58079003    -7.637576      -6.7664033      5.0824269      50218.233      36.893836      36.893836      36.893836    
   2000000   0.5783609     -7.637719      -6.77019        5.0672503      50218.233      36.893836      36.893836      36.893836    
   2010000   0.582337      -7.6348975     -6.7614045      5.0969568      50218.233      36.893836      36.893836      36.893836    
   2020000   0.58313759    -7.6324826     -6.7577886      5.1133087      50218.233      36.893836      36.893836      36.893836    
   2030000   0.58170708    -7.6357224     -6.7631742      5.090828       50218.233      36.893836      36.893836      36.893836    
   2040000   0.5781866     -7.6377367     -6.7704691      5.0769835      50218.233      36.893836      36.893836      36.893836    
   2050000   0.5799246     -7.6317947     -6.7619201      5.1149391      50218.233      36.893836      36.893836      36.893836    
   2060000   0.57801561    -7.6349109     -6.7678999      5.0906582      50218.233      36.893836      36.893836      36.893836    
   2070000   0.58170187    -7.6367514     -6.7642111      5.0848394      50218.233      36.893836      36.893836      36.893836    
   2080000   0.58071393    -7.6407777     -6.7697192      5.0443563      50218.233      36.893836      36.893836      36.893836    
   2090000   0.58019979    -7.6434744     -6.7731871      5.0441017      50218.233      36.893836      36.893836      36.893836    
   2100000   0.57882092    -7.6363587     -6.7681397      5.0911058      50218.233      36.893836      36.893836      36.893836    
   2110000   0.57713487    -7.643905      -6.778215       5.0182818      50218.233      36.893836      36.893836      36.893836    
   2120000   0.58104836    -7.641687      -6.7701268      5.0605965      50218.233      36.893836      36.893836      36.893836    
   2130000   0.57973708    -7.6406274     -6.7710341      5.0599724      50218.233      36.893836      36.893836      36.893836    
   2140000   0.57981884    -7.6429018     -6.7731859      5.0300512      50218.233      36.893836      36.893836      36.893836    
   2150000   0.58017062    -7.6431745     -6.7729309      5.0294611      50218.233      36.893836      36.893836      36.893836    
   2160000   0.57891053    -7.636242      -6.7678885      5.0821741      50218.233      36.893836      36.893836      36.893836    
   2170000   0.57904387    -7.6361485     -6.767595       5.0732574      50218.233      36.893836      36.893836      36.893836    
   2180000   0.5817422     -7.6426721     -6.7700712      5.0309564      50218.233      36.893836      36.893836      36.893836    
   2190000   0.57803319    -7.6418899     -6.7748524      5.0405454      50218.233      36.893836      36.893836      36.893836    
   2200000   0.57966925    -7.6406453     -6.7711538      5.0500504      50218.233      36.893836      36.893836      36.893836    
   2210000   0.57895948    -7.6371073     -6.7686804      5.0838723      50218.233      36.893836      36.893836      36.893836    
   2220000   0.58056727    -7.6426815     -6.7718429      5.0425411      50218.233      36.893836      36.893836      36.893836    
   2230000   0.580247      -7.6413664     -6.7710083      5.0566699      50218.233      36.893836      36.893836      36.893836    
   2240000   0.58124552    -7.6363212     -6.7644653      5.0879363      50218.233      36.893836      36.893836      36.893836    
   2250000   0.57730291    -7.6382356     -6.7722935      5.0698577      50218.233      36.893836      36.893836      36.893836    
   2260000   0.58130813    -7.6353763     -6.7634265      5.0929658      50218.233      36.893836      36.893836      36.893836    
   2270000   0.5814964     -7.640266      -6.7680338      5.0561616      50218.233      36.893836      36.893836      36.893836    
   2280000   0.57929434    -7.6384458     -6.7695167      5.0762173      50218.233      36.893836      36.893836      36.893836    
   2290000   0.58179979    -7.6341621     -6.7614748      5.098616       50218.233      36.893836      36.893836      36.893836    
   2300000   0.57486806    -7.6370387     -6.7747489      5.0672228      50218.233      36.893836      36.893836      36.893836    
   2310000   0.57849284    -7.6378171     -6.7700902      5.0794599      50218.233      36.893836      36.893836      36.893836    
   2320000   0.58153449    -7.6447607     -6.7724714      5.0311168      50218.233      36.893836      36.893836      36.893836    
   2330000   0.58000815    -7.641861      -6.7718611      5.0450044      50218.233      36.893836      36.893836      36.893836    
   2340000   0.58012871    -7.6388899     -6.7687093      5.071083       50218.233      36.893836      36.893836      36.893836    
   2350000   0.57852875    -7.6371462     -6.7693655      5.0611164      50218.233      36.893836      36.893836      36.893836    
   2360000   0.57938244    -7.6380459     -6.7689845      5.0766918      50218.233      36.893836      36.893836      36.893836    
   2370000   0.5772273     -7.6368208     -6.7709922      5.0786104      50218.233      36.893836      36.893836      36.893836    
   2380000   0.58035476    -7.6388796     -6.7683598      5.0625887      50218.233      36.893836      36.893836      36.893836    
   2390000   0.57649583    -7.6393734     -6.7746419      5.0710516      50218.233      36.893836      36.893836      36.893836    
   2400000   0.57811704    -7.6405924     -6.7734292      5.0470833      50218.233      36.893836      36.893836      36.893836    
   2410000   0.58244131    -7.6386443     -6.7649947      5.0686553      50218.233      36.893836      36.893836      36.893836    
   2420000   0.57904632    -7.6338972     -6.7653401      5.0995798      50218.233      36.893836      36.893836      36.893836    
   2430000   0.57715652    -7.6379033     -6.7721808      5.0739823      50218.233      36.893836      36.893836      36.893836    
   2440000   0.57779056    -7.6423218     -6.7756483      5.0317043      50218.233      36.893836      36.893836      36.893836    
   2450000   0.58136518    -7.6443961     -6.7723607      5.0297834      50218.233      36.893836      36.893836      36.893836    
   2460000   0.58478121    -7.6346143     -6.757455       5.0988089      50218.233      36.893836      36.893836      36.893836    
   2470000   0.58144994    -7.6371839     -6.7650214      5.0788439      50218.233      36.893836      36.893836      36.893836    
   2480000   0.57719673    -7.6442558     -6.778473       5.0342934      50218.233      36.893836      36.893836      36.893836    
   2490000   0.58134722    -7.6379776     -6.7659692      5.0730727      50218.233      36.893836      36.893836      36.893836    
   2500000   0.57879717    -7.6361222     -6.7679388      5.0886569      50218.233      36.893836      36.893836      36.893836    
   2510000   0.57917058    -7.6333735     -6.76463        5.1151657      50218.233      36.893836      36.893836      36.893836    
   2520000   0.57861228    -7.6438678     -6.7759617      5.0225323      50218.233      36.893836      36.893836      36.893836    
   2530000   0.57953883    -7.6451445     -6.7758486      5.0125471      50218.233      36.893836      36.893836      36.893836    
   2540000   0.58021324    -7.636712      -6.7664046      5.0803417      50218.233      36.893836      36.893836      36.893836    
   2550000   0.57913706    -7.6402745     -6.7715813      5.0459392      50218.233      36.893836      36.893836      36.893836    
   2560000   0.57918742    -7.6412844     -6.7725156      5.0522908      50218.233      36.893836      36.893836      36.893836    
   2570000   0.57947643    -7.6409961     -6.7717938      5.0427342      50218.233      36.893836      36.893836      36.893836    
   2580000   0.58130923    -7.6453812     -6.7734297      5.0239662      50218.233      36.893836      36.893836      36.893836    
   2590000   0.57763029    -7.6381361     -6.771703       5.0692535      50218.233      36.893836      36.893836      36.893836    
   2600000   0.58061218    -7.6390778     -6.7681719      5.0729892      50218.233      36.893836      36.893836      36.893836    
   2610000   0.58187313    -7.6380634     -6.7652662      5.0722464      50218.233      36.893836      36.893836      36.893836    
   2620000   0.57786208    -7.6439434     -6.7771626      5.0245643      50218.233      36.893836      36.893836      36.893836    
   2630000   0.57872424    -7.641344      -6.77327        5.0480263      50218.233      36.893836      36.893836      36.893836    
   2640000   0.57844542    -7.6467807     -6.7791249      4.9917529      50218.233      36.893836      36.893836      36.893836    
   2650000   0.581103      -7.6439829     -6.7723408      5.0277722      50218.233      36.893836      36.893836      36.893836    
   2660000   0.57629891    -7.642763      -6.778327       5.0333727      50218.233      36.893836      36.893836      36.893836    
   2670000   0.57965676    -7.6372053     -6.7677325      5.0751435      50218.233      36.893836      36.893836      36.893836    
   2680000   0.57860644    -7.6360026     -6.7681053      5.0810431      50218.233      36.893836      36.893836      36.893836    
   2690000   0.58071795    -7.6371774     -6.7661129      5.0823718      50218.233      36.893836      36.893836      36.893836    
   2700000   0.57889813    -7.6341944     -6.7658595      5.0938932      50218.233      36.893836      36.893836      36.893836    
   2710000   0.57956971    -7.6347277     -6.7653855      5.090098       50218.233      36.893836      36.893836      36.893836    
   2720000   0.58117126    -7.6359768     -6.7642323      5.092583       50218.233      36.893836      36.893836      36.893836    
   2730000   0.57865964    -7.6403034     -6.7723262      5.042211       50218.233      36.893836      36.893836      36.893836    
   2740000   0.58043697    -7.6409067     -6.7702637      5.0484605      50218.233      36.893836      36.893836      36.893836    
   2750000   0.57998266    -7.6404782     -6.7705166      5.0497183      50218.233      36.893836      36.893836      36.893836    
   2760000   0.58096207    -7.6402414     -6.7688107      5.0654135      50218.233      36.893836      36.893836      36.893836    
   2770000   0.57869236    -7.6384064     -6.7703802      5.0658702      50218.233      36.893836      36.893836      36.893836    
   2780000   0.58064184    -7.6349647     -6.7640144      5.0827195      50218.233      36.893836      36.893836      36.893836    
   2790000   0.57915586    -7.6382632     -6.7695418      5.0573953      50218.233      36.893836      36.893836      36.893836    
   2800000   0.57910932    -7.632992      -6.7643404      5.0973154      50218.233      36.893836      36.893836      36.893836    
   2810000   0.57880842    -7.6423387     -6.7741384      5.0340008      50218.233      36.893836      36.893836      36.893836    
   2820000   0.58077673    -7.6405088     -6.7693562      5.046475       50218.233      36.893836      36.893836      36.893836    
   2830000   0.57950222    -7.6348053     -6.7655643      5.0934073      50218.233      36.893836      36.893836      36.893836    
   2840000   0.58132176    -7.6397898     -6.7678196      5.0500377      50218.233      36.893836      36.893836      36.893836    
   2850000   0.58094271    -7.6400363     -6.7686346      5.0533081      50218.233      36.893836      36.893836      36.893836    
   2860000   0.58040642    -7.6312405     -6.7606432      5.1157018      50218.233      36.893836      36.893836      36.893836    
   2870000   0.58028691    -7.6406164     -6.7701984      5.0613815      50218.233      36.893836      36.893836      36.893836    
   2880000   0.58045455    -7.6361067     -6.7654373      5.0808636      50218.233      36.893836      36.893836      36.893836    
   2890000   0.58134636    -7.6401303     -6.7681232      5.0646549      50218.233      36.893836      36.893836      36.893836    
   2900000   0.57852805    -7.6372134     -6.7694336      5.0640418      50218.233      36.893836      36.893836      36.893836    
   2910000   0.57995564    -7.6418476     -6.7719265      5.0447791      50218.233      36.893836      36.893836      36.893836    
   2920000   0.57867056    -7.6435988     -6.7756054      5.0288565      50218.233      36.893836      36.893836      36.893836    
   2930000   0.58169554    -7.6428449     -6.770314       5.0416775      50218.233      36.893836      36.893836      36.893836    
   2940000   0.58104504    -7.6410368     -6.7694816      5.050987       50218.233      36.893836      36.893836      36.893836    
   2950000   0.57876991    -7.6402962     -6.7721537      5.0495656      50218.233      36.893836      36.893836      36.893836    
   2960000   0.57856917    -7.6390319     -6.7711904      5.0706642      50218.233      36.893836      36.893836      36.893836    
   2970000   0.57889137    -7.6443829     -6.7760582      5.0165026      50218.233      36.893836      36.893836      36.893836    
   2980000   0.58137245    -7.6430234     -6.7709771      5.035442       50218.233      36.893836      36.893836      36.893836    
   2990000   0.57966501    -7.6377808     -6.7682957      5.0728282      50218.233      36.893836      36.893836      36.893836    
   3000000   0.58164639    -7.6384313     -6.7659741      5.0644069      50218.233      36.893836      36.893836      36.893836    
   3010000   0.5780528     -7.6433836     -6.7763168      5.0280753      50218.233      36.893836      36.893836      36.893836    
   3020000   0.58254189    -7.6343079     -6.7605075      5.1043049      50218.233      36.893836      36.893836      36.893836    
   3030000   0.58100087    -7.6340823     -6.7625934      5.0976982      50218.233      36.893836      36.893836      36.893836    
   3040000   0.57827383    -7.6372823     -6.7698839      5.0812556      50218.233      36.893836      36.893836      36.893836    
   3050000   0.58043555    -7.6380608     -6.7674199      5.0721143      50218.233      36.893836      36.893836      36.893836    
   3060000   0.58065918    -7.6331114     -6.762135       5.1013331      50218.233      36.893836      36.893836      36.893836    
   3070000   0.58134404    -7.6339556     -6.761952       5.0985824      50218.233      36.893836      36.893836      36.893836    
   3080000   0.5776938     -7.6347836     -6.7682552      5.0941684      50218.233      36.893836      36.893836      36.893836    
   3090000   0.58028272    -7.6358484     -6.7654367      5.091062       50218.233      36.893836      36.893836      36.893836    
   3100000   0.58286496    -7.6414222     -6.7671372      5.0558821      50218.233      36.893836      36.893836      36.893836    
   3110000   0.58067696    -7.6373103     -6.7663073      5.0831637      50218.233      36.893836      36.893836      36.893836    
   3120000   0.5794804     -7.6393066     -6.7700984      5.0526764      50218.233      36.893836      36.893836      36.893836    
   3130000   0.57878293    -7.6336323     -6.7654703      5.099503       50218.233      36.893836      36.893836      36.893836    
   3140000   0.58415925    -7.6371873     -6.7609609      5.086702       50218.233      36.893836      36.893836      36.893836    
   3150000   0.57832354    -7.6347572     -6.7672843      5.1048316      50218.233      36.893836      36.893836      36.893836    
   3160000   0.57764984    -7.6348857     -6.7684232      5.0859517      50218.233      36.893836      36.893836      36.893836    
   3170000   0.57926805    -7.6339968     -6.7651071      5.1011504      50218.233      36.893836      36.893836      36.893836    
   3180000   0.57973966    -7.6376036     -6.7680064      5.0732664      50218.233      36.893836      36.893836      36.893836    
   3190000   0.58037077    -7.6343767     -6.7638329      5.099162       50218.233      36.893836      36.893836      36.893836    
   3200000   0.58153769    -7.6346594     -6.7623653      5.0953518      50218.233      36.893836      36.893836      36.893836    
   3210000   0.58286894    -7.6396915     -6.7654005      5.0678009      50218.233      36.893836      36.893836      36.893836    
   3220000   0.5830384     -7.6392075     -6.7646624      5.069894       50218.233      36.893836      36.893836      36.893836    
   3230000   0.58152431    -7.6368839     -6.7646098      5.0880312      50218.233      36.893836      36.893836      36.893836    
   3240000   0.58163833    -7.6402247     -6.7677796      5.0574069      50218.233      36.893836      36.893836      36.893836    
   3250000   0.58006641    -7.6378202     -6.767733       5.0824773      50218.233      36.893836      36.893836      36.893836    
   3260000   0.57937732    -7.641897      -6.7728433      5.0589121      50218.233      36.893836      36.893836      36.893836    
   3270000   0.57963761    -7.6391966     -6.7697525      5.0709439      50218.233      36.893836      36.893836      36.893836    
   3280000   0.57978324    -7.6379389     -6.7682764      5.0691515      50218.233      36.893836      36.893836      36.893836    
   3290000   0.57941782    -7.6385811     -6.7694667      5.0618795      50218.233      36.893836      36.893836      36.893836    
   3300000   0.5807378     -7.6358088     -6.7647145      5.0894199      50218.233      36.893836      36.893836      36.893836    
   3310000   0.57708162    -7.6392705     -6.7736604      5.0537647      50218.233      36.893836      36.893836      36.893836    
   3320000   0.58039551    -7.6373752     -6.7667943      5.0707552      50218.233      36.893836      36.893836      36.893836    
   3330000   0.58168543    -7.6409611     -6.7684454      5.0573651      50218.233      36.893836      36.893836      36.893836    
   3340000   0.57895096    -7.6364008     -6.7679867      5.0811106      50218.233      36.893836      36.893836      36.893836    
   3350000   0.581036      -7.6372187     -6.7656771      5.0887987      50218.233      36.893836      36.893836      36.893836    
   3360000   0.57644316    -7.6350483     -6.7703959      5.0939641      50218.233      36.893836      36.893836      36.893836    
   3370000   0.58062736    -7.6384185     -6.7674898      5.0754418      50218.233      36.893836      36.893836      36.893836    
   3380000   0.57954028    -7.6372288     -6.7679308      5.0726805      50218.233      36.893836      36.893836      36.893836    
   3390000   0.5789452     -7.6338488     -6.7654433      5.1037988      50218.233      36.893836      36.893836      36.893836    
   3400000   0.58053012    -7.6408408     -6.770058       5.0472898      50218.233      36.893836      36.893836      36.893836    
   3410000   0.58107947    -7.6365397     -6.7649329      5.0842824      50218.233      36.893836      36.893836      36.893836    
   3420000   0.58045447    -7.6390256     -6.7683563      5.0738491      50218.233      36.893836      36.893836      36.893836    
   3430000   0.58249868    -7.6375141     -6.7637785      5.0914568      50218.233      36.893836      36.893836      36.893836    
   3440000   0.58020307    -7.6391404     -6.7688482      5.057352       50218.233      36.893836      36.893836      36.893836    
   3450000   0.57925077    -7.636842      -6.7679782      5.0763661      50218.233      36.893836      36.893836      36.893836    
   3460000   0.57825559    -7.6357146     -6.7683436      5.0860658      50218.233      36.893836      36.893836      36.893836    
   3470000   0.57899134    -7.6379509     -6.7694762      5.074008       50218.233      36.893836      36.893836      36.893836    
   3480000   0.57980544    -7.6422779     -6.7725821      5.0459968      50218.233      36.893836      36.893836      36.893836    
   3490000   0.58136132    -7.6373072     -6.7652776      5.0645192      50218.233      36.893836      36.893836      36.893836    
   3500000   0.57936905    -7.6302479     -6.7612067      5.1166485      50218.233      36.893836      36.893836      36.893836    
   3510000   0.57734346    -7.640323      -6.7743201      5.0602865      50218.233      36.893836      36.893836      36.893836    
   3520000   0.58186606    -7.6408905     -6.7681038      5.0516591      50218.233      36.893836      36.893836      36.893836    
   3530000   0.58043816    -7.6345338     -6.763889       5.0888817      50218.233      36.893836      36.893836      36.893836    
   3540000   0.57841707    -7.640681      -6.7730677      5.052555       50218.233      36.893836      36.893836      36.893836    
   3550000   0.57844536    -7.6384271     -6.7707714      5.0631923      50218.233      36.893836      36.893836      36.893836    
   3560000   0.58119663    -7.6346782     -6.7628957      5.0949251      50218.233      36.893836      36.893836      36.893836    
   3570000   0.5820984     -7.6375953     -6.7644601      5.0767279      50218.233      36.893836      36.893836      36.893836    
   3580000   0.57965986    -7.6396781     -6.7702007      5.067795       50218.233      36.893836      36.893836      36.893836    
   3590000   0.58181231    -7.6334217     -6.7607156      5.094714       50218.233      36.893836      36.893836      36.893836    
   3600000   0.58259202    -7.6326477     -6.7587721      5.1153162      50218.233      36.893836      36.893836      36.893836    
   3610000   0.58104427    -7.6351758     -6.7636218      5.0922341      50218.233      36.893836      36.893836      36.893836    
   3620000   0.58135183    -7.6443386     -6.7723233      5.0323898      50218.233      36.893836      36.893836      36.893836    
   3630000   0.57733803    -7.6334057     -6.767411       5.0977012      50218.233      36.893836      36.893836      36.893836    
   3640000   0.58089782    -7.6381372     -6.7668028      5.0662411      50218.233      36.893836      36.893836      36.893836    
   3650000   0.58067505    -7.6396737     -6.7686735      5.0520207      50218.233      36.893836      36.893836      36.893836    
   3660000   0.57934749    -7.6377138     -6.7687049      5.0492665      50218.233      36.893836      36.893836      36.893836    
   3670000   0.58179014    -7.636781      -6.7641082      5.0831953      50218.233      36.893836      36.893836      36.893836    
   3680000   0.58094303    -7.6402766     -6.7688744      5.0601801      50218.233      36.893836      36.893836      36.893836    
   3690000   0.58117365    -7.6396516     -6.7679036      5.0492136      50218.233      36.893836      36.893836      36.893836    
   3700000   0.57857641    -7.6404205     -6.7725683      5.0620629      50218.233      36.893836      36.893836      36.893836    
   3710000   0.57899747    -7.6410182     -6.7725343      5.0457001      50218.233      36.893836      36.893836      36.893836    
   3720000   0.57907656    -7.6362133     -6.7676108      5.0824938      50218.233      36.893836      36.893836      36.893836    
   3730000   0.57360795    -7.642071      -6.7816713      5.0267218      50218.233      36.893836      36.893836      36.893836    
   3740000   0.58106625    -7.6360433     -6.7644563      5.092779       50218.233      36.893836      36.893836      36.893836    
   3750000   0.57973312    -7.643328      -6.7737407      5.033127       50218.233      36.893836      36.893836      36.893836    
   3760000   0.58148521    -7.6416955     -6.7694801      5.0568563      50218.233      36.893836      36.893836      36.893836    
   3770000   0.57839481    -7.6376331     -6.7700532      5.0667731      50218.233      36.893836      36.893836      36.893836    
   3780000   0.58304142    -7.6379793     -6.7634296      5.0727035      50218.233      36.893836      36.893836      36.893836    
   3790000   0.58361059    -7.6391472     -6.7637438      5.0715547      50218.233      36.893836      36.893836      36.893836    
   3800000   0.5806222     -7.6370709     -6.76615        5.0724986      50218.233      36.893836      36.893836      36.893836    
   3810000   0.58125572    -7.6413063     -6.7694351      5.0385443      50218.233      36.893836      36.893836      36.893836    
   3820000   0.57706896    -7.6432385     -6.7776473      5.0248691      50218.233      36.893836      36.893836      36.893836    
   3830000   0.57829652    -7.6349167     -6.7674843      5.0786305      50218.233      36.893836      36.893836      36.893836    
   3840000   0.57745183    -7.637085      -6.7709196      5.0761591      50218.233      36.893836      36.893836      36.893836    
   3850000   0.57952623    -7.6385509     -6.7692739      5.0670107      50218.233      36.893836      36.893836      36.893836    
   3860000   0.58199142    -7.6399407     -6.766966       5.0583438      50218.233      36.893836      36.893836      36.893836    
   3870000   0.57767052    -7.6427458     -6.7762523      5.0292631      50218.233      36.893836      36.893836      36.893836    
   3880000   0.58041627    -7.6371232     -6.7665112      5.080084       50218.233      36.893836      36.893836      36.893836    
   3890000   0.58268983    -7.6403177     -6.7662954      5.065076       50218.233      36.893836      36.893836      36.893836    
   3900000   0.58100793    -7.6404249     -6.7689254      5.0575789      50218.233      36.893836      36.893836      36.893836    
   3910000   0.57712728    -7.6419575     -6.7762789      5.0489498      50218.233      36.893836      36.893836      36.893836    
   3920000   0.58139132    -7.6375634     -6.7654888      5.0758845      50218.233      36.893836      36.893836      36.893836    
   3930000   0.57684366    -7.6375159     -6.7722627      5.076214       50218.233      36.893836      36.893836      36.893836    
   3940000   0.57834743    -7.6432686     -6.7757598      5.0304978      50218.233      36.893836      36.893836      36.893836    
   3950000   0.57931607    -7.6422911     -6.7733293      5.0285654      50218.233      36.893836      36.893836      36.893836    
   3960000   0.57785134    -7.6422283     -6.7754636      5.0385927      50218.233      36.893836      36.893836      36.893836    
   3970000   0.58204431    -7.6424786     -6.7694245      5.0444842      50218.233      36.893836      36.893836      36.893836    
   3980000   0.58064099    -7.6360621     -6.765113       5.0844232      50218.233      36.893836      36.893836      36.893836    
   3990000   0.5811569     -7.6382067     -6.7664838      5.0722894      50218.233      36.893836      36.893836      36.893836    
   4000000   0.5805072     -7.6365859     -6.7658375      5.0839394      50218.233      36.893836      36.893836      36.893836    
   4010000   0.57819392    -7.6387846     -6.7715061      5.0654352      50218.233      36.893836      36.893836      36.893836    
   4020000   0.57798832    -7.6331847     -6.7662145      5.1052492      50218.233      36.893836      36.893836      36.893836    
   4030000   0.57796767    -7.6390603     -6.7721211      5.0611765      50218.233      36.893836      36.893836      36.893836    
   4040000   0.57800251    -7.6427331     -6.7757417      5.0318733      50218.233      36.893836      36.893836      36.893836    
   4050000   0.57890899    -7.6386558     -6.7703047      5.0643543      50218.233      36.893836      36.893836      36.893836    
   4060000   0.58132852    -7.6370954     -6.765115       5.0752067      50218.233      36.893836      36.893836      36.893836    
   4070000   0.57797007    -7.6317031     -6.7647604      5.1214585      50218.233      36.893836      36.893836      36.893836    
   4080000   0.57926024    -7.6392873     -6.7704093      5.0607227      50218.233      36.893836      36.893836      36.893836    
   4090000   0.57658319    -7.6380927     -6.7732302      5.0596784      50218.233      36.893836      36.893836      36.893836    
   4100000   0.57882103    -7.638064      -6.7698448      5.0685839      50218.233      36.893836      36.893836      36.893836    
   4110000   0.5819054     -7.6416655     -6.7688198      5.0416728      50218.233      36.893836      36.893836      36.893836    
   4120000   0.58006627    -7.6353417     -6.7652547      5.0857594      50218.233      36.893836      36.893836      36.893836    
   4130000   0.58181768    -7.629557      -6.7568429      5.1402607      50218.233      36.893836      36.893836      36.893836    
   4140000   0.57876441    -7.6387696     -6.7706353      5.0626372      50218.233      36.893836      36.893836      36.893836    
   4150000   0.5801623     -7.6382055     -6.7679745      5.0696894      50218.233      36.893836      36.893836      36.893836    
   4160000   0.57906087    -7.6412435     -6.7726645      5.0489324      50218.233      36.893836      36.893836      36.893836    
   4170000   0.57788043    -7.634614      -6.7678057      5.0937758      50218.233      36.893836      36.893836      36.893836    
   4180000   0.58152942    -7.639859      -6.7675773      5.0668804      50218.233      36.893836      36.893836      36.893836    
   4190000   0.5782313     -7.6365833     -6.7692486      5.0825349      50218.233      36.893836      36.893836      36.893836    
   4200000   0.58108597    -7.6401339     -6.7685173      5.0529403      50218.233      36.893836      36.893836      36.893836    
   4210000   0.58209249    -7.6409934     -6.7678671      5.0526975      50218.233      36.893836      36.893836      36.893836    
   4220000   0.57807329    -7.6412537     -6.7741561      5.0513351      50218.233      36.893836      36.893836      36.893836    
   4230000   0.58011442    -7.6424397     -6.7722805      5.0438184      50218.233      36.893836      36.893836      36.893836    
   4240000   0.58216467    -7.6373031     -6.7640685      5.0750198      50218.233      36.893836      36.893836      36.893836    
   4250000   0.58173559    -7.6378958     -6.7653048      5.0745329      50218.233      36.893836      36.893836      36.893836    
   4260000   0.58171776    -7.6396056     -6.7670413      5.0633881      50218.233      36.893836      36.893836      36.893836    
   4270000   0.58175948    -7.6348922     -6.7622654      5.0926313      50218.233      36.893836      36.893836      36.893836    
   4280000   0.5808542     -7.6381507     -6.7668818      5.0657091      50218.233      36.893836      36.893836      36.893836    
   4290000   0.58095781    -7.6380808     -6.7666565      5.0754479      50218.233      36.893836      36.893836      36.893836    
   4300000   0.58076281    -7.6363673     -6.7652355      5.0773628      50218.233      36.893836      36.893836      36.893836    
   4310000   0.58211907    -7.6360089     -6.7628427      5.0730982      50218.233      36.893836      36.893836      36.893836    
   4320000   0.57483529    -7.6359343     -6.7736937      5.0804408      50218.233      36.893836      36.893836      36.893836    
   4330000   0.58226634    -7.6358494     -6.7624623      5.076505       50218.233      36.893836      36.893836      36.893836    
   4340000   0.57807057    -7.6378679     -6.7707744      5.0620914      50218.233      36.893836      36.893836      36.893836    
   4350000   0.57926929    -7.6364603     -6.7675687      5.0768028      50218.233      36.893836      36.893836      36.893836    
   4360000   0.57967422    -7.6330691     -6.7635702      5.1065996      50218.233      36.893836      36.893836      36.893836    
   4370000   0.57612038    -7.6404244     -6.7762561      5.0652349      50218.233      36.893836      36.893836      36.893836    
   4380000   0.58128954    -7.6363086     -6.7643867      5.0734099      50218.233      36.893836      36.893836      36.893836    
   4390000   0.57825046    -7.6374909     -6.7701276      5.0757751      50218.233      36.893836      36.893836      36.893836    
   4400000   0.58113628    -7.6426802     -6.7709882      5.0307521      50218.233      36.893836      36.893836      36.893836    
   4410000   0.57914205    -7.6377754     -6.7690747      5.0728528      50218.233      36.893836      36.893836      36.893836    
   4420000   0.57835466    -7.6363781     -6.7688585      5.0797356      50218.233      36.893836      36.893836      36.893836    
   4430000   0.58163225    -7.6397625     -6.7673265      5.0584407      50218.233      36.893836      36.893836      36.893836    
   4440000   0.58005875    -7.6349409     -6.7648652      5.1046234      50218.233      36.893836      36.893836      36.893836    
   4450000   0.57714922    -7.6327731     -6.7670616      5.1013569      50218.233      36.893836      36.893836      36.893836    
   4460000   0.57678869    -7.6388667     -6.773696       5.0532714      50218.233      36.893836      36.893836      36.893836    
   4470000   0.5794167     -7.6368488     -6.7677362      5.0818573      50218.233      36.893836      36.893836      36.893836    
   4480000   0.58096169    -7.6374523     -6.7660222      5.0791542      50218.233      36.893836      36.893836      36.893836    
   4490000   0.57972196    -7.6381484     -6.7685778      5.0683687      50218.233      36.893836      36.893836      36.893836    
   4500000   0.58087787    -7.6362641     -6.7649597      5.082047       50218.233      36.893836      36.893836      36.893836    
   4510000   0.58126982    -7.6337073     -6.761815       5.099371       50218.233      36.893836      36.893836      36.893836    
   4520000   0.57779627    -7.6387934     -6.7721114      5.0603624      50218.233      36.893836      36.893836      36.893836    
   4530000   0.57927733    -7.6388351     -6.7699314      5.0656866      50218.233      36.893836      36.893836      36.893836    
   4540000   0.5746189     -7.6416991     -6.779783       5.0321389      50218.233      36.893836      36.893836      36.893836    
   4550000   0.57918786    -7.634296      -6.7655266      5.1059981      50218.233      36.893836      36.893836      36.893836    
   4560000   0.5767642     -7.6368018     -6.7716678      5.0849009      50218.233      36.893836      36.893836      36.893836    
   4570000   0.5784392     -7.6380242     -6.7703778      5.0683024      50218.233      36.893836      36.893836      36.893836    
   4580000   0.57934512    -7.6405417     -6.7715363      5.0618607      50218.233      36.893836      36.893836      36.893836    
   4590000   0.57990008    -7.6373569     -6.7675191      5.0792882      50218.233      36.893836      36.893836      36.893836    
   4600000   0.5769637     -7.6396656     -6.7742324      5.0627007      50218.233      36.893836      36.893836      36.893836    
   4610000   0.58060095    -7.6383335     -6.7674445      5.0687685      50218.233      36.893836      36.893836      36.893836    
   4620000   0.57910655    -7.6417155     -6.773068       5.0464507      50218.233      36.893836      36.893836      36.893836    
   4630000   0.57790299    -7.6413191     -6.774477       5.0434         50218.233      36.893836      36.893836      36.893836    
   4640000   0.57833664    -7.6414903     -6.7739977      5.0379164      50218.233      36.893836      36.893836      36.893836    
   4650000   0.57879393    -7.6429838     -6.7748053      5.036897       50218.233      36.893836      36.893836      36.893836    
   4660000   0.57964279    -7.635392      -6.7659402      5.094761       50218.233      36.893836      36.893836      36.893836    
   4670000   0.57988651    -7.6357649     -6.7659475      5.0850969      50218.233      36.893836      36.893836      36.893836    
   4680000   0.5809409     -7.6399712     -6.7685723      5.0575307      50218.233      36.893836      36.893836      36.893836    
   4690000   0.58103881    -7.6374694     -6.7659236      5.0784668      50218.233      36.893836      36.893836      36.893836    
   4700000   0.58103662    -7.6327519     -6.7612094      5.1010991      50218.233      36.893836      36.893836      36.893836    
   4710000   0.58161583    -7.6397811     -6.7673697      5.0538529      50218.233      36.893836      36.893836      36.893836    
   4720000   0.57926634    -7.6374838     -6.7685967      5.0760431      50218.233      36.893836      36.893836      36.893836    
   4730000   0.57962927    -7.6424161     -6.7729846      5.0319635      50218.233      36.893836      36.893836      36.893836    
   4740000   0.58162478    -7.639456      -6.7670312      5.0591184      50218.233      36.893836      36.893836      36.893836    
   4750000   0.57994006    -7.6404209     -6.7705232      5.0587418      50218.233      36.893836      36.893836      36.893836    
   4760000   0.57873782    -7.6386024     -6.770508       5.0762484      50218.233      36.893836      36.893836      36.893836    
   4770000   0.58121246    -7.6365903     -6.764784       5.083808       50218.233      36.893836      36.893836      36.893836    
   4780000   0.58136184    -7.6403446     -6.7683142      5.0627654      50218.233      36.893836      36.893836      36.893836    
   4790000   0.57941056    -7.6423884     -6.7732849      5.0385816      50218.233      36.893836      36.893836      36.893836    
   4800000   0.57742104    -7.6391771     -6.7730578      5.0606193      50218.233      36.893836      36.893836      36.893836    
   4810000   0.57917834    -7.6369967     -6.7682415      5.0724448      50218.233      36.893836      36.893836      36.893836    
   4820000   0.57926023    -7.6368785     -6.7680005      5.0730803      50218.233      36.893836      36.893836      36.893836    
   4830000   0.57755431    -7.6366357     -6.7703166      5.0836068      50218.233      36.893836      36.893836      36.893836    
   4840000   0.58016429    -7.6391078     -6.7688737      5.0683757      50218.233      36.893836      36.893836      36.893836    
   4850000   0.58003515    -7.6403765     -6.7703362      5.0575564      50218.233      36.893836      36.893836      36.893836    
   4860000   0.5812023     -7.6422837     -6.7704926      5.053606       50218.233      36.893836      36.893836      36.893836    
   4870000   0.5766017     -7.6348292     -6.769939       5.0981679      50218.233      36.893836      36.893836      36.893836    
   4880000   0.58216591    -7.6415395     -6.7683031      5.0542175      50218.233      36.893836      36.893836      36.893836    
   4890000   0.58056648    -7.6350332     -6.7641959      5.0929624      50218.233      36.893836      36.893836      36.893836    
   4900000   0.58396079    -7.6345895     -6.7586608      5.100538       50218.233      36.893836      36.893836      36.893836    
   4910000   0.58208821    -7.6404237     -6.7673039      5.0560167      50218.233      36.893836      36.893836      36.893836    
   4920000   0.57892556    -7.6383665     -6.7699906      5.0621138      50218.233      36.893836      36.893836      36.893836    
   4930000   0.58094473    -7.6383814     -6.7669767      5.0734812      50218.233      36.893836      36.893836      36.893836    
   4940000   0.57930105    -7.6396583     -6.7707191      5.0615323      50218.233      36.893836      36.893836      36.893836    
   4950000   0.57940549    -7.6382859     -6.76919        5.0675343      50218.233      36.893836      36.893836      36.893836    
   4960000   0.5781021     -7.6400921     -6.7729513      5.0515857      50218.233      36.893836      36.893836      36.893836    
   4970000   0.58097714    -7.6368497     -6.7653964      5.0834432      50218.233      36.893836      36.893836      36.893836    
   4980000   0.57909709    -7.6355817     -6.7669485      5.0909532      50218.233      36.893836      36.893836      36.893836    
   4990000   0.57976967    -7.6374683     -6.7678261      5.075475       50218.233      36.893836      36.893836      36.893836    
   5000000   0.58508761    -7.6423209     -6.764702       5.0527598      50218.233      36.893836      36.893836      36.893836    
   5010000   0.58038625    -7.6442531     -6.7736861      5.0209359      50218.233      36.893836      36.893836      36.893836    
   5020000   0.58141776    -7.636602      -6.7644877      5.0889388      50218.233      36.893836      36.893836      36.893836    
   5030000   0.57962868    -7.6368091     -6.7673784      5.088533       50218.233      36.893836      36.893836      36.893836    
   5040000   0.58306164    -7.6403556     -6.7657756      5.0738472      50218.233      36.893836      36.893836      36.893836    
   5050000   0.57771026    -7.6346734     -6.7681203      5.0896971      50218.233      36.893836      36.893836      36.893836    
   5060000   0.58167938    -7.6390423     -6.7665357      5.0629847      50218.233      36.893836      36.893836      36.893836    
   5070000   0.57968855    -7.6432704     -6.7737499      5.0350233      50218.233      36.893836      36.893836      36.893836    
   5080000   0.58019805    -7.6409569     -6.7706722      5.0606363      50218.233      36.893836      36.893836      36.893836    
   5090000   0.58387949    -7.6375422     -6.7617354      5.0726077      50218.233      36.893836      36.893836      36.893836    
   5100000   0.58174055    -7.6415162     -6.7689177      5.0480089      50218.233      36.893836      36.893836      36.893836    
   5110000   0.57967941    -7.6387488     -6.7692421      5.0718731      50218.233      36.893836      36.893836      36.893836    
   5120000   0.57887698    -7.6417067     -6.7734036      5.0357766      50218.233      36.893836      36.893836      36.893836    
   5130000   0.57684752    -7.6412501     -6.7759912      5.0442166      50218.233      36.893836      36.893836      36.893836    
   5140000   0.57857442    -7.639807      -6.7719577      5.0450031      50218.233      36.893836      36.893836      36.893836    
   5150000   0.57889872    -7.6377272     -6.7693915      5.0679694      50218.233      36.893836      36.893836      36.893836    
   5160000   0.57950877    -7.6383939     -6.7691431      5.0570299      50218.233      36.893836      36.893836      36.893836    
   5170000   0.58316319    -7.6390956     -6.7643632      5.0688295      50218.233      36.893836      36.893836      36.893836    
   5180000   0.58082671    -7.638841      -6.7676133      5.0700172      50218.233      36.893836      36.893836      36.893836    
   5190000   0.58352293    -7.639405      -6.7641331      5.0640646      50218.233      36.893836      36.893836      36.893836    
   5200000   0.5826002     -7.6328091     -6.7589212      5.1104862      50218.233      36.893836      36.893836      36.893836    
   5210000   0.57984946    -7.6373182     -6.7675563      5.0740994      50218.233      36.893836      36.893836      36.893836    
   5220000   0.58449686    -7.6403097     -6.7635769      5.0639022      50218.233      36.893836      36.893836      36.893836    
   5230000   0.58020179    -7.6331976     -6.7629073      5.1047993      50218.233      36.893836      36.893836      36.893836    
   5240000   0.57991229    -7.6355935     -6.7657374      5.0884211      50218.233      36.893836      36.893836      36.893836    
   5250000   0.57729801    -7.6358399     -6.7699052      5.0828665      50218.233      36.893836      36.893836      36.893836    
   5260000   0.57992547    -7.6316188     -6.761743       5.1088628      50218.233      36.893836      36.893836      36.893836    
   5270000   0.57979824    -7.6374656     -6.7677806      5.0718912      50218.233      36.893836      36.893836      36.893836    
   5280000   0.57932025    -7.640349      -6.771381       5.0470708      50218.233      36.893836      36.893836      36.893836    
   5290000   0.57851845    -7.6389552     -6.7711899      5.0550222      50218.233      36.893836      36.893836      36.893836    
   5300000   0.58030834    -7.6413375     -6.7708874      5.0522646      50218.233      36.893836      36.893836      36.893836    
   5310000   0.58328448    -7.6392611     -6.7643468      5.0671927      50218.233      36.893836      36.893836      36.893836    
   5320000   0.58218492    -7.6391324     -6.7658674      5.0666314      50218.233      36.893836      36.893836      36.893836    
   5330000   0.57838037    -7.6365281     -6.7689699      5.0773207      50218.233      36.893836      36.893836      36.893836    
   5340000   0.58183073    -7.6375895     -6.7648558      5.0864383      50218.233      36.893836      36.893836      36.893836    
   5350000   0.58219769    -7.6401113     -6.7668272      5.0555737      50218.233      36.893836      36.893836      36.893836    
   5360000   0.5816066     -7.6423393     -6.7699418      5.0465563      50218.233      36.893836      36.893836      36.893836    
   5370000   0.58058351    -7.6412174     -6.7703545      5.0513282      50218.233      36.893836      36.893836      36.893836    
   5380000   0.58040189    -7.6391906     -6.7686001      5.0684759      50218.233      36.893836      36.893836      36.893836    
   5390000   0.57927954    -7.641461      -6.7725541      5.0448439      50218.233      36.893836      36.893836      36.893836    
   5400000   0.57796294    -7.6407511     -6.773819       5.0485515      50218.233      36.893836      36.893836      36.893836    
   5410000   0.57928135    -7.6412705     -6.7723608      5.0615529      50218.233      36.893836      36.893836      36.893836    
   5420000   0.57996237    -7.6430895     -6.7731583      5.0352483      50218.233      36.893836      36.893836      36.893836    
   5430000   0.57931755    -7.6391706     -6.7702066      5.0628071      50218.233      36.893836      36.893836      36.893836    
   5440000   0.58327803    -7.63675       -6.7618454      5.0749452      50218.233      36.893836      36.893836      36.893836    
   5450000   0.58291423    -7.6349701     -6.7606112      5.0878777      50218.233      36.893836      36.893836      36.893836    
   5460000   0.57910988    -7.6387987     -6.7701463      5.0617672      50218.233      36.893836      36.893836      36.893836    
   5470000   0.57890104    -7.6355526     -6.7672134      5.0921299      50218.233      36.893836      36.893836      36.893836    
   5480000   0.5812147     -7.6407251     -6.7689155      5.0480154      50218.233      36.893836      36.893836      36.893836    
   5490000   0.57920522    -7.6358047     -6.7670093      5.0812348      50218.233      36.893836      36.893836      36.893836    
   5500000   0.58098652    -7.6394988     -6.7680314      5.0595145      50218.233      36.893836      36.893836      36.893836    
   5510000   0.57899881    -7.6386318     -6.770146       5.0620081      50218.233      36.893836      36.893836      36.893836    
   5520000   0.58206557    -7.6321714     -6.7590854      5.1158284      50218.233      36.893836      36.893836      36.893836    
   5530000   0.58415899    -7.6358995     -6.7596735      5.0964624      50218.233      36.893836      36.893836      36.893836    
   5540000   0.57918232    -7.6278424     -6.7590813      5.1387098      50218.233      36.893836      36.893836      36.893836    
   5550000   0.57874167    -7.6371167     -6.7690165      5.091856       50218.233      36.893836      36.893836      36.893836    
   5560000   0.58142055    -7.6341165     -6.7619981      5.1029434      50218.233      36.893836      36.893836      36.893836    
   5570000   0.58097314    -7.6369927     -6.7655454      5.0841416      50218.233      36.893836      36.893836      36.893836    
   5580000   0.58153393    -7.6409283     -6.7686398      5.0563482      50218.233      36.893836      36.893836      36.893836    
   5590000   0.58112969    -7.6454622     -6.7737801      5.0082477      50218.233      36.893836      36.893836      36.893836    
   5600000   0.57995694    -7.6430425     -6.7731194      5.047096       50218.233      36.893836      36.893836      36.893836    
   5610000   0.57560839    -7.6341959     -6.7707956      5.0914497      50218.233      36.893836      36.893836      36.893836    
   5620000   0.58109097    -7.6379857     -6.7663617      5.0697144      50218.233      36.893836      36.893836      36.893836    
   5630000   0.57702878    -7.638286      -6.7727551      5.0649488      50218.233      36.893836      36.893836      36.893836    
   5640000   0.58088848    -7.6306139     -6.7592936      5.1260412      50218.233      36.893836      36.893836      36.893836    
   5650000   0.57808111    -7.6357053     -6.768596       5.0962666      50218.233      36.893836      36.893836      36.893836    
   5660000   0.57939471    -7.6360212     -6.7669415      5.0987627      50218.233      36.893836      36.893836      36.893836    
   5670000   0.58066268    -7.6390468     -6.7680651      5.0526895      50218.233      36.893836      36.893836      36.893836    
   5680000   0.58098441    -7.6404069     -6.7689427      5.0548879      50218.233      36.893836      36.893836      36.893836    
   5690000   0.5804527     -7.6373257     -6.766659       5.0902255      50218.233      36.893836      36.893836      36.893836    
   5700000   0.57807033    -7.6316531     -6.7645599      5.1161858      50218.233      36.893836      36.893836      36.893836    
   5710000   0.57984905    -7.6399719     -6.7702107      5.0643487      50218.233      36.893836      36.893836      36.893836    
   5720000   0.57985647    -7.6394365     -6.7696641      5.0559713      50218.233      36.893836      36.893836      36.893836    
   5730000   0.57560788    -7.6431496     -6.77975        5.0294821      50218.233      36.893836      36.893836      36.893836    
   5740000   0.58613404    -7.6351925     -6.756004       5.0991238      50218.233      36.893836      36.893836      36.893836    
   5750000   0.57985185    -7.6414071     -6.7716417      5.0434709      50218.233      36.893836      36.893836      36.893836    
   5760000   0.58161279    -7.640608      -6.7682012      5.0503542      50218.233      36.893836      36.893836      36.893836    
   5770000   0.57774525    -7.6400912     -6.7734857      5.0598007      50218.233      36.893836      36.893836      36.893836    
   5780000   0.5840144     -7.6376146     -6.7616054      5.0824737      50218.233      36.893836      36.893836      36.893836    
   5790000   0.58118655    -7.6327655     -6.7609981      5.1052508      50218.233      36.893836      36.893836      36.893836    
   5800000   0.58282132    -7.6373925     -6.763173       5.0767831      50218.233      36.893836      36.893836      36.893836    
   5810000   0.57949665    -7.6421883     -6.7729556      5.0389783      50218.233      36.893836      36.893836      36.893836    
   5820000   0.5835928     -7.6392082     -6.7638315      5.0727663      50218.233      36.893836      36.893836      36.893836    
   5830000   0.58207626    -7.6409534     -6.7678514      5.0427541      50218.233      36.893836      36.893836      36.893836    
   5840000   0.57763985    -7.6329395     -6.766492       5.1061389      50218.233      36.893836      36.893836      36.893836    
   5850000   0.5786335     -7.6367507     -6.7688128      5.0619341      50218.233      36.893836      36.893836      36.893836    
   5860000   0.57902997    -7.6406394     -6.7721068      5.0501672      50218.233      36.893836      36.893836      36.893836    
   5870000   0.57965532    -7.6397617     -6.770291       5.051081       50218.233      36.893836      36.893836      36.893836    
   5880000   0.5782812     -7.6404852     -6.7730757      5.0526658      50218.233      36.893836      36.893836      36.893836    
   5890000   0.57780878    -7.6403999     -6.7736991      5.0607257      50218.233      36.893836      36.893836      36.893836    
   5900000   0.58191644    -7.6349968     -6.7621346      5.1140817      50218.233      36.893836      36.893836      36.893836    
   5910000   0.58245109    -7.6419187     -6.7682545      5.0434449      50218.233      36.893836      36.893836      36.893836    
   5920000   0.5786999     -7.6369355     -6.768898       5.0795153      50218.233      36.893836      36.893836      36.893836    
   5930000   0.58176582    -7.6419192     -6.7692828      5.0453152      50218.233      36.893836      36.893836      36.893836    
   5940000   0.58196658    -7.6396144     -6.7666769      5.0525108      50218.233      36.893836      36.893836      36.893836    
   5950000   0.57689455    -7.6376703     -6.7723408      5.0630061      50218.233      36.893836      36.893836      36.893836    
   5960000   0.58041946    -7.6393477     -6.7687309      5.0568199      50218.233      36.893836      36.893836      36.893836    
   5970000   0.58155158    -7.6369273     -6.7646123      5.0754132      50218.233      36.893836      36.893836      36.893836    
   5980000   0.57914158    -7.6376568     -6.7689568      5.0626002      50218.233      36.893836      36.893836      36.893836    
   5990000   0.58240632    -7.6399937     -6.7663966      5.0670434      50218.233      36.893836      36.893836      36.893836    
   6000000   0.5791866     -7.6394215     -6.770654       5.0622887      50218.233      36.893836      36.893836      36.893836    
   6010000   0.5792264     -7.636841      -6.7680137      5.0830826      50218.233      36.893836      36.893836      36.893836    
   6020000   0.58002421    -7.6425358     -6.7725118      5.0508767      50218.233      36.893836      36.893836      36.893836    
   6030000   0.58076388    -7.6384471     -6.7673137      5.0661176      50218.233      36.893836      36.893836      36.893836    
   6040000   0.58152308    -7.638231      -6.7659587      5.0720169      50218.233      36.893836      36.893836      36.893836    
   6050000   0.57941749    -7.6356717     -6.7665579      5.0981655      50218.233      36.893836      36.893836      36.893836    
   6060000   0.58345707    -7.6433481     -6.7681749      5.0441295      50218.233      36.893836      36.893836      36.893836    
   6070000   0.5797022     -7.644635      -6.7750941      5.0259711      50218.233      36.893836      36.893836      36.893836    
   6080000   0.58287384    -7.64176       -6.7674617      5.0486515      50218.233      36.893836      36.893836      36.893836    
   6090000   0.58011905    -7.6410124     -6.7708462      5.0426637      50218.233      36.893836      36.893836      36.893836    
   6100000   0.58156713    -7.6416559     -6.7693176      5.0452411      50218.233      36.893836      36.893836      36.893836    
   6110000   0.57895647    -7.6406717     -6.7722494      5.0541643      50218.233      36.893836      36.893836      36.893836    
   6120000   0.58409247    -7.6408508     -6.7647245      5.0537869      50218.233      36.893836      36.893836      36.893836    
   6130000   0.5808768     -7.6366166     -6.7653138      5.0896365      50218.233      36.893836      36.893836      36.893836    
   6140000   0.58090989    -7.6347905     -6.7634381      5.1022901      50218.233      36.893836      36.893836      36.893836    
   6150000   0.58036343    -7.6326591     -6.7621263      5.1167235      50218.233      36.893836      36.893836      36.893836    
   6160000   0.58006158    -7.6367089     -6.7666289      5.0755388      50218.233      36.893836      36.893836      36.893836    
   6170000   0.58102304    -7.6380308     -6.7665086      5.0829702      50218.233      36.893836      36.893836      36.893836    
   6180000   0.5807608     -7.6362834     -6.7651546      5.0945338      50218.233      36.893836      36.893836      36.893836    
   6190000   0.5778664     -7.639523      -6.7727357      5.0546303      50218.233      36.893836      36.893836      36.893836    
   6200000   0.57885812    -7.6388213     -6.7705465      5.0704412      50218.233      36.893836      36.893836      36.893836    
   6210000   0.58056352    -7.6436474     -6.7728145      5.0224372      50218.233      36.893836      36.893836      36.893836    
   6220000   0.57705364    -7.6421871     -6.7766189      5.0514303      50218.233      36.893836      36.893836      36.893836    
   6230000   0.5814542     -7.6427941     -6.7706252      5.0462532      50218.233      36.893836      36.893836      36.893836    
   6240000   0.58162674    -7.6420238     -6.7695961      5.0414824      50218.233      36.893836      36.893836      36.893836    
   6250000   0.57914323    -7.645365      -6.7766626      5.0153183      50218.233      36.893836      36.893836      36.893836    
   6260000   0.5825024     -7.6391159     -6.7653748      5.0663465      50218.233      36.893836      36.893836      36.893836    
   6270000   0.58086188    -7.6421764     -6.770896       5.048941       50218.233      36.893836      36.893836      36.893836    
   6280000   0.58043772    -7.6428563     -6.7722121      5.046101       50218.233      36.893836      36.893836      36.893836    
   6290000   0.58087186    -7.640572      -6.7692766      5.0525541      50218.233      36.893836      36.893836      36.893836    
   6300000   0.58121353    -7.6422311     -6.7704232      5.0332445      50218.233      36.893836      36.893836      36.893836    
   6310000   0.58060198    -7.6447884     -6.7738979      5.0367891      50218.233      36.893836      36.893836      36.893836    
   6320000   0.57993351    -7.6354442     -6.7655564      5.0916139      50218.233      36.893836      36.893836      36.893836    
   6330000   0.58069873    -7.6370176     -6.7659819      5.0871093      50218.233      36.893836      36.893836      36.893836    
   6340000   0.58129258    -7.6380684     -6.7661419      5.0746585      50218.233      36.893836      36.893836      36.893836    
   6350000   0.5818234     -7.637831      -6.7651083      5.0732006      50218.233      36.893836      36.893836      36.893836    
   6360000   0.58164704    -7.6373047     -6.7648465      5.0706325      50218.233      36.893836      36.893836      36.893836    
   6370000   0.57902668    -7.6455117     -6.7769841      5.017749       50218.233      36.893836      36.893836      36.893836    
   6380000   0.58348842    -7.6399578     -6.7647376      5.070584       50218.233      36.893836      36.893836      36.893836    
   6390000   0.58058286    -7.6384331     -6.7675712      5.0668129      50218.233      36.893836      36.893836      36.893836    
   6400000   0.57914948    -7.6390418     -6.7703299      5.0561789      50218.233      36.893836      36.893836      36.893836    
   6410000   0.58278926    -7.6370881     -6.7629166      5.0751786      50218.233      36.893836      36.893836      36.893836    
   6420000   0.58009133    -7.6373678     -6.7672432      5.0777822      50218.233      36.893836      36.893836      36.893836    
   6430000   0.5788045     -7.6381518     -6.7699574      5.0686129      50218.233      36.893836      36.893836      36.893836    
   6440000   0.57840984    -7.6421281     -6.7745257      5.0335224      50218.233      36.893836      36.893836      36.893836    
   6450000   0.5795259     -7.640162      -6.7708855      5.0533673      50218.233      36.893836      36.893836      36.893836    
   6460000   0.58007356    -7.6361147     -6.7660167      5.079205       50218.233      36.893836      36.893836      36.893836    
   6470000   0.58239954    -7.6336499     -6.760063       5.0961349      50218.233      36.893836      36.893836      36.893836    
   6480000   0.58218986    -7.6348094     -6.761537       5.100782       50218.233      36.893836      36.893836      36.893836    
   6490000   0.58065194    -7.6325433     -6.7615778      5.0985239      50218.233      36.893836      36.893836      36.893836    
   6500000   0.58070045    -7.6311802     -6.7601419      5.1104609      50218.233      36.893836      36.893836      36.893836    
   6510000   0.58203919    -7.6329885     -6.7599422      5.1018484      50218.233      36.893836      36.893836      36.893836    
   6520000   0.58108434    -7.638934      -6.7673199      5.0699974      50218.233      36.893836      36.893836      36.893836    
   6530000   0.57867126    -7.6335298     -6.7655353      5.1045732      50218.233      36.893836      36.893836      36.893836    
   6540000   0.57657992    -7.63689       -6.7720325      5.0772411      50218.233      36.893836      36.893836      36.893836    
   6550000   0.57862076    -7.631564      -6.7636452      5.1168894      50218.233      36.893836      36.893836      36.893836    
   6560000   0.57871956    -7.632442      -6.764375       5.1056174      50218.233      36.893836      36.893836      36.893836    
   6570000   0.57954356    -7.6384904     -6.7691874      5.0759998      50218.233      36.893836      36.893836      36.893836    
   6580000   0.58438723    -7.6312711     -6.7547027      5.1356489      50218.233      36.893836      36.893836      36.893836    
   6590000   0.57816149    -7.6286198     -6.7613899      5.1421642      50218.233      36.893836      36.893836      36.893836    
   6600000   0.57739615    -7.6318481     -6.7657662      5.1067063      50218.233      36.893836      36.893836      36.893836    
   6610000   0.57942644    -7.6357856     -6.7666583      5.0781009      50218.233      36.893836      36.893836      36.893836    
   6620000   0.5769622     -7.6337694     -6.7683384      5.0883314      50218.233      36.893836      36.893836      36.893836    
   6630000   0.57922379    -7.6423401     -6.7735168      5.0478524      50218.233      36.893836      36.893836      36.893836    
   6640000   0.58515952    -7.6362262     -6.7584994      5.1022389      50218.233      36.893836      36.893836      36.893836    
   6650000   0.58021881    -7.6365515     -6.7662357      5.0941669      50218.233      36.893836      36.893836      36.893836    
   6660000   0.58026367    -7.6362932     -6.76591        5.0906642      50218.233      36.893836      36.893836      36.893836    
   6670000   0.57865759    -7.6377308     -6.7697568      5.0792161      50218.233      36.893836      36.893836      36.893836    
   6680000   0.57937766    -7.6326841     -6.76363        5.0959402      50218.233      36.893836      36.893836      36.893836    
   6690000   0.57741195    -7.6335986     -6.767493       5.1075229      50218.233      36.893836      36.893836      36.893836    
   6700000   0.57856445    -7.6356116     -6.7677773      5.0829545      50218.233      36.893836      36.893836      36.893836    
   6710000   0.57811918    -7.6335526     -6.7663861      5.0992776      50218.233      36.893836      36.893836      36.893836    
   6720000   0.58222121    -7.6360156     -6.7626963      5.0882825      50218.233      36.893836      36.893836      36.893836    
   6730000   0.58011932    -7.6403414     -6.7701748      5.0651733      50218.233      36.893836      36.893836      36.893836    
   6740000   0.57944309    -7.6363162     -6.767164       5.0793961      50218.233      36.893836      36.893836      36.893836    
   6750000   0.58108917    -7.6350997     -6.7634783      5.093734       50218.233      36.893836      36.893836      36.893836    
   6760000   0.58307888    -7.6340258     -6.7594199      5.1111631      50218.233      36.893836      36.893836      36.893836    
   6770000   0.58201838    -7.6396857     -6.7666705      5.0585339      50218.233      36.893836      36.893836      36.893836    
   6780000   0.57797204    -7.6362451     -6.7692994      5.0741926      50218.233      36.893836      36.893836      36.893836    
   6790000   0.57890452    -7.6353672     -6.7670228      5.0848671      50218.233      36.893836      36.893836      36.893836    
   6800000   0.58358922    -7.6381321     -6.7627607      5.062347       50218.233      36.893836      36.893836      36.893836    
   6810000   0.58051       -7.6367423     -6.7659896      5.0764786      50218.233      36.893836      36.893836      36.893836    
   6820000   0.5776364     -7.6365647     -6.7701224      5.0776533      50218.233      36.893836      36.893836      36.893836    
   6830000   0.57994541    -7.6405722     -6.7706665      5.0427156      50218.233      36.893836      36.893836      36.893836    
   6840000   0.5790571     -7.6464013     -6.777828       5.0091         50218.233      36.893836      36.893836      36.893836    
   6850000   0.5795014     -7.637594      -6.7683543      5.0675792      50218.233      36.893836      36.893836      36.893836    
   6860000   0.57940288    -7.6353214     -6.7662294      5.0874811      50218.233      36.893836      36.893836      36.893836    
   6870000   0.57946512    -7.6373986     -6.7682133      5.0929395      50218.233      36.893836      36.893836      36.893836    
   6880000   0.57821855    -7.6367338     -6.7694183      5.086251       50218.233      36.893836      36.893836      36.893836    
   6890000   0.58133315    -7.6332831     -6.7612958      5.1150161      50218.233      36.893836      36.893836      36.893836    
   6900000   0.57980425    -7.6405463     -6.7708523      5.0405398      50218.233      36.893836      36.893836      36.893836    
   6910000   0.58080716    -7.6391619     -6.7679636      5.0581431      50218.233      36.893836      36.893836      36.893836    
   6920000   0.58218332    -7.6400544     -6.7667918      5.0542867      50218.233      36.893836      36.893836      36.893836    
   6930000   0.58069103    -7.6394961     -6.7684719      5.0497642      50218.233      36.893836      36.893836      36.893836    
   6940000   0.58123284    -7.6408532     -6.7690164      5.0569266      50218.233      36.893836      36.893836      36.893836    
   6950000   0.58015029    -7.6311405     -6.7609274      5.1208738      50218.233      36.893836      36.893836      36.893836    
   6960000   0.5777816     -7.6369858     -6.7703257      5.0791915      50218.233      36.893836      36.893836      36.893836    
   6970000   0.57859841    -7.6412698     -6.7733845      5.0499876      50218.233      36.893836      36.893836      36.893836    
   6980000   0.58024862    -7.6417012     -6.7713406      5.0495144      50218.233      36.893836      36.893836      36.893836    
   6990000   0.57987964    -7.6394075     -6.7696004      5.0663427      50218.233      36.893836      36.893836      36.893836    
   7000000   0.58085846    -7.6400293     -6.768754       5.0575573      50218.233      36.893836      36.893836      36.893836    
   7010000   0.58163477    -7.6363243     -6.7638846      5.0773278      50218.233      36.893836      36.893836      36.893836    
   7020000   0.57975846    -7.6386501     -6.7690247      5.0668591      50218.233      36.893836      36.893836      36.893836    
   7030000   0.57933462    -7.6367552     -6.7677656      5.0882407      50218.233      36.893836      36.893836      36.893836    
   7040000   0.58026164    -7.6421818     -6.7718017      5.0505804      50218.233      36.893836      36.893836      36.893836    
   7050000   0.58197911    -7.6396285     -6.7666722      5.0789296      50218.233      36.893836      36.893836      36.893836    
   7060000   0.58107619    -7.6344365     -6.7628346      5.0882876      50218.233      36.893836      36.893836      36.893836    
   7070000   0.579683      -7.6377204     -6.7682083      5.0703251      50218.233      36.893836      36.893836      36.893836    
   7080000   0.5796717     -7.6436738     -6.7741787      5.031897       50218.233      36.893836      36.893836      36.893836    
   7090000   0.58236106    -7.6402748     -6.7667457      5.0590566      50218.233      36.893836      36.893836      36.893836    
   7100000   0.5785933     -7.6347598     -6.7668822      5.0861406      50218.233      36.893836      36.893836      36.893836    
   7110000   0.58115019    -7.6352839     -6.763571       5.0875241      50218.233      36.893836      36.893836      36.893836    
   7120000   0.57862204    -7.6369341     -6.7690134      5.07698        50218.233      36.893836      36.893836      36.893836    
   7130000   0.58042758    -7.6402659     -6.7696369      5.0740951      50218.233      36.893836      36.893836      36.893836    
   7140000   0.5855303     -7.6356199     -6.757337       5.0987053      50218.233      36.893836      36.893836      36.893836    
   7150000   0.57879773    -7.6335184     -6.7653341      5.1059904      50218.233      36.893836      36.893836      36.893836    
   7160000   0.57802616    -7.6372598     -6.7702329      5.0722785      50218.233      36.893836      36.893836      36.893836    
   7170000   0.57985195    -7.6344713     -6.7647057      5.1060788      50218.233      36.893836      36.893836      36.893836    
   7180000   0.58370538    -7.6367929     -6.7612473      5.0866304      50218.233      36.893836      36.893836      36.893836    
   7190000   0.58208288    -7.6368099     -6.763698       5.0969595      50218.233      36.893836      36.893836      36.893836    
   7200000   0.5820551     -7.6384435     -6.7653733      5.0696398      50218.233      36.893836      36.893836      36.893836    
   7210000   0.57823131    -7.6414479     -6.7741133      5.0322387      50218.233      36.893836      36.893836      36.893836    
   7220000   0.5802589     -7.6423021     -6.7719261      5.0465134      50218.233      36.893836      36.893836      36.893836    
   7230000   0.58102623    -7.6346654     -6.7631384      5.101969       50218.233      36.893836      36.893836      36.893836    
   7240000   0.58224073    -7.6388562     -6.7655075      5.0738943      50218.233      36.893836      36.893836      36.893836    
   7250000   0.5792723     -7.6361543     -6.7672582      5.0856092      50218.233      36.893836      36.893836      36.893836    
   7260000   0.57762652    -7.6404939     -6.7740665      5.0349397      50218.233      36.893836      36.893836      36.893836    
   7270000   0.58351268    -7.6399723     -6.7647157      5.0521444      50218.233      36.893836      36.893836      36.893836    
   7280000   0.58221882    -7.6323365     -6.7590207      5.0997163      50218.233      36.893836      36.893836      36.893836    
   7290000   0.57720534    -7.6421656     -6.7763699      5.03589        50218.233      36.893836      36.893836      36.893836    
   7300000   0.57959559    -7.6369511     -6.7675701      5.0724236      50218.233      36.893836      36.893836      36.893836    
   7310000   0.57976131    -7.6345245     -6.7648949      5.0914321      50218.233      36.893836      36.893836      36.893836    
   7320000   0.57596294    -7.6404548     -6.7765226      5.0501703      50218.233      36.893836      36.893836      36.893836    
   7330000   0.57843269    -7.6358631     -6.7682264      5.0919822      50218.233      36.893836      36.893836      36.893836    
   7340000   0.58058553    -7.6394957     -6.7686298      5.0482354      50218.233      36.893836      36.893836      36.893836    
   7350000   0.57991332    -7.6415515     -6.7716939      5.055093       50218.233      36.893836      36.893836      36.893836    
   7360000   0.579093      -7.640156      -6.7715289      5.063456       50218.233      36.893836      36.893836      36.893836    
   7370000   0.57931525    -7.6428128     -6.7738523      5.0322318      50218.233      36.893836      36.893836      36.893836    
   7380000   0.58396592    -7.6401863     -6.7642499      5.0625963      50218.233      36.893836      36.893836      36.893836    
   7390000   0.5825392     -7.6417864     -6.76799        5.0396905      50218.233      36.893836      36.893836      36.893836    
   7400000   0.58188498    -7.6411873     -6.7683723      5.0542381      50218.233      36.893836      36.893836      36.893836    
   7410000   0.57829586    -7.6423997     -6.7749683      5.0344594      50218.233      36.893836      36.893836      36.893836    
   7420000   0.57957722    -7.6370945     -6.7677411      5.0801577      50218.233      36.893836      36.893836      36.893836    
   7430000   0.57929046    -7.6393584     -6.7704351      5.0613221      50218.233      36.893836      36.893836      36.893836    
   7440000   0.57826889    -7.6385463     -6.7711553      5.0631806      50218.233      36.893836      36.893836      36.893836    
   7450000   0.57895563    -7.6413063     -6.7728852      5.0423386      50218.233      36.893836      36.893836      36.893836    
   7460000   0.58136477    -7.6406267     -6.7685919      5.0496116      50218.233      36.893836      36.893836      36.893836    
   7470000   0.57965205    -7.6407918     -6.7713261      5.0598767      50218.233      36.893836      36.893836      36.893836    
   7480000   0.57925794    -7.6400036     -6.771129       5.0599213      50218.233      36.893836      36.893836      36.893836    
   7490000   0.58070282    -7.6396786     -6.7686368      5.0643565      50218.233      36.893836      36.893836      36.893836    
   7500000   0.58237535    -7.6429549     -6.7694043      5.0243061      50218.233      36.893836      36.893836      36.893836    
   7510000   0.57810041    -7.6402726     -6.7731344      5.0685718      50218.233      36.893836      36.893836      36.893836    
   7520000   0.57901078    -7.6371416     -6.7686378      5.0807207      50218.233      36.893836      36.893836      36.893836    
   7530000   0.58109871    -7.6401413     -6.7685057      5.0606096      50218.233      36.893836      36.893836      36.893836    
   7540000   0.57974778    -7.6405699     -6.7709606      5.0448909      50218.233      36.893836      36.893836      36.893836    
   7550000   0.58106629    -7.638238      -6.766651       5.0685841      50218.233      36.893836      36.893836      36.893836    
   7560000   0.58011339    -7.6370392     -6.7668815      5.0784731      50218.233      36.893836      36.893836      36.893836    
   7570000   0.57949165    -7.639427      -6.7702018      5.0574849      50218.233      36.893836      36.893836      36.893836    
   7580000   0.57984505    -7.6383114     -6.7685562      5.076984       50218.233      36.893836      36.893836      36.893836    
   7590000   0.57708734    -7.6323314     -6.7667127      5.0996678      50218.233      36.893836      36.893836      36.893836    
   7600000   0.57956639    -7.6337354     -6.7643982      5.1125455      50218.233      36.893836      36.893836      36.893836    
   7610000   0.57981373    -7.6410022     -6.7712939      5.0618739      50218.233      36.893836      36.893836      36.893836    
   7620000   0.57947859    -7.6379164     -6.7687109      5.0758028      50218.233      36.893836      36.893836      36.893836    
   7630000   0.58414562    -7.6332938     -6.7570879      5.1228522      50218.233      36.893836      36.893836      36.893836    
   7640000   0.57998656    -7.6320984     -6.7621309      5.1121393      50218.233      36.893836      36.893836      36.893836    
   7650000   0.57930189    -7.640078      -6.7711375      5.0591309      50218.233      36.893836      36.893836      36.893836    
   7660000   0.58202305    -7.6337687     -6.7607465      5.0981921      50218.233      36.893836      36.893836      36.893836    
   7670000   0.57865909    -7.631673      -6.7636967      5.1171757      50218.233      36.893836      36.893836      36.893836    
   7680000   0.58060148    -7.6377128     -6.766823       5.0763874      50218.233      36.893836      36.893836      36.893836    
   7690000   0.58073116    -7.6374426     -6.7663582      5.0808593      50218.233      36.893836      36.893836      36.893836    
   7700000   0.57983388    -7.6361653     -6.7664269      5.08216        50218.233      36.893836      36.893836      36.893836    
   7710000   0.57914935    -7.6376715     -6.7689598      5.0680262      50218.233      36.893836      36.893836      36.893836    
   7720000   0.58012885    -7.6316575     -6.7614766      5.1044486      50218.233      36.893836      36.893836      36.893836    
   7730000   0.57498587    -7.632748      -6.7702814      5.0968035      50218.233      36.893836      36.893836      36.893836    
   7740000   0.58154412    -7.6301949     -6.7578911      5.131079       50218.233      36.893836      36.893836      36.893836    
   7750000   0.58111519    -7.6392902     -6.7676298      5.0677191      50218.233      36.893836      36.893836      36.893836    
   7760000   0.5784555     -7.6358968     -6.7682258      5.086295       50218.233      36.893836      36.893836      36.893836    
   7770000   0.57890492    -7.6398663     -6.7715213      5.0579971      50218.233      36.893836      36.893836      36.893836    
   7780000   0.57788731    -7.6394405     -6.7726218      5.0613384      50218.233      36.893836      36.893836      36.893836    
   7790000   0.58160025    -7.6396457     -6.7672577      5.05938        50218.233      36.893836      36.893836      36.893836    
   7800000   0.58010264    -7.6377907     -6.7676491      5.0829406      50218.233      36.893836      36.893836      36.893836    
   7810000   0.58391081    -7.6440227     -6.7681689      5.031063       50218.233      36.893836      36.893836      36.893836    
   7820000   0.58015254    -7.6387156     -6.7684992      5.0678494      50218.233      36.893836      36.893836      36.893836    
   7830000   0.57757264    -7.6384949     -6.7721483      5.0739602      50218.233      36.893836      36.893836      36.893836    
   7840000   0.58230083    -7.6401449     -6.7667061      5.0544032      50218.233      36.893836      36.893836      36.893836    
   7850000   0.57944146    -7.6381852     -6.7690353      5.0635314      50218.233      36.893836      36.893836      36.893836    
   7860000   0.57967904    -7.6440394     -6.7745332      5.0178978      50218.233      36.893836      36.893836      36.893836    
   7870000   0.57820446    -7.6409264     -6.7736321      5.0501494      50218.233      36.893836      36.893836      36.893836    
   7880000   0.5798028     -7.6366119     -6.76692        5.08616        50218.233      36.893836      36.893836      36.893836    
   7890000   0.58146743    -7.6347944     -6.7626057      5.0839751      50218.233      36.893836      36.893836      36.893836    
   7900000   0.57948318    -7.6404098     -6.7711974      5.0576635      50218.233      36.893836      36.893836      36.893836    
   7910000   0.58330605    -7.6424814     -6.7675348      5.0489669      50218.233      36.893836      36.893836      36.893836    
   7920000   0.58189862    -7.6392823     -6.7664468      5.0680902      50218.233      36.893836      36.893836      36.893836    
   7930000   0.57962472    -7.6406472     -6.7712225      5.0495891      50218.233      36.893836      36.893836      36.893836    
   7940000   0.58038278    -7.6385109     -6.7679491      5.0629679      50218.233      36.893836      36.893836      36.893836    
   7950000   0.5817751     -7.6356808     -6.7630306      5.0931009      50218.233      36.893836      36.893836      36.893836    
   7960000   0.58020232    -7.6387228     -6.7684317      5.0699691      50218.233      36.893836      36.893836      36.893836    
   7970000   0.58073165    -7.6360894     -6.7650043      5.0831048      50218.233      36.893836      36.893836      36.893836    
   7980000   0.57904979    -7.6375297     -6.7689674      5.0705062      50218.233      36.893836      36.893836      36.893836    
   7990000   0.58044993    -7.6391486     -6.7684861      5.0566678      50218.233      36.893836      36.893836      36.893836    
   8000000   0.58226703    -7.6370382     -6.7636501      5.0886861      50218.233      36.893836      36.893836      36.893836    
   8010000   0.58241144    -7.6379791     -6.7643743      5.0806091      50218.233      36.893836      36.893836      36.893836    
   8020000   0.58393336    -7.6374892     -6.7616016      5.0762574      50218.233      36.893836      36.893836      36.893836    
   8030000   0.58040433    -7.6407017     -6.7701076      5.0477942      50218.233      36.893836      36.893836      36.893836    
   8040000   0.57817966    -7.6402584     -6.7730013      5.0521795      50218.233      36.893836      36.893836      36.893836    
   8050000   0.57762203    -7.638229      -6.7718082      5.0662921      50218.233      36.893836      36.893836      36.893836    
   8060000   0.58001342    -7.6376017     -6.7675939      5.0784057      50218.233      36.893836      36.893836      36.893836    
   8070000   0.57935222    -7.6392156     -6.7701997      5.0710021      50218.233      36.893836      36.893836      36.893836    
   8080000   0.57720827    -7.6360834     -6.7702833      5.0866639      50218.233      36.893836      36.893836      36.893836    
   8090000   0.58170995    -7.6363208     -6.7637682      5.0977621      50218.233      36.893836      36.893836      36.893836    
   8100000   0.57837371    -7.6346238     -6.7670756      5.1089311      50218.233      36.893836      36.893836      36.893836    
   8110000   0.58191353    -7.6385947     -6.7657368      5.0652158      50218.233      36.893836      36.893836      36.893836    
   8120000   0.58027163    -7.6367768     -6.7663817      5.0804915      50218.233      36.893836      36.893836      36.893836    
   8130000   0.58014636    -7.636259      -6.7660518      5.0977277      50218.233      36.893836      36.893836      36.893836    
   8140000   0.57892598    -7.6346157     -6.7662391      5.0973391      50218.233      36.893836      36.893836      36.893836    
   8150000   0.58058609    -7.6410648     -6.770198       5.0474581      50218.233      36.893836      36.893836      36.893836    
   8160000   0.58061673    -7.6427553     -6.7718426      5.0425822      50218.233      36.893836      36.893836      36.893836    
   8170000   0.58066998    -7.6382054     -6.7672128      5.0752694      50218.233      36.893836      36.893836      36.893836    
   8180000   0.58157634    -7.6374988     -6.7651467      5.0747472      50218.233      36.893836      36.893836      36.893836    
   8190000   0.58000771    -7.6381809     -6.7681817      5.0782687      50218.233      36.893836      36.893836      36.893836    
   8200000   0.57533787    -7.6357078     -6.7727133      5.0858226      50218.233      36.893836      36.893836      36.893836    
   8210000   0.58087044    -7.6343999     -6.7631066      5.1040903      50218.233      36.893836      36.893836      36.893836    
   8220000   0.57641344    -7.6374017     -6.7727939      5.0625347      50218.233      36.893836      36.893836      36.893836    
   8230000   0.57953935    -7.6405962     -6.7712995      5.0472457      50218.233      36.893836      36.893836      36.893836    
   8240000   0.57893011    -7.6385049     -6.7701221      5.0808564      50218.233      36.893836      36.893836      36.893836    
   8250000   0.58302969    -7.6405692     -6.7660371      5.0548833      50218.233      36.893836      36.893836      36.893836    
   8260000   0.57999273    -7.6389686     -6.7689918      5.0610316      50218.233      36.893836      36.893836      36.893836    
   8270000   0.58280032    -7.6379405     -6.7637524      5.0766075      50218.233      36.893836      36.893836      36.893836    
   8280000   0.58083315    -7.6412606     -6.7700233      5.0464908      50218.233      36.893836      36.893836      36.893836    
   8290000   0.57952198    -7.6443107     -6.7750401      5.0148434      50218.233      36.893836      36.893836      36.893836    
   8300000   0.57915405    -7.6415503     -6.7728316      5.050172       50218.233      36.893836      36.893836      36.893836    
   8310000   0.58024874    -7.644485      -6.7741243      5.0230271      50218.233      36.893836      36.893836      36.893836    
   8320000   0.58304733    -7.6428461     -6.7682876      5.0424577      50218.233      36.893836      36.893836      36.893836    
   8330000   0.57856637    -7.6442561     -6.7764189      5.0338644      50218.233      36.893836      36.893836      36.893836    
   8340000   0.57985117    -7.6402961     -6.7705317      5.0561921      50218.233      36.893836      36.893836      36.893836    
   8350000   0.57732265    -7.6393423     -6.7733706      5.060423       50218.233      36.893836      36.893836      36.893836    
   8360000   0.58152469    -7.6470517     -6.7747771      5.0174137      50218.233      36.893836      36.893836      36.893836    
   8370000   0.58103723    -7.6400029     -6.7684594      5.0710579      50218.233      36.893836      36.893836      36.893836    
   8380000   0.57859737    -7.6351194     -6.7672357      5.1022284      50218.233      36.893836      36.893836      36.893836    
   8390000   0.5746472     -7.6386015     -6.776643       5.0697877      50218.233      36.893836      36.893836      36.893836    
   8400000   0.57920387    -7.6392299     -6.7704364      5.0600136      50218.233      36.893836      36.893836      36.893836    
   8410000   0.57982865    -7.6417738     -6.7720432      5.0491796      50218.233      36.893836      36.893836      36.893836    
   8420000   0.58043884    -7.637629      -6.7669831      5.0764059      50218.233      36.893836      36.893836      36.893836    
   8430000   0.57946658    -7.6406486     -6.7714611      5.0607504      50218.233      36.893836      36.893836      36.893836    
   8440000   0.57996277    -7.6420132     -6.7720814      5.0597235      50218.233      36.893836      36.893836      36.893836    
   8450000   0.57901576    -7.6369462     -6.7684349      5.0821892      50218.233      36.893836      36.893836      36.893836    
   8460000   0.57783226    -7.6373327     -6.7705967      5.0793013      50218.233      36.893836      36.893836      36.893836    
   8470000   0.58199319    -7.6369655     -6.7639881      5.0753469      50218.233      36.893836      36.893836      36.893836    
   8480000   0.57936908    -7.6436459     -6.7746046      5.0237736      50218.233      36.893836      36.893836      36.893836    
   8490000   0.58136396    -7.6416328     -6.7695993      5.031782       50218.233      36.893836      36.893836      36.893836    
   8500000   0.57781543    -7.6407353     -6.7740244      5.0532673      50218.233      36.893836      36.893836      36.893836    
   8510000   0.58149957    -7.6364403     -6.7642033      5.0943617      50218.233      36.893836      36.893836      36.893836    
   8520000   0.57868499    -7.6441642     -6.7761491      5.0104255      50218.233      36.893836      36.893836      36.893836    
   8530000   0.57822067    -7.6401878     -6.7728691      5.0556716      50218.233      36.893836      36.893836      36.893836    
   8540000   0.57738293    -7.641102      -6.77504        5.0391992      50218.233      36.893836      36.893836      36.893836    
   8550000   0.57945539    -7.6387691     -6.7695984      5.0630955      50218.233      36.893836      36.893836      36.893836    
   8560000   0.58146517    -7.6449588     -6.7727734      5.0323351      50218.233      36.893836      36.893836      36.893836    
   8570000   0.58418887    -7.6445086     -6.7682377      5.0389961      50218.233      36.893836      36.893836      36.893836    
   8580000   0.58033279    -7.6396904     -6.7692036      5.0676749      50218.233      36.893836      36.893836      36.893836    
   8590000   0.58167308    -7.6422301     -6.7697329      5.0524729      50218.233      36.893836      36.893836      36.893836    
   8600000   0.57848693    -7.642883      -6.7751649      5.0478788      50218.233      36.893836      36.893836      36.893836    
   8610000   0.57969838    -7.6415582     -6.772023       5.0413693      50218.233      36.893836      36.893836      36.893836    
   8620000   0.58207332    -7.6393189     -6.7662213      5.0687659      50218.233      36.893836      36.893836      36.893836    
   8630000   0.57827075    -7.6379834     -6.7705896      5.0635588      50218.233      36.893836      36.893836      36.893836    
   8640000   0.58321761    -7.6306259     -6.755812       5.1222154      50218.233      36.893836      36.893836      36.893836    
   8650000   0.5771921     -7.6392465     -6.7734707      5.065238       50218.233      36.893836      36.893836      36.893836    
   8660000   0.58105899    -7.6362365     -6.7646604      5.0840604      50218.233      36.893836      36.893836      36.893836    
   8670000   0.58335953    -7.6393713     -6.7643445      5.0610607      50218.233      36.893836      36.893836      36.893836    
   8680000   0.58410657    -7.6344863     -6.7583389      5.0899458      50218.233      36.893836      36.893836      36.893836    
   8690000   0.58236118    -7.6391375     -6.7656081      5.0671468      50218.233      36.893836      36.893836      36.893836    
   8700000   0.58029763    -7.6414834     -6.7710494      5.0432703      50218.233      36.893836      36.893836      36.893836    
   8710000   0.57778437    -7.6406996     -6.7740354      5.0424941      50218.233      36.893836      36.893836      36.893836    
   8720000   0.57843735    -7.6381894     -6.7705457      5.0798093      50218.233      36.893836      36.893836      36.893836    
   8730000   0.57588602    -7.6392596     -6.7754429      5.0565987      50218.233      36.893836      36.893836      36.893836    
   8740000   0.58144793    -7.6436787     -6.7715192      5.0375802      50218.233      36.893836      36.893836      36.893836    
   8750000   0.58111859    -7.6349415     -6.763276       5.0968582      50218.233      36.893836      36.893836      36.893836    
   8760000   0.57884489    -7.6321067     -6.7638517      5.1071079      50218.233      36.893836      36.893836      36.893836    
   8770000   0.57846756    -7.6374128     -6.7697239      5.076553       50218.233      36.893836      36.893836      36.893836    
   8780000   0.58259793    -7.6393912     -6.7655068      5.0563687      50218.233      36.893836      36.893836      36.893836    
   8790000   0.5810177     -7.6342963     -6.7627822      5.094427       50218.233      36.893836      36.893836      36.893836    
   8800000   0.57872486    -7.641508      -6.7734331      5.0458748      50218.233      36.893836      36.893836      36.893836    
   8810000   0.57991906    -7.6368314     -6.7669652      5.0743485      50218.233      36.893836      36.893836      36.893836    
   8820000   0.58075032    -7.6440086     -6.7728955      5.0418552      50218.233      36.893836      36.893836      36.893836    
   8830000   0.57874559    -7.6372561     -6.7691501      5.0729588      50218.233      36.893836      36.893836      36.893836    
   8840000   0.5805597     -7.6381276     -6.7673004      5.0520811      50218.233      36.893836      36.893836      36.893836    
   8850000   0.5826247     -7.6320047     -6.7580801      5.124412       50218.233      36.893836      36.893836      36.893836    
   8860000   0.58055951    -7.6377321     -6.7669052      5.0671399      50218.233      36.893836      36.893836      36.893836    
   8870000   0.57870981    -7.6381572     -6.7701048      5.0626172      50218.233      36.893836      36.893836      36.893836    
   8880000   0.57914815    -7.6374774     -6.7687675      5.0717811      50218.233      36.893836      36.893836      36.893836    
   8890000   0.57747885    -7.6354792     -6.7692732      5.0788079      50218.233      36.893836      36.893836      36.893836    
   8900000   0.5794847     -7.6379641     -6.7687494      5.0769043      50218.233      36.893836      36.893836      36.893836    
   8910000   0.57887992    -7.639539      -6.7712315      5.0564482      50218.233      36.893836      36.893836      36.893836    
   8920000   0.57862429    -7.6399257     -6.7720016      5.0560566      50218.233      36.893836      36.893836      36.893836    
   8930000   0.57870413    -7.634623      -6.7665792      5.0961951      50218.233      36.893836      36.893836      36.893836    
   8940000   0.57786859    -7.6412006     -6.7744101      5.0324204      50218.233      36.893836      36.893836      36.893836    
   8950000   0.57759342    -7.6352602     -6.7688824      5.0831653      50218.233      36.893836      36.893836      36.893836    
   8960000   0.58098315    -7.6363115     -6.7648491      5.0755312      50218.233      36.893836      36.893836      36.893836    
   8970000   0.57751968    -7.6351824     -6.7689152      5.0980798      50218.233      36.893836      36.893836      36.893836    
   8980000   0.57853613    -7.640067      -6.7722752      5.0528583      50218.233      36.893836      36.893836      36.893836    
   8990000   0.58213942    -7.6340629     -6.7608662      5.1064073      50218.233      36.893836      36.893836      36.893836    
   9000000   0.57835035    -7.6454776     -6.7779645      5.0232042      50218.233      36.893836      36.893836      36.893836    
   9010000   0.57802223    -7.6415658     -6.7745448      5.042164       50218.233      36.893836      36.893836      36.893836    
   9020000   0.57731809    -7.6443127     -6.7783479      5.0138509      50218.233      36.893836      36.893836      36.893836    
   9030000   0.57892749    -7.6385035     -6.7701246      5.0616529      50218.233      36.893836      36.893836      36.893836    
   9040000   0.58188657    -7.6377999     -6.7649825      5.0750105      50218.233      36.893836      36.893836      36.893836    
   9050000   0.58015001    -7.6395351     -6.7693224      5.0657737      50218.233      36.893836      36.893836      36.893836    
   9060000   0.58162492    -7.6402195     -6.7677945      5.06698        50218.233      36.893836      36.893836      36.893836    
   9070000   0.58218997    -7.6342416     -6.7609691      5.1058471      50218.233      36.893836      36.893836      36.893836    
   9080000   0.57883482    -7.6363544     -6.7681145      5.0852721      50218.233      36.893836      36.893836      36.893836    
   9090000   0.57791702    -7.642604      -6.7757408      5.0376419      50218.233      36.893836      36.893836      36.893836    
   9100000   0.57852491    -7.6407074     -6.7729323      5.0469005      50218.233      36.893836      36.893836      36.893836    
   9110000   0.57955231    -7.6339393     -6.7646232      5.1057108      50218.233      36.893836      36.893836      36.893836    
   9120000   0.58099952    -7.6401336     -6.7686467      5.0574794      50218.233      36.893836      36.893836      36.893836    
   9130000   0.57865788    -7.6392068     -6.7712323      5.0746329      50218.233      36.893836      36.893836      36.893836    
   9140000   0.58066992    -7.6403989     -6.7694064      5.0614257      50218.233      36.893836      36.893836      36.893836    
   9150000   0.57926085    -7.6330212     -6.7641423      5.1182596      50218.233      36.893836      36.893836      36.893836    
   9160000   0.58098212    -7.6390695     -6.7676087      5.0772919      50218.233      36.893836      36.893836      36.893836    
   9170000   0.581087      -7.6397231     -6.768105       5.0618573      50218.233      36.893836      36.893836      36.893836    
   9180000   0.57719643    -7.6359837     -6.7702013      5.0882543      50218.233      36.893836      36.893836      36.893836    
   9190000   0.58030725    -7.6413329     -6.7708844      5.0350611      50218.233      36.893836      36.893836      36.893836    
   9200000   0.58329526    -7.6410061     -6.7660756      5.0601997      50218.233      36.893836      36.893836      36.893836    
   9210000   0.57952121    -7.6382876     -6.7690181      5.0805586      50218.233      36.893836      36.893836      36.893836    
   9220000   0.58222411    -7.6385451     -6.7652214      5.0576246      50218.233      36.893836      36.893836      36.893836    
   9230000   0.58114255    -7.6378037     -6.7661022      5.0755707      50218.233      36.893836      36.893836      36.893836    
   9240000   0.57720417    -7.6380649     -6.772271       5.062801       50218.233      36.893836      36.893836      36.893836    
   9250000   0.57576202    -7.6422191     -6.7785883      5.0267999      50218.233      36.893836      36.893836      36.893836    
   9260000   0.58078304    -7.6412518     -6.7700896      5.0480129      50218.233      36.893836      36.893836      36.893836    
   9270000   0.5807587     -7.6355205     -6.7643949      5.0885333      50218.233      36.893836      36.893836      36.893836    
   9280000   0.57786822    -7.6359963     -6.7692063      5.0891876      50218.233      36.893836      36.893836      36.893836    
   9290000   0.57951251    -7.641384      -6.7721276      5.0511227      50218.233      36.893836      36.893836      36.893836    
   9300000   0.5773592     -7.6391922     -6.7731657      5.0594714      50218.233      36.893836      36.893836      36.893836    
   9310000   0.57659462    -7.6391315     -6.7742519      5.0615392      50218.233      36.893836      36.893836      36.893836    
   9320000   0.57807158    -7.6381085     -6.7710134      5.0575946      50218.233      36.893836      36.893836      36.893836    
   9330000   0.58276796    -7.6424061     -6.7682666      5.0423467      50218.233      36.893836      36.893836      36.893836    
   9340000   0.57898762    -7.6345203     -6.7660513      5.0916567      50218.233      36.893836      36.893836      36.893836    
   9350000   0.57854302    -7.6369525     -6.7691504      5.0811736      50218.233      36.893836      36.893836      36.893836    
   9360000   0.57978381    -7.6379452     -6.7682819      5.0833748      50218.233      36.893836      36.893836      36.893836    
   9370000   0.58132036    -7.6424657     -6.7704976      5.0407164      50218.233      36.893836      36.893836      36.893836    
   9380000   0.58043316    -7.6402401     -6.7696027      5.0528999      50218.233      36.893836      36.893836      36.893836    
   9390000   0.58037268    -7.6414828     -6.7709362      5.0457688      50218.233      36.893836      36.893836      36.893836    
   9400000   0.58022835    -7.6438334     -6.7735033      5.0247688      50218.233      36.893836      36.893836      36.893836    
   9410000   0.58030685    -7.6405654     -6.7701175      5.052652       50218.233      36.893836      36.893836      36.893836    
   9420000   0.58261266    -7.6454124     -6.7715058      5.0351687      50218.233      36.893836      36.893836      36.893836    
   9430000   0.58182268    -7.6443948     -6.7716732      5.0365241      50218.233      36.893836      36.893836      36.893836    
   9440000   0.57892496    -7.6406248     -6.7722497      5.0437563      50218.233      36.893836      36.893836      36.893836    
   9450000   0.57718708    -7.6368421     -6.7710738      5.081445       50218.233      36.893836      36.893836      36.893836    
   9460000   0.57981455    -7.6380742     -6.7683647      5.0650828      50218.233      36.893836      36.893836      36.893836    
   9470000   0.58034761    -7.6369417     -6.7664327      5.0776867      50218.233      36.893836      36.893836      36.893836    
   9480000   0.58168555    -7.6383924     -6.7658765      5.074842       50218.233      36.893836      36.893836      36.893836    
   9490000   0.57838062    -7.6424292     -6.7748706      5.034115       50218.233      36.893836      36.893836      36.893836    
   9500000   0.58180539    -7.6361566     -6.763461       5.0855283      50218.233      36.893836      36.893836      36.893836    
   9510000   0.57883726    -7.6387086     -6.7704651      5.0548486      50218.233      36.893836      36.893836      36.893836    
   9520000   0.58193438    -7.6406192     -6.76773        5.0614683      50218.233      36.893836      36.893836      36.893836    
   9530000   0.57737521    -7.6433375     -6.777287       5.0333225      50218.233      36.893836      36.893836      36.893836    
   9540000   0.58088036    -7.6345715     -6.7632634      5.1102796      50218.233      36.893836      36.893836      36.893836    
   9550000   0.57651374    -7.6364058     -6.7716474      5.086631       50218.233      36.893836      36.893836      36.893836    
   9560000   0.58026126    -7.6388957     -6.7685162      5.0666417      50218.233      36.893836      36.893836      36.893836    
   9570000   0.57853103    -7.6372798     -6.7694956      5.0802669      50218.233      36.893836      36.893836      36.893836    
   9580000   0.5802814     -7.6389732     -6.7685635      5.0469036      50218.233      36.893836      36.893836      36.893836    
   9590000   0.57759589    -7.639385      -6.7730035      5.0556241      50218.233      36.893836      36.893836      36.893836    
   9600000   0.57676522    -7.6352099     -6.7700744      5.0942842      50218.233      36.893836      36.893836      36.893836    
   9610000   0.57849968    -7.6362249     -6.7684877      5.0781581      50218.233      36.893836      36.893836      36.893836    
   9620000   0.57675417    -7.639318      -6.774199       5.0650439      50218.233      36.893836      36.893836      36.893836    
   9630000   0.58201796    -7.6430947     -6.7700802      5.0393053      50218.233      36.893836      36.893836      36.893836    
   9640000   0.58181959    -7.6418917     -6.7691747      5.0503547      50218.233      36.893836      36.893836      36.893836    
   9650000   0.5789358     -7.6422126     -6.7738213      5.0398593      50218.233      36.893836      36.893836      36.893836    
   9660000   0.57780565    -7.6431186     -6.7764225      5.0389425      50218.233      36.893836      36.893836      36.893836    
   9670000   0.57833983    -7.6321885     -6.7646911      5.1082474      50218.233      36.893836      36.893836      36.893836    
   9680000   0.58041768    -7.6439623     -6.7733481      5.0268911      50218.233      36.893836      36.893836      36.893836    
   9690000   0.58229688    -7.6348357     -6.7614028      5.0985961      50218.233      36.893836      36.893836      36.893836    
   9700000   0.57789447    -7.6411141     -6.7742847      5.0268957      50218.233      36.893836      36.893836      36.893836    
   9710000   0.58183417    -7.6427668     -6.770028       5.0464018      50218.233      36.893836      36.893836      36.893836    
   9720000   0.58142097    -7.6431415     -6.7710224      5.0374139      50218.233      36.893836      36.893836      36.893836    
   9730000   0.58043999    -7.6348721     -6.7642245      5.1093216      50218.233      36.893836      36.893836      36.893836    
   9740000   0.57950115    -7.6400875     -6.7708481      5.0468752      50218.233      36.893836      36.893836      36.893836    
   9750000   0.57716895    -7.6396883     -6.7739472      5.0619819      50218.233      36.893836      36.893836      36.893836    
   9760000   0.57904321    -7.6379597     -6.7694072      5.0667981      50218.233      36.893836      36.893836      36.893836    
   9770000   0.58005772    -7.642062      -6.7719878      5.0525707      50218.233      36.893836      36.893836      36.893836    
   9780000   0.57858999    -7.637722      -6.7698494      5.0597697      50218.233      36.893836      36.893836      36.893836    
   9790000   0.57980378    -7.638356      -6.7686626      5.0743487      50218.233      36.893836      36.893836      36.893836    
   9800000   0.58113475    -7.6363317     -6.764642       5.0868658      50218.233      36.893836      36.893836      36.893836    
   9810000   0.58205918    -7.636992      -6.7639157      5.0733695      50218.233      36.893836      36.893836      36.893836    
   9820000   0.58018033    -7.6390307     -6.7687726      5.0710681      50218.233      36.893836      36.893836      36.893836    
   9830000   0.58283364    -7.6400908     -6.7658528      5.0637538      50218.233      36.893836      36.893836      36.893836    
   9840000   0.5800692     -7.6363739     -6.7662825      5.0861016      50218.233      36.893836      36.893836      36.893836    
   9850000   0.57853935    -7.6425375     -6.7747408      5.0461085      50218.233      36.893836      36.893836      36.893836    
   9860000   0.57898902    -7.6367566     -6.7682854      5.0725387      50218.233      36.893836      36.893836      36.893836    
   9870000   0.57548596    -7.6389537     -6.7757371      5.0677236      50218.233      36.893836      36.893836      36.893836    
   9880000   0.58039746    -7.6371657     -6.7665819      5.0733432      50218.233      36.893836      36.893836      36.893836    
   9890000   0.57835578    -7.6361575     -6.7686361      5.0757735      50218.233      36.893836      36.893836      36.893836    
   9900000   0.5758171     -7.6345832     -6.7708698      5.0850674      50218.233      36.893836      36.893836      36.893836    
   9910000   0.58014       -7.6348493     -6.7646517      5.0923816      50218.233      36.893836      36.893836      36.893836    
   9920000   0.57854181    -7.6356511     -6.7678507      5.0812154      50218.233      36.893836      36.893836      36.893836    
   9930000   0.58202603    -7.6365048     -6.7634782      5.0908849      50218.233      36.893836      36.893836      36.893836    
   9940000   0.57869859    -7.6382395     -6.770204       5.0750535      50218.233      36.893836      36.893836      36.893836    
   9950000   0.58034691    -7.6327653     -6.7622573      5.1217992      50218.233      36.893836      36.893836      36.893836    
   9960000   0.57937037    -7.6348782     -6.765835       5.0929213      50218.233      36.893836      36.893836      36.893836    
   9970000   0.57906242    -7.6375436     -6.7689624      5.071964       50218.233      36.893836      36.893836      36.893836    
   9980000   0.58179416    -7.6363667     -6.7636878      5.0821199      50218.233      36.893836      36.893836      36.893836    
   9990000   0.57960236    -7.6434238     -6.7740327      5.0439858      50218.233      36.893836      36.893836      36.893836    
  10000000   0.58090642    -7.6383777     -6.7670305      5.0814197      50218.233      36.893836      36.893836      36.893836    
Loop time of 15910.5 on 5 procs for 10000000 steps with 70304 atoms

Performance: 543038.894 tau/day, 628.517 timesteps/s, 44.187 Matom-step/s
95.1% CPU use with 5 MPI tasks x 1 OpenMP threads

MPI task timing breakdown:
Section |  min time  |  avg time  |  max time  |%varavg| %total
---------------------------------------------------------------
Pair    | 5485.1     | 6469.3     | 7547.7     | 891.4 | 40.66
Neigh   | 56.466     | 58.226     | 59.988     |  18.4 |  0.37
Comm    | 2475       | 2504.3     | 2520.3     |  33.6 | 15.74
Output  | 0.17859    | 0.18717    | 0.20521    |   2.2 |  0.00
Modify  | 4988.2     | 6065.5     | 7079.8     | 938.1 | 38.12
Other   |            | 813        |            |       |  5.11

Nlocal:        14060.8 ave       14132 max       14009 min
Histogram: 1 1 0 1 0 0 1 0 0 1
Nghost:        18748.8 ave       18822 max       18617 min
Histogram: 1 0 0 0 0 0 0 3 0 1
Neighs:              0 ave           0 max           0 min
Histogram: 5 0 0 0 0 0 0 0 0 0

Total # of neighbors = 0
Ave neighs/atom = 0
Neighbor list builds = 2253829
Dangerous builds = 0
clear
OMP_NUM_THREADS environment is not set. Defaulting to 1 thread. (src/comm.cpp:98)
  using 1 OpenMP thread(s) per MPI task
package gpu 0
jump dms560.lmp

variable T equal 560
# T = 1000* (temp in LJ unit)
variable f equal 10000
log log.${T}
log log.560
