variable TLJ equal (${T}/1000)
variable TLJ equal (490/1000)
variable NCyle equal 8
variable iStep equal (${f})
variable iStep equal (10000)
variable dumpStep equal (${f}*100)
variable dumpStep equal (10000*100)
variable runStep equal (${f}*100*${NCyle})
variable runStep equal (10000*100*${NCyle})
variable runStep equal (10000*100*8)

units       lj
atom_style  atomic
dimension 3
boundary     p p p
pair_style  lj/cut 2.5
read_data  ../data/T${T}.dat
read_data  ../data/T490.dat
Reading data file ...
  orthogonal box = (0.97250269 0.97250269 0.97250269) to (37.866338 37.866338 37.866338)
  1 by 1 by 5 MPI processor grid
  reading atoms ...
  70304 atoms
  reading velocities ...
  70304 velocities
  read_data CPU = 0.211 seconds
change_box all triclinic
Changing box ...
  triclinic box = (0.97250269 0.97250269 0.97250269) to (37.866338 37.866338 37.866338) with tilt (0 0 0)
mass 1 1
mass 2 1
pair_modify shift yes
pair_coeff  1 1 1 1
pair_coeff  1 2 1.5 0.8
pair_coeff  2 2 0.5 0.88


timestep 0.01
thermo ${iStep}
thermo 10000
reset_timestep 0
thermo_style custom step temp pe etotal press vol lx ly lz
fix             1 all nvt temp ${TLJ}  ${TLJ}  0.1
fix             1 all nvt temp 0.49  ${TLJ}  0.1
fix             1 all nvt temp 0.49  0.49  0.1
thermo_modify flush yes

fix dsf all deform 1 xy  wiggle 0.5  ${f}   units box
fix dsf all deform 1 xy  wiggle 0.5  10000   units box
fix ps1 all ave/time 1 1 ${iStep} c_thermo_press[1] c_thermo_press[2]  c_thermo_press[3] c_thermo_press[4]  c_thermo_press[5] c_thermo_press[6]  file  stress.${T}
fix ps1 all ave/time 1 1 10000 c_thermo_press[1] c_thermo_press[2]  c_thermo_press[3] c_thermo_press[4]  c_thermo_press[5] c_thermo_press[6]  file  stress.${T}
fix ps1 all ave/time 1 1 10000 c_thermo_press[1] c_thermo_press[2]  c_thermo_press[3] c_thermo_press[4]  c_thermo_press[5] c_thermo_press[6]  file  stress.490
dump            1 all custom ${dumpStep} dump.${T} id type x y z
dump            1 all custom 1000000 dump.${T} id type x y z
dump            1 all custom 1000000 dump.490 id type x y z
dump_modify 1 sort id
fix nodrift all momentum 1  linear 1 1 1
fix com_seed all recenter INIT INIT INIT shift all
run ${runStep}
run 8000000
Generated 0 of 1 mixed pair_coeff terms from geometric mixing rule
Per MPI rank memory allocation (min/avg/max) = 8.916 | 8.919 | 8.922 Mbytes
   Step          Temp          PotEng         TotEng         Press          Volume           Lx             Ly             Lz      
         0   0.49107021    -7.8487892     -7.1121943      3.388917       50218.233      36.893836      36.893836      36.893836    
     10000   0.49134125    -7.8388678     -7.1018664      3.4477336      50218.233      36.893836      36.893836      36.893836    
     20000   0.49133447    -7.8386119     -7.1016207      3.4613455      50218.233      36.893836      36.893836      36.893836    
     30000   0.48791357    -7.8379875     -7.1061276      3.465921       50218.233      36.893836      36.893836      36.893836    
     40000   0.49167709    -7.8380119     -7.1005068      3.4744305      50218.233      36.893836      36.893836      36.893836    
     50000   0.49019134    -7.8365676     -7.101291       3.4730723      50218.233      36.893836      36.893836      36.893836    
     60000   0.48969151    -7.8413227     -7.1067959      3.4418617      50218.233      36.893836      36.893836      36.893836    
     70000   0.49089887    -7.8333704     -7.0970326      3.5073589      50218.233      36.893836      36.893836      36.893836    
     80000   0.48943631    -7.8361668     -7.1020228      3.4884415      50218.233      36.893836      36.893836      36.893836    
     90000   0.49005576    -7.8379896     -7.1029164      3.4667457      50218.233      36.893836      36.893836      36.893836    
    100000   0.48852357    -7.8378225     -7.1050476      3.4694229      50218.233      36.893836      36.893836      36.893836    
    110000   0.49191901    -7.8353455     -7.0974775      3.493417       50218.233      36.893836      36.893836      36.893836    
    120000   0.49063777    -7.8366906     -7.1007444      3.4716277      50218.233      36.893836      36.893836      36.893836    
    130000   0.48694372    -7.8336741     -7.1032689      3.5057868      50218.233      36.893836      36.893836      36.893836    
    140000   0.48954877    -7.8409809     -7.1066682      3.4320754      50218.233      36.893836      36.893836      36.893836    
    150000   0.48773059    -7.8347365     -7.103151       3.4947378      50218.233      36.893836      36.893836      36.893836    
    160000   0.49092036    -7.8353889     -7.0990188      3.4871129      50218.233      36.893836      36.893836      36.893836    
    170000   0.48950796    -7.8328334     -7.0985819      3.513989       50218.233      36.893836      36.893836      36.893836    
    180000   0.4901664     -7.8385801     -7.1033409      3.4676977      50218.233      36.893836      36.893836      36.893836    
    190000   0.49025303    -7.8386629     -7.1032938      3.4756498      50218.233      36.893836      36.893836      36.893836    
    200000   0.49037785    -7.8373042     -7.1017479      3.4681936      50218.233      36.893836      36.893836      36.893836    
    210000   0.49117695    -7.838272      -7.101517       3.4682612      50218.233      36.893836      36.893836      36.893836    
    220000   0.49022488    -7.8362339     -7.1009071      3.4901149      50218.233      36.893836      36.893836      36.893836    
    230000   0.49141249    -7.8324886     -7.0953803      3.5149056      50218.233      36.893836      36.893836      36.893836    
    240000   0.49073099    -7.8340026     -7.0979165      3.5069479      50218.233      36.893836      36.893836      36.893836    
    250000   0.49022526    -7.8347497     -7.0994222      3.4953027      50218.233      36.893836      36.893836      36.893836    
    260000   0.48844766    -7.838307      -7.105646       3.4671279      50218.233      36.893836      36.893836      36.893836    
    270000   0.48927254    -7.8344158     -7.1005174      3.500749       50218.233      36.893836      36.893836      36.893836    
    280000   0.4923418     -7.8327973     -7.0942951      3.5162252      50218.233      36.893836      36.893836      36.893836    
    290000   0.48965599    -7.8349917     -7.1005181      3.4917908      50218.233      36.893836      36.893836      36.893836    
    300000   0.48944054    -7.8373385     -7.1031881      3.4752866      50218.233      36.893836      36.893836      36.893836    
    310000   0.49186128    -7.8358006     -7.0980192      3.4892307      50218.233      36.893836      36.893836      36.893836    
    320000   0.48970059    -7.8381012     -7.1035608      3.4752646      50218.233      36.893836      36.893836      36.893836    
    330000   0.49118951    -7.834698      -7.0979243      3.5051832      50218.233      36.893836      36.893836      36.893836    
    340000   0.49028816    -7.8374817     -7.1020599      3.4829483      50218.233      36.893836      36.893836      36.893836    
    350000   0.49037925    -7.8410405     -7.1054821      3.4503475      50218.233      36.893836      36.893836      36.893836    
    360000   0.49040782    -7.835705      -7.1001037      3.4924957      50218.233      36.893836      36.893836      36.893836    
    370000   0.48881844    -7.8370905     -7.1038732      3.4843706      50218.233      36.893836      36.893836      36.893836    
    380000   0.49211947    -7.8405887     -7.10242        3.4679918      50218.233      36.893836      36.893836      36.893836    
    390000   0.49205759    -7.8378497     -7.0997739      3.473241       50218.233      36.893836      36.893836      36.893836    
    400000   0.48888499    -7.8401882     -7.1068711      3.450574       50218.233      36.893836      36.893836      36.893836    
    410000   0.48852649    -7.8352398     -7.1024605      3.4939288      50218.233      36.893836      36.893836      36.893836    
    420000   0.49145658    -7.8381446     -7.1009702      3.4722838      50218.233      36.893836      36.893836      36.893836    
    430000   0.48940259    -7.8356428     -7.1015494      3.4926732      50218.233      36.893836      36.893836      36.893836    
    440000   0.48837242    -7.8392859     -7.1067377      3.4524579      50218.233      36.893836      36.893836      36.893836    
    450000   0.49176491    -7.8374534     -7.0998165      3.4864792      50218.233      36.893836      36.893836      36.893836    
    460000   0.49145356    -7.8333866     -7.0962167      3.5073524      50218.233      36.893836      36.893836      36.893836    
    470000   0.48842927    -7.8310659     -7.0984324      3.5171319      50218.233      36.893836      36.893836      36.893836    
    480000   0.49064605    -7.8384122     -7.1024536      3.4679557      50218.233      36.893836      36.893836      36.893836    
    490000   0.48712791    -7.8349583     -7.1042768      3.4892661      50218.233      36.893836      36.893836      36.893836    
    500000   0.48812569    -7.8339999     -7.1018218      3.4963234      50218.233      36.893836      36.893836      36.893836    
    510000   0.49022086    -7.8336967     -7.0983759      3.506098       50218.233      36.893836      36.893836      36.893836    
    520000   0.48837212    -7.834666      -7.1021182      3.500705       50218.233      36.893836      36.893836      36.893836    
    530000   0.49170413    -7.8320813     -7.0945356      3.5154023      50218.233      36.893836      36.893836      36.893836    
    540000   0.49007246    -7.8340938     -7.0989956      3.4974786      50218.233      36.893836      36.893836      36.893836    
    550000   0.48706586    -7.8386948     -7.1081064      3.4653336      50218.233      36.893836      36.893836      36.893836    
    560000   0.48916349    -7.8375591     -7.1038243      3.4753904      50218.233      36.893836      36.893836      36.893836    
    570000   0.49041498    -7.8361881     -7.1005761      3.4835099      50218.233      36.893836      36.893836      36.893836    
    580000   0.49170222    -7.8403489     -7.102806       3.4625806      50218.233      36.893836      36.893836      36.893836    
    590000   0.48979785    -7.8366211     -7.1019348      3.4712999      50218.233      36.893836      36.893836      36.893836    
    600000   0.48796301    -7.8345008     -7.1025667      3.5013993      50218.233      36.893836      36.893836      36.893836    
    610000   0.48950903    -7.8356759     -7.1014228      3.4889028      50218.233      36.893836      36.893836      36.893836    
    620000   0.48643708    -7.8354143     -7.1057691      3.4937705      50218.233      36.893836      36.893836      36.893836    
    630000   0.49038972    -7.8348394     -7.0992653      3.4916362      50218.233      36.893836      36.893836      36.893836    
    640000   0.48971041    -7.8333184     -7.0987633      3.4963268      50218.233      36.893836      36.893836      36.893836    
    650000   0.48956598    -7.8380381     -7.1036996      3.4704476      50218.233      36.893836      36.893836      36.893836    
    660000   0.48943132    -7.8334585     -7.0993219      3.4957912      50218.233      36.893836      36.893836      36.893836    
    670000   0.48997884    -7.8334098     -7.098452       3.5026075      50218.233      36.893836      36.893836      36.893836    
    680000   0.48924897    -7.8371713     -7.1033083      3.4743724      50218.233      36.893836      36.893836      36.893836    
    690000   0.48985806    -7.8320293     -7.0972527      3.5161335      50218.233      36.893836      36.893836      36.893836    
    700000   0.49069807    -7.8322978     -7.0962612      3.5043862      50218.233      36.893836      36.893836      36.893836    
    710000   0.4882054     -7.8299831     -7.0976854      3.5300715      50218.233      36.893836      36.893836      36.893836    
    720000   0.49200265    -7.832655      -7.0946615      3.5131788      50218.233      36.893836      36.893836      36.893836    
    730000   0.49029241    -7.8333673     -7.0979392      3.5063754      50218.233      36.893836      36.893836      36.893836    
    740000   0.48814058    -7.8360796     -7.1038792      3.4951621      50218.233      36.893836      36.893836      36.893836    
    750000   0.49077355    -7.8327998     -7.0966499      3.5134662      50218.233      36.893836      36.893836      36.893836    
    760000   0.49114566    -7.8360662     -7.0993582      3.4906973      50218.233      36.893836      36.893836      36.893836    
    770000   0.49124301    -7.8362976     -7.0994436      3.5000157      50218.233      36.893836      36.893836      36.893836    
    780000   0.49163239    -7.8302427     -7.0928046      3.5380521      50218.233      36.893836      36.893836      36.893836    
    790000   0.48783435    -7.8384101     -7.106669       3.4603415      50218.233      36.893836      36.893836      36.893836    
    800000   0.49245685    -7.8339321     -7.0952573      3.5006465      50218.233      36.893836      36.893836      36.893836    
    810000   0.49092535    -7.8334392     -7.0970616      3.4982433      50218.233      36.893836      36.893836      36.893836    
    820000   0.49052011    -7.8347534     -7.0989837      3.4943526      50218.233      36.893836      36.893836      36.893836    
    830000   0.48988719    -7.8350511     -7.1002308      3.4958734      50218.233      36.893836      36.893836      36.893836    
    840000   0.48920629    -7.8395174     -7.1057184      3.4615331      50218.233      36.893836      36.893836      36.893836    
    850000   0.48941568    -7.8410173     -7.1069042      3.455173       50218.233      36.893836      36.893836      36.893836    
    860000   0.4917717     -7.8361059     -7.0984588      3.4843208      50218.233      36.893836      36.893836      36.893836    
    870000   0.48960921    -7.8334879     -7.0990845      3.5077239      50218.233      36.893836      36.893836      36.893836    
    880000   0.48848827    -7.8343933     -7.1016713      3.4902208      50218.233      36.893836      36.893836      36.893836    
    890000   0.49349105    -7.8362159     -7.0959899      3.4878567      50218.233      36.893836      36.893836      36.893836    
    900000   0.48891357    -7.837429      -7.1040691      3.4813757      50218.233      36.893836      36.893836      36.893836    
    910000   0.48929796    -7.8352815     -7.101345       3.492609       50218.233      36.893836      36.893836      36.893836    
    920000   0.49067039    -7.837751      -7.1017559      3.4756717      50218.233      36.893836      36.893836      36.893836    
    930000   0.49100204    -7.8344535     -7.0979609      3.5143512      50218.233      36.893836      36.893836      36.893836    
    940000   0.49094826    -7.8334662     -7.0970543      3.5120461      50218.233      36.893836      36.893836      36.893836    
    950000   0.4897127     -7.8333785     -7.0988199      3.5076752      50218.233      36.893836      36.893836      36.893836    
    960000   0.48887319    -7.8365812     -7.1032819      3.4886435      50218.233      36.893836      36.893836      36.893836    
    970000   0.48996219    -7.8312405     -7.0963077      3.5241449      50218.233      36.893836      36.893836      36.893836    
    980000   0.48876031    -7.8364326     -7.1033026      3.4872088      50218.233      36.893836      36.893836      36.893836    
    990000   0.48848468    -7.8385542     -7.1058376      3.4733618      50218.233      36.893836      36.893836      36.893836    
   1000000   0.48513441    -7.8344476     -7.1067564      3.5098227      50218.233      36.893836      36.893836      36.893836    
   1010000   0.48992875    -7.8354183     -7.1005356      3.4969202      50218.233      36.893836      36.893836      36.893836    
   1020000   0.49144398    -7.8402463     -7.1030908      3.4569061      50218.233      36.893836      36.893836      36.893836    
   1030000   0.48967642    -7.8392671     -7.1047629      3.4690316      50218.233      36.893836      36.893836      36.893836    
   1040000   0.49007882    -7.8376512     -7.1025434      3.4787775      50218.233      36.893836      36.893836      36.893836    
   1050000   0.49007485    -7.8394464     -7.1043445      3.4691974      50218.233      36.893836      36.893836      36.893836    
   1060000   0.48761455    -7.8363327     -7.1049212      3.481855       50218.233      36.893836      36.893836      36.893836    
   1070000   0.48736857    -7.8361922     -7.1051497      3.4802226      50218.233      36.893836      36.893836      36.893836    
   1080000   0.49115521    -7.8340347     -7.0973124      3.499622       50218.233      36.893836      36.893836      36.893836    
   1090000   0.48812284    -7.8316764     -7.0995026      3.5173612      50218.233      36.893836      36.893836      36.893836    
   1100000   0.49079214    -7.8386728     -7.102495       3.4777051      50218.233      36.893836      36.893836      36.893836    
   1110000   0.49261285    -7.8382325     -7.0993237      3.470148       50218.233      36.893836      36.893836      36.893836    
   1120000   0.49084579    -7.8360817     -7.0998235      3.4885492      50218.233      36.893836      36.893836      36.893836    
   1130000   0.48922467    -7.8352107     -7.1013841      3.5153679      50218.233      36.893836      36.893836      36.893836    
   1140000   0.49088521    -7.8347136     -7.0983962      3.5075602      50218.233      36.893836      36.893836      36.893836    
   1150000   0.48967409    -7.8386369     -7.1041362      3.4689469      50218.233      36.893836      36.893836      36.893836    
   1160000   0.49196475    -7.8315847     -7.093648       3.521915       50218.233      36.893836      36.893836      36.893836    
   1170000   0.49188172    -7.835118      -7.0973059      3.5021547      50218.233      36.893836      36.893836      36.893836    
   1180000   0.49053928    -7.832393      -7.0965946      3.5155767      50218.233      36.893836      36.893836      36.893836    
   1190000   0.49162582    -7.8346816     -7.0972533      3.5048819      50218.233      36.893836      36.893836      36.893836    
   1200000   0.49023738    -7.8411283     -7.1057827      3.4505066      50218.233      36.893836      36.893836      36.893836    
   1210000   0.49198144    -7.8345846     -7.0966229      3.5113804      50218.233      36.893836      36.893836      36.893836    
   1220000   0.48858599    -7.8377641     -7.1048955      3.4838745      50218.233      36.893836      36.893836      36.893836    
   1230000   0.49187963    -7.8318653     -7.0940564      3.5202928      50218.233      36.893836      36.893836      36.893836    
   1240000   0.48988559    -7.8354088     -7.1005909      3.492585       50218.233      36.893836      36.893836      36.893836    
   1250000   0.48993819    -7.8373815     -7.1024847      3.4908871      50218.233      36.893836      36.893836      36.893836    
   1260000   0.49183111    -7.8361162     -7.09838        3.4817035      50218.233      36.893836      36.893836      36.893836    
   1270000   0.49080108    -7.8355284     -7.0993372      3.498068       50218.233      36.893836      36.893836      36.893836    
   1280000   0.49030027    -7.8365678     -7.1011279      3.4878076      50218.233      36.893836      36.893836      36.893836    
   1290000   0.48998843    -7.8363584     -7.1013862      3.4972268      50218.233      36.893836      36.893836      36.893836    
   1300000   0.48872794    -7.8376648     -7.1045834      3.4787307      50218.233      36.893836      36.893836      36.893836    
   1310000   0.48702487    -7.8334216     -7.1028947      3.5083044      50218.233      36.893836      36.893836      36.893836    
   1320000   0.48772339    -7.8288254     -7.0972508      3.5512914      50218.233      36.893836      36.893836      36.893836    
   1330000   0.48585954    -7.8359719     -7.1071929      3.4851872      50218.233      36.893836      36.893836      36.893836    
   1340000   0.48684653    -7.8344212     -7.1041618      3.494084       50218.233      36.893836      36.893836      36.893836    
   1350000   0.49005336    -7.8380851     -7.1030155      3.4786149      50218.233      36.893836      36.893836      36.893836    
   1360000   0.4937741     -7.8361481     -7.0954974      3.498812       50218.233      36.893836      36.893836      36.893836    
   1370000   0.48899875    -7.834071      -7.1005833      3.5137005      50218.233      36.893836      36.893836      36.893836    
   1380000   0.49087934    -7.8374742     -7.1011657      3.4793347      50218.233      36.893836      36.893836      36.893836    
   1390000   0.49085078    -7.8343158     -7.0980501      3.5040529      50218.233      36.893836      36.893836      36.893836    
   1400000   0.48912994    -7.8374704     -7.103786       3.4792322      50218.233      36.893836      36.893836      36.893836    
   1410000   0.48801862    -7.8352004     -7.1031829      3.4909355      50218.233      36.893836      36.893836      36.893836    
   1420000   0.49072759    -7.8331318     -7.0970509      3.5192342      50218.233      36.893836      36.893836      36.893836    
   1430000   0.48944106    -7.8358895     -7.1017384      3.4968423      50218.233      36.893836      36.893836      36.893836    
   1440000   0.49121906    -7.8363929     -7.0995748      3.4906747      50218.233      36.893836      36.893836      36.893836    
   1450000   0.49124389    -7.8392256     -7.1023703      3.4635774      50218.233      36.893836      36.893836      36.893836    
   1460000   0.49085528    -7.8360382     -7.0997657      3.4862423      50218.233      36.893836      36.893836      36.893836    
   1470000   0.49051887    -7.8395509     -7.1037831      3.4784341      50218.233      36.893836      36.893836      36.893836    
   1480000   0.49097677    -7.8328499     -7.0963952      3.5196382      50218.233      36.893836      36.893836      36.893836    
   1490000   0.48986203    -7.837438      -7.1026554      3.4752142      50218.233      36.893836      36.893836      36.893836    
   1500000   0.48892003    -7.8411204     -7.1077508      3.4627777      50218.233      36.893836      36.893836      36.893836    
   1510000   0.48900912    -7.8366411     -7.1031379      3.4782026      50218.233      36.893836      36.893836      36.893836    
   1520000   0.49272823    -7.8360889     -7.0970071      3.4946402      50218.233      36.893836      36.893836      36.893836    
   1530000   0.48827142    -7.8405998     -7.108203       3.4490441      50218.233      36.893836      36.893836      36.893836    
   1540000   0.48784963    -7.8359743     -7.1042103      3.4866706      50218.233      36.893836      36.893836      36.893836    
   1550000   0.48979502    -7.8362613     -7.1015792      3.4864689      50218.233      36.893836      36.893836      36.893836    
   1560000   0.49245927    -7.8359551     -7.0972767      3.492173       50218.233      36.893836      36.893836      36.893836    
   1570000   0.49109554    -7.8353524     -7.0987196      3.4984982      50218.233      36.893836      36.893836      36.893836    
   1580000   0.49179335    -7.8324229     -7.0947434      3.5223827      50218.233      36.893836      36.893836      36.893836    
   1590000   0.48863549    -7.8337579     -7.1008151      3.5029879      50218.233      36.893836      36.893836      36.893836    
   1600000   0.48951861    -7.8364293     -7.1021619      3.4961916      50218.233      36.893836      36.893836      36.893836    
   1610000   0.48864205    -7.8369665     -7.1040139      3.4757918      50218.233      36.893836      36.893836      36.893836    
   1620000   0.48701371    -7.8305037     -7.0999936      3.5258212      50218.233      36.893836      36.893836      36.893836    
   1630000   0.48983671    -7.8322568     -7.0975122      3.5203908      50218.233      36.893836      36.893836      36.893836    
   1640000   0.49149902    -7.8377474     -7.1005093      3.4797381      50218.233      36.893836      36.893836      36.893836    
   1650000   0.4905246     -7.8332085     -7.097432       3.5140469      50218.233      36.893836      36.893836      36.893836    
   1660000   0.48743019    -7.8375886     -7.1064537      3.4695797      50218.233      36.893836      36.893836      36.893836    
   1670000   0.49168419    -7.8362922     -7.0987764      3.486165       50218.233      36.893836      36.893836      36.893836    
   1680000   0.48917376    -7.8344919     -7.1007417      3.4842864      50218.233      36.893836      36.893836      36.893836    
   1690000   0.49154511    -7.8311507     -7.0938435      3.5237337      50218.233      36.893836      36.893836      36.893836    
   1700000   0.48909807    -7.8385316     -7.104895       3.4546725      50218.233      36.893836      36.893836      36.893836    
   1710000   0.49169224    -7.8333832     -7.0958554      3.507652       50218.233      36.893836      36.893836      36.893836    
   1720000   0.49152901    -7.8349448     -7.0976618      3.4952741      50218.233      36.893836      36.893836      36.893836    
   1730000   0.49123662    -7.8304744     -7.09363        3.5255052      50218.233      36.893836      36.893836      36.893836    
   1740000   0.48948117    -7.8363799     -7.1021686      3.4731065      50218.233      36.893836      36.893836      36.893836    
   1750000   0.49215533    -7.8324817     -7.0942592      3.5115114      50218.233      36.893836      36.893836      36.893836    
   1760000   0.48955537    -7.8333654     -7.0990428      3.5089273      50218.233      36.893836      36.893836      36.893836    
   1770000   0.48902242    -7.8364235     -7.1029003      3.4703265      50218.233      36.893836      36.893836      36.893836    
   1780000   0.48808973    -7.837453      -7.1053288      3.4736516      50218.233      36.893836      36.893836      36.893836    
   1790000   0.49089461    -7.8347309     -7.0983995      3.4968009      50218.233      36.893836      36.893836      36.893836    
   1800000   0.48782172    -7.8355221     -7.1038         3.4836103      50218.233      36.893836      36.893836      36.893836    
   1810000   0.48974749    -7.8305873     -7.0959765      3.5192825      50218.233      36.893836      36.893836      36.893836    
   1820000   0.48979232    -7.8360894     -7.1014113      3.4892862      50218.233      36.893836      36.893836      36.893836    
   1830000   0.48800479    -7.833071      -7.1010743      3.5052121      50218.233      36.893836      36.893836      36.893836    
   1840000   0.48826278    -7.832169      -7.0997853      3.5150037      50218.233      36.893836      36.893836      36.893836    
   1850000   0.48788466    -7.8372985     -7.1054819      3.4738807      50218.233      36.893836      36.893836      36.893836    
   1860000   0.48978917    -7.8372859     -7.1026126      3.4712897      50218.233      36.893836      36.893836      36.893836    
   1870000   0.49259941    -7.8381914     -7.0993028      3.4781222      50218.233      36.893836      36.893836      36.893836    
   1880000   0.48921739    -7.8315895     -7.0977739      3.5206402      50218.233      36.893836      36.893836      36.893836    
   1890000   0.48677266    -7.83504       -7.1048914      3.4807752      50218.233      36.893836      36.893836      36.893836    
   1900000   0.48910856    -7.8351988     -7.1015464      3.49576        50218.233      36.893836      36.893836      36.893836    
   1910000   0.49077549    -7.8332755     -7.0971227      3.5114769      50218.233      36.893836      36.893836      36.893836    
   1920000   0.48824791    -7.8378738     -7.1055124      3.4755945      50218.233      36.893836      36.893836      36.893836    
   1930000   0.48819973    -7.8375912     -7.105302       3.4681683      50218.233      36.893836      36.893836      36.893836    
   1940000   0.48969351    -7.8350454     -7.1005156      3.4884713      50218.233      36.893836      36.893836      36.893836    
   1950000   0.48934768    -7.8350953     -7.1010842      3.4905531      50218.233      36.893836      36.893836      36.893836    
   1960000   0.48870944    -7.8339088     -7.1008551      3.4935641      50218.233      36.893836      36.893836      36.893836    
   1970000   0.4906997     -7.8356565     -7.0996174      3.477198       50218.233      36.893836      36.893836      36.893836    
   1980000   0.49213643    -7.8388715     -7.1006773      3.4703493      50218.233      36.893836      36.893836      36.893836    
   1990000   0.48912131    -7.8360243     -7.1023528      3.4909545      50218.233      36.893836      36.893836      36.893836    
   2000000   0.48972644    -7.8354106     -7.1008314      3.4894652      50218.233      36.893836      36.893836      36.893836    
   2010000   0.49037501    -7.8362736     -7.1007215      3.4910073      50218.233      36.893836      36.893836      36.893836    
   2020000   0.48782367    -7.8355197     -7.1037946      3.4839839      50218.233      36.893836      36.893836      36.893836    
   2030000   0.48726726    -7.8343293     -7.1034388      3.492024       50218.233      36.893836      36.893836      36.893836    
   2040000   0.48870455    -7.8341724     -7.101126       3.5022929      50218.233      36.893836      36.893836      36.893836    
   2050000   0.48946468    -7.8370907     -7.1029041      3.4711116      50218.233      36.893836      36.893836      36.893836    
   2060000   0.49136722    -7.838863      -7.1018226      3.4707614      50218.233      36.893836      36.893836      36.893836    
   2070000   0.48953479    -7.835247      -7.1009553      3.4987346      50218.233      36.893836      36.893836      36.893836    
   2080000   0.49327436    -7.8336033     -7.0937023      3.5073284      50218.233      36.893836      36.893836      36.893836    
   2090000   0.48865392    -7.8326235     -7.0996531      3.5159096      50218.233      36.893836      36.893836      36.893836    
   2100000   0.49027166    -7.8393368     -7.1039397      3.4747511      50218.233      36.893836      36.893836      36.893836    
   2110000   0.48975924    -7.8335896     -7.0989612      3.5054694      50218.233      36.893836      36.893836      36.893836    
   2120000   0.48922991    -7.8358607     -7.1020262      3.4893416      50218.233      36.893836      36.893836      36.893836    
   2130000   0.48832443    -7.8362068     -7.1037306      3.4798709      50218.233      36.893836      36.893836      36.893836    
   2140000   0.48851683    -7.8373606     -7.1045957      3.4750146      50218.233      36.893836      36.893836      36.893836    
   2150000   0.49024662    -7.8312408     -7.0958814      3.5288987      50218.233      36.893836      36.893836      36.893836    
   2160000   0.49104782    -7.8335143     -7.0969531      3.5020668      50218.233      36.893836      36.893836      36.893836    
   2170000   0.4886059     -7.832812      -7.0999136      3.5084251      50218.233      36.893836      36.893836      36.893836    
   2180000   0.4872177     -7.8367713     -7.1059551      3.4771111      50218.233      36.893836      36.893836      36.893836    
   2190000   0.48834927    -7.8329219     -7.1004084      3.5055092      50218.233      36.893836      36.893836      36.893836    
   2200000   0.49163181    -7.8312646     -7.0938274      3.5279714      50218.233      36.893836      36.893836      36.893836    
   2210000   0.48932663    -7.8349662     -7.1009867      3.5010914      50218.233      36.893836      36.893836      36.893836    
   2220000   0.48753241    -7.834568      -7.1032798      3.5034956      50218.233      36.893836      36.893836      36.893836    
   2230000   0.48951392    -7.8366146     -7.1023542      3.4792568      50218.233      36.893836      36.893836      36.893836    
   2240000   0.49190375    -7.8336028     -7.0957577      3.5114669      50218.233      36.893836      36.893836      36.893836    
   2250000   0.49056732    -7.8350486     -7.0992081      3.4930133      50218.233      36.893836      36.893836      36.893836    
   2260000   0.48927813    -7.839036      -7.1051292      3.4634975      50218.233      36.893836      36.893836      36.893836    
   2270000   0.48941875    -7.8375282     -7.1034105      3.4663342      50218.233      36.893836      36.893836      36.893836    
   2280000   0.48921074    -7.8320843     -7.0982786      3.5116465      50218.233      36.893836      36.893836      36.893836    
   2290000   0.48843951    -7.8343023     -7.1016535      3.4830697      50218.233      36.893836      36.893836      36.893836    
   2300000   0.48640203    -7.8365821     -7.1069895      3.4816586      50218.233      36.893836      36.893836      36.893836    
   2310000   0.48909683    -7.8340326     -7.1003978      3.508464       50218.233      36.893836      36.893836      36.893836    
   2320000   0.48969235    -7.8293141     -7.094786       3.5373078      50218.233      36.893836      36.893836      36.893836    
   2330000   0.48869262    -7.8314517     -7.0984232      3.5149454      50218.233      36.893836      36.893836      36.893836    
   2340000   0.4905925     -7.8318483     -7.0959701      3.5185869      50218.233      36.893836      36.893836      36.893836    
   2350000   0.49218405    -7.8332256     -7.0949601      3.5076525      50218.233      36.893836      36.893836      36.893836    
   2360000   0.49085765    -7.8347728     -7.0984967      3.5004039      50218.233      36.893836      36.893836      36.893836    
   2370000   0.48905268    -7.8349593     -7.1013907      3.4901101      50218.233      36.893836      36.893836      36.893836    
   2380000   0.49078811    -7.8342244     -7.0980527      3.5067344      50218.233      36.893836      36.893836      36.893836    
   2390000   0.4917846     -7.8330929     -7.0954265      3.5059522      50218.233      36.893836      36.893836      36.893836    
   2400000   0.49044307    -7.8391115     -7.1034574      3.4627449      50218.233      36.893836      36.893836      36.893836    
   2410000   0.48759529    -7.8346622     -7.1032797      3.4904287      50218.233      36.893836      36.893836      36.893836    
   2420000   0.48881074    -7.8301434     -7.0969377      3.5207769      50218.233      36.893836      36.893836      36.893836    
   2430000   0.49143136    -7.8316426     -7.094506       3.5146374      50218.233      36.893836      36.893836      36.893836    
   2440000   0.48938843    -7.8364043     -7.1023321      3.4768209      50218.233      36.893836      36.893836      36.893836    
   2450000   0.48920573    -7.8369707     -7.1031726      3.479763       50218.233      36.893836      36.893836      36.893836    
   2460000   0.48936674    -7.8368358     -7.1027962      3.4846744      50218.233      36.893836      36.893836      36.893836    
   2470000   0.49027755    -7.8342626     -7.0988567      3.4935022      50218.233      36.893836      36.893836      36.893836    
   2480000   0.48989281    -7.8325247     -7.0976959      3.5022599      50218.233      36.893836      36.893836      36.893836    
   2490000   0.48852159    -7.8309539     -7.098182       3.5216459      50218.233      36.893836      36.893836      36.893836    
   2500000   0.49099495    -7.829543      -7.0930611      3.5362415      50218.233      36.893836      36.893836      36.893836    
   2510000   0.48894644    -7.8336695     -7.1002603      3.5004267      50218.233      36.893836      36.893836      36.893836    
   2520000   0.49080125    -7.8354514     -7.09926        3.4847635      50218.233      36.893836      36.893836      36.893836    
   2530000   0.48877564    -7.8323603     -7.0992073      3.5122425      50218.233      36.893836      36.893836      36.893836    
   2540000   0.48751767    -7.8335238     -7.1022577      3.497172       50218.233      36.893836      36.893836      36.893836    
   2550000   0.49004616    -7.8328732     -7.0978144      3.514656       50218.233      36.893836      36.893836      36.893836    
   2560000   0.49154674    -7.8304478     -7.0931382      3.5353189      50218.233      36.893836      36.893836      36.893836    
   2570000   0.48960832    -7.833533      -7.0991309      3.5068308      50218.233      36.893836      36.893836      36.893836    
   2580000   0.49077201    -7.8316955     -7.095548       3.5171316      50218.233      36.893836      36.893836      36.893836    
   2590000   0.49161328    -7.8348449     -7.0974355      3.4959067      50218.233      36.893836      36.893836      36.893836    
   2600000   0.49054862    -7.8339278     -7.0981153      3.5160057      50218.233      36.893836      36.893836      36.893836    
   2610000   0.49043701    -7.8292485     -7.0936034      3.553723       50218.233      36.893836      36.893836      36.893836    
   2620000   0.49028688    -7.8293929     -7.0939731      3.5383862      50218.233      36.893836      36.893836      36.893836    
   2630000   0.49006934    -7.831478      -7.0963845      3.5235504      50218.233      36.893836      36.893836      36.893836    
   2640000   0.49055246    -7.8277514     -7.0919332      3.5463275      50218.233      36.893836      36.893836      36.893836    
   2650000   0.48879902    -7.8355501     -7.102362       3.4884617      50218.233      36.893836      36.893836      36.893836    
   2660000   0.48981288    -7.8338667     -7.0991578      3.4978048      50218.233      36.893836      36.893836      36.893836    
   2670000   0.4904175     -7.8319554     -7.0963396      3.5297968      50218.233      36.893836      36.893836      36.893836    
   2680000   0.49113328    -7.8341469     -7.0974575      3.508845       50218.233      36.893836      36.893836      36.893836    
   2690000   0.49066927    -7.8325505     -7.0965571      3.5139975      50218.233      36.893836      36.893836      36.893836    
   2700000   0.49085543    -7.8308514     -7.0945787      3.5344124      50218.233      36.893836      36.893836      36.893836    
   2710000   0.48935977    -7.8312703     -7.0972411      3.5241827      50218.233      36.893836      36.893836      36.893836    
   2720000   0.48927653    -7.8321294     -7.0982251      3.5120345      50218.233      36.893836      36.893836      36.893836    
   2730000   0.49036919    -7.8297979     -7.0942545      3.53564        50218.233      36.893836      36.893836      36.893836    
   2740000   0.48914703    -7.8268606     -7.0931505      3.5561791      50218.233      36.893836      36.893836      36.893836    
   2750000   0.49076499    -7.8360506     -7.0999136      3.485203       50218.233      36.893836      36.893836      36.893836    
   2760000   0.48938719    -7.8304695     -7.0963991      3.5186218      50218.233      36.893836      36.893836      36.893836    
   2770000   0.49057398    -7.8345713     -7.0987208      3.4995089      50218.233      36.893836      36.893836      36.893836    
   2780000   0.49082335    -7.828917      -7.0926925      3.5421744      50218.233      36.893836      36.893836      36.893836    
   2790000   0.49021705    -7.8338542     -7.098539       3.5074011      50218.233      36.893836      36.893836      36.893836    
   2800000   0.48933588    -7.8282962     -7.0943029      3.5400529      50218.233      36.893836      36.893836      36.893836    
   2810000   0.48755071    -7.8295377     -7.098222       3.5313402      50218.233      36.893836      36.893836      36.893836    
   2820000   0.48938731    -7.8341849     -7.1001144      3.5000923      50218.233      36.893836      36.893836      36.893836    
   2830000   0.48832423    -7.8319106     -7.0994347      3.5106628      50218.233      36.893836      36.893836      36.893836    
   2840000   0.48841293    -7.8315729     -7.0989639      3.5175977      50218.233      36.893836      36.893836      36.893836    
   2850000   0.49142432    -7.8350711     -7.0979451      3.4994773      50218.233      36.893836      36.893836      36.893836    
   2860000   0.49037821    -7.833835      -7.0982781      3.496525       50218.233      36.893836      36.893836      36.893836    
   2870000   0.49165373    -7.8367909     -7.0993208      3.4842388      50218.233      36.893836      36.893836      36.893836    
   2880000   0.49064211    -7.8307118     -7.0947591      3.5313504      50218.233      36.893836      36.893836      36.893836    
   2890000   0.49127121    -7.8312735     -7.0943771      3.5254839      50218.233      36.893836      36.893836      36.893836    
   2900000   0.48998694    -7.8311057     -7.0961357      3.5158069      50218.233      36.893836      36.893836      36.893836    
   2910000   0.49059814    -7.8346457     -7.098759       3.5005981      50218.233      36.893836      36.893836      36.893836    
   2920000   0.48845621    -7.8299446     -7.0972707      3.5276901      50218.233      36.893836      36.893836      36.893836    
   2930000   0.48858953    -7.8295819     -7.096708       3.5316325      50218.233      36.893836      36.893836      36.893836    
   2940000   0.49152831    -7.8327763     -7.0954944      3.5042971      50218.233      36.893836      36.893836      36.893836    
   2950000   0.49385183    -7.8328293     -7.0920621      3.5072495      50218.233      36.893836      36.893836      36.893836    
   2960000   0.48727148    -7.8316873     -7.1007905      3.5219951      50218.233      36.893836      36.893836      36.893836    
   2970000   0.49060319    -7.8323224     -7.0964281      3.5139851      50218.233      36.893836      36.893836      36.893836    
   2980000   0.4881172     -7.8315798     -7.0994144      3.5259744      50218.233      36.893836      36.893836      36.893836    
   2990000   0.48789501    -7.8314928     -7.0996607      3.5116857      50218.233      36.893836      36.893836      36.893836    
   3000000   0.49338107    -7.8311988     -7.0911377      3.5316332      50218.233      36.893836      36.893836      36.893836    
   3010000   0.49019015    -7.8308841     -7.0956093      3.5252199      50218.233      36.893836      36.893836      36.893836    
   3020000   0.48971919    -7.8297379     -7.0951695      3.523889       50218.233      36.893836      36.893836      36.893836    
   3030000   0.49001455    -7.8364247     -7.1014134      3.4795474      50218.233      36.893836      36.893836      36.893836    
   3040000   0.4919145     -7.8292476     -7.0913864      3.5292342      50218.233      36.893836      36.893836      36.893836    
   3050000   0.49050946    -7.8305091     -7.0947553      3.5241702      50218.233      36.893836      36.893836      36.893836    
   3060000   0.49175367    -7.8286911     -7.0910711      3.5411204      50218.233      36.893836      36.893836      36.893836    
   3070000   0.48753701    -7.8335075     -7.1022124      3.4947897      50218.233      36.893836      36.893836      36.893836    
   3080000   0.49060765    -7.8350901     -7.0991891      3.49044        50218.233      36.893836      36.893836      36.893836    
   3090000   0.4920259     -7.8328709     -7.0948425      3.5111838      50218.233      36.893836      36.893836      36.893836    
   3100000   0.49015653    -7.8323705     -7.0971461      3.5122842      50218.233      36.893836      36.893836      36.893836    
   3110000   0.48854607    -7.8312098     -7.0984011      3.5207344      50218.233      36.893836      36.893836      36.893836    
   3120000   0.4900362     -7.8312831     -7.0962393      3.5182947      50218.233      36.893836      36.893836      36.893836    
   3130000   0.49143954    -7.8343545     -7.0972057      3.4955311      50218.233      36.893836      36.893836      36.893836    
   3140000   0.49051254    -7.8301885     -7.0944302      3.5282929      50218.233      36.893836      36.893836      36.893836    
   3150000   0.49148171    -7.832584      -7.0953719      3.515896       50218.233      36.893836      36.893836      36.893836    
   3160000   0.48979078    -7.8314671     -7.0967914      3.5259138      50218.233      36.893836      36.893836      36.893836    
   3170000   0.48930553    -7.8320442     -7.0980964      3.5176586      50218.233      36.893836      36.893836      36.893836    
   3180000   0.48937138    -7.8324546     -7.0984079      3.512954       50218.233      36.893836      36.893836      36.893836    
   3190000   0.49053675    -7.8284028     -7.0926082      3.53109        50218.233      36.893836      36.893836      36.893836    
   3200000   0.49021673    -7.8360503     -7.1007357      3.4852723      50218.233      36.893836      36.893836      36.893836    
   3210000   0.49194717    -7.8358065     -7.0978963      3.4809238      50218.233      36.893836      36.893836      36.893836    
   3220000   0.49026645    -7.8336181     -7.0982289      3.4996789      50218.233      36.893836      36.893836      36.893836    
   3230000   0.49150265    -7.8348688     -7.0976253      3.4924943      50218.233      36.893836      36.893836      36.893836    
   3240000   0.4910384     -7.8278164     -7.0912692      3.5503355      50218.233      36.893836      36.893836      36.893836    
   3250000   0.48968491    -7.8289579     -7.094441       3.5311621      50218.233      36.893836      36.893836      36.893836    
   3260000   0.49172859    -7.8370476     -7.0994652      3.4820747      50218.233      36.893836      36.893836      36.893836    
   3270000   0.48969277    -7.8325338     -7.0980051      3.5059447      50218.233      36.893836      36.893836      36.893836    
   3280000   0.49099411    -7.8352081     -7.0987274      3.4944173      50218.233      36.893836      36.893836      36.893836    
   3290000   0.49158608    -7.8312505     -7.0938819      3.5199283      50218.233      36.893836      36.893836      36.893836    
   3300000   0.49234722    -7.8348843     -7.0963739      3.4892846      50218.233      36.893836      36.893836      36.893836    
   3310000   0.48919815    -7.8339234     -7.1001366      3.5024762      50218.233      36.893836      36.893836      36.893836    
   3320000   0.49072687    -7.8294009     -7.093321       3.5299269      50218.233      36.893836      36.893836      36.893836    
   3330000   0.48905926    -7.8368544     -7.1032759      3.4808279      50218.233      36.893836      36.893836      36.893836    
   3340000   0.49055094    -7.8296101     -7.0937941      3.5351571      50218.233      36.893836      36.893836      36.893836    
   3350000   0.48895122    -7.8336397     -7.1002233      3.512809       50218.233      36.893836      36.893836      36.893836    
   3360000   0.4893906     -7.8358193     -7.1017438      3.4871095      50218.233      36.893836      36.893836      36.893836    
   3370000   0.48857711    -7.8295909     -7.0967357      3.5441283      50218.233      36.893836      36.893836      36.893836    
   3380000   0.49062265    -7.8345579     -7.0986344      3.5005639      50218.233      36.893836      36.893836      36.893836    
   3390000   0.48931269    -7.8330899     -7.0991313      3.5055233      50218.233      36.893836      36.893836      36.893836    
   3400000   0.48852405    -7.8357521     -7.1029764      3.4947091      50218.233      36.893836      36.893836      36.893836    
   3410000   0.48876053    -7.8380958     -7.1049655      3.4691868      50218.233      36.893836      36.893836      36.893836    
   3420000   0.4875262     -7.8381182     -7.1068393      3.4738642      50218.233      36.893836      36.893836      36.893836    
   3430000   0.48887821    -7.8278566     -7.0945497      3.5600633      50218.233      36.893836      36.893836      36.893836    
   3440000   0.49229793    -7.8344529     -7.0960165      3.5023863      50218.233      36.893836      36.893836      36.893836    
   3450000   0.48703548    -7.8335646     -7.1030218      3.4960376      50218.233      36.893836      36.893836      36.893836    
   3460000   0.48858042    -7.8346988     -7.1018386      3.4914905      50218.233      36.893836      36.893836      36.893836    
   3470000   0.49067677    -7.8321697     -7.096165       3.5326604      50218.233      36.893836      36.893836      36.893836    
   3480000   0.48935489    -7.8351889     -7.101167       3.5009872      50218.233      36.893836      36.893836      36.893836    
   3490000   0.49234662    -7.8329317     -7.0944223      3.5232012      50218.233      36.893836      36.893836      36.893836    
   3500000   0.4871963     -7.8333259     -7.1025418      3.4996374      50218.233      36.893836      36.893836      36.893836    
   3510000   0.48981305    -7.827558      -7.0928489      3.5496556      50218.233      36.893836      36.893836      36.893836    
   3520000   0.48811166    -7.8352642     -7.1031071      3.490352       50218.233      36.893836      36.893836      36.893836    
   3530000   0.49006269    -7.837012      -7.1019285      3.4790304      50218.233      36.893836      36.893836      36.893836    
   3540000   0.49134594    -7.8317377     -7.0947292      3.5301496      50218.233      36.893836      36.893836      36.893836    
   3550000   0.49124026    -7.8291525     -7.0923025      3.5307655      50218.233      36.893836      36.893836      36.893836    
   3560000   0.49173843    -7.833705      -7.0961079      3.5033298      50218.233      36.893836      36.893836      36.893836    
   3570000   0.49016234    -7.8317948     -7.0965617      3.5236655      50218.233      36.893836      36.893836      36.893836    
   3580000   0.49072996    -7.827472      -7.0913875      3.5543348      50218.233      36.893836      36.893836      36.893836    
   3590000   0.48926226    -7.831927      -7.098044       3.511952       50218.233      36.893836      36.893836      36.893836    
   3600000   0.48840395    -7.8299823     -7.0973867      3.530357       50218.233      36.893836      36.893836      36.893836    
   3610000   0.48789344    -7.8289166     -7.0970869      3.5426117      50218.233      36.893836      36.893836      36.893836    
   3620000   0.48844359    -7.8321666     -7.0995116      3.508723       50218.233      36.893836      36.893836      36.893836    
   3630000   0.49093172    -7.8332732     -7.0968861      3.5147389      50218.233      36.893836      36.893836      36.893836    
   3640000   0.49017944    -7.8322984     -7.0970397      3.5174158      50218.233      36.893836      36.893836      36.893836    
   3650000   0.48900611    -7.8326212     -7.0991225      3.5209087      50218.233      36.893836      36.893836      36.893836    
   3660000   0.48964635    -7.8308051     -7.096346       3.5258406      50218.233      36.893836      36.893836      36.893836    
   3670000   0.49272392    -7.8296667     -7.0905913      3.5459742      50218.233      36.893836      36.893836      36.893836    
   3680000   0.48781157    -7.8308411     -7.0991342      3.5232134      50218.233      36.893836      36.893836      36.893836    
   3690000   0.49251609    -7.8320947     -7.0933311      3.5263302      50218.233      36.893836      36.893836      36.893836    
   3700000   0.48879086    -7.8309138     -7.0977379      3.5200496      50218.233      36.893836      36.893836      36.893836    
   3710000   0.49106533    -7.8324028     -7.0958153      3.526362       50218.233      36.893836      36.893836      36.893836    
   3720000   0.48996772    -7.8307813     -7.0958402      3.5179407      50218.233      36.893836      36.893836      36.893836    
   3730000   0.48796903    -7.8356869     -7.1037437      3.4792274      50218.233      36.893836      36.893836      36.893836    
   3740000   0.48728957    -7.8324536     -7.1015296      3.5154464      50218.233      36.893836      36.893836      36.893836    
   3750000   0.48950703    -7.8306475     -7.0963974      3.5313331      50218.233      36.893836      36.893836      36.893836    
   3760000   0.49243847    -7.8333536     -7.0947064      3.5189699      50218.233      36.893836      36.893836      36.893836    
   3770000   0.49234189    -7.8320262     -7.0935239      3.522337       50218.233      36.893836      36.893836      36.893836    
   3780000   0.48918869    -7.8261664     -7.0923938      3.5584508      50218.233      36.893836      36.893836      36.893836    
   3790000   0.48844594    -7.8325974     -7.0999389      3.4962984      50218.233      36.893836      36.893836      36.893836    
   3800000   0.48994697    -7.8333706     -7.0984606      3.5050998      50218.233      36.893836      36.893836      36.893836    
   3810000   0.48960082    -7.8281224     -7.0937316      3.5589399      50218.233      36.893836      36.893836      36.893836    
   3820000   0.4914286     -7.8329248     -7.0957924      3.5124915      50218.233      36.893836      36.893836      36.893836    
   3830000   0.49189827    -7.8313048     -7.0934679      3.5214521      50218.233      36.893836      36.893836      36.893836    
   3840000   0.49014098    -7.8307999     -7.0955989      3.5289882      50218.233      36.893836      36.893836      36.893836    
   3850000   0.49043247    -7.8351659     -7.0995276      3.490305       50218.233      36.893836      36.893836      36.893836    
   3860000   0.48735271    -7.8293421     -7.0983235      3.5347525      50218.233      36.893836      36.893836      36.893836    
   3870000   0.49269127    -7.8366668     -7.0976404      3.4810092      50218.233      36.893836      36.893836      36.893836    
   3880000   0.48984532    -7.8363984     -7.1016409      3.4913635      50218.233      36.893836      36.893836      36.893836    
   3890000   0.48984037    -7.8328234     -7.0980733      3.5112408      50218.233      36.893836      36.893836      36.893836    
   3900000   0.4907758     -7.8378056     -7.1016524      3.476976       50218.233      36.893836      36.893836      36.893836    
   3910000   0.48962291    -7.8334322     -7.0990083      3.5008681      50218.233      36.893836      36.893836      36.893836    
   3920000   0.4910566     -7.8339899     -7.0974155      3.5108668      50218.233      36.893836      36.893836      36.893836    
   3930000   0.48825626    -7.8317884     -7.0994145      3.5094142      50218.233      36.893836      36.893836      36.893836    
   3940000   0.48960725    -7.8303924     -7.095992       3.5287436      50218.233      36.893836      36.893836      36.893836    
   3950000   0.49011275    -7.8358633     -7.1007046      3.4858623      50218.233      36.893836      36.893836      36.893836    
   3960000   0.48899794    -7.8347864     -7.1012999      3.4963313      50218.233      36.893836      36.893836      36.893836    
   3970000   0.48979838    -7.8317089     -7.0970218      3.5204086      50218.233      36.893836      36.893836      36.893836    
   3980000   0.49116338    -7.8393416     -7.102607       3.464042       50218.233      36.893836      36.893836      36.893836    
   3990000   0.48941146    -7.8319949     -7.0978882      3.510893       50218.233      36.893836      36.893836      36.893836    
   4000000   0.4892443     -7.8322929     -7.0984369      3.5098568      50218.233      36.893836      36.893836      36.893836    
   4010000   0.48929348    -7.8376338     -7.103704       3.474043       50218.233      36.893836      36.893836      36.893836    
   4020000   0.49060053    -7.8321715     -7.0962811      3.5203158      50218.233      36.893836      36.893836      36.893836    
   4030000   0.48988638    -7.8317214     -7.0969023      3.5184395      50218.233      36.893836      36.893836      36.893836    
   4040000   0.48853867    -7.8341571     -7.1013595      3.500812       50218.233      36.893836      36.893836      36.893836    
   4050000   0.49158794    -7.8344519     -7.0970805      3.5063915      50218.233      36.893836      36.893836      36.893836    
   4060000   0.49062844    -7.8345246     -7.0985925      3.4915791      50218.233      36.893836      36.893836      36.893836    
   4070000   0.49225825    -7.8308802     -7.0925033      3.5324008      50218.233      36.893836      36.893836      36.893836    
   4080000   0.49145564    -7.8323234     -7.0951505      3.5181327      50218.233      36.893836      36.893836      36.893836    
   4090000   0.486443      -7.8357295     -7.1060754      3.5012002      50218.233      36.893836      36.893836      36.893836    
   4100000   0.49295116    -7.8310538     -7.0916375      3.5099125      50218.233      36.893836      36.893836      36.893836    
   4110000   0.48834093    -7.8361676     -7.1036666      3.4781521      50218.233      36.893836      36.893836      36.893836    
   4120000   0.49005105    -7.8326521     -7.097586       3.5071521      50218.233      36.893836      36.893836      36.893836    
   4130000   0.48942087    -7.8316883     -7.0975675      3.5166259      50218.233      36.893836      36.893836      36.893836    
   4140000   0.48697022    -7.8368469     -7.1064019      3.4831089      50218.233      36.893836      36.893836      36.893836    
   4150000   0.48914096    -7.8318167     -7.0981157      3.5250018      50218.233      36.893836      36.893836      36.893836    
   4160000   0.48931535    -7.8325454     -7.0985828      3.5045894      50218.233      36.893836      36.893836      36.893836    
   4170000   0.49212787    -7.834748      -7.0965667      3.4997321      50218.233      36.893836      36.893836      36.893836    
   4180000   0.4894558     -7.8334061     -7.0992329      3.4986303      50218.233      36.893836      36.893836      36.893836    
   4190000   0.48953705    -7.836138      -7.1018429      3.4898104      50218.233      36.893836      36.893836      36.893836    
   4200000   0.4936567     -7.8368585     -7.096384       3.4921384      50218.233      36.893836      36.893836      36.893836    
   4210000   0.49064547    -7.8347525     -7.0987948      3.5072764      50218.233      36.893836      36.893836      36.893836    
   4220000   0.49142351    -7.8372183     -7.1000935      3.4985161      50218.233      36.893836      36.893836      36.893836    
   4230000   0.49097661    -7.8354479     -7.0989935      3.4984894      50218.233      36.893836      36.893836      36.893836    
   4240000   0.49117892    -7.8332395     -7.0964816      3.5088021      50218.233      36.893836      36.893836      36.893836    
   4250000   0.48951057    -7.835323      -7.1010676      3.4992072      50218.233      36.893836      36.893836      36.893836    
   4260000   0.49002994    -7.834222      -7.0991876      3.5075662      50218.233      36.893836      36.893836      36.893836    
   4270000   0.49018362    -7.8313664     -7.0961014      3.5254148      50218.233      36.893836      36.893836      36.893836    
   4280000   0.49217705    -7.8320679     -7.0938129      3.5095207      50218.233      36.893836      36.893836      36.893836    
   4290000   0.48873227    -7.8362546     -7.1031666      3.4898081      50218.233      36.893836      36.893836      36.893836    
   4300000   0.48877311    -7.8343996     -7.1012504      3.4972014      50218.233      36.893836      36.893836      36.893836    
   4310000   0.4901836     -7.8372733     -7.1020084      3.4853497      50218.233      36.893836      36.893836      36.893836    
   4320000   0.48972405    -7.8323002     -7.0977246      3.5147781      50218.233      36.893836      36.893836      36.893836    
   4330000   0.4912462     -7.8373389     -7.1004801      3.4801506      50218.233      36.893836      36.893836      36.893836    
   4340000   0.49093653    -7.83773       -7.1013357      3.4864539      50218.233      36.893836      36.893836      36.893836    
   4350000   0.49180419    -7.8331611     -7.0954653      3.5067512      50218.233      36.893836      36.893836      36.893836    
   4360000   0.48941751    -7.8341853     -7.1000695      3.4964765      50218.233      36.893836      36.893836      36.893836    
   4370000   0.4900302     -7.8336318     -7.098597       3.5038458      50218.233      36.893836      36.893836      36.893836    
   4380000   0.48965574    -7.8346646     -7.1001914      3.4994522      50218.233      36.893836      36.893836      36.893836    
   4390000   0.48972835    -7.8372909     -7.1027088      3.4839695      50218.233      36.893836      36.893836      36.893836    
   4400000   0.49020554    -7.8262252     -7.0909273      3.5592872      50218.233      36.893836      36.893836      36.893836    
   4410000   0.48912169    -7.830791      -7.0971189      3.5346045      50218.233      36.893836      36.893836      36.893836    
   4420000   0.49222991    -7.8369372     -7.0986028      3.4878346      50218.233      36.893836      36.893836      36.893836    
   4430000   0.49289358    -7.8361316     -7.0968017      3.4969526      50218.233      36.893836      36.893836      36.893836    
   4440000   0.48947403    -7.8327181     -7.0985175      3.5115668      50218.233      36.893836      36.893836      36.893836    
   4450000   0.48958303    -7.8363152     -7.1019511      3.4902387      50218.233      36.893836      36.893836      36.893836    
   4460000   0.49067283    -7.8349401     -7.0989413      3.4879171      50218.233      36.893836      36.893836      36.893836    
   4470000   0.48706547    -7.84083       -7.1102422      3.4521027      50218.233      36.893836      36.893836      36.893836    
   4480000   0.48848912    -7.8351276     -7.1024043      3.4960882      50218.233      36.893836      36.893836      36.893836    
   4490000   0.49059314    -7.8389901     -7.1031108      3.4629567      50218.233      36.893836      36.893836      36.893836    
   4500000   0.48985822    -7.8366777     -7.1019008      3.4805154      50218.233      36.893836      36.893836      36.893836    
   4510000   0.49215959    -7.8343366     -7.0961077      3.5053437      50218.233      36.893836      36.893836      36.893836    
   4520000   0.49069741    -7.8324605     -7.0964248      3.5264848      50218.233      36.893836      36.893836      36.893836    
   4530000   0.4909095     -7.8318305     -7.0954767      3.5290059      50218.233      36.893836      36.893836      36.893836    
   4540000   0.49081756    -7.8345553     -7.0983394      3.4957812      50218.233      36.893836      36.893836      36.893836    
   4550000   0.49050801    -7.8357229     -7.0999714      3.4911001      50218.233      36.893836      36.893836      36.893836    
   4560000   0.48997831    -7.8324244     -7.0974674      3.5120513      50218.233      36.893836      36.893836      36.893836    
   4570000   0.49194737    -7.8332815     -7.0953709      3.5171766      50218.233      36.893836      36.893836      36.893836    
   4580000   0.48888205    -7.8358968     -7.1025842      3.5013616      50218.233      36.893836      36.893836      36.893836    
   4590000   0.49199852    -7.8341601     -7.0961728      3.5122728      50218.233      36.893836      36.893836      36.893836    
   4600000   0.4910884     -7.8338015     -7.0971794      3.5052917      50218.233      36.893836      36.893836      36.893836    
   4610000   0.48831765    -7.8358353     -7.1033693      3.4796225      50218.233      36.893836      36.893836      36.893836    
   4620000   0.49163648    -7.8372157     -7.0997715      3.4845002      50218.233      36.893836      36.893836      36.893836    
   4630000   0.48987165    -7.8354186     -7.1006216      3.503032       50218.233      36.893836      36.893836      36.893836    
   4640000   0.48884331    -7.8349591     -7.1017046      3.4868404      50218.233      36.893836      36.893836      36.893836    
   4650000   0.4893137     -7.829177      -7.0952169      3.5409445      50218.233      36.893836      36.893836      36.893836    
   4660000   0.4882915     -7.8360449     -7.103618       3.4905786      50218.233      36.893836      36.893836      36.893836    
   4670000   0.48925817    -7.8278956     -7.0940188      3.5541599      50218.233      36.893836      36.893836      36.893836    
   4680000   0.491178      -7.8291801     -7.0924236      3.5514658      50218.233      36.893836      36.893836      36.893836    
   4690000   0.49036971    -7.8320886     -7.0965445      3.5232679      50218.233      36.893836      36.893836      36.893836    
   4700000   0.49305498    -7.8314018     -7.0918299      3.5298379      50218.233      36.893836      36.893836      36.893836    
   4710000   0.48986163    -7.8323281     -7.0975461      3.5083632      50218.233      36.893836      36.893836      36.893836    
   4720000   0.48879883    -7.8327815     -7.0995937      3.5130441      50218.233      36.893836      36.893836      36.893836    
   4730000   0.48967234    -7.8349264     -7.1004284      3.495577       50218.233      36.893836      36.893836      36.893836    
   4740000   0.48954785    -7.8343951     -7.1000838      3.494215       50218.233      36.893836      36.893836      36.893836    
   4750000   0.49396254    -7.8311931     -7.0902598      3.530047       50218.233      36.893836      36.893836      36.893836    
   4760000   0.49056646    -7.8337447     -7.0979055      3.5052657      50218.233      36.893836      36.893836      36.893836    
   4770000   0.48931289    -7.8361807     -7.1022218      3.4872538      50218.233      36.893836      36.893836      36.893836    
   4780000   0.489813      -7.8347028     -7.0999938      3.5046979      50218.233      36.893836      36.893836      36.893836    
   4790000   0.49265083    -7.8318334     -7.0928677      3.5327306      50218.233      36.893836      36.893836      36.893836    
   4800000   0.48984387    -7.8396965     -7.1049411      3.4527253      50218.233      36.893836      36.893836      36.893836    
   4810000   0.4904551     -7.8363489     -7.1006767      3.4911713      50218.233      36.893836      36.893836      36.893836    
   4820000   0.49140073    -7.8347741     -7.0976835      3.5094174      50218.233      36.893836      36.893836      36.893836    
   4830000   0.49118643    -7.8342117     -7.0974425      3.5138741      50218.233      36.893836      36.893836      36.893836    
   4840000   0.49271493    -7.8336164     -7.0945545      3.5154667      50218.233      36.893836      36.893836      36.893836    
   4850000   0.4916351     -7.8340731     -7.0966309      3.4905282      50218.233      36.893836      36.893836      36.893836    
   4860000   0.48982322    -7.8267336     -7.0920092      3.5480773      50218.233      36.893836      36.893836      36.893836    
   4870000   0.48879246    -7.8341135     -7.1009353      3.4993855      50218.233      36.893836      36.893836      36.893836    
   4880000   0.49140059    -7.8346571     -7.0975667      3.4978095      50218.233      36.893836      36.893836      36.893836    
   4890000   0.4904476     -7.8329145     -7.0972536      3.5062288      50218.233      36.893836      36.893836      36.893836    
   4900000   0.49031651    -7.8345946     -7.0991303      3.4992609      50218.233      36.893836      36.893836      36.893836    
   4910000   0.49112216    -7.8357621     -7.0990893      3.4967431      50218.233      36.893836      36.893836      36.893836    
   4920000   0.48764641    -7.8345489     -7.1030897      3.4895466      50218.233      36.893836      36.893836      36.893836    
   4930000   0.49013186    -7.8420162     -7.1068288      3.4499441      50218.233      36.893836      36.893836      36.893836    
   4940000   0.48780069    -7.8350138     -7.1033231      3.4940331      50218.233      36.893836      36.893836      36.893836    
   4950000   0.49019176    -7.8336484     -7.0983712      3.5064896      50218.233      36.893836      36.893836      36.893836    
   4960000   0.48779679    -7.8363625     -7.1046777      3.4777351      50218.233      36.893836      36.893836      36.893836    
   4970000   0.49028212    -7.8352919     -7.0998792      3.4989062      50218.233      36.893836      36.893836      36.893836    
   4980000   0.48694539    -7.83443       -7.1040223      3.4954927      50218.233      36.893836      36.893836      36.893836    
   4990000   0.4884873     -7.8334329     -7.1007124      3.5051445      50218.233      36.893836      36.893836      36.893836    
   5000000   0.48996144    -7.8334494     -7.0985177      3.5057112      50218.233      36.893836      36.893836      36.893836    
   5010000   0.49045284    -7.8332705     -7.0976018      3.5163314      50218.233      36.893836      36.893836      36.893836    
   5020000   0.49063817    -7.8356703     -7.0997235      3.4952425      50218.233      36.893836      36.893836      36.893836    
   5030000   0.49028286    -7.8310235     -7.0956097      3.5295558      50218.233      36.893836      36.893836      36.893836    
   5040000   0.49068097    -7.8345387     -7.0985277      3.5066315      50218.233      36.893836      36.893836      36.893836    
   5050000   0.49087254    -7.8306013     -7.094303       3.5301362      50218.233      36.893836      36.893836      36.893836    
   5060000   0.48869783    -7.8303692     -7.0973329      3.5192305      50218.233      36.893836      36.893836      36.893836    
   5070000   0.49072807    -7.8317608     -7.0956791      3.5127156      50218.233      36.893836      36.893836      36.893836    
   5080000   0.49074883    -7.8318763     -7.0957636      3.5278269      50218.233      36.893836      36.893836      36.893836    
   5090000   0.48986143    -7.8296126     -7.094831       3.5327357      50218.233      36.893836      36.893836      36.893836    
   5100000   0.49057156    -7.8320496     -7.0962027      3.5116354      50218.233      36.893836      36.893836      36.893836    
   5110000   0.48958128    -7.8326992     -7.0983377      3.5168645      50218.233      36.893836      36.893836      36.893836    
   5120000   0.49378912    -7.8356494     -7.0949762      3.4978325      50218.233      36.893836      36.893836      36.893836    
   5130000   0.48565993    -7.8303968     -7.1019173      3.5274743      50218.233      36.893836      36.893836      36.893836    
   5140000   0.49136631    -7.8305568     -7.0935178      3.523954       50218.233      36.893836      36.893836      36.893836    
   5150000   0.49114521    -7.8317798     -7.0950725      3.5241256      50218.233      36.893836      36.893836      36.893836    
   5160000   0.49180981    -7.8322736     -7.0945694      3.5392351      50218.233      36.893836      36.893836      36.893836    
   5170000   0.48998347    -7.8280751     -7.0931104      3.5487047      50218.233      36.893836      36.893836      36.893836    
   5180000   0.49026536    -7.8298421     -7.0944545      3.5251739      50218.233      36.893836      36.893836      36.893836    
   5190000   0.48945787    -7.8306508     -7.0964744      3.53133        50218.233      36.893836      36.893836      36.893836    
   5200000   0.48836496    -7.8322925     -7.0997555      3.5035967      50218.233      36.893836      36.893836      36.893836    
   5210000   0.49077219    -7.8311947     -7.0950469      3.5361715      50218.233      36.893836      36.893836      36.893836    
   5220000   0.4917509     -7.8285099     -7.0908941      3.5531105      50218.233      36.893836      36.893836      36.893836    
   5230000   0.49000311    -7.8345263     -7.0995321      3.5206463      50218.233      36.893836      36.893836      36.893836    
   5240000   0.49134828    -7.8321003     -7.0950883      3.522385       50218.233      36.893836      36.893836      36.893836    
   5250000   0.49236478    -7.834459      -7.0959223      3.5048151      50218.233      36.893836      36.893836      36.893836    
   5260000   0.49017564    -7.8275395     -7.0922865      3.5496294      50218.233      36.893836      36.893836      36.893836    
   5270000   0.48969262    -7.8309346     -7.0964061      3.5243637      50218.233      36.893836      36.893836      36.893836    
   5280000   0.48895547    -7.830365      -7.0969423      3.5201646      50218.233      36.893836      36.893836      36.893836    
   5290000   0.49098963    -7.8314764     -7.0950024      3.5257942      50218.233      36.893836      36.893836      36.893836    
   5300000   0.49058522    -7.8343179     -7.0984505      3.5052766      50218.233      36.893836      36.893836      36.893836    
   5310000   0.49028961    -7.8314801     -7.0960562      3.529235       50218.233      36.893836      36.893836      36.893836    
   5320000   0.48700427    -7.8333627     -7.1028666      3.5050595      50218.233      36.893836      36.893836      36.893836    
   5330000   0.49041206    -7.831415      -7.0958074      3.5276232      50218.233      36.893836      36.893836      36.893836    
   5340000   0.49273699    -7.8304401     -7.0913452      3.5311251      50218.233      36.893836      36.893836      36.893836    
   5350000   0.48898727    -7.8327124     -7.0992419      3.5153255      50218.233      36.893836      36.893836      36.893836    
   5360000   0.48989239    -7.8284379     -7.0936098      3.5367545      50218.233      36.893836      36.893836      36.893836    
   5370000   0.49004743    -7.8359149     -7.1008542      3.4893452      50218.233      36.893836      36.893836      36.893836    
   5380000   0.49307098    -7.8262103     -7.0866144      3.5701227      50218.233      36.893836      36.893836      36.893836    
   5390000   0.48894875    -7.8293626     -7.0959499      3.5303217      50218.233      36.893836      36.893836      36.893836    
   5400000   0.48581939    -7.8329198     -7.1042011      3.5060386      50218.233      36.893836      36.893836      36.893836    
   5410000   0.48813183    -7.8283831     -7.0961958      3.5443081      50218.233      36.893836      36.893836      36.893836    
   5420000   0.48807906    -7.8339992     -7.101891       3.5019862      50218.233      36.893836      36.893836      36.893836    
   5430000   0.48790705    -7.8348892     -7.103039       3.4993354      50218.233      36.893836      36.893836      36.893836    
   5440000   0.48945517    -7.8331738     -7.0990015      3.5078554      50218.233      36.893836      36.893836      36.893836    
   5450000   0.49201645    -7.8372677     -7.0992535      3.487483       50218.233      36.893836      36.893836      36.893836    
   5460000   0.48896974    -7.8361346     -7.1026904      3.49695        50218.233      36.893836      36.893836      36.893836    
   5470000   0.49122112    -7.8373675     -7.1005463      3.4782331      50218.233      36.893836      36.893836      36.893836    
   5480000   0.49012889    -7.8318514     -7.0966685      3.5199627      50218.233      36.893836      36.893836      36.893836    
   5490000   0.49042251    -7.8356207     -7.0999974      3.5007355      50218.233      36.893836      36.893836      36.893836    
   5500000   0.48807072    -7.8328929     -7.1007973      3.5096809      50218.233      36.893836      36.893836      36.893836    
   5510000   0.48873152    -7.8338623     -7.1007755      3.4949967      50218.233      36.893836      36.893836      36.893836    
   5520000   0.49064131    -7.8348419     -7.0988905      3.4919311      50218.233      36.893836      36.893836      36.893836    
   5530000   0.48937257    -7.8301398     -7.0960914      3.5259532      50218.233      36.893836      36.893836      36.893836    
   5540000   0.49085466    -7.8324448     -7.0961733      3.5178911      50218.233      36.893836      36.893836      36.893836    
   5550000   0.49376237    -7.8287022     -7.0880692      3.5467639      50218.233      36.893836      36.893836      36.893836    
   5560000   0.49199162    -7.8321503     -7.0941734      3.5120154      50218.233      36.893836      36.893836      36.893836    
   5570000   0.48812549    -7.8302498     -7.098072       3.5246644      50218.233      36.893836      36.893836      36.893836    
   5580000   0.49132675    -7.8354649     -7.0984853      3.4949643      50218.233      36.893836      36.893836      36.893836    
   5590000   0.48877556    -7.8337652     -7.1006123      3.4977894      50218.233      36.893836      36.893836      36.893836    
   5600000   0.49051927    -7.8290688     -7.0933004      3.5411553      50218.233      36.893836      36.893836      36.893836    
   5610000   0.49250837    -7.8357585     -7.0970064      3.5038673      50218.233      36.893836      36.893836      36.893836    
   5620000   0.49187885    -7.8299274     -7.0921196      3.5332466      50218.233      36.893836      36.893836      36.893836    
   5630000   0.48912001    -7.8264527     -7.0927831      3.5632937      50218.233      36.893836      36.893836      36.893836    
   5640000   0.49025192    -7.8316267     -7.0962592      3.5204589      50218.233      36.893836      36.893836      36.893836    
   5650000   0.48995201    -7.8373062     -7.1023886      3.4745369      50218.233      36.893836      36.893836      36.893836    
   5660000   0.48820846    -7.8295753     -7.097273       3.5381755      50218.233      36.893836      36.893836      36.893836    
   5670000   0.48837089    -7.8314921     -7.0989461      3.5145928      50218.233      36.893836      36.893836      36.893836    
   5680000   0.49070733    -7.8313678     -7.0953173      3.5173299      50218.233      36.893836      36.893836      36.893836    
   5690000   0.48957603    -7.8270731     -7.0927195      3.5535806      50218.233      36.893836      36.893836      36.893836    
   5700000   0.4891934     -7.8309343     -7.0971547      3.5295976      50218.233      36.893836      36.893836      36.893836    
   5710000   0.4894296     -7.8349765     -7.1008425      3.4946459      50218.233      36.893836      36.893836      36.893836    
   5720000   0.49050451    -7.8332137     -7.0974674      3.4988346      50218.233      36.893836      36.893836      36.893836    
   5730000   0.48954716    -7.8284727     -7.0941624      3.5444184      50218.233      36.893836      36.893836      36.893836    
   5740000   0.49068359    -7.8272997     -7.0912848      3.5454943      50218.233      36.893836      36.893836      36.893836    
   5750000   0.49107589    -7.8322761     -7.0956727      3.5157414      50218.233      36.893836      36.893836      36.893836    
   5760000   0.48894168    -7.8294887     -7.0960866      3.529694       50218.233      36.893836      36.893836      36.893836    
   5770000   0.49004834    -7.8326348     -7.0975727      3.5027213      50218.233      36.893836      36.893836      36.893836    
   5780000   0.48868162    -7.8332698     -7.1002578      3.4892886      50218.233      36.893836      36.893836      36.893836    
   5790000   0.48808563    -7.8362824     -7.1041644      3.4787903      50218.233      36.893836      36.893836      36.893836    
   5800000   0.48866465    -7.8354647     -7.1024782      3.4902343      50218.233      36.893836      36.893836      36.893836    
   5810000   0.48858308    -7.834055      -7.1011908      3.4978595      50218.233      36.893836      36.893836      36.893836    
   5820000   0.48854988    -7.8313229     -7.0985085      3.5109731      50218.233      36.893836      36.893836      36.893836    
   5830000   0.49176873    -7.8350063     -7.0973637      3.4937444      50218.233      36.893836      36.893836      36.893836    
   5840000   0.4907154     -7.8308003     -7.0947376      3.5278814      50218.233      36.893836      36.893836      36.893836    
   5850000   0.4910341     -7.832383      -7.0958423      3.5076797      50218.233      36.893836      36.893836      36.893836    
   5860000   0.49150619    -7.8313023     -7.0940535      3.5247115      50218.233      36.893836      36.893836      36.893836    
   5870000   0.48901332    -7.8319763     -7.0984668      3.5131995      50218.233      36.893836      36.893836      36.893836    
   5880000   0.49057074    -7.833475      -7.0976293      3.5097797      50218.233      36.893836      36.893836      36.893836    
   5890000   0.48828141    -7.8335852     -7.1011735      3.5032154      50218.233      36.893836      36.893836      36.893836    
   5900000   0.49019759    -7.8319132     -7.0966272      3.5184715      50218.233      36.893836      36.893836      36.893836    
   5910000   0.48749412    -7.8314811     -7.1002504      3.5041787      50218.233      36.893836      36.893836      36.893836    
   5920000   0.49239495    -7.832499      -7.0939171      3.506812       50218.233      36.893836      36.893836      36.893836    
   5930000   0.4882824     -7.8326765     -7.1002633      3.5023023      50218.233      36.893836      36.893836      36.893836    
   5940000   0.49104043    -7.8359445     -7.0993943      3.4859427      50218.233      36.893836      36.893836      36.893836    
   5950000   0.49082824    -7.8286353     -7.0924034      3.5347615      50218.233      36.893836      36.893836      36.893836    
   5960000   0.49000334    -7.83221       -7.0972155      3.5234738      50218.233      36.893836      36.893836      36.893836    
   5970000   0.4871166     -7.8302591     -7.0995946      3.5308711      50218.233      36.893836      36.893836      36.893836    
   5980000   0.4917149     -7.8317591     -7.0941973      3.5244643      50218.233      36.893836      36.893836      36.893836    
   5990000   0.4897576     -7.8320825     -7.0974566      3.516392       50218.233      36.893836      36.893836      36.893836    
   6000000   0.48905666    -7.8297256     -7.096151       3.5297206      50218.233      36.893836      36.893836      36.893836    
   6010000   0.49022324    -7.8291076     -7.0937832      3.5299742      50218.233      36.893836      36.893836      36.893836    
   6020000   0.49244049    -7.8336678     -7.0950176      3.5033118      50218.233      36.893836      36.893836      36.893836    
   6030000   0.48996308    -7.8288552     -7.0939211      3.5323968      50218.233      36.893836      36.893836      36.893836    
   6040000   0.48957674    -7.8300865     -7.0957318      3.5366303      50218.233      36.893836      36.893836      36.893836    
   6050000   0.49144235    -7.833328      -7.096175       3.5034758      50218.233      36.893836      36.893836      36.893836    
   6060000   0.48964409    -7.8288132     -7.0943575      3.535146       50218.233      36.893836      36.893836      36.893836    
   6070000   0.49047765    -7.8313387     -7.0956327      3.5093927      50218.233      36.893836      36.893836      36.893836    
   6080000   0.49193901    -7.8280793     -7.0901813      3.5495787      50218.233      36.893836      36.893836      36.893836    
   6090000   0.4907524     -7.8320411     -7.0959229      3.5119535      50218.233      36.893836      36.893836      36.893836    
   6100000   0.49173389    -7.834701      -7.0971106      3.4978886      50218.233      36.893836      36.893836      36.893836    
   6110000   0.49211009    -7.8329976     -7.094843       3.5164848      50218.233      36.893836      36.893836      36.893836    
   6120000   0.4895969     -7.8311453     -7.0967604      3.5150792      50218.233      36.893836      36.893836      36.893836    
   6130000   0.48920934    -7.8290974     -7.0952938      3.5399268      50218.233      36.893836      36.893836      36.893836    
   6140000   0.49099478    -7.8282056     -7.0917239      3.5496972      50218.233      36.893836      36.893836      36.893836    
   6150000   0.49096735    -7.8264269     -7.0899864      3.5614998      50218.233      36.893836      36.893836      36.893836    
   6160000   0.48870696    -7.8312022     -7.0981521      3.5185455      50218.233      36.893836      36.893836      36.893836    
   6170000   0.49148117    -7.8306415     -7.0934302      3.5378882      50218.233      36.893836      36.893836      36.893836    
   6180000   0.49000357    -7.8318471     -7.0968522      3.5194097      50218.233      36.893836      36.893836      36.893836    
   6190000   0.49243616    -7.8330831     -7.0944394      3.5192904      50218.233      36.893836      36.893836      36.893836    
   6200000   0.49129414    -7.8344418     -7.0975111      3.5037704      50218.233      36.893836      36.893836      36.893836    
   6210000   0.49006167    -7.8311516     -7.0960695      3.5189796      50218.233      36.893836      36.893836      36.893836    
   6220000   0.48939762    -7.8329649     -7.0988789      3.5062206      50218.233      36.893836      36.893836      36.893836    
   6230000   0.49031517    -7.8328207     -7.0973584      3.5131355      50218.233      36.893836      36.893836      36.893836    
   6240000   0.49018633    -7.8315546     -7.0962856      3.5299698      50218.233      36.893836      36.893836      36.893836    
   6250000   0.49193581    -7.8311259     -7.0932327      3.5201925      50218.233      36.893836      36.893836      36.893836    
   6260000   0.49137622    -7.8292924     -7.0922386      3.5358998      50218.233      36.893836      36.893836      36.893836    
   6270000   0.48820664    -7.8311721     -7.0988726      3.5099066      50218.233      36.893836      36.893836      36.893836    
   6280000   0.48932465    -7.8315593     -7.0975827      3.5248823      50218.233      36.893836      36.893836      36.893836    
   6290000   0.48948003    -7.8314525     -7.0972429      3.5205287      50218.233      36.893836      36.893836      36.893836    
   6300000   0.48802537    -7.8321893     -7.1001616      3.5137478      50218.233      36.893836      36.893836      36.893836    
   6310000   0.49115181    -7.8317186     -7.0950014      3.5091757      50218.233      36.893836      36.893836      36.893836    
   6320000   0.48994179    -7.8322269     -7.0973247      3.5132989      50218.233      36.893836      36.893836      36.893836    
   6330000   0.49127635    -7.8267398     -7.0898357      3.5506725      50218.233      36.893836      36.893836      36.893836    
   6340000   0.49107932    -7.8328845     -7.096276       3.5014193      50218.233      36.893836      36.893836      36.893836    
   6350000   0.49118688    -7.8305901     -7.0938202      3.5176901      50218.233      36.893836      36.893836      36.893836    
   6360000   0.48905803    -7.828979      -7.0954024      3.5327381      50218.233      36.893836      36.893836      36.893836    
   6370000   0.4896413     -7.8288449     -7.0943934      3.5403996      50218.233      36.893836      36.893836      36.893836    
   6380000   0.49253907    -7.8326739     -7.0938758      3.5166505      50218.233      36.893836      36.893836      36.893836    
   6390000   0.4896056     -7.832955      -7.098557       3.5011401      50218.233      36.893836      36.893836      36.893836    
   6400000   0.49264822    -7.8284885     -7.0895267      3.5514997      50218.233      36.893836      36.893836      36.893836    
   6410000   0.48889489    -7.8305674     -7.0972355      3.5291429      50218.233      36.893836      36.893836      36.893836    
   6420000   0.49234977    -7.831889      -7.0933748      3.5206352      50218.233      36.893836      36.893836      36.893836    
   6430000   0.48886629    -7.8331218     -7.0998328      3.5121975      50218.233      36.893836      36.893836      36.893836    
   6440000   0.49295481    -7.8289319     -7.0895102      3.5423983      50218.233      36.893836      36.893836      36.893836    
   6450000   0.49005089    -7.8333854     -7.0983195      3.5092513      50218.233      36.893836      36.893836      36.893836    
   6460000   0.49053501    -7.8366935     -7.1009014      3.4867164      50218.233      36.893836      36.893836      36.893836    
   6470000   0.49153146    -7.8281607     -7.0908739      3.5444517      50218.233      36.893836      36.893836      36.893836    
   6480000   0.48778189    -7.8312825     -7.0996201      3.5232902      50218.233      36.893836      36.893836      36.893836    
   6490000   0.48940578    -7.8281305     -7.0940322      3.5414281      50218.233      36.893836      36.893836      36.893836    
   6500000   0.49017181    -7.8316823     -7.0964351      3.5143619      50218.233      36.893836      36.893836      36.893836    
   6510000   0.49213647    -7.8317404     -7.0935462      3.5180594      50218.233      36.893836      36.893836      36.893836    
   6520000   0.49431864    -7.8308451     -7.0893777      3.5257725      50218.233      36.893836      36.893836      36.893836    
   6530000   0.49273917    -7.836186      -7.0970878      3.4889485      50218.233      36.893836      36.893836      36.893836    
   6540000   0.49022292    -7.8300384     -7.0947145      3.5284697      50218.233      36.893836      36.893836      36.893836    
   6550000   0.48916043    -7.8286038     -7.0948736      3.5414343      50218.233      36.893836      36.893836      36.893836    
   6560000   0.48927223    -7.829971      -7.0960731      3.5313217      50218.233      36.893836      36.893836      36.893836    
   6570000   0.48906326    -7.8288665     -7.0952821      3.5280767      50218.233      36.893836      36.893836      36.893836    
   6580000   0.48856088    -7.8331768     -7.1003459      3.5057838      50218.233      36.893836      36.893836      36.893836    
   6590000   0.48996196    -7.8302641     -7.0953316      3.523996       50218.233      36.893836      36.893836      36.893836    
   6600000   0.48995858    -7.8335414     -7.098614       3.5005322      50218.233      36.893836      36.893836      36.893836    
   6610000   0.48869166    -7.8330404     -7.1000133      3.4908777      50218.233      36.893836      36.893836      36.893836    
   6620000   0.49085263    -7.8310926     -7.0948241      3.5140912      50218.233      36.893836      36.893836      36.893836    
   6630000   0.49058745    -7.8286845     -7.0928138      3.5426663      50218.233      36.893836      36.893836      36.893836    
   6640000   0.49107325    -7.826881      -7.0902816      3.5480165      50218.233      36.893836      36.893836      36.893836    
   6650000   0.4907042     -7.8277499     -7.0917041      3.5419949      50218.233      36.893836      36.893836      36.893836    
   6660000   0.48856017    -7.8307256     -7.0978958      3.518724       50218.233      36.893836      36.893836      36.893836    
   6670000   0.48844011    -7.8303242     -7.0976745      3.5263171      50218.233      36.893836      36.893836      36.893836    
   6680000   0.4888225     -7.8321732     -7.0989498      3.5089898      50218.233      36.893836      36.893836      36.893836    
   6690000   0.49106079    -7.8311988     -7.0946181      3.5224195      50218.233      36.893836      36.893836      36.893836    
   6700000   0.4916499     -7.8312567     -7.0937923      3.5268457      50218.233      36.893836      36.893836      36.893836    
   6710000   0.48914775    -7.8316056     -7.0978944      3.5196492      50218.233      36.893836      36.893836      36.893836    
   6720000   0.49119942    -7.8335545     -7.0967658      3.5036565      50218.233      36.893836      36.893836      36.893836    
   6730000   0.4894746     -7.8284735     -7.0942721      3.5387952      50218.233      36.893836      36.893836      36.893836    
   6740000   0.49190322    -7.8294923     -7.091648       3.5355373      50218.233      36.893836      36.893836      36.893836    
   6750000   0.49360924    -7.8283        -7.0878967      3.5470272      50218.233      36.893836      36.893836      36.893836    
   6760000   0.49035132    -7.830345      -7.0948285      3.5262832      50218.233      36.893836      36.893836      36.893836    
   6770000   0.49010659    -7.8282505     -7.093101       3.5540876      50218.233      36.893836      36.893836      36.893836    
   6780000   0.48883949    -7.8342693     -7.1010205      3.5060255      50218.233      36.893836      36.893836      36.893836    
   6790000   0.49100241    -7.8289352     -7.0924421      3.5318469      50218.233      36.893836      36.893836      36.893836    
   6800000   0.48957685    -7.8303835     -7.0960287      3.5116648      50218.233      36.893836      36.893836      36.893836    
   6810000   0.489987      -7.8285087     -7.0935387      3.5496307      50218.233      36.893836      36.893836      36.893836    
   6820000   0.49124158    -7.8327732     -7.0959213      3.5167122      50218.233      36.893836      36.893836      36.893836    
   6830000   0.48884433    -7.8286933     -7.0954372      3.5353976      50218.233      36.893836      36.893836      36.893836    
   6840000   0.48974719    -7.8309285     -7.0963182      3.5246349      50218.233      36.893836      36.893836      36.893836    
   6850000   0.48929012    -7.833102      -7.0991773      3.5015275      50218.233      36.893836      36.893836      36.893836    
   6860000   0.49051352    -7.8344319     -7.0986721      3.4995057      50218.233      36.893836      36.893836      36.893836    
   6870000   0.48884038    -7.8318861     -7.098636       3.5059951      50218.233      36.893836      36.893836      36.893836    
   6880000   0.48968691    -7.8304781     -7.0959582      3.5190921      50218.233      36.893836      36.893836      36.893836    
   6890000   0.49026445    -7.8303602     -7.094974       3.5231389      50218.233      36.893836      36.893836      36.893836    
   6900000   0.49028314    -7.8285025     -7.0930883      3.535442       50218.233      36.893836      36.893836      36.893836    
   6910000   0.4930359     -7.8327975     -7.0932542      3.5028711      50218.233      36.893836      36.893836      36.893836    
   6920000   0.4917783     -7.8346275     -7.0969705      3.4940015      50218.233      36.893836      36.893836      36.893836    
   6930000   0.48913963    -7.828925      -7.095226       3.5268435      50218.233      36.893836      36.893836      36.893836    
   6940000   0.49050739    -7.8329984     -7.0972478      3.5049178      50218.233      36.893836      36.893836      36.893836    
   6950000   0.48810182    -7.8318289     -7.0996866      3.5173356      50218.233      36.893836      36.893836      36.893836    
   6960000   0.48971162    -7.8356276     -7.1010706      3.4821059      50218.233      36.893836      36.893836      36.893836    
   6970000   0.48864656    -7.8329368     -7.0999774      3.4977411      50218.233      36.893836      36.893836      36.893836    
   6980000   0.4927829     -7.8283797     -7.0892158      3.544328       50218.233      36.893836      36.893836      36.893836    
   6990000   0.48918266    -7.8287238     -7.0949603      3.5324013      50218.233      36.893836      36.893836      36.893836    
   7000000   0.49155862    -7.827816      -7.0904885      3.5512382      50218.233      36.893836      36.893836      36.893836    
   7010000   0.48822336    -7.8319214     -7.0995968      3.512915       50218.233      36.893836      36.893836      36.893836    
   7020000   0.49004399    -7.8330696     -7.0980141      3.5171874      50218.233      36.893836      36.893836      36.893836    
   7030000   0.4861632     -7.8292073     -7.0999728      3.5334715      50218.233      36.893836      36.893836      36.893836    
   7040000   0.49445435    -7.8323906     -7.0907196      3.5077458      50218.233      36.893836      36.893836      36.893836    
   7050000   0.48713667    -7.8302041     -7.0995095      3.5135033      50218.233      36.893836      36.893836      36.893836    
   7060000   0.48829076    -7.8346956     -7.1022699      3.4892467      50218.233      36.893836      36.893836      36.893836    
   7070000   0.49155599    -7.8318172     -7.0944937      3.5168748      50218.233      36.893836      36.893836      36.893836    
   7080000   0.48956661    -7.8297629     -7.0954234      3.5230241      50218.233      36.893836      36.893836      36.893836    
   7090000   0.49011026    -7.8331404     -7.0979855      3.5168829      50218.233      36.893836      36.893836      36.893836    
   7100000   0.49156497    -7.829513      -7.092176       3.5351368      50218.233      36.893836      36.893836      36.893836    
   7110000   0.49081788    -7.8323673     -7.096151       3.514657       50218.233      36.893836      36.893836      36.893836    
   7120000   0.49080088    -7.8287052     -7.0925143      3.5354478      50218.233      36.893836      36.893836      36.893836    
   7130000   0.48882168    -7.8316724     -7.0984503      3.5083195      50218.233      36.893836      36.893836      36.893836    
   7140000   0.4884978     -7.8297259     -7.0969896      3.5188725      50218.233      36.893836      36.893836      36.893836    
   7150000   0.4904899     -7.8300808     -7.0943564      3.5331839      50218.233      36.893836      36.893836      36.893836    
   7160000   0.48825947    -7.8337166     -7.1013378      3.5029993      50218.233      36.893836      36.893836      36.893836    
   7170000   0.49024962    -7.8327892     -7.0974253      3.5101802      50218.233      36.893836      36.893836      36.893836    
   7180000   0.4914005     -7.8326237     -7.0955334      3.5084437      50218.233      36.893836      36.893836      36.893836    
   7190000   0.49228781    -7.8314933     -7.0930721      3.5223865      50218.233      36.893836      36.893836      36.893836    
   7200000   0.48876003    -7.8267143     -7.0935847      3.5478456      50218.233      36.893836      36.893836      36.893836    
   7210000   0.49090012    -7.8299882     -7.0936485      3.5257064      50218.233      36.893836      36.893836      36.893836    
   7220000   0.48979983    -7.8265931     -7.0919038      3.5527298      50218.233      36.893836      36.893836      36.893836    
   7230000   0.49168611    -7.8340926     -7.0965739      3.4984262      50218.233      36.893836      36.893836      36.893836    
   7240000   0.49427045    -7.8286782     -7.087283       3.5486084      50218.233      36.893836      36.893836      36.893836    
   7250000   0.48912996    -7.8320937     -7.0984092      3.5135121      50218.233      36.893836      36.893836      36.893836    
   7260000   0.48944408    -7.8307761     -7.0966205      3.5283465      50218.233      36.893836      36.893836      36.893836    
   7270000   0.49000397    -7.8328718     -7.0978763      3.5032419      50218.233      36.893836      36.893836      36.893836    
   7280000   0.48816432    -7.8306334     -7.0983974      3.5234617      50218.233      36.893836      36.893836      36.893836    
   7290000   0.49484349    -7.8323249     -7.0900702      3.5238351      50218.233      36.893836      36.893836      36.893836    
   7300000   0.49194167    -7.828765      -7.090863       3.551088       50218.233      36.893836      36.893836      36.893836    
   7310000   0.49098205    -7.8283878     -7.0919252      3.5380436      50218.233      36.893836      36.893836      36.893836    
   7320000   0.49199383    -7.8318703     -7.09389        3.5222138      50218.233      36.893836      36.893836      36.893836    
   7330000   0.48957196    -7.8289835     -7.094636       3.5248729      50218.233      36.893836      36.893836      36.893836    
   7340000   0.49225449    -7.8358943     -7.097523       3.4862075      50218.233      36.893836      36.893836      36.893836    
   7350000   0.49073892    -7.8312645     -7.0951666      3.5155203      50218.233      36.893836      36.893836      36.893836    
   7360000   0.48966365    -7.8337752     -7.0992902      3.5112316      50218.233      36.893836      36.893836      36.893836    
   7370000   0.48889128    -7.8305293     -7.0972028      3.526488       50218.233      36.893836      36.893836      36.893836    
   7380000   0.49333388    -7.8250689     -7.0850786      3.580566       50218.233      36.893836      36.893836      36.893836    
   7390000   0.48891262    -7.8360856     -7.1027271      3.4922898      50218.233      36.893836      36.893836      36.893836    
   7400000   0.4890869     -7.83192       -7.0983001      3.5201878      50218.233      36.893836      36.893836      36.893836    
   7410000   0.49055114    -7.8316715     -7.0958552      3.5229981      50218.233      36.893836      36.893836      36.893836    
   7420000   0.49155775    -7.8315402     -7.0942141      3.5184889      50218.233      36.893836      36.893836      36.893836    
   7430000   0.49101865    -7.8285115     -7.091994       3.5463238      50218.233      36.893836      36.893836      36.893836    
   7440000   0.49082296    -7.8311468     -7.0949228      3.5342771      50218.233      36.893836      36.893836      36.893836    
   7450000   0.48841176    -7.8306989     -7.0980916      3.5164116      50218.233      36.893836      36.893836      36.893836    
   7460000   0.49015725    -7.8317149     -7.0964895      3.5181328      50218.233      36.893836      36.893836      36.893836    
   7470000   0.49166936    -7.8297661     -7.0922725      3.5246624      50218.233      36.893836      36.893836      36.893836    
   7480000   0.48846161    -7.8363589     -7.1036769      3.4863344      50218.233      36.893836      36.893836      36.893836    
   7490000   0.48857278    -7.8315314     -7.0986826      3.5090648      50218.233      36.893836      36.893836      36.893836    
   7500000   0.48853709    -7.8320315     -7.0992363      3.5130389      50218.233      36.893836      36.893836      36.893836    
   7510000   0.4907019     -7.8348396     -7.0987973      3.4960329      50218.233      36.893836      36.893836      36.893836    
   7520000   0.4899713     -7.8299649     -7.0950184      3.5265288      50218.233      36.893836      36.893836      36.893836    
   7530000   0.48911434    -7.8312627     -7.0976017      3.5251166      50218.233      36.893836      36.893836      36.893836    
   7540000   0.49215589    -7.8329179     -7.0946945      3.508251       50218.233      36.893836      36.893836      36.893836    
   7550000   0.48850735    -7.8305368     -7.0977862      3.5216136      50218.233      36.893836      36.893836      36.893836    
   7560000   0.49010175    -7.8313442     -7.096202       3.5283372      50218.233      36.893836      36.893836      36.893836    
   7570000   0.48900742    -7.8357489     -7.1022482      3.4927416      50218.233      36.893836      36.893836      36.893836    
   7580000   0.49141762    -7.8310701     -7.0939542      3.5154731      50218.233      36.893836      36.893836      36.893836    
   7590000   0.49015814    -7.8363487     -7.1011219      3.4816967      50218.233      36.893836      36.893836      36.893836    
   7600000   0.49094072    -7.832279      -7.0958784      3.5183325      50218.233      36.893836      36.893836      36.893836    
   7610000   0.4903808     -7.8304217     -7.094861       3.5430091      50218.233      36.893836      36.893836      36.893836    
   7620000   0.48961106    -7.8348543     -7.1004482      3.4953676      50218.233      36.893836      36.893836      36.893836    
   7630000   0.48964666    -7.8346483     -7.1001888      3.5030626      50218.233      36.893836      36.893836      36.893836    
   7640000   0.49008129    -7.8326986     -7.0975871      3.5130937      50218.233      36.893836      36.893836      36.893836    
   7650000   0.4874273     -7.8324524     -7.1013218      3.5106481      50218.233      36.893836      36.893836      36.893836    
   7660000   0.48917081    -7.8302834     -7.0965376      3.5244355      50218.233      36.893836      36.893836      36.893836    
   7670000   0.4919099     -7.8366324     -7.098778       3.498636       50218.233      36.893836      36.893836      36.893836    
   7680000   0.49189081    -7.8328594     -7.0950336      3.5219333      50218.233      36.893836      36.893836      36.893836    
   7690000   0.49070202    -7.8347801     -7.0987376      3.4990373      50218.233      36.893836      36.893836      36.893836    
   7700000   0.48718701    -7.8327818     -7.1020116      3.5082172      50218.233      36.893836      36.893836      36.893836    
   7710000   0.4875846     -7.8365592     -7.1051927      3.4777382      50218.233      36.893836      36.893836      36.893836    
   7720000   0.49030015    -7.8321438     -7.096704       3.5259072      50218.233      36.893836      36.893836      36.893836    
   7730000   0.48769576    -7.8326661     -7.1011329      3.5155823      50218.233      36.893836      36.893836      36.893836    
   7740000   0.49036551    -7.8307861     -7.0952483      3.5310266      50218.233      36.893836      36.893836      36.893836    
   7750000   0.49183914    -7.8297747     -7.0920265      3.5392817      50218.233      36.893836      36.893836      36.893836    
   7760000   0.48710528    -7.8333286     -7.1026811      3.5029491      50218.233      36.893836      36.893836      36.893836    
   7770000   0.4883909     -7.8301599     -7.097584       3.5379527      50218.233      36.893836      36.893836      36.893836    
   7780000   0.48934643    -7.8371123     -7.103103       3.4766712      50218.233      36.893836      36.893836      36.893836    
   7790000   0.48905124    -7.8344766     -7.1009102      3.5057228      50218.233      36.893836      36.893836      36.893836    
   7800000   0.49245547    -7.83092       -7.0922473      3.5388034      50218.233      36.893836      36.893836      36.893836    
   7810000   0.49336737    -7.8298685     -7.089828       3.5450134      50218.233      36.893836      36.893836      36.893836    
   7820000   0.49124814    -7.8338966     -7.0970348      3.511169       50218.233      36.893836      36.893836      36.893836    
   7830000   0.49058414    -7.8333        -7.0974342      3.5040458      50218.233      36.893836      36.893836      36.893836    
   7840000   0.49092777    -7.8354967     -7.0991155      3.4993918      50218.233      36.893836      36.893836      36.893836    
   7850000   0.4878154     -7.8326524     -7.1009397      3.5167872      50218.233      36.893836      36.893836      36.893836    
   7860000   0.48917974    -7.8355513     -7.1017922      3.4971051      50218.233      36.893836      36.893836      36.893836    
   7870000   0.49147333    -7.8330371     -7.0958376      3.508159       50218.233      36.893836      36.893836      36.893836    
   7880000   0.48951472    -7.8361827     -7.1019211      3.4892512      50218.233      36.893836      36.893836      36.893836    
   7890000   0.4877554     -7.831697      -7.1000743      3.5183658      50218.233      36.893836      36.893836      36.893836    
   7900000   0.49113295    -7.8370791     -7.1003902      3.4859178      50218.233      36.893836      36.893836      36.893836    
   7910000   0.48911711    -7.8372591     -7.1035939      3.4746421      50218.233      36.893836      36.893836      36.893836    
   7920000   0.48803002    -7.8335855     -7.1015509      3.5086095      50218.233      36.893836      36.893836      36.893836    
   7930000   0.49172241    -7.8324347     -7.0948615      3.5222109      50218.233      36.893836      36.893836      36.893836    
   7940000   0.49102693    -7.8325468     -7.0960169      3.5100233      50218.233      36.893836      36.893836      36.893836    
   7950000   0.48969549    -7.8327725     -7.0982397      3.5173913      50218.233      36.893836      36.893836      36.893836    
   7960000   0.49032912    -7.8331717     -7.0976884      3.5053722      50218.233      36.893836      36.893836      36.893836    
   7970000   0.49173784    -7.8336493     -7.096053       3.5181491      50218.233      36.893836      36.893836      36.893836    
   7980000   0.4916915     -7.8340445     -7.0965177      3.4953204      50218.233      36.893836      36.893836      36.893836    
   7990000   0.48827544    -7.8381172     -7.1057144      3.4732334      50218.233      36.893836      36.893836      36.893836    
   8000000   0.49193527    -7.8333335     -7.0954411      3.5173641      50218.233      36.893836      36.893836      36.893836    
Loop time of 12597.8 on 5 procs for 8000000 steps with 70304 atoms

Performance: 548665.772 tau/day, 635.030 timesteps/s, 44.645 Matom-step/s
94.5% CPU use with 5 MPI tasks x 1 OpenMP threads

MPI task timing breakdown:
Section |  min time  |  avg time  |  max time  |%varavg| %total
---------------------------------------------------------------
Pair    | 4153.8     | 4936.4     | 5855.1     | 933.3 | 39.18
Neigh   | 38.837     | 44.31      | 49.254     |  56.5 |  0.35
Comm    | 1886.7     | 1917.9     | 1956.4     |  66.0 | 15.22
Output  | 0.14355    | 0.14793    | 0.1558     |   1.1 |  0.00
Modify  | 4182.5     | 5071.5     | 5832.9     | 902.9 | 40.26
Other   |            | 627.6      |            |       |  4.98

Nlocal:        14060.8 ave       14103 max       14033 min
Histogram: 2 1 0 0 0 0 0 1 0 1
Nghost:        18766.2 ave       18837 max       18693 min
Histogram: 1 0 0 0 1 1 1 0 0 1
Neighs:              0 ave           0 max           0 min
Histogram: 5 0 0 0 0 0 0 0 0 0

Total # of neighbors = 0
Ave neighs/atom = 0
Neighbor list builds = 1628284
Dangerous builds = 0
clear
OMP_NUM_THREADS environment is not set. Defaulting to 1 thread. (src/comm.cpp:98)
  using 1 OpenMP thread(s) per MPI task
package gpu 0
jump dms470.lmp

variable T equal 470
# T = 1000* (temp in LJ unit)
variable f equal 10000
log log.${T}
log log.470
