variable TLJ equal (${T}/1000)
variable TLJ equal (435/1000)
variable NCyle equal 8
variable iStep equal (${f})
variable iStep equal (10000)
variable dumpStep equal (${f}*100)
variable dumpStep equal (10000*100)
variable runStep equal (${f}*100*${NCyle})
variable runStep equal (10000*100*${NCyle})
variable runStep equal (10000*100*8)

units       lj
atom_style  atomic
dimension 3
boundary     p p p
pair_style  lj/cut 2.5
read_data  ../data/T${T}.dat
read_data  ../data/T435.dat
Reading data file ...
  orthogonal box = (0.97250269 0.97250269 0.97250269) to (37.866338 37.866338 37.866338)
  1 by 1 by 5 MPI processor grid
  reading atoms ...
  70304 atoms
  reading velocities ...
  70304 velocities
  read_data CPU = 0.209 seconds
change_box all triclinic
Changing box ...
  triclinic box = (0.97250269 0.97250269 0.97250269) to (37.866338 37.866338 37.866338) with tilt (0 0 0)
mass 1 1
mass 2 1
pair_modify shift yes
pair_coeff  1 1 1 1
pair_coeff  1 2 1.5 0.8
pair_coeff  2 2 0.5 0.88


timestep 0.01
thermo ${iStep}
thermo 10000
reset_timestep 0
thermo_style custom step temp pe etotal press vol lx ly lz
fix             1 all nvt temp ${TLJ}  ${TLJ}  0.1
fix             1 all nvt temp 0.435  ${TLJ}  0.1
fix             1 all nvt temp 0.435  0.435  0.1
thermo_modify flush yes

fix dsf all deform 1 xy  wiggle 0.5  ${f}   units box
fix dsf all deform 1 xy  wiggle 0.5  10000   units box
fix ps1 all ave/time 1 1 ${iStep} c_thermo_press[1] c_thermo_press[2]  c_thermo_press[3] c_thermo_press[4]  c_thermo_press[5] c_thermo_press[6]  file  stress.${T}
fix ps1 all ave/time 1 1 10000 c_thermo_press[1] c_thermo_press[2]  c_thermo_press[3] c_thermo_press[4]  c_thermo_press[5] c_thermo_press[6]  file  stress.${T}
fix ps1 all ave/time 1 1 10000 c_thermo_press[1] c_thermo_press[2]  c_thermo_press[3] c_thermo_press[4]  c_thermo_press[5] c_thermo_press[6]  file  stress.435
dump            1 all custom ${dumpStep} dump.${T} id type x y z
dump            1 all custom 1000000 dump.${T} id type x y z
dump            1 all custom 1000000 dump.435 id type x y z
dump_modify 1 sort id
fix nodrift all momentum 1  linear 1 1 1
fix com_seed all recenter INIT INIT INIT shift all
run ${runStep}
run 8000000
Generated 0 of 1 mixed pair_coeff terms from geometric mixing rule
Per MPI rank memory allocation (min/avg/max) = 6.663 | 8.018 | 8.923 Mbytes
   Step          Temp          PotEng         TotEng         Press          Volume           Lx             Ly             Lz      
         0   0.43258281    -7.9429685     -7.2941035      2.6107093      50218.233      36.893836      36.893836      36.893836    
     10000   0.43433077    -7.9337408     -7.2822539      2.6835179      50218.233      36.893836      36.893836      36.893836    
     20000   0.43748165    -7.9372483     -7.2810352      2.6658383      50218.233      36.893836      36.893836      36.893836    
     30000   0.4354487     -7.9338441     -7.2806804      2.6804706      50218.233      36.893836      36.893836      36.893836    
     40000   0.43643171    -7.9376801     -7.2830418      2.6647019      50218.233      36.893836      36.893836      36.893836    
     50000   0.43622603    -7.9360116     -7.2816818      2.6663823      50218.233      36.893836      36.893836      36.893836    
     60000   0.43746195    -7.9319335     -7.2757499      2.6986738      50218.233      36.893836      36.893836      36.893836    
     70000   0.43627387    -7.9355113     -7.2811098      2.6753594      50218.233      36.893836      36.893836      36.893836    
     80000   0.43774383    -7.9368394     -7.280233       2.6723061      50218.233      36.893836      36.893836      36.893836    
     90000   0.43419011    -7.936297      -7.2850211      2.6824142      50218.233      36.893836      36.893836      36.893836    
    100000   0.43549373    -7.9344739     -7.2812425      2.6825633      50218.233      36.893836      36.893836      36.893836    
    110000   0.43722006    -7.9327342     -7.2769135      2.7019774      50218.233      36.893836      36.893836      36.893836    
    120000   0.4346645     -7.9338004     -7.281813       2.6826137      50218.233      36.893836      36.893836      36.893836    
    130000   0.43557663    -7.9324387     -7.279083       2.70244        50218.233      36.893836      36.893836      36.893836    
    140000   0.43629428    -7.933938      -7.2795059      2.6885899      50218.233      36.893836      36.893836      36.893836    
    150000   0.43721876    -7.9329988     -7.27718        2.6981925      50218.233      36.893836      36.893836      36.893836    
    160000   0.43358932    -7.9366799     -7.2863052      2.6659446      50218.233      36.893836      36.893836      36.893836    
    170000   0.43355931    -7.9364247     -7.286095       2.6641572      50218.233      36.893836      36.893836      36.893836    
    180000   0.43380973    -7.9353541     -7.2846488      2.6732504      50218.233      36.893836      36.893836      36.893836    
    190000   0.43403359    -7.9352446     -7.2842035      2.6792259      50218.233      36.893836      36.893836      36.893836    
    200000   0.43503112    -7.9339053     -7.2813679      2.6873049      50218.233      36.893836      36.893836      36.893836    
    210000   0.435159      -7.9374825     -7.2847532      2.6647039      50218.233      36.893836      36.893836      36.893836    
    220000   0.43415948    -7.9331524     -7.2819224      2.6966359      50218.233      36.893836      36.893836      36.893836    
    230000   0.43068128    -7.9324527     -7.28644        2.6915467      50218.233      36.893836      36.893836      36.893836    
    240000   0.43259276    -7.9324871     -7.2836072      2.6852645      50218.233      36.893836      36.893836      36.893836    
    250000   0.4353651     -7.9355414     -7.282503       2.6731035      50218.233      36.893836      36.893836      36.893836    
    260000   0.43386399    -7.9333929     -7.2826062      2.6875268      50218.233      36.893836      36.893836      36.893836    
    270000   0.4320705     -7.9318769     -7.2837804      2.6926269      50218.233      36.893836      36.893836      36.893836    
    280000   0.43338338    -7.936203      -7.2861372      2.6648018      50218.233      36.893836      36.893836      36.893836    
    290000   0.43463635    -7.933209      -7.2812638      2.6770683      50218.233      36.893836      36.893836      36.893836    
    300000   0.43509816    -7.9312214     -7.2785834      2.7125659      50218.233      36.893836      36.893836      36.893836    
    310000   0.43413807    -7.9365864     -7.2853885      2.6724626      50218.233      36.893836      36.893836      36.893836    
    320000   0.4358252     -7.9351046     -7.2813761      2.6850739      50218.233      36.893836      36.893836      36.893836    
    330000   0.43623469    -7.9362761     -7.2819334      2.6741504      50218.233      36.893836      36.893836      36.893836    
    340000   0.43596567    -7.9340313     -7.2800921      2.6867076      50218.233      36.893836      36.893836      36.893836    
    350000   0.43507003    -7.9320938     -7.2794981      2.6917829      50218.233      36.893836      36.893836      36.893836    
    360000   0.43473269    -7.9338963     -7.2818065      2.6918688      50218.233      36.893836      36.893836      36.893836    
    370000   0.43338817    -7.9324733     -7.2824003      2.7017509      50218.233      36.893836      36.893836      36.893836    
    380000   0.43624157    -7.93526       -7.2809069      2.6702558      50218.233      36.893836      36.893836      36.893836    
    390000   0.43390857    -7.9346215     -7.2837679      2.6713831      50218.233      36.893836      36.893836      36.893836    
    400000   0.43268539    -7.9343152     -7.2852963      2.6823788      50218.233      36.893836      36.893836      36.893836    
    410000   0.43596227    -7.9328311     -7.278897       2.6878384      50218.233      36.893836      36.893836      36.893836    
    420000   0.43404387    -7.931163      -7.2801065      2.7007437      50218.233      36.893836      36.893836      36.893836    
    430000   0.43523241    -7.936201      -7.2833617      2.6712297      50218.233      36.893836      36.893836      36.893836    
    440000   0.43382621    -7.9361807     -7.2854506      2.674833       50218.233      36.893836      36.893836      36.893836    
    450000   0.43239127    -7.9369631     -7.2883855      2.6583071      50218.233      36.893836      36.893836      36.893836    
    460000   0.43512821    -7.9320782     -7.2793951      2.6940899      50218.233      36.893836      36.893836      36.893836    
    470000   0.43403341    -7.9330666     -7.2820257      2.6839154      50218.233      36.893836      36.893836      36.893836    
    480000   0.43418112    -7.9325362     -7.2812738      2.699043       50218.233      36.893836      36.893836      36.893836    
    490000   0.43641107    -7.9321484     -7.2775411      2.7041361      50218.233      36.893836      36.893836      36.893836    
    500000   0.43556726    -7.9316647     -7.2783231      2.7006593      50218.233      36.893836      36.893836      36.893836    
    510000   0.43442037    -7.9327262     -7.2811049      2.7041412      50218.233      36.893836      36.893836      36.893836    
    520000   0.43447727    -7.9333833     -7.2816766      2.6981753      50218.233      36.893836      36.893836      36.893836    
    530000   0.43578059    -7.9346259     -7.2809644      2.6745636      50218.233      36.893836      36.893836      36.893836    
    540000   0.43594561    -7.9371815     -7.2832724      2.6568333      50218.233      36.893836      36.893836      36.893836    
    550000   0.43412287    -7.9329758     -7.2818008      2.6918802      50218.233      36.893836      36.893836      36.893836    
    560000   0.43713705    -7.9361501     -7.2804539      2.6624374      50218.233      36.893836      36.893836      36.893836    
    570000   0.43317819    -7.9314732     -7.2817152      2.7006291      50218.233      36.893836      36.893836      36.893836    
    580000   0.43792263    -7.9325005     -7.2756259      2.6949608      50218.233      36.893836      36.893836      36.893836    
    590000   0.43445889    -7.9371214     -7.2854423      2.6608744      50218.233      36.893836      36.893836      36.893836    
    600000   0.43536182    -7.9327243     -7.2796909      2.6930044      50218.233      36.893836      36.893836      36.893836    
    610000   0.43458047    -7.9314181     -7.2795567      2.7036498      50218.233      36.893836      36.893836      36.893836    
    620000   0.43521299    -7.935308      -7.2824978      2.6843866      50218.233      36.893836      36.893836      36.893836    
    630000   0.43667305    -7.9333386     -7.2783383      2.6907864      50218.233      36.893836      36.893836      36.893836    
    640000   0.43523298    -7.9307998     -7.2779596      2.7078584      50218.233      36.893836      36.893836      36.893836    
    650000   0.43246538    -7.9312372     -7.2825484      2.693932       50218.233      36.893836      36.893836      36.893836    
    660000   0.4362649     -7.9337032     -7.2793151      2.6936645      50218.233      36.893836      36.893836      36.893836    
    670000   0.43303501    -7.9346823     -7.285139       2.6780346      50218.233      36.893836      36.893836      36.893836    
    680000   0.43696475    -7.9331886     -7.2777508      2.6924133      50218.233      36.893836      36.893836      36.893836    
    690000   0.43302018    -7.9303838     -7.2808627      2.6980149      50218.233      36.893836      36.893836      36.893836    
    700000   0.43524093    -7.9333843     -7.2805322      2.693649       50218.233      36.893836      36.893836      36.893836    
    710000   0.43546382    -7.9331299     -7.2799434      2.6959069      50218.233      36.893836      36.893836      36.893836    
    720000   0.43505209    -7.9316388     -7.27907        2.7051135      50218.233      36.893836      36.893836      36.893836    
    730000   0.43476838    -7.934192      -7.2820487      2.6914837      50218.233      36.893836      36.893836      36.893836    
    740000   0.43814509    -7.9322707     -7.2750624      2.6946556      50218.233      36.893836      36.893836      36.893836    
    750000   0.43801352    -7.9316948     -7.2746839      2.7007107      50218.233      36.893836      36.893836      36.893836    
    760000   0.43410146    -7.9337771     -7.2826342      2.6805393      50218.233      36.893836      36.893836      36.893836    
    770000   0.43304337    -7.9333279     -7.2837721      2.6791686      50218.233      36.893836      36.893836      36.893836    
    780000   0.43753594    -7.9334138     -7.2771192      2.6964836      50218.233      36.893836      36.893836      36.893836    
    790000   0.43341089    -7.9370331     -7.286926       2.6668405      50218.233      36.893836      36.893836      36.893836    
    800000   0.43567527    -7.9325578     -7.2790542      2.6886745      50218.233      36.893836      36.893836      36.893836    
    810000   0.43482011    -7.9337702     -7.2815493      2.6894723      50218.233      36.893836      36.893836      36.893836    
    820000   0.43560244    -7.9316645     -7.2782701      2.7005054      50218.233      36.893836      36.893836      36.893836    
    830000   0.43447824    -7.9335041     -7.281796       2.6801453      50218.233      36.893836      36.893836      36.893836    
    840000   0.43365114    -7.9308414     -7.280374       2.711667       50218.233      36.893836      36.893836      36.893836    
    850000   0.43582339    -7.9337039     -7.2799781      2.6887145      50218.233      36.893836      36.893836      36.893836    
    860000   0.43338071    -7.9317847     -7.2817229      2.7025826      50218.233      36.893836      36.893836      36.893836    
    870000   0.4362337     -7.9361124     -7.2817712      2.6736418      50218.233      36.893836      36.893836      36.893836    
    880000   0.43539707    -7.9306448     -7.2775585      2.7197897      50218.233      36.893836      36.893836      36.893836    
    890000   0.43560467    -7.9354281     -7.2820304      2.6731666      50218.233      36.893836      36.893836      36.893836    
    900000   0.43790072    -7.934689      -7.2778472      2.6863407      50218.233      36.893836      36.893836      36.893836    
    910000   0.43535228    -7.9363222     -7.283303       2.6671451      50218.233      36.893836      36.893836      36.893836    
    920000   0.4376283     -7.9318657     -7.2754326      2.709655       50218.233      36.893836      36.893836      36.893836    
    930000   0.43540493    -7.935993      -7.2828949      2.6672583      50218.233      36.893836      36.893836      36.893836    
    940000   0.43529582    -7.9317107     -7.2787762      2.6982359      50218.233      36.893836      36.893836      36.893836    
    950000   0.4353534     -7.9332597     -7.2802389      2.6978172      50218.233      36.893836      36.893836      36.893836    
    960000   0.43336803    -7.939404      -7.2893612      2.6414031      50218.233      36.893836      36.893836      36.893836    
    970000   0.43418475    -7.9369754     -7.2857075      2.6572713      50218.233      36.893836      36.893836      36.893836    
    980000   0.43451268    -7.9404076     -7.2886478      2.6388245      50218.233      36.893836      36.893836      36.893836    
    990000   0.43338678    -7.9362738     -7.2862029      2.6690807      50218.233      36.893836      36.893836      36.893836    
   1000000   0.43451692    -7.9306258     -7.2788597      2.7157048      50218.233      36.893836      36.893836      36.893836    
   1010000   0.43175305    -7.9326432     -7.2850228      2.689758       50218.233      36.893836      36.893836      36.893836    
   1020000   0.43514975    -7.9329402     -7.2802248      2.6917681      50218.233      36.893836      36.893836      36.893836    
   1030000   0.43354771    -7.9366389     -7.2863266      2.6544624      50218.233      36.893836      36.893836      36.893836    
   1040000   0.43617956    -7.9356109     -7.2813509      2.6806703      50218.233      36.893836      36.893836      36.893836    
   1050000   0.43256785    -7.9367868     -7.2879443      2.6503344      50218.233      36.893836      36.893836      36.893836    
   1060000   0.43516326    -7.9338933     -7.2811577      2.6820266      50218.233      36.893836      36.893836      36.893836    
   1070000   0.43405389    -7.9338518     -7.2827802      2.6843863      50218.233      36.893836      36.893836      36.893836    
   1080000   0.43573558    -7.9351181     -7.281524       2.68226        50218.233      36.893836      36.893836      36.893836    
   1090000   0.43598029    -7.9301194     -7.2761583      2.7168342      50218.233      36.893836      36.893836      36.893836    
   1100000   0.43369814    -7.935131      -7.284593       2.673141       50218.233      36.893836      36.893836      36.893836    
   1110000   0.43536728    -7.9337417     -7.2807001      2.6917103      50218.233      36.893836      36.893836      36.893836    
   1120000   0.43348357    -7.940024      -7.2898079      2.6355653      50218.233      36.893836      36.893836      36.893836    
   1130000   0.43502813    -7.9331924     -7.2806595      2.7060152      50218.233      36.893836      36.893836      36.893836    
   1140000   0.43448853    -7.9327047     -7.2809812      2.6933489      50218.233      36.893836      36.893836      36.893836    
   1150000   0.43431541    -7.935172      -7.2837081      2.6745672      50218.233      36.893836      36.893836      36.893836    
   1160000   0.43522362    -7.9326641     -7.2798379      2.7008098      50218.233      36.893836      36.893836      36.893836    
   1170000   0.43636657    -7.9362021     -7.2816615      2.6601064      50218.233      36.893836      36.893836      36.893836    
   1180000   0.4368494     -7.9317986     -7.2765338      2.7029121      50218.233      36.893836      36.893836      36.893836    
   1190000   0.43297208    -7.9343811     -7.2849322      2.6799015      50218.233      36.893836      36.893836      36.893836    
   1200000   0.43573387    -7.9333127     -7.2797212      2.6945727      50218.233      36.893836      36.893836      36.893836    
   1210000   0.43487681    -7.9359292     -7.2836232      2.6734273      50218.233      36.893836      36.893836      36.893836    
   1220000   0.43668604    -7.9305143     -7.2754946      2.7060467      50218.233      36.893836      36.893836      36.893836    
   1230000   0.43698641    -7.9340761     -7.2786058      2.6892861      50218.233      36.893836      36.893836      36.893836    
   1240000   0.43601356    -7.9334088     -7.2793978      2.693689       50218.233      36.893836      36.893836      36.893836    
   1250000   0.43469762    -7.9300919     -7.2780547      2.718196       50218.233      36.893836      36.893836      36.893836    
   1260000   0.43613677    -7.9293256     -7.2751298      2.7189149      50218.233      36.893836      36.893836      36.893836    
   1270000   0.43288325    -7.9334384     -7.2841228      2.693427       50218.233      36.893836      36.893836      36.893836    
   1280000   0.43482741    -7.9322152     -7.2799833      2.6981417      50218.233      36.893836      36.893836      36.893836    
   1290000   0.43594543    -7.9344535     -7.2805447      2.6814729      50218.233      36.893836      36.893836      36.893836    
   1300000   0.43429888    -7.9339874     -7.2825484      2.6852848      50218.233      36.893836      36.893836      36.893836    
   1310000   0.43516035    -7.9283312     -7.2755999      2.725864       50218.233      36.893836      36.893836      36.893836    
   1320000   0.43254553    -7.9288244     -7.2800154      2.7329534      50218.233      36.893836      36.893836      36.893836    
   1330000   0.43478645    -7.9348725     -7.2827021      2.6781232      50218.233      36.893836      36.893836      36.893836    
   1340000   0.43229041    -7.930375      -7.2819486      2.7161024      50218.233      36.893836      36.893836      36.893836    
   1350000   0.43481477    -7.9338501     -7.2816373      2.6860668      50218.233      36.893836      36.893836      36.893836    
   1360000   0.43596544    -7.9337423     -7.2798035      2.6897523      50218.233      36.893836      36.893836      36.893836    
   1370000   0.43473781    -7.9328416     -7.2807442      2.6922259      50218.233      36.893836      36.893836      36.893836    
   1380000   0.43595845    -7.9339537     -7.2800254      2.6950785      50218.233      36.893836      36.893836      36.893836    
   1390000   0.43551341    -7.9303208     -7.27706        2.7095808      50218.233      36.893836      36.893836      36.893836    
   1400000   0.43528258    -7.9377607     -7.2848461      2.6597703      50218.233      36.893836      36.893836      36.893836    
   1410000   0.43388021    -7.937289      -7.2864779      2.6609836      50218.233      36.893836      36.893836      36.893836    
   1420000   0.43639231    -7.9322595     -7.2776804      2.7117264      50218.233      36.893836      36.893836      36.893836    
   1430000   0.43549546    -7.9322816     -7.2790477      2.6905491      50218.233      36.893836      36.893836      36.893836    
   1440000   0.43523394    -7.9357277     -7.2828861      2.6632039      50218.233      36.893836      36.893836      36.893836    
   1450000   0.43418561    -7.9329704     -7.2817013      2.6947983      50218.233      36.893836      36.893836      36.893836    
   1460000   0.43598069    -7.9333889     -7.2794272      2.6842558      50218.233      36.893836      36.893836      36.893836    
   1470000   0.43515298    -7.9363475     -7.2836273      2.6721324      50218.233      36.893836      36.893836      36.893836    
   1480000   0.43523682    -7.9360858     -7.2832398      2.6658678      50218.233      36.893836      36.893836      36.893836    
   1490000   0.43556644    -7.9354429     -7.2821025      2.675251       50218.233      36.893836      36.893836      36.893836    
   1500000   0.43133208    -7.9370506     -7.2900617      2.6628912      50218.233      36.893836      36.893836      36.893836    
   1510000   0.43580822    -7.9360023     -7.2822992      2.6732448      50218.233      36.893836      36.893836      36.893836    
   1520000   0.43515149    -7.9306507     -7.2779328      2.7087145      50218.233      36.893836      36.893836      36.893836    
   1530000   0.43431204    -7.9331982     -7.2817394      2.6937871      50218.233      36.893836      36.893836      36.893836    
   1540000   0.43597413    -7.9337178     -7.2797659      2.6903643      50218.233      36.893836      36.893836      36.893836    
   1550000   0.43696934    -7.935119      -7.2796743      2.684096       50218.233      36.893836      36.893836      36.893836    
   1560000   0.43475031    -7.9316202     -7.279504       2.7058449      50218.233      36.893836      36.893836      36.893836    
   1570000   0.43445792    -7.9350238     -7.2833462      2.6793896      50218.233      36.893836      36.893836      36.893836    
   1580000   0.43456841    -7.9362315     -7.2843882      2.6720888      50218.233      36.893836      36.893836      36.893836    
   1590000   0.43486943    -7.9356306     -7.2833358      2.6756079      50218.233      36.893836      36.893836      36.893836    
   1600000   0.43606676    -7.9370917     -7.2830008      2.6588346      50218.233      36.893836      36.893836      36.893836    
   1610000   0.43460296    -7.9342346     -7.2823395      2.6768269      50218.233      36.893836      36.893836      36.893836    
   1620000   0.4360792     -7.9352909     -7.2811814      2.6689772      50218.233      36.893836      36.893836      36.893836    
   1630000   0.43274333    -7.9344895     -7.2853837      2.6778425      50218.233      36.893836      36.893836      36.893836    
   1640000   0.43499723    -7.9382782     -7.2857917      2.6439761      50218.233      36.893836      36.893836      36.893836    
   1650000   0.43564349    -7.932656      -7.2792001      2.6903916      50218.233      36.893836      36.893836      36.893836    
   1660000   0.43557944    -7.9332456     -7.2798857      2.6935803      50218.233      36.893836      36.893836      36.893836    
   1670000   0.43443168    -7.9306488     -7.2790105      2.7131373      50218.233      36.893836      36.893836      36.893836    
   1680000   0.43329983    -7.9341277     -7.2841872      2.6809281      50218.233      36.893836      36.893836      36.893836    
   1690000   0.43314671    -7.9332242     -7.2835134      2.6849892      50218.233      36.893836      36.893836      36.893836    
   1700000   0.43478128    -7.9319264     -7.2797638      2.7071195      50218.233      36.893836      36.893836      36.893836    
   1710000   0.43466557    -7.9334344     -7.2814453      2.6926965      50218.233      36.893836      36.893836      36.893836    
   1720000   0.43442092    -7.9356684     -7.2840463      2.6767782      50218.233      36.893836      36.893836      36.893836    
   1730000   0.43684962    -7.9339828     -7.2787177      2.6851696      50218.233      36.893836      36.893836      36.893836    
   1740000   0.43536338    -7.9331361     -7.2801003      2.6971264      50218.233      36.893836      36.893836      36.893836    
   1750000   0.43614649    -7.934156      -7.2799455      2.6868053      50218.233      36.893836      36.893836      36.893836    
   1760000   0.43522339    -7.9354717     -7.2826459      2.6706239      50218.233      36.893836      36.893836      36.893836    
   1770000   0.43510686    -7.9313183     -7.2786673      2.7136469      50218.233      36.893836      36.893836      36.893836    
   1780000   0.43450815    -7.9325332     -7.2807802      2.6983634      50218.233      36.893836      36.893836      36.893836    
   1790000   0.43508264    -7.9342455     -7.2816308      2.6757442      50218.233      36.893836      36.893836      36.893836    
   1800000   0.43573982    -7.9322869     -7.2786865      2.7033063      50218.233      36.893836      36.893836      36.893836    
   1810000   0.4370708     -7.9326888     -7.2770919      2.6893184      50218.233      36.893836      36.893836      36.893836    
   1820000   0.43524816    -7.9314847     -7.2786217      2.7069437      50218.233      36.893836      36.893836      36.893836    
   1830000   0.43304913    -7.9337995     -7.2842351      2.6820795      50218.233      36.893836      36.893836      36.893836    
   1840000   0.43344558    -7.9311092     -7.2809501      2.7126289      50218.233      36.893836      36.893836      36.893836    
   1850000   0.43655647    -7.9321831     -7.2773577      2.7004491      50218.233      36.893836      36.893836      36.893836    
   1860000   0.4335052     -7.9352506     -7.285002       2.6764234      50218.233      36.893836      36.893836      36.893836    
   1870000   0.4369042     -7.9340468     -7.2786999      2.688167       50218.233      36.893836      36.893836      36.893836    
   1880000   0.43582295    -7.9328111     -7.279086       2.6995779      50218.233      36.893836      36.893836      36.893836    
   1890000   0.43466185    -7.934225      -7.2822415      2.6894548      50218.233      36.893836      36.893836      36.893836    
   1900000   0.43618275    -7.9343892     -7.2801243      2.6829575      50218.233      36.893836      36.893836      36.893836    
   1910000   0.43678994    -7.93409       -7.2789144      2.6842836      50218.233      36.893836      36.893836      36.893836    
   1920000   0.43649179    -7.9370749     -7.2823465      2.6643215      50218.233      36.893836      36.893836      36.893836    
   1930000   0.43364003    -7.9335842     -7.2831334      2.6996842      50218.233      36.893836      36.893836      36.893836    
   1940000   0.43460694    -7.932642      -7.2807408      2.6967958      50218.233      36.893836      36.893836      36.893836    
   1950000   0.43566533    -7.9327399     -7.2792512      2.7015834      50218.233      36.893836      36.893836      36.893836    
   1960000   0.43363589    -7.9367185     -7.2862739      2.6622874      50218.233      36.893836      36.893836      36.893836    
   1970000   0.43496212    -7.9379989     -7.285565       2.6511382      50218.233      36.893836      36.893836      36.893836    
   1980000   0.43422272    -7.9327995     -7.2814747      2.689456       50218.233      36.893836      36.893836      36.893836    
   1990000   0.43448152    -7.9353572     -7.2836442      2.6751031      50218.233      36.893836      36.893836      36.893836    
   2000000   0.43669779    -7.9340382     -7.2790008      2.683266       50218.233      36.893836      36.893836      36.893836    
   2010000   0.4346338     -7.9365155     -7.284574       2.6688114      50218.233      36.893836      36.893836      36.893836    
   2020000   0.43510719    -7.9377372     -7.2850856      2.6662053      50218.233      36.893836      36.893836      36.893836    
   2030000   0.43584325    -7.9377277     -7.2839721      2.6694707      50218.233      36.893836      36.893836      36.893836    
   2040000   0.43431895    -7.9330962     -7.281627       2.6925544      50218.233      36.893836      36.893836      36.893836    
   2050000   0.43438218    -7.934559      -7.282995       2.6767228      50218.233      36.893836      36.893836      36.893836    
   2060000   0.43387572    -7.9360309     -7.2852266      2.6613004      50218.233      36.893836      36.893836      36.893836    
   2070000   0.43637638    -7.9369848     -7.2824295      2.6618304      50218.233      36.893836      36.893836      36.893836    
   2080000   0.4354118     -7.9328202     -7.2797118      2.6984295      50218.233      36.893836      36.893836      36.893836    
   2090000   0.43292904    -7.9333266     -7.2839423      2.6807466      50218.233      36.893836      36.893836      36.893836    
   2100000   0.43752545    -7.9377946     -7.2815158      2.6533615      50218.233      36.893836      36.893836      36.893836    
   2110000   0.43631815    -7.933128      -7.2786601      2.69588        50218.233      36.893836      36.893836      36.893836    
   2120000   0.433895      -7.933878      -7.2830447      2.6794065      50218.233      36.893836      36.893836      36.893836    
   2130000   0.43400823    -7.9349782     -7.2839751      2.6758774      50218.233      36.893836      36.893836      36.893836    
   2140000   0.43696543    -7.9342406     -7.2788018      2.6780361      50218.233      36.893836      36.893836      36.893836    
   2150000   0.43495276    -7.9310367     -7.2786169      2.7106412      50218.233      36.893836      36.893836      36.893836    
   2160000   0.43581588    -7.9342323     -7.2805178      2.6740125      50218.233      36.893836      36.893836      36.893836    
   2170000   0.43358265    -7.9306507     -7.280286       2.7198764      50218.233      36.893836      36.893836      36.893836    
   2180000   0.43643374    -7.9324627     -7.2778214      2.6929794      50218.233      36.893836      36.893836      36.893836    
   2190000   0.43396122    -7.9296043     -7.2786717      2.7078505      50218.233      36.893836      36.893836      36.893836    
   2200000   0.43528578    -7.9342436     -7.2813242      2.6873979      50218.233      36.893836      36.893836      36.893836    
   2210000   0.43533277    -7.9311252     -7.2781353      2.7206923      50218.233      36.893836      36.893836      36.893836    
   2220000   0.43565772    -7.9347119     -7.2812346      2.6850966      50218.233      36.893836      36.893836      36.893836    
   2230000   0.43646951    -7.9308226     -7.2761276      2.7056213      50218.233      36.893836      36.893836      36.893836    
   2240000   0.43535118    -7.9339926     -7.2809751      2.6909744      50218.233      36.893836      36.893836      36.893836    
   2250000   0.43399141    -7.9349596     -7.2839817      2.6739009      50218.233      36.893836      36.893836      36.893836    
   2260000   0.43617079    -7.9322354     -7.2779885      2.7040346      50218.233      36.893836      36.893836      36.893836    
   2270000   0.43534263    -7.9326841     -7.2796795      2.6988145      50218.233      36.893836      36.893836      36.893836    
   2280000   0.43522806    -7.9349778     -7.282145       2.6849121      50218.233      36.893836      36.893836      36.893836    
   2290000   0.43472629    -7.9324359     -7.2803557      2.7056476      50218.233      36.893836      36.893836      36.893836    
   2300000   0.43243641    -7.9313832     -7.2827378      2.7041808      50218.233      36.893836      36.893836      36.893836    
   2310000   0.43495863    -7.9343207     -7.281892       2.6843765      50218.233      36.893836      36.893836      36.893836    
   2320000   0.43413444    -7.9342312     -7.2830388      2.6772651      50218.233      36.893836      36.893836      36.893836    
   2330000   0.43462413    -7.9312055     -7.2792786      2.7188423      50218.233      36.893836      36.893836      36.893836    
   2340000   0.43604282    -7.9303001     -7.2762451      2.7199907      50218.233      36.893836      36.893836      36.893836    
   2350000   0.43631758    -7.9332072     -7.2787401      2.702399       50218.233      36.893836      36.893836      36.893836    
   2360000   0.4361946     -7.9366517     -7.2823691      2.6652967      50218.233      36.893836      36.893836      36.893836    
   2370000   0.43432763    -7.9339609     -7.2824787      2.6877201      50218.233      36.893836      36.893836      36.893836    
   2380000   0.43631737    -7.9293645     -7.2748977      2.7294376      50218.233      36.893836      36.893836      36.893836    
   2390000   0.43567321    -7.9387028     -7.2852023      2.6583966      50218.233      36.893836      36.893836      36.893836    
   2400000   0.43289755    -7.9304906     -7.2811535      2.7050711      50218.233      36.893836      36.893836      36.893836    
   2410000   0.43721606    -7.9328032     -7.2769884      2.6995952      50218.233      36.893836      36.893836      36.893836    
   2420000   0.43629175    -7.9350586     -7.2806303      2.6888407      50218.233      36.893836      36.893836      36.893836    
   2430000   0.43160369    -7.9353011     -7.2879048      2.673743       50218.233      36.893836      36.893836      36.893836    
   2440000   0.43413603    -7.9321921     -7.2809973      2.6928472      50218.233      36.893836      36.893836      36.893836    
   2450000   0.43519377    -7.9356232     -7.2828419      2.6794219      50218.233      36.893836      36.893836      36.893836    
   2460000   0.43418637    -7.9336283     -7.282358       2.6844176      50218.233      36.893836      36.893836      36.893836    
   2470000   0.43586979    -7.9329913     -7.2791959      2.6959492      50218.233      36.893836      36.893836      36.893836    
   2480000   0.43468836    -7.9317709     -7.2797476      2.7048653      50218.233      36.893836      36.893836      36.893836    
   2490000   0.43293533    -7.9321002     -7.2827064      2.691497       50218.233      36.893836      36.893836      36.893836    
   2500000   0.43550862    -7.9366857     -7.283432       2.660415       50218.233      36.893836      36.893836      36.893836    
   2510000   0.43613541    -7.9363339     -7.2821401      2.6660869      50218.233      36.893836      36.893836      36.893836    
   2520000   0.43644828    -7.935035      -7.2803718      2.6916484      50218.233      36.893836      36.893836      36.893836    
   2530000   0.43388318    -7.931815      -7.2809995      2.7042298      50218.233      36.893836      36.893836      36.893836    
   2540000   0.43680314    -7.9371034     -7.281908       2.672978       50218.233      36.893836      36.893836      36.893836    
   2550000   0.4339808     -7.9353365     -7.2843746      2.684425       50218.233      36.893836      36.893836      36.893836    
   2560000   0.43551047    -7.9302542     -7.2769978      2.7179672      50218.233      36.893836      36.893836      36.893836    
   2570000   0.43514787    -7.9395572     -7.2868447      2.6473606      50218.233      36.893836      36.893836      36.893836    
   2580000   0.43294664    -7.9311874     -7.2817767      2.7024353      50218.233      36.893836      36.893836      36.893836    
   2590000   0.43565403    -7.937365      -7.2838932      2.6763262      50218.233      36.893836      36.893836      36.893836    
   2600000   0.43495936    -7.9315544     -7.2791246      2.7114697      50218.233      36.893836      36.893836      36.893836    
   2610000   0.43665253    -7.9328226     -7.2778531      2.6966969      50218.233      36.893836      36.893836      36.893836    
   2620000   0.4361106     -7.9337397     -7.2795831      2.6897813      50218.233      36.893836      36.893836      36.893836    
   2630000   0.43667714    -7.9338409     -7.2788345      2.7031415      50218.233      36.893836      36.893836      36.893836    
   2640000   0.43575726    -7.9329726     -7.279346       2.6957799      50218.233      36.893836      36.893836      36.893836    
   2650000   0.43382888    -7.9327485     -7.2820145      2.7017411      50218.233      36.893836      36.893836      36.893836    
   2660000   0.43650773    -7.9351513     -7.2803991      2.6847557      50218.233      36.893836      36.893836      36.893836    
   2670000   0.4349291     -7.9318593     -7.2794749      2.7118572      50218.233      36.893836      36.893836      36.893836    
   2680000   0.4343219     -7.9345809     -7.2831073      2.6805384      50218.233      36.893836      36.893836      36.893836    
   2690000   0.43405351    -7.9341592     -7.2830882      2.6856268      50218.233      36.893836      36.893836      36.893836    
   2700000   0.43538336    -7.9283331     -7.2752674      2.7352357      50218.233      36.893836      36.893836      36.893836    
   2710000   0.43326115    -7.9357234     -7.2858409      2.6670181      50218.233      36.893836      36.893836      36.893836    
   2720000   0.43308383    -7.9298971     -7.2802806      2.7091782      50218.233      36.893836      36.893836      36.893836    
   2730000   0.43713066    -7.9320304     -7.2763438      2.7054318      50218.233      36.893836      36.893836      36.893836    
   2740000   0.43352738    -7.934821      -7.2845392      2.6884059      50218.233      36.893836      36.893836      36.893836    
   2750000   0.4357107     -7.9341159     -7.2805591      2.69536        50218.233      36.893836      36.893836      36.893836    
   2760000   0.43627343    -7.9341712     -7.2797703      2.6918989      50218.233      36.893836      36.893836      36.893836    
   2770000   0.43448272    -7.9336334     -7.2819186      2.6981283      50218.233      36.893836      36.893836      36.893836    
   2780000   0.43283868    -7.9341077     -7.2848589      2.6823694      50218.233      36.893836      36.893836      36.893836    
   2790000   0.43543522    -7.9341819     -7.2810384      2.692235       50218.233      36.893836      36.893836      36.893836    
   2800000   0.43524309    -7.9353282     -7.2824729      2.6847101      50218.233      36.893836      36.893836      36.893836    
   2810000   0.43551103    -7.9328476     -7.2795903      2.6970213      50218.233      36.893836      36.893836      36.893836    
   2820000   0.43312007    -7.9283449     -7.278674       2.7299893      50218.233      36.893836      36.893836      36.893836    
   2830000   0.43782204    -7.9320503     -7.2753266      2.7106117      50218.233      36.893836      36.893836      36.893836    
   2840000   0.43491583    -7.9373987     -7.2850342      2.657218       50218.233      36.893836      36.893836      36.893836    
   2850000   0.43354437    -7.9332517     -7.2829444      2.6937042      50218.233      36.893836      36.893836      36.893836    
   2860000   0.43877394    -7.9327136     -7.274562       2.7056346      50218.233      36.893836      36.893836      36.893836    
   2870000   0.43402934    -7.9352953     -7.2842605      2.6736063      50218.233      36.893836      36.893836      36.893836    
   2880000   0.43392241    -7.9350166     -7.2841422      2.6708757      50218.233      36.893836      36.893836      36.893836    
   2890000   0.43493763    -7.9333799     -7.2809828      2.6852796      50218.233      36.893836      36.893836      36.893836    
   2900000   0.43600107    -7.933619      -7.2796267      2.6966641      50218.233      36.893836      36.893836      36.893836    
   2910000   0.43494329    -7.93844       -7.2860343      2.6516494      50218.233      36.893836      36.893836      36.893836    
   2920000   0.43201212    -7.9342501     -7.2862411      2.6972373      50218.233      36.893836      36.893836      36.893836    
   2930000   0.43600719    -7.9298179     -7.2758164      2.7170357      50218.233      36.893836      36.893836      36.893836    
   2940000   0.43475329    -7.9334625     -7.2813418      2.7009849      50218.233      36.893836      36.893836      36.893836    
   2950000   0.43408277    -7.9336026     -7.2824877      2.6980476      50218.233      36.893836      36.893836      36.893836    
   2960000   0.43551531    -7.9340035     -7.2807398      2.6914361      50218.233      36.893836      36.893836      36.893836    
   2970000   0.43325215    -7.934135      -7.284266       2.6835141      50218.233      36.893836      36.893836      36.893836    
   2980000   0.4350537     -7.9321864     -7.2796151      2.7159028      50218.233      36.893836      36.893836      36.893836    
   2990000   0.43468307    -7.9339169     -7.2819016      2.6781942      50218.233      36.893836      36.893836      36.893836    
   3000000   0.4354792     -7.9365363     -7.2833268      2.6743457      50218.233      36.893836      36.893836      36.893836    
   3010000   0.43530343    -7.9334203     -7.2804745      2.6975904      50218.233      36.893836      36.893836      36.893836    
   3020000   0.43575541    -7.9353913     -7.2817675      2.6799275      50218.233      36.893836      36.893836      36.893836    
   3030000   0.43683914    -7.9344288     -7.2791794      2.6933317      50218.233      36.893836      36.893836      36.893836    
   3040000   0.43443483    -7.9334559     -7.2818129      2.691607       50218.233      36.893836      36.893836      36.893836    
   3050000   0.43461462    -7.9330098     -7.2810972      2.6862381      50218.233      36.893836      36.893836      36.893836    
   3060000   0.43554563    -7.933192      -7.2798829      2.6983547      50218.233      36.893836      36.893836      36.893836    
   3070000   0.43685559    -7.9358922     -7.2806181      2.6744379      50218.233      36.893836      36.893836      36.893836    
   3080000   0.43490449    -7.9312653     -7.2789178      2.7070174      50218.233      36.893836      36.893836      36.893836    
   3090000   0.43376179    -7.9366545     -7.2860211      2.6632624      50218.233      36.893836      36.893836      36.893836    
   3100000   0.43330893    -7.9352761     -7.2853219      2.6825427      50218.233      36.893836      36.893836      36.893836    
   3110000   0.43418953    -7.9303387     -7.2790636      2.7128101      50218.233      36.893836      36.893836      36.893836    
   3120000   0.43584409    -7.9330725     -7.2793156      2.6928304      50218.233      36.893836      36.893836      36.893836    
   3130000   0.43613518    -7.9332082     -7.2790147      2.6964596      50218.233      36.893836      36.893836      36.893836    
   3140000   0.43653028    -7.9328749     -7.2780887      2.6968477      50218.233      36.893836      36.893836      36.893836    
   3150000   0.43628629    -7.9324941     -7.2780739      2.7027314      50218.233      36.893836      36.893836      36.893836    
   3160000   0.43258306    -7.9324019     -7.2835365      2.7055927      50218.233      36.893836      36.893836      36.893836    
   3170000   0.43468698    -7.9323009     -7.2802797      2.7015722      50218.233      36.893836      36.893836      36.893836    
   3180000   0.43697031    -7.9334368     -7.2779906      2.6955192      50218.233      36.893836      36.893836      36.893836    
   3190000   0.43597728    -7.9333462     -7.2793896      2.7056635      50218.233      36.893836      36.893836      36.893836    
   3200000   0.43495938    -7.9344798     -7.28205        2.6831682      50218.233      36.893836      36.893836      36.893836    
   3210000   0.43542099    -7.9369796     -7.2838574      2.6716741      50218.233      36.893836      36.893836      36.893836    
   3220000   0.43536284    -7.9326758     -7.2796409      2.6983749      50218.233      36.893836      36.893836      36.893836    
   3230000   0.43537812    -7.9305123     -7.2774544      2.7196838      50218.233      36.893836      36.893836      36.893836    
   3240000   0.4374399     -7.9336562     -7.2775057      2.6918849      50218.233      36.893836      36.893836      36.893836    
   3250000   0.43510056    -7.9352193     -7.2825778      2.6823128      50218.233      36.893836      36.893836      36.893836    
   3260000   0.43507319    -7.9367748     -7.2841743      2.6654379      50218.233      36.893836      36.893836      36.893836    
   3270000   0.43455422    -7.9333177     -7.2814957      2.6962028      50218.233      36.893836      36.893836      36.893836    
   3280000   0.43358092    -7.9320168     -7.2816547      2.7014356      50218.233      36.893836      36.893836      36.893836    
   3290000   0.43614454    -7.9341285     -7.279921       2.6928895      50218.233      36.893836      36.893836      36.893836    
   3300000   0.4363006     -7.9346103     -7.2801687      2.7010157      50218.233      36.893836      36.893836      36.893836    
   3310000   0.436701      -7.9334425     -7.2784003      2.6830435      50218.233      36.893836      36.893836      36.893836    
   3320000   0.43567923    -7.9328478     -7.2793382      2.7023168      50218.233      36.893836      36.893836      36.893836    
   3330000   0.43417608    -7.9323025     -7.2810476      2.6928831      50218.233      36.893836      36.893836      36.893836    
   3340000   0.43162145    -7.93398       -7.286557       2.682425       50218.233      36.893836      36.893836      36.893836    
   3350000   0.43548478    -7.9309771     -7.2777592      2.7208265      50218.233      36.893836      36.893836      36.893836    
   3360000   0.43512232    -7.9342854     -7.2816112      2.6837524      50218.233      36.893836      36.893836      36.893836    
   3370000   0.43514493    -7.9336669     -7.2809588      2.6911671      50218.233      36.893836      36.893836      36.893836    
   3380000   0.43433008    -7.9353812     -7.2838953      2.6823203      50218.233      36.893836      36.893836      36.893836    
   3390000   0.43694184    -7.9329421     -7.2775387      2.7010058      50218.233      36.893836      36.893836      36.893836    
   3400000   0.43451081    -7.9316246     -7.2798676      2.6961541      50218.233      36.893836      36.893836      36.893836    
   3410000   0.43599513    -7.9326906     -7.2787072      2.7033624      50218.233      36.893836      36.893836      36.893836    
   3420000   0.43823204    -7.9368631     -7.2795244      2.6708972      50218.233      36.893836      36.893836      36.893836    
   3430000   0.4362262     -7.934908      -7.280578       2.6798737      50218.233      36.893836      36.893836      36.893836    
   3440000   0.43404446    -7.934964      -7.2839065      2.6793554      50218.233      36.893836      36.893836      36.893836    
   3450000   0.43347462    -7.9351035     -7.2849008      2.6766012      50218.233      36.893836      36.893836      36.893836    
   3460000   0.43691947    -7.9353147     -7.2799448      2.6825318      50218.233      36.893836      36.893836      36.893836    
   3470000   0.43498145    -7.9341745     -7.2817116      2.6936418      50218.233      36.893836      36.893836      36.893836    
   3480000   0.43445265    -7.9355677     -7.283898       2.6748658      50218.233      36.893836      36.893836      36.893836    
   3490000   0.43585313    -7.9293557     -7.2755853      2.7241917      50218.233      36.893836      36.893836      36.893836    
   3500000   0.4346675     -7.9341697     -7.2821777      2.6838273      50218.233      36.893836      36.893836      36.893836    
   3510000   0.43439391    -7.9327876     -7.281206       2.699778       50218.233      36.893836      36.893836      36.893836    
   3520000   0.43499934    -7.9334028     -7.2809131      2.6962456      50218.233      36.893836      36.893836      36.893836    
   3530000   0.4329919     -7.9337192     -7.2842406      2.6895454      50218.233      36.893836      36.893836      36.893836    
   3540000   0.43680419    -7.9349194     -7.2797224      2.6829159      50218.233      36.893836      36.893836      36.893836    
   3550000   0.43548125    -7.9319524     -7.2787398      2.6999926      50218.233      36.893836      36.893836      36.893836    
   3560000   0.43596968    -7.9359582     -7.282013       2.6848856      50218.233      36.893836      36.893836      36.893836    
   3570000   0.43342382    -7.9322886     -7.2821622      2.7057335      50218.233      36.893836      36.893836      36.893836    
   3580000   0.43547037    -7.929807      -7.2766108      2.7143479      50218.233      36.893836      36.893836      36.893836    
   3590000   0.43561925    -7.935972      -7.2825524      2.6772787      50218.233      36.893836      36.893836      36.893836    
   3600000   0.43506615    -7.9324401     -7.2798502      2.6999118      50218.233      36.893836      36.893836      36.893836    
   3610000   0.43312576    -7.9347529     -7.2850735      2.681163       50218.233      36.893836      36.893836      36.893836    
   3620000   0.43534108    -7.9329887     -7.2799864      2.7022542      50218.233      36.893836      36.893836      36.893836    
   3630000   0.43603641    -7.9351845     -7.2811391      2.6756462      50218.233      36.893836      36.893836      36.893836    
   3640000   0.43748841    -7.9333074     -7.2770841      2.6964594      50218.233      36.893836      36.893836      36.893836    
   3650000   0.43367752    -7.9317926     -7.2812856      2.7045405      50218.233      36.893836      36.893836      36.893836    
   3660000   0.43485658    -7.9348336     -7.2825581      2.6754384      50218.233      36.893836      36.893836      36.893836    
   3670000   0.43486662    -7.9321821     -7.2798915      2.7029663      50218.233      36.893836      36.893836      36.893836    
   3680000   0.43408698    -7.9336103     -7.2824891      2.6843238      50218.233      36.893836      36.893836      36.893836    
   3690000   0.43368914    -7.932904      -7.2823796      2.6932297      50218.233      36.893836      36.893836      36.893836    
   3700000   0.43690153    -7.9377262     -7.2823832      2.6767046      50218.233      36.893836      36.893836      36.893836    
   3710000   0.43551598    -7.933477      -7.2802123      2.6970879      50218.233      36.893836      36.893836      36.893836    
   3720000   0.43342195    -7.9334391     -7.2833154      2.6962473      50218.233      36.893836      36.893836      36.893836    
   3730000   0.43377692    -7.9367118     -7.2860556      2.6737495      50218.233      36.893836      36.893836      36.893836    
   3740000   0.43462259    -7.9322389     -7.2803143      2.7033312      50218.233      36.893836      36.893836      36.893836    
   3750000   0.43138871    -7.9347315     -7.2876576      2.6742409      50218.233      36.893836      36.893836      36.893836    
   3760000   0.43525863    -7.9355297     -7.282651       2.6876884      50218.233      36.893836      36.893836      36.893836    
   3770000   0.43413305    -7.9324852     -7.2812949      2.705334       50218.233      36.893836      36.893836      36.893836    
   3780000   0.43434366    -7.9321969     -7.2806907      2.6973618      50218.233      36.893836      36.893836      36.893836    
   3790000   0.43527609    -7.9313821     -7.2784772      2.7103468      50218.233      36.893836      36.893836      36.893836    
   3800000   0.43475995    -7.9373984     -7.2852677      2.6580656      50218.233      36.893836      36.893836      36.893836    
   3810000   0.43485575    -7.929878      -7.2776036      2.7090311      50218.233      36.893836      36.893836      36.893836    
   3820000   0.43518908    -7.9339516     -7.2811773      2.6848797      50218.233      36.893836      36.893836      36.893836    
   3830000   0.43356866    -7.9351672     -7.2848235      2.6807222      50218.233      36.893836      36.893836      36.893836    
   3840000   0.4319416     -7.9313102     -7.283407       2.7115694      50218.233      36.893836      36.893836      36.893836    
   3850000   0.43521602    -7.9279686     -7.2751538      2.7371462      50218.233      36.893836      36.893836      36.893836    
   3860000   0.43365002    -7.9325146     -7.2820488      2.7014         50218.233      36.893836      36.893836      36.893836    
   3870000   0.43649027    -7.9341386     -7.2794125      2.6906547      50218.233      36.893836      36.893836      36.893836    
   3880000   0.43307053    -7.9329584     -7.2833618      2.6861108      50218.233      36.893836      36.893836      36.893836    
   3890000   0.43464617    -7.9296805     -7.2777206      2.7195711      50218.233      36.893836      36.893836      36.893836    
   3900000   0.43430651    -7.9346209     -7.2831704      2.6879536      50218.233      36.893836      36.893836      36.893836    
   3910000   0.43472666    -7.933689      -7.2816082      2.6902447      50218.233      36.893836      36.893836      36.893836    
   3920000   0.43735517    -7.9342273     -7.2782038      2.6830848      50218.233      36.893836      36.893836      36.893836    
   3930000   0.43617682    -7.9335091     -7.2792532      2.6938432      50218.233      36.893836      36.893836      36.893836    
   3940000   0.43538067    -7.932842      -7.2797802      2.694914       50218.233      36.893836      36.893836      36.893836    
   3950000   0.43320565    -7.9358414     -7.2860421      2.6761216      50218.233      36.893836      36.893836      36.893836    
   3960000   0.43358738    -7.934671      -7.2842992      2.6847327      50218.233      36.893836      36.893836      36.893836    
   3970000   0.43631781    -7.9366909     -7.2822235      2.6729262      50218.233      36.893836      36.893836      36.893836    
   3980000   0.43310756    -7.9375505     -7.2878984      2.6583472      50218.233      36.893836      36.893836      36.893836    
   3990000   0.43573208    -7.9348809     -7.2812921      2.6862641      50218.233      36.893836      36.893836      36.893836    
   4000000   0.43354944    -7.9341809     -7.283866       2.6886245      50218.233      36.893836      36.893836      36.893836    
   4010000   0.43482038    -7.9359861     -7.2837648      2.6726066      50218.233      36.893836      36.893836      36.893836    
   4020000   0.4342618     -7.9350942     -7.2837108      2.6759411      50218.233      36.893836      36.893836      36.893836    
   4030000   0.435981      -7.9354443     -7.2814821      2.6730689      50218.233      36.893836      36.893836      36.893836    
   4040000   0.43404528    -7.9366247     -7.285566       2.6834601      50218.233      36.893836      36.893836      36.893836    
   4050000   0.43320928    -7.9350708     -7.2852661      2.67826        50218.233      36.893836      36.893836      36.893836    
   4060000   0.43539051    -7.9378572     -7.2847807      2.664613       50218.233      36.893836      36.893836      36.893836    
   4070000   0.43543348    -7.9367587     -7.2836177      2.6601969      50218.233      36.893836      36.893836      36.893836    
   4080000   0.43450488    -7.930765      -7.2790169      2.7093707      50218.233      36.893836      36.893836      36.893836    
   4090000   0.43471361    -7.9356979     -7.2836367      2.6690187      50218.233      36.893836      36.893836      36.893836    
   4100000   0.43447932    -7.9308586     -7.2791488      2.7147544      50218.233      36.893836      36.893836      36.893836    
   4110000   0.43337172    -7.9341298     -7.2840815      2.6813484      50218.233      36.893836      36.893836      36.893836    
   4120000   0.43533579    -7.9340505     -7.2810561      2.6837378      50218.233      36.893836      36.893836      36.893836    
   4130000   0.43451105    -7.934211      -7.2824537      2.6818715      50218.233      36.893836      36.893836      36.893836    
   4140000   0.43398036    -7.9311836     -7.2802223      2.7093466      50218.233      36.893836      36.893836      36.893836    
   4150000   0.43534835    -7.9372097     -7.2841965      2.6711381      50218.233      36.893836      36.893836      36.893836    
   4160000   0.43329595    -7.930198      -7.2802633      2.7087666      50218.233      36.893836      36.893836      36.893836    
   4170000   0.4357283     -7.9305948     -7.2770117      2.7183552      50218.233      36.893836      36.893836      36.893836    
   4180000   0.43408868    -7.9329344     -7.2818106      2.6911259      50218.233      36.893836      36.893836      36.893836    
   4190000   0.4361772     -7.9323663     -7.2781098      2.7102252      50218.233      36.893836      36.893836      36.893836    
   4200000   0.43580983    -7.9364601     -7.2827547      2.6702889      50218.233      36.893836      36.893836      36.893836    
   4210000   0.43383408    -7.9303633     -7.2796214      2.719536       50218.233      36.893836      36.893836      36.893836    
   4220000   0.43303357    -7.9339988     -7.2844577      2.6786684      50218.233      36.893836      36.893836      36.893836    
   4230000   0.4361        -7.934133      -7.2799923      2.6853481      50218.233      36.893836      36.893836      36.893836    
   4240000   0.43526973    -7.9331928     -7.2802975      2.7031888      50218.233      36.893836      36.893836      36.893836    
   4250000   0.43686642    -7.9324907     -7.2772003      2.7065855      50218.233      36.893836      36.893836      36.893836    
   4260000   0.43378197    -7.9334956     -7.2828318      2.6918808      50218.233      36.893836      36.893836      36.893836    
   4270000   0.43637       -7.9332548     -7.2787092      2.6917521      50218.233      36.893836      36.893836      36.893836    
   4280000   0.43696056    -7.9326603     -7.2772288      2.6930184      50218.233      36.893836      36.893836      36.893836    
   4290000   0.4361608     -7.9373016     -7.2830697      2.6640718      50218.233      36.893836      36.893836      36.893836    
   4300000   0.43310136    -7.9359699     -7.2863271      2.666669       50218.233      36.893836      36.893836      36.893836    
   4310000   0.43902791    -7.9324578     -7.2739253      2.705849       50218.233      36.893836      36.893836      36.893836    
   4320000   0.43524454    -7.9330992     -7.2802417      2.6920931      50218.233      36.893836      36.893836      36.893836    
   4330000   0.43497165    -7.9343314     -7.2818833      2.6881613      50218.233      36.893836      36.893836      36.893836    
   4340000   0.43502684    -7.9333185     -7.2807875      2.6909387      50218.233      36.893836      36.893836      36.893836    
   4350000   0.43520097    -7.9350499     -7.2822577      2.6818635      50218.233      36.893836      36.893836      36.893836    
   4360000   0.43429784    -7.937439      -7.2860015      2.653803       50218.233      36.893836      36.893836      36.893836    
   4370000   0.43643226    -7.9348311     -7.280192       2.6821427      50218.233      36.893836      36.893836      36.893836    
   4380000   0.43549353    -7.9353768     -7.2821458      2.6810783      50218.233      36.893836      36.893836      36.893836    
   4390000   0.43519716    -7.9329319     -7.2801455      2.6953924      50218.233      36.893836      36.893836      36.893836    
   4400000   0.43542643    -7.933055      -7.2799247      2.6960258      50218.233      36.893836      36.893836      36.893836    
   4410000   0.43372653    -7.9339605     -7.28338        2.6829057      50218.233      36.893836      36.893836      36.893836    
   4420000   0.43687044    -7.933758      -7.2784617      2.6995553      50218.233      36.893836      36.893836      36.893836    
   4430000   0.43523306    -7.9336814     -7.2808411      2.6963222      50218.233      36.893836      36.893836      36.893836    
   4440000   0.43466498    -7.9353568     -7.2833686      2.6733443      50218.233      36.893836      36.893836      36.893836    
   4450000   0.43562137    -7.935105      -7.2816822      2.6766153      50218.233      36.893836      36.893836      36.893836    
   4460000   0.43525165    -7.9349328     -7.2820646      2.67694        50218.233      36.893836      36.893836      36.893836    
   4470000   0.43453497    -7.9364855     -7.2846923      2.6673499      50218.233      36.893836      36.893836      36.893836    
   4480000   0.43301878    -7.9334702     -7.2839513      2.6804197      50218.233      36.893836      36.893836      36.893836    
   4490000   0.43726348    -7.9337551     -7.2778692      2.687103       50218.233      36.893836      36.893836      36.893836    
   4500000   0.43445175    -7.9339559     -7.2822875      2.6911727      50218.233      36.893836      36.893836      36.893836    
   4510000   0.43410813    -7.9338538     -7.2827009      2.691065       50218.233      36.893836      36.893836      36.893836    
   4520000   0.43660313    -7.9366486     -7.2817532      2.6670059      50218.233      36.893836      36.893836      36.893836    
   4530000   0.435352      -7.9349107     -7.281892       2.6883266      50218.233      36.893836      36.893836      36.893836    
   4540000   0.43495699    -7.9357167     -7.2832905      2.6725076      50218.233      36.893836      36.893836      36.893836    
   4550000   0.43522662    -7.9344128     -7.2815822      2.6889042      50218.233      36.893836      36.893836      36.893836    
   4560000   0.43444562    -7.9349007     -7.2832415      2.6838013      50218.233      36.893836      36.893836      36.893836    
   4570000   0.43564127    -7.9341824     -7.2807298      2.6768365      50218.233      36.893836      36.893836      36.893836    
   4580000   0.43482745    -7.9343737     -7.2821418      2.6731247      50218.233      36.893836      36.893836      36.893836    
   4590000   0.43455658    -7.9306857     -7.2788601      2.7125931      50218.233      36.893836      36.893836      36.893836    
   4600000   0.43428977    -7.9345986     -7.2831732      2.6886347      50218.233      36.893836      36.893836      36.893836    
   4610000   0.43636428    -7.9328542     -7.2783171      2.7009568      50218.233      36.893836      36.893836      36.893836    
   4620000   0.43694057    -7.9349142     -7.2795126      2.6829238      50218.233      36.893836      36.893836      36.893836    
   4630000   0.43476617    -7.9313195     -7.2791795      2.7134897      50218.233      36.893836      36.893836      36.893836    
   4640000   0.43488351    -7.9352393     -7.2829233      2.6834849      50218.233      36.893836      36.893836      36.893836    
   4650000   0.43704221    -7.9342371     -7.2786831      2.6885049      50218.233      36.893836      36.893836      36.893836    
   4660000   0.43666734    -7.9338647     -7.278873       2.6826894      50218.233      36.893836      36.893836      36.893836    
   4670000   0.43513909    -7.9333585     -7.2806591      2.7001448      50218.233      36.893836      36.893836      36.893836    
   4680000   0.43501197    -7.9380094     -7.2855008      2.6749603      50218.233      36.893836      36.893836      36.893836    
   4690000   0.43692812    -7.9307733     -7.2753904      2.7140352      50218.233      36.893836      36.893836      36.893836    
   4700000   0.43409314    -7.9349083     -7.2837779      2.67999        50218.233      36.893836      36.893836      36.893836    
   4710000   0.43674413    -7.9353948     -7.2802879      2.6840071      50218.233      36.893836      36.893836      36.893836    
   4720000   0.43533511    -7.9344772     -7.2814839      2.6843323      50218.233      36.893836      36.893836      36.893836    
   4730000   0.43328517    -7.9356791     -7.2857606      2.6616529      50218.233      36.893836      36.893836      36.893836    
   4740000   0.43505886    -7.9326254     -7.2800464      2.6988349      50218.233      36.893836      36.893836      36.893836    
   4750000   0.4329187     -7.9318914     -7.2825226      2.7008896      50218.233      36.893836      36.893836      36.893836    
   4760000   0.43451306    -7.9355197     -7.2837594      2.6733474      50218.233      36.893836      36.893836      36.893836    
   4770000   0.43679012    -7.9370187     -7.2818429      2.6770724      50218.233      36.893836      36.893836      36.893836    
   4780000   0.43735859    -7.9321654     -7.2761369      2.7118724      50218.233      36.893836      36.893836      36.893836    
   4790000   0.43725655    -7.933037      -7.2771615      2.6968784      50218.233      36.893836      36.893836      36.893836    
   4800000   0.43296517    -7.9333319     -7.2838934      2.6862736      50218.233      36.893836      36.893836      36.893836    
   4810000   0.43696338    -7.9307158     -7.2752801      2.7209011      50218.233      36.893836      36.893836      36.893836    
   4820000   0.43315844    -7.9346059     -7.2848775      2.6738194      50218.233      36.893836      36.893836      36.893836    
   4830000   0.43436665    -7.9358138     -7.284273       2.6793241      50218.233      36.893836      36.893836      36.893836    
   4840000   0.43496722    -7.9309009     -7.2784594      2.7097484      50218.233      36.893836      36.893836      36.893836    
   4850000   0.43445772    -7.9324133     -7.280736       2.7070189      50218.233      36.893836      36.893836      36.893836    
   4860000   0.4332815     -7.9288662     -7.2789532      2.7178535      50218.233      36.893836      36.893836      36.893836    
   4870000   0.43588899    -7.9330017     -7.2791775      2.7074847      50218.233      36.893836      36.893836      36.893836    
   4880000   0.43573714    -7.9361176     -7.2825212      2.6751424      50218.233      36.893836      36.893836      36.893836    
   4890000   0.43619358    -7.9326913     -7.2784103      2.7068419      50218.233      36.893836      36.893836      36.893836    
   4900000   0.43665457    -7.9348014     -7.2798289      2.6860098      50218.233      36.893836      36.893836      36.893836    
   4910000   0.43560306    -7.9335152     -7.2801199      2.6929782      50218.233      36.893836      36.893836      36.893836    
   4920000   0.43308369    -7.9378916     -7.2882753      2.6557966      50218.233      36.893836      36.893836      36.893836    
   4930000   0.43364708    -7.9349748     -7.2845134      2.6706269      50218.233      36.893836      36.893836      36.893836    
   4940000   0.43445361    -7.9328643     -7.2811932      2.6949559      50218.233      36.893836      36.893836      36.893836    
   4950000   0.43449161    -7.9352664     -7.2835383      2.6873623      50218.233      36.893836      36.893836      36.893836    
   4960000   0.43433035    -7.9369972     -7.2855109      2.6524478      50218.233      36.893836      36.893836      36.893836    
   4970000   0.43508064    -7.9348583     -7.2822467      2.6857476      50218.233      36.893836      36.893836      36.893836    
   4980000   0.43656505    -7.935195      -7.2803568      2.6808224      50218.233      36.893836      36.893836      36.893836    
   4990000   0.4338949     -7.932991      -7.2821579      2.6803256      50218.233      36.893836      36.893836      36.893836    
   5000000   0.43385404    -7.9339254     -7.2831536      2.6706299      50218.233      36.893836      36.893836      36.893836    
   5010000   0.4361834     -7.9381268     -7.283861       2.6608082      50218.233      36.893836      36.893836      36.893836    
   5020000   0.43367156    -7.9340947     -7.2835966      2.6793364      50218.233      36.893836      36.893836      36.893836    
   5030000   0.43549675    -7.9364757     -7.2832399      2.6730083      50218.233      36.893836      36.893836      36.893836    
   5040000   0.43426769    -7.9363452     -7.2849529      2.6659645      50218.233      36.893836      36.893836      36.893836    
   5050000   0.43643564    -7.9368416     -7.2821974      2.6667196      50218.233      36.893836      36.893836      36.893836    
   5060000   0.4362895     -7.9332705     -7.2788456      2.6995638      50218.233      36.893836      36.893836      36.893836    
   5070000   0.43627459    -7.9340607     -7.2796581      2.6811019      50218.233      36.893836      36.893836      36.893836    
   5080000   0.43412246    -7.9348719     -7.2836974      2.6811963      50218.233      36.893836      36.893836      36.893836    
   5090000   0.43345397    -7.9361872     -7.2860155      2.6622558      50218.233      36.893836      36.893836      36.893836    
   5100000   0.43544796    -7.9405999     -7.2874373      2.6264981      50218.233      36.893836      36.893836      36.893836    
   5110000   0.43334561    -7.9365102     -7.286501       2.6750507      50218.233      36.893836      36.893836      36.893836    
   5120000   0.43408562    -7.9332943     -7.2821751      2.6949995      50218.233      36.893836      36.893836      36.893836    
   5130000   0.43661361    -7.9345466     -7.2796355      2.6846659      50218.233      36.893836      36.893836      36.893836    
   5140000   0.43500501    -7.9317496     -7.2792513      2.6946411      50218.233      36.893836      36.893836      36.893836    
   5150000   0.43659008    -7.9308257     -7.2759499      2.7125353      50218.233      36.893836      36.893836      36.893836    
   5160000   0.435035      -7.9331678     -7.2806246      2.6940716      50218.233      36.893836      36.893836      36.893836    
   5170000   0.43699299    -7.935308      -7.2798278      2.6840883      50218.233      36.893836      36.893836      36.893836    
   5180000   0.4350249     -7.9327598     -7.2802318      2.6907488      50218.233      36.893836      36.893836      36.893836    
   5190000   0.43380798    -7.9365251     -7.2858224      2.6697883      50218.233      36.893836      36.893836      36.893836    
   5200000   0.43380987    -7.9343369     -7.2836313      2.6841526      50218.233      36.893836      36.893836      36.893836    
   5210000   0.43647052    -7.9317648     -7.2770683      2.7014376      50218.233      36.893836      36.893836      36.893836    
   5220000   0.43299255    -7.9348507     -7.2853711      2.6792775      50218.233      36.893836      36.893836      36.893836    
   5230000   0.43583989    -7.9350163     -7.2812657      2.6843536      50218.233      36.893836      36.893836      36.893836    
   5240000   0.43603664    -7.9356584     -7.2816128      2.6736843      50218.233      36.893836      36.893836      36.893836    
   5250000   0.43502614    -7.9356539     -7.283124       2.6769386      50218.233      36.893836      36.893836      36.893836    
   5260000   0.43563779    -7.936443      -7.2829956      2.6641299      50218.233      36.893836      36.893836      36.893836    
   5270000   0.43411279    -7.9332038     -7.2820439      2.6949182      50218.233      36.893836      36.893836      36.893836    
   5280000   0.43450887    -7.9357545     -7.2840005      2.6669944      50218.233      36.893836      36.893836      36.893836    
   5290000   0.43570638    -7.931784      -7.2782337      2.7001987      50218.233      36.893836      36.893836      36.893836    
   5300000   0.4375936     -7.9346492     -7.2782681      2.6914247      50218.233      36.893836      36.893836      36.893836    
   5310000   0.43449002    -7.9345754     -7.2828497      2.6839697      50218.233      36.893836      36.893836      36.893836    
   5320000   0.4351024     -7.9370804     -7.2844361      2.662976       50218.233      36.893836      36.893836      36.893836    
   5330000   0.43474562    -7.9359876     -7.2838785      2.673569       50218.233      36.893836      36.893836      36.893836    
   5340000   0.43681006    -7.9346992     -7.2794934      2.6861318      50218.233      36.893836      36.893836      36.893836    
   5350000   0.43459583    -7.933116      -7.2812316      2.7079014      50218.233      36.893836      36.893836      36.893836    
   5360000   0.43560636    -7.9348072     -7.2814069      2.6818543      50218.233      36.893836      36.893836      36.893836    
   5370000   0.43512467    -7.9345627     -7.2818849      2.6847813      50218.233      36.893836      36.893836      36.893836    
   5380000   0.4352914     -7.934616      -7.2816882      2.684479       50218.233      36.893836      36.893836      36.893836    
   5390000   0.43462828    -7.9352883     -7.2833552      2.6775639      50218.233      36.893836      36.893836      36.893836    
   5400000   0.43364648    -7.9362435     -7.285783       2.6721189      50218.233      36.893836      36.893836      36.893836    
   5410000   0.43477906    -7.9341039     -7.2819445      2.6813145      50218.233      36.893836      36.893836      36.893836    
   5420000   0.43483039    -7.9356079     -7.2833716      2.6753447      50218.233      36.893836      36.893836      36.893836    
   5430000   0.43591491    -7.9357593     -7.2818963      2.6773725      50218.233      36.893836      36.893836      36.893836    
   5440000   0.43385229    -7.932105      -7.2813358      2.6959582      50218.233      36.893836      36.893836      36.893836    
   5450000   0.43467375    -7.9369576     -7.2849563      2.6629568      50218.233      36.893836      36.893836      36.893836    
   5460000   0.43561674    -7.9326545     -7.2792387      2.7013809      50218.233      36.893836      36.893836      36.893836    
   5470000   0.43543876    -7.9360212     -7.2828724      2.6805959      50218.233      36.893836      36.893836      36.893836    
   5480000   0.43245129    -7.9342312     -7.2855635      2.6769365      50218.233      36.893836      36.893836      36.893836    
   5490000   0.43613005    -7.9378087     -7.2836229      2.6583745      50218.233      36.893836      36.893836      36.893836    
   5500000   0.43599272    -7.9359156     -7.2819358      2.665888       50218.233      36.893836      36.893836      36.893836    
   5510000   0.43442991    -7.9369348     -7.2852992      2.6635449      50218.233      36.893836      36.893836      36.893836    
   5520000   0.43431438    -7.9375283     -7.286066       2.6559511      50218.233      36.893836      36.893836      36.893836    
   5530000   0.43525926    -7.9362405     -7.2833609      2.668902       50218.233      36.893836      36.893836      36.893836    
   5540000   0.43437588    -7.933927      -7.2823725      2.6889332      50218.233      36.893836      36.893836      36.893836    
   5550000   0.43499291    -7.9379084     -7.2854283      2.6578091      50218.233      36.893836      36.893836      36.893836    
   5560000   0.43654661    -7.9356171     -7.2808065      2.6689712      50218.233      36.893836      36.893836      36.893836    
   5570000   0.43331441    -7.9334636     -7.2835012      2.6915101      50218.233      36.893836      36.893836      36.893836    
   5580000   0.4339312     -7.9311334     -7.2802459      2.7163459      50218.233      36.893836      36.893836      36.893836    
   5590000   0.43618317    -7.9363966     -7.2821311      2.6820957      50218.233      36.893836      36.893836      36.893836    
   5600000   0.43395697    -7.9367662     -7.28584        2.6598654      50218.233      36.893836      36.893836      36.893836    
   5610000   0.43226505    -7.9374974     -7.289109       2.6618529      50218.233      36.893836      36.893836      36.893836    
   5620000   0.43626319    -7.9344915     -7.2801061      2.686851       50218.233      36.893836      36.893836      36.893836    
   5630000   0.43315316    -7.9332961     -7.2835756      2.6869856      50218.233      36.893836      36.893836      36.893836    
   5640000   0.43514268    -7.9358558     -7.283151       2.6795809      50218.233      36.893836      36.893836      36.893836    
   5650000   0.43687643    -7.9329967     -7.2776914      2.6956358      50218.233      36.893836      36.893836      36.893836    
   5660000   0.43485869    -7.9317708     -7.279492       2.7051896      50218.233      36.893836      36.893836      36.893836    
   5670000   0.43303655    -7.9345959     -7.2850503      2.6783294      50218.233      36.893836      36.893836      36.893836    
   5680000   0.43744332    -7.934367      -7.2782113      2.6836476      50218.233      36.893836      36.893836      36.893836    
   5690000   0.43715035    -7.9374736     -7.2817574      2.6543258      50218.233      36.893836      36.893836      36.893836    
   5700000   0.43271773    -7.9323704     -7.283303       2.6955018      50218.233      36.893836      36.893836      36.893836    
   5710000   0.43504874    -7.9324341     -7.2798702      2.6909542      50218.233      36.893836      36.893836      36.893836    
   5720000   0.43469141    -7.9320204     -7.2799926      2.6973873      50218.233      36.893836      36.893836      36.893836    
   5730000   0.4363513     -7.9305324     -7.2760148      2.7127706      50218.233      36.893836      36.893836      36.893836    
   5740000   0.43638333    -7.9346976     -7.2801319      2.6885887      50218.233      36.893836      36.893836      36.893836    
   5750000   0.43539993    -7.9323983     -7.2793077      2.7025924      50218.233      36.893836      36.893836      36.893836    
   5760000   0.43397368    -7.933056      -7.2821048      2.6850263      50218.233      36.893836      36.893836      36.893836    
   5770000   0.4333799     -7.9321174     -7.2820568      2.6954199      50218.233      36.893836      36.893836      36.893836    
   5780000   0.43668015    -7.9367066     -7.2816957      2.6682913      50218.233      36.893836      36.893836      36.893836    
   5790000   0.43337854    -7.9362583     -7.2861997      2.6733232      50218.233      36.893836      36.893836      36.893836    
   5800000   0.43397255    -7.937081      -7.2861315      2.6647608      50218.233      36.893836      36.893836      36.893836    
   5810000   0.43365566    -7.9347128     -7.2842386      2.6837476      50218.233      36.893836      36.893836      36.893836    
   5820000   0.43534927    -7.9349854     -7.2819708      2.679974       50218.233      36.893836      36.893836      36.893836    
   5830000   0.43317716    -7.931618      -7.2818615      2.7043739      50218.233      36.893836      36.893836      36.893836    
   5840000   0.43573738    -7.9350877     -7.281491       2.6788909      50218.233      36.893836      36.893836      36.893836    
   5850000   0.43626903    -7.9363287     -7.2819344      2.6674958      50218.233      36.893836      36.893836      36.893836    
   5860000   0.43456476    -7.9328431     -7.2810053      2.7014558      50218.233      36.893836      36.893836      36.893836    
   5870000   0.4351509     -7.9374345     -7.2847175      2.6654415      50218.233      36.893836      36.893836      36.893836    
   5880000   0.43459993    -7.9391621     -7.2872715      2.6544369      50218.233      36.893836      36.893836      36.893836    
   5890000   0.43285532    -7.932932      -7.2836583      2.6946151      50218.233      36.893836      36.893836      36.893836    
   5900000   0.4340803     -7.9358395     -7.2847283      2.6703984      50218.233      36.893836      36.893836      36.893836    
   5910000   0.43627316    -7.9354112     -7.2810107      2.6801871      50218.233      36.893836      36.893836      36.893836    
   5920000   0.43590469    -7.9365726     -7.2827249      2.6743747      50218.233      36.893836      36.893836      36.893836    
   5930000   0.43371304    -7.9343757     -7.2838154      2.6793655      50218.233      36.893836      36.893836      36.893836    
   5940000   0.43448779    -7.9352912     -7.2835688      2.6796922      50218.233      36.893836      36.893836      36.893836    
   5950000   0.43580964    -7.9363268     -7.2826217      2.6668607      50218.233      36.893836      36.893836      36.893836    
   5960000   0.43706413    -7.9363481     -7.2807612      2.6766012      50218.233      36.893836      36.893836      36.893836    
   5970000   0.43475701    -7.9349903     -7.2828641      2.6868616      50218.233      36.893836      36.893836      36.893836    
   5980000   0.43432194    -7.931922      -7.2804484      2.7103871      50218.233      36.893836      36.893836      36.893836    
   5990000   0.43736014    -7.933165      -7.2771342      2.6909058      50218.233      36.893836      36.893836      36.893836    
   6000000   0.43752178    -7.9371109     -7.2808375      2.6759848      50218.233      36.893836      36.893836      36.893836    
   6010000   0.43590253    -7.9358406     -7.2819961      2.6841312      50218.233      36.893836      36.893836      36.893836    
   6020000   0.43629586    -7.9366539     -7.2822194      2.6683888      50218.233      36.893836      36.893836      36.893836    
   6030000   0.43280797    -7.9389403     -7.2897376      2.6387423      50218.233      36.893836      36.893836      36.893836    
   6040000   0.43531575    -7.9346323     -7.281668       2.6790959      50218.233      36.893836      36.893836      36.893836    
   6050000   0.43502543    -7.9373239     -7.284795       2.6669352      50218.233      36.893836      36.893836      36.893836    
   6060000   0.43497221    -7.9374195     -7.2849705      2.6643018      50218.233      36.893836      36.893836      36.893836    
   6070000   0.43428781    -7.9357904     -7.2843679      2.6668155      50218.233      36.893836      36.893836      36.893836    
   6080000   0.43850112    -7.9369866     -7.2792442      2.6668617      50218.233      36.893836      36.893836      36.893836    
   6090000   0.4353324     -7.9363523     -7.283363       2.6754187      50218.233      36.893836      36.893836      36.893836    
   6100000   0.43785277    -7.9377627     -7.2809929      2.6593099      50218.233      36.893836      36.893836      36.893836    
   6110000   0.43378395    -7.9369169     -7.2862502      2.656666       50218.233      36.893836      36.893836      36.893836    
   6120000   0.43546717    -7.9332236     -7.2800321      2.6916107      50218.233      36.893836      36.893836      36.893836    
   6130000   0.43546409    -7.9390248     -7.285838       2.6554315      50218.233      36.893836      36.893836      36.893836    
   6140000   0.43522843    -7.9322049     -7.2793716      2.7015145      50218.233      36.893836      36.893836      36.893836    
   6150000   0.43557726    -7.9333343     -7.2799777      2.6894487      50218.233      36.893836      36.893836      36.893836    
   6160000   0.43558759    -7.9352596     -7.2818875      2.6756876      50218.233      36.893836      36.893836      36.893836    
   6170000   0.43273454    -7.9385515     -7.2894589      2.6587585      50218.233      36.893836      36.893836      36.893836    
   6180000   0.43564934    -7.9368836     -7.2834189      2.6712576      50218.233      36.893836      36.893836      36.893836    
   6190000   0.43545435    -7.9321577     -7.2789854      2.7128257      50218.233      36.893836      36.893836      36.893836    
   6200000   0.43465407    -7.9345832     -7.2826114      2.6878109      50218.233      36.893836      36.893836      36.893836    
   6210000   0.43416352    -7.9347406     -7.2835046      2.6722685      50218.233      36.893836      36.893836      36.893836    
   6220000   0.43488395    -7.9329354     -7.2806188      2.6983139      50218.233      36.893836      36.893836      36.893836    
   6230000   0.43471877    -7.9354055     -7.2833366      2.6784914      50218.233      36.893836      36.893836      36.893836    
   6240000   0.43520224    -7.9325922     -7.2797982      2.6960296      50218.233      36.893836      36.893836      36.893836    
   6250000   0.43341851    -7.9330917     -7.2829732      2.6939378      50218.233      36.893836      36.893836      36.893836    
   6260000   0.43719832    -7.9360207     -7.2802326      2.673119       50218.233      36.893836      36.893836      36.893836    
   6270000   0.43506929    -7.9384048     -7.2858101      2.6564414      50218.233      36.893836      36.893836      36.893836    
   6280000   0.4339336     -7.9343908     -7.2834996      2.6852154      50218.233      36.893836      36.893836      36.893836    
   6290000   0.43663806    -7.9343593     -7.2794115      2.6746139      50218.233      36.893836      36.893836      36.893836    
   6300000   0.43707605    -7.9334561     -7.2778513      2.6985661      50218.233      36.893836      36.893836      36.893836    
   6310000   0.43380819    -7.9349419     -7.2842389      2.684176       50218.233      36.893836      36.893836      36.893836    
   6320000   0.43311962    -7.9282413     -7.2785711      2.7260215      50218.233      36.893836      36.893836      36.893836    
   6330000   0.4364041     -7.934717      -7.2801201      2.6747718      50218.233      36.893836      36.893836      36.893836    
   6340000   0.43509695    -7.9337079     -7.2810717      2.6906222      50218.233      36.893836      36.893836      36.893836    
   6350000   0.43528116    -7.9335002     -7.2805877      2.6911078      50218.233      36.893836      36.893836      36.893836    
   6360000   0.43513391    -7.9388734     -7.2861819      2.6474016      50218.233      36.893836      36.893836      36.893836    
   6370000   0.43346561    -7.9363062     -7.286117       2.6595071      50218.233      36.893836      36.893836      36.893836    
   6380000   0.43645023    -7.9346339     -7.2799678      2.6732659      50218.233      36.893836      36.893836      36.893836    
   6390000   0.43463508    -7.9366607     -7.2847173      2.6656139      50218.233      36.893836      36.893836      36.893836    
   6400000   0.43574423    -7.9362708     -7.2826637      2.6692453      50218.233      36.893836      36.893836      36.893836    
   6410000   0.43503982    -7.9378596     -7.2853092      2.6634839      50218.233      36.893836      36.893836      36.893836    
   6420000   0.4331205     -7.9330208     -7.2833493      2.6936619      50218.233      36.893836      36.893836      36.893836    
   6430000   0.43735155    -7.9368847     -7.2808667      2.657519       50218.233      36.893836      36.893836      36.893836    
   6440000   0.43469433    -7.9361803     -7.2841481      2.661016       50218.233      36.893836      36.893836      36.893836    
   6450000   0.43425938    -7.9342978     -7.282918       2.6939937      50218.233      36.893836      36.893836      36.893836    
   6460000   0.4362068     -7.9364716     -7.2821707      2.6662918      50218.233      36.893836      36.893836      36.893836    
   6470000   0.43527185    -7.9383623     -7.2854638      2.6629483      50218.233      36.893836      36.893836      36.893836    
   6480000   0.43539041    -7.9365913     -7.283515       2.6596546      50218.233      36.893836      36.893836      36.893836    
   6490000   0.43253956    -7.9343704     -7.2855703      2.6856106      50218.233      36.893836      36.893836      36.893836    
   6500000   0.43428714    -7.9384592     -7.2870378      2.6562154      50218.233      36.893836      36.893836      36.893836    
   6510000   0.43485843    -7.938651      -7.2863727      2.6411006      50218.233      36.893836      36.893836      36.893836    
   6520000   0.43613621    -7.936724      -7.282529       2.6665511      50218.233      36.893836      36.893836      36.893836    
   6530000   0.43526338    -7.9371882     -7.2843024      2.6638927      50218.233      36.893836      36.893836      36.893836    
   6540000   0.43486139    -7.933801      -7.2815182      2.6840497      50218.233      36.893836      36.893836      36.893836    
   6550000   0.43369199    -7.933926      -7.2833973      2.6835733      50218.233      36.893836      36.893836      36.893836    
   6560000   0.43284931    -7.9337484     -7.2844836      2.6807253      50218.233      36.893836      36.893836      36.893836    
   6570000   0.43634867    -7.9354985     -7.2809848      2.6738532      50218.233      36.893836      36.893836      36.893836    
   6580000   0.43537443    -7.933936      -7.2808837      2.6888325      50218.233      36.893836      36.893836      36.893836    
   6590000   0.43267551    -7.9378757     -7.2888716      2.64986        50218.233      36.893836      36.893836      36.893836    
   6600000   0.4353252     -7.934321      -7.2813425      2.6903131      50218.233      36.893836      36.893836      36.893836    
   6610000   0.43572711    -7.9368029     -7.2832215      2.6748211      50218.233      36.893836      36.893836      36.893836    
   6620000   0.43324673    -7.9296981     -7.2798373      2.7143395      50218.233      36.893836      36.893836      36.893836    
   6630000   0.43466859    -7.9352632     -7.2832696      2.6730978      50218.233      36.893836      36.893836      36.893836    
   6640000   0.43402606    -7.9369263     -7.2858965      2.6649065      50218.233      36.893836      36.893836      36.893836    
   6650000   0.43568868    -7.931656      -7.2781323      2.7098568      50218.233      36.893836      36.893836      36.893836    
   6660000   0.43376718    -7.9336593     -7.2830177      2.6823319      50218.233      36.893836      36.893836      36.893836    
   6670000   0.43518223    -7.9375996     -7.2848356      2.6612928      50218.233      36.893836      36.893836      36.893836    
   6680000   0.4342369     -7.9304822     -7.2791361      2.7076903      50218.233      36.893836      36.893836      36.893836    
   6690000   0.43489652    -7.9309945     -7.278659       2.7067209      50218.233      36.893836      36.893836      36.893836    
   6700000   0.43677846    -7.9339795     -7.2788211      2.696413       50218.233      36.893836      36.893836      36.893836    
   6710000   0.43484051    -7.935354      -7.2831025      2.6676128      50218.233      36.893836      36.893836      36.893836    
   6720000   0.43458861    -7.9334171     -7.2815435      2.6879775      50218.233      36.893836      36.893836      36.893836    
   6730000   0.43427257    -7.9333719     -7.2819723      2.6873984      50218.233      36.893836      36.893836      36.893836    
   6740000   0.43217531    -7.931457      -7.2832033      2.7108009      50218.233      36.893836      36.893836      36.893836    
   6750000   0.43500978    -7.9304618     -7.2779565      2.7044806      50218.233      36.893836      36.893836      36.893836    
   6760000   0.43473078    -7.9326961     -7.2806092      2.6933152      50218.233      36.893836      36.893836      36.893836    
   6770000   0.43536023    -7.9320845     -7.2790535      2.6987421      50218.233      36.893836      36.893836      36.893836    
   6780000   0.43316302    -7.9344732     -7.284738       2.6861261      50218.233      36.893836      36.893836      36.893836    
   6790000   0.43505968    -7.9338908     -7.2813106      2.6852391      50218.233      36.893836      36.893836      36.893836    
   6800000   0.43663621    -7.9375481     -7.2826031      2.6653471      50218.233      36.893836      36.893836      36.893836    
   6810000   0.43494043    -7.937102      -7.2847007      2.6583869      50218.233      36.893836      36.893836      36.893836    
   6820000   0.43493065    -7.9322148     -7.2798281      2.7021559      50218.233      36.893836      36.893836      36.893836    
   6830000   0.43397657    -7.9345786     -7.283623       2.6722257      50218.233      36.893836      36.893836      36.893836    
   6840000   0.43698368    -7.9330216     -7.2775554      2.7049415      50218.233      36.893836      36.893836      36.893836    
   6850000   0.43667209    -7.9362945     -7.2812957      2.6752488      50218.233      36.893836      36.893836      36.893836    
   6860000   0.43444443    -7.9332686     -7.2816113      2.6830386      50218.233      36.893836      36.893836      36.893836    
   6870000   0.43570605    -7.9354821     -7.2819323      2.6802976      50218.233      36.893836      36.893836      36.893836    
   6880000   0.43623196    -7.9341786     -7.27984        2.690753       50218.233      36.893836      36.893836      36.893836    
   6890000   0.43434353    -7.9329078     -7.2814018      2.6905263      50218.233      36.893836      36.893836      36.893836    
   6900000   0.43563714    -7.9365047     -7.2830582      2.670678       50218.233      36.893836      36.893836      36.893836    
   6910000   0.43428326    -7.9350116     -7.283596       2.6694619      50218.233      36.893836      36.893836      36.893836    
   6920000   0.43551649    -7.9320229     -7.2787575      2.7002724      50218.233      36.893836      36.893836      36.893836    
   6930000   0.43382433    -7.9333382     -7.2826109      2.6865735      50218.233      36.893836      36.893836      36.893836    
   6940000   0.43496479    -7.9338765     -7.2814386      2.6780806      50218.233      36.893836      36.893836      36.893836    
   6950000   0.43313545    -7.9368271     -7.2871331      2.6692272      50218.233      36.893836      36.893836      36.893836    
   6960000   0.43522751    -7.9362481     -7.2834161      2.664873       50218.233      36.893836      36.893836      36.893836    
   6970000   0.43656477    -7.9342859     -7.279448       2.6871115      50218.233      36.893836      36.893836      36.893836    
   6980000   0.43610164    -7.9339862     -7.279843       2.6910218      50218.233      36.893836      36.893836      36.893836    
   6990000   0.43699607    -7.9384721     -7.2829873      2.6552919      50218.233      36.893836      36.893836      36.893836    
   7000000   0.43415031    -7.9337466     -7.2825304      2.6969456      50218.233      36.893836      36.893836      36.893836    
   7010000   0.43423333    -7.9349878     -7.283647       2.6766522      50218.233      36.893836      36.893836      36.893836    
   7020000   0.43539335    -7.9337088     -7.280628       2.6980134      50218.233      36.893836      36.893836      36.893836    
   7030000   0.43404066    -7.9313235     -7.2802718      2.7026673      50218.233      36.893836      36.893836      36.893836    
   7040000   0.43444282    -7.9388881     -7.2872332      2.6422138      50218.233      36.893836      36.893836      36.893836    
   7050000   0.43550381    -7.937059      -7.2838126      2.6677189      50218.233      36.893836      36.893836      36.893836    
   7060000   0.43435573    -7.9375882     -7.2860639      2.6489387      50218.233      36.893836      36.893836      36.893836    
   7070000   0.43521706    -7.9336023     -7.280786       2.6862821      50218.233      36.893836      36.893836      36.893836    
   7080000   0.43681301    -7.9354905     -7.2802803      2.6787226      50218.233      36.893836      36.893836      36.893836    
   7090000   0.43779474    -7.936882      -7.2801993      2.6711267      50218.233      36.893836      36.893836      36.893836    
   7100000   0.43529298    -7.9364988     -7.2835686      2.6619575      50218.233      36.893836      36.893836      36.893836    
   7110000   0.43380859    -7.9342245     -7.2835209      2.678196       50218.233      36.893836      36.893836      36.893836    
   7120000   0.43405384    -7.9318725     -7.280801       2.6999226      50218.233      36.893836      36.893836      36.893836    
   7130000   0.43714816    -7.9364448     -7.2807319      2.6810824      50218.233      36.893836      36.893836      36.893836    
   7140000   0.43565061    -7.9350721     -7.2816055      2.6857494      50218.233      36.893836      36.893836      36.893836    
   7150000   0.43508527    -7.9339845     -7.2813659      2.6839384      50218.233      36.893836      36.893836      36.893836    
   7160000   0.43804188    -7.9329399     -7.2758865      2.6938369      50218.233      36.893836      36.893836      36.893836    
   7170000   0.4356125     -7.9345508     -7.2811414      2.6734992      50218.233      36.893836      36.893836      36.893836    
   7180000   0.4364676     -7.9359548     -7.2812627      2.6769698      50218.233      36.893836      36.893836      36.893836    
   7190000   0.43712194    -7.9347862     -7.2791127      2.6897583      50218.233      36.893836      36.893836      36.893836    
   7200000   0.43636062    -7.9340391     -7.2795075      2.6816246      50218.233      36.893836      36.893836      36.893836    
   7210000   0.43628107    -7.9350266     -7.2806143      2.678851       50218.233      36.893836      36.893836      36.893836    
   7220000   0.43349962    -7.9336686     -7.2834284      2.6955091      50218.233      36.893836      36.893836      36.893836    
   7230000   0.43606105    -7.9317357     -7.2776534      2.6980115      50218.233      36.893836      36.893836      36.893836    
   7240000   0.43606583    -7.931724      -7.2776346      2.7060948      50218.233      36.893836      36.893836      36.893836    
   7250000   0.43803367    -7.9281866     -7.2711454      2.7381736      50218.233      36.893836      36.893836      36.893836    
   7260000   0.43645166    -7.9305509     -7.2758828      2.726439       50218.233      36.893836      36.893836      36.893836    
   7270000   0.43613762    -7.932745      -7.2785479      2.6951014      50218.233      36.893836      36.893836      36.893836    
   7280000   0.43453927    -7.9358231     -7.2840235      2.6686626      50218.233      36.893836      36.893836      36.893836    
   7290000   0.43407388    -7.935467      -7.2843654      2.672632       50218.233      36.893836      36.893836      36.893836    
   7300000   0.43435119    -7.9329318     -7.2814143      2.697864       50218.233      36.893836      36.893836      36.893836    
   7310000   0.43550385    -7.9351334     -7.2818869      2.6817644      50218.233      36.893836      36.893836      36.893836    
   7320000   0.43291922    -7.933842      -7.2844724      2.6863996      50218.233      36.893836      36.893836      36.893836    
   7330000   0.43588434    -7.9339015     -7.2800843      2.6900751      50218.233      36.893836      36.893836      36.893836    
   7340000   0.43451854    -7.936457      -7.2846885      2.6708867      50218.233      36.893836      36.893836      36.893836    
   7350000   0.43371084    -7.9300949     -7.2795379      2.7185086      50218.233      36.893836      36.893836      36.893836    
   7360000   0.43579522    -7.9366785     -7.282995       2.6749426      50218.233      36.893836      36.893836      36.893836    
   7370000   0.43653522    -7.9338132     -7.2790197      2.6855474      50218.233      36.893836      36.893836      36.893836    
   7380000   0.43637217    -7.9345219     -7.279973       2.6881773      50218.233      36.893836      36.893836      36.893836    
   7390000   0.43417036    -7.9328923     -7.281646       2.6921787      50218.233      36.893836      36.893836      36.893836    
   7400000   0.43354569    -7.9350481     -7.2847388      2.6815981      50218.233      36.893836      36.893836      36.893836    
   7410000   0.43461138    -7.9364206     -7.2845127      2.6658623      50218.233      36.893836      36.893836      36.893836    
   7420000   0.4355318     -7.9312884     -7.278          2.7091856      50218.233      36.893836      36.893836      36.893836    
   7430000   0.43647663    -7.9379371     -7.2832315      2.6619034      50218.233      36.893836      36.893836      36.893836    
   7440000   0.43455941    -7.9350394     -7.2832096      2.6767188      50218.233      36.893836      36.893836      36.893836    
   7450000   0.43264614    -7.9386591     -7.2896992      2.6454479      50218.233      36.893836      36.893836      36.893836    
   7460000   0.43447916    -7.9340596     -7.2823501      2.6813699      50218.233      36.893836      36.893836      36.893836    
   7470000   0.43455509    -7.9312575     -7.2794341      2.700454       50218.233      36.893836      36.893836      36.893836    
   7480000   0.43602568    -7.9335294     -7.2795002      2.6964405      50218.233      36.893836      36.893836      36.893836    
   7490000   0.43546714    -7.9362637     -7.2830723      2.6655569      50218.233      36.893836      36.893836      36.893836    
   7500000   0.43604837    -7.9342947     -7.2802315      2.6847503      50218.233      36.893836      36.893836      36.893836    
   7510000   0.43350824    -7.9353818     -7.2851287      2.6852713      50218.233      36.893836      36.893836      36.893836    
   7520000   0.43359299    -7.9350513     -7.284671       2.6827236      50218.233      36.893836      36.893836      36.893836    
   7530000   0.43620011    -7.9362624     -7.2819716      2.6780044      50218.233      36.893836      36.893836      36.893836    
   7540000   0.4352665     -7.9359314     -7.2830409      2.6781139      50218.233      36.893836      36.893836      36.893836    
   7550000   0.43322131    -7.9347353     -7.2849126      2.6907728      50218.233      36.893836      36.893836      36.893836    
   7560000   0.43496392    -7.9318834     -7.2794468      2.7023896      50218.233      36.893836      36.893836      36.893836    
   7570000   0.4371642     -7.9345061     -7.2787691      2.6920613      50218.233      36.893836      36.893836      36.893836    
   7580000   0.43499497    -7.932991      -7.2805078      2.693039       50218.233      36.893836      36.893836      36.893836    
   7590000   0.43609911    -7.9327507     -7.2786114      2.7018742      50218.233      36.893836      36.893836      36.893836    
   7600000   0.43302114    -7.9338178     -7.2842953      2.6935378      50218.233      36.893836      36.893836      36.893836    
   7610000   0.43524307    -7.931382      -7.2785267      2.7082719      50218.233      36.893836      36.893836      36.893836    
   7620000   0.43289651    -7.9353164     -7.2859809      2.6684604      50218.233      36.893836      36.893836      36.893836    
   7630000   0.43560442    -7.9364804     -7.2830831      2.6798955      50218.233      36.893836      36.893836      36.893836    
   7640000   0.43555324    -7.9374567     -7.2841361      2.6591183      50218.233      36.893836      36.893836      36.893836    
   7650000   0.43688885    -7.9347436     -7.2794197      2.6898556      50218.233      36.893836      36.893836      36.893836    
   7660000   0.43397532    -7.9326061     -7.2816524      2.6974527      50218.233      36.893836      36.893836      36.893836    
   7670000   0.43430211    -7.9316169     -7.280173       2.7057736      50218.233      36.893836      36.893836      36.893836    
   7680000   0.43450137    -7.9343315     -7.2825887      2.6776602      50218.233      36.893836      36.893836      36.893836    
   7690000   0.43398661    -7.9350319     -7.2840612      2.6862426      50218.233      36.893836      36.893836      36.893836    
   7700000   0.43591049    -7.9308628     -7.2770064      2.7114803      50218.233      36.893836      36.893836      36.893836    
   7710000   0.43624715    -7.9320437     -7.2776823      2.6994271      50218.233      36.893836      36.893836      36.893836    
   7720000   0.43620975    -7.9317452     -7.2774399      2.7078398      50218.233      36.893836      36.893836      36.893836    
   7730000   0.43513618    -7.9364238     -7.2837288      2.6630365      50218.233      36.893836      36.893836      36.893836    
   7740000   0.43290958    -7.9329368     -7.2835817      2.6876216      50218.233      36.893836      36.893836      36.893836    
   7750000   0.43613796    -7.9337872     -7.2795896      2.6975585      50218.233      36.893836      36.893836      36.893836    
   7760000   0.43702742    -7.9328547     -7.2773229      2.7074495      50218.233      36.893836      36.893836      36.893836    
   7770000   0.43551334    -7.9323828     -7.279122       2.694834       50218.233      36.893836      36.893836      36.893836    
   7780000   0.43411268    -7.9299962     -7.2788365      2.7117484      50218.233      36.893836      36.893836      36.893836    
   7790000   0.4341422     -7.9329668     -7.2817627      2.6977653      50218.233      36.893836      36.893836      36.893836    
   7800000   0.43511638    -7.9336475     -7.2809823      2.6902526      50218.233      36.893836      36.893836      36.893836    
   7810000   0.43415248    -7.9363457     -7.2851263      2.6722018      50218.233      36.893836      36.893836      36.893836    
   7820000   0.43619055    -7.935738      -7.2814615      2.6777889      50218.233      36.893836      36.893836      36.893836    
   7830000   0.43456882    -7.9345552     -7.2827113      2.6775273      50218.233      36.893836      36.893836      36.893836    
   7840000   0.43392228    -7.9327003     -7.2818262      2.6864304      50218.233      36.893836      36.893836      36.893836    
   7850000   0.43363353    -7.9371557     -7.2867146      2.6772369      50218.233      36.893836      36.893836      36.893836    
   7860000   0.43344433    -7.9341283     -7.283971       2.6815732      50218.233      36.893836      36.893836      36.893836    
   7870000   0.43490379    -7.9316776     -7.2793312      2.6998999      50218.233      36.893836      36.893836      36.893836    
   7880000   0.43394514    -7.9339504     -7.2830419      2.6816835      50218.233      36.893836      36.893836      36.893836    
   7890000   0.43581913    -7.933465      -7.2797456      2.6813392      50218.233      36.893836      36.893836      36.893836    
   7900000   0.43514294    -7.9363552     -7.28365        2.6682985      50218.233      36.893836      36.893836      36.893836    
   7910000   0.43324776    -7.9345105     -7.2846481      2.6886527      50218.233      36.893836      36.893836      36.893836    
   7920000   0.43421448    -7.9295166     -7.2782042      2.7190884      50218.233      36.893836      36.893836      36.893836    
   7930000   0.43534547    -7.9344282     -7.2814193      2.6832482      50218.233      36.893836      36.893836      36.893836    
   7940000   0.43375774    -7.9315136     -7.2808863      2.7079376      50218.233      36.893836      36.893836      36.893836    
   7950000   0.43572922    -7.9379564     -7.2843718      2.6558607      50218.233      36.893836      36.893836      36.893836    
   7960000   0.43466616    -7.9342679     -7.2822779      2.6836744      50218.233      36.893836      36.893836      36.893836    
   7970000   0.43387448    -7.9367136     -7.2859111      2.663117       50218.233      36.893836      36.893836      36.893836    
   7980000   0.43758816    -7.9362291     -7.2798562      2.683648       50218.233      36.893836      36.893836      36.893836    
   7990000   0.43445554    -7.9359753     -7.2843012      2.6702482      50218.233      36.893836      36.893836      36.893836    
   8000000   0.43431982    -7.9352994     -7.283829       2.680176       50218.233      36.893836      36.893836      36.893836    
Loop time of 12683.1 on 5 procs for 8000000 steps with 70304 atoms

Performance: 544975.047 tau/day, 630.758 timesteps/s, 44.345 Matom-step/s
94.5% CPU use with 5 MPI tasks x 1 OpenMP threads

MPI task timing breakdown:
Section |  min time  |  avg time  |  max time  |%varavg| %total
---------------------------------------------------------------
Pair    | 4688.2     | 4930       | 5216.5     | 295.7 | 38.87
Neigh   | 39.874     | 42.669     | 45.193     |  28.2 |  0.34
Comm    | 1883.1     | 1899.1     | 1916.9     |  30.7 | 14.97
Output  | 0.14427    | 0.14945    | 0.15828    |   1.3 |  0.00
Modify  | 4872.9     | 5179       | 5441.4     | 315.2 | 40.83
Other   |            | 632.3      |            |       |  4.99

Nlocal:        14060.8 ave       14131 max       14031 min
Histogram: 2 0 2 0 0 0 0 0 0 1
Nghost:        18714.6 ave       18756 max       18680 min
Histogram: 1 1 0 0 1 0 1 0 0 1
Neighs:              0 ave           0 max           0 min
Histogram: 5 0 0 0 0 0 0 0 0 0

Total # of neighbors = 0
Ave neighs/atom = 0
Neighbor list builds = 1595705
Dangerous builds = 0
clear
OMP_NUM_THREADS environment is not set. Defaulting to 1 thread. (src/comm.cpp:98)
  using 1 OpenMP thread(s) per MPI task
package gpu 0
jump dms415.lmp

variable T equal 415
# T = 1000* (temp in LJ unit)
variable f equal 10000
log log.${T}
log log.415
