variable TLJ equal (${T}/1000)
variable TLJ equal (430/1000)
variable NCyle equal 8
variable iStep equal (${f})
variable iStep equal (10000)
variable dumpStep equal (${f}*100)
variable dumpStep equal (10000*100)
variable runStep equal (${f}*100*${NCyle})
variable runStep equal (10000*100*${NCyle})
variable runStep equal (10000*100*8)

units       lj
atom_style  atomic
dimension 3
boundary     p p p
pair_style  lj/cut 2.5
read_data  ../data/T${T}.dat
read_data  ../data/T430.dat
Reading data file ...
  orthogonal box = (0.97250269 0.97250269 0.97250269) to (37.866338 37.866338 37.866338)
  1 by 1 by 5 MPI processor grid
  reading atoms ...
  70304 atoms
  reading velocities ...
  70304 velocities
  read_data CPU = 0.211 seconds
change_box all triclinic
Changing box ...
  triclinic box = (0.97250269 0.97250269 0.97250269) to (37.866338 37.866338 37.866338) with tilt (0 0 0)
mass 1 1
mass 2 1
pair_modify shift yes
pair_coeff  1 1 1 1
pair_coeff  1 2 1.5 0.8
pair_coeff  2 2 0.5 0.88


timestep 0.01
thermo ${iStep}
thermo 10000
reset_timestep 0
thermo_style custom step temp pe etotal press vol lx ly lz
fix             1 all nvt temp ${TLJ}  ${TLJ}  0.1
fix             1 all nvt temp 0.43  ${TLJ}  0.1
fix             1 all nvt temp 0.43  0.43  0.1
thermo_modify flush yes

fix dsf all deform 1 xy  wiggle 0.5  ${f}   units box
fix dsf all deform 1 xy  wiggle 0.5  10000   units box
fix ps1 all ave/time 1 1 ${iStep} c_thermo_press[1] c_thermo_press[2]  c_thermo_press[3] c_thermo_press[4]  c_thermo_press[5] c_thermo_press[6]  file  stress.${T}
fix ps1 all ave/time 1 1 10000 c_thermo_press[1] c_thermo_press[2]  c_thermo_press[3] c_thermo_press[4]  c_thermo_press[5] c_thermo_press[6]  file  stress.${T}
fix ps1 all ave/time 1 1 10000 c_thermo_press[1] c_thermo_press[2]  c_thermo_press[3] c_thermo_press[4]  c_thermo_press[5] c_thermo_press[6]  file  stress.430
dump            1 all custom ${dumpStep} dump.${T} id type x y z
dump            1 all custom 1000000 dump.${T} id type x y z
dump            1 all custom 1000000 dump.430 id type x y z
dump_modify 1 sort id
fix nodrift all momentum 1  linear 1 1 1
fix com_seed all recenter INIT INIT INIT shift all
run ${runStep}
run 8000000
Generated 0 of 1 mixed pair_coeff terms from geometric mixing rule
Per MPI rank memory allocation (min/avg/max) = 6.663 | 8.467 | 8.92 Mbytes
   Step          Temp          PotEng         TotEng         Press          Volume           Lx             Ly             Lz      
         0   0.42818741    -7.9499773     -7.3077053      2.5557416      50218.233      36.893836      36.893836      36.893836    
     10000   0.43033634    -7.9395421     -7.2940467      2.6414332      50218.233      36.893836      36.893836      36.893836    
     20000   0.42731616    -7.9441674     -7.3032023      2.601533       50218.233      36.893836      36.893836      36.893836    
     30000   0.43060428    -7.9427458     -7.2968486      2.6212521      50218.233      36.893836      36.893836      36.893836    
     40000   0.42947801    -7.9396755     -7.2954677      2.6411354      50218.233      36.893836      36.893836      36.893836    
     50000   0.43012264    -7.9480283     -7.3028535      2.5881567      50218.233      36.893836      36.893836      36.893836    
     60000   0.42916878    -7.9432121     -7.2994681      2.6090806      50218.233      36.893836      36.893836      36.893836    
     70000   0.4290253     -7.9433314     -7.2998026      2.6149665      50218.233      36.893836      36.893836      36.893836    
     80000   0.43182049    -7.9408881     -7.2931665      2.6316624      50218.233      36.893836      36.893836      36.893836    
     90000   0.43047464    -7.9378006     -7.2920978      2.6594177      50218.233      36.893836      36.893836      36.893836    
    100000   0.43209228    -7.9445125     -7.2963833      2.6081577      50218.233      36.893836      36.893836      36.893836    
    110000   0.42997937    -7.9408701     -7.2959102      2.6346352      50218.233      36.893836      36.893836      36.893836    
    120000   0.4297552     -7.9425546     -7.297931       2.6165541      50218.233      36.893836      36.893836      36.893836    
    130000   0.43060142    -7.9401434     -7.2942504      2.6412746      50218.233      36.893836      36.893836      36.893836    
    140000   0.4276813     -7.9413764     -7.2998636      2.6173137      50218.233      36.893836      36.893836      36.893836    
    150000   0.42991037    -7.9404307     -7.2955743      2.6380019      50218.233      36.893836      36.893836      36.893836    
    160000   0.42930965    -7.9434364     -7.2994811      2.6206174      50218.233      36.893836      36.893836      36.893836    
    170000   0.43086431    -7.9421555     -7.2958682      2.623461       50218.233      36.893836      36.893836      36.893836    
    180000   0.43071287    -7.9409904     -7.2949303      2.639401       50218.233      36.893836      36.893836      36.893836    
    190000   0.42881694    -7.9422175     -7.2990012      2.6164435      50218.233      36.893836      36.893836      36.893836    
    200000   0.43188785    -7.9376083     -7.2897857      2.6565169      50218.233      36.893836      36.893836      36.893836    
    210000   0.43024712    -7.9359609     -7.2905994      2.662099       50218.233      36.893836      36.893836      36.893836    
    220000   0.43119154    -7.940095      -7.2933169      2.6366208      50218.233      36.893836      36.893836      36.893836    
    230000   0.43003392    -7.9410227     -7.295981       2.6309483      50218.233      36.893836      36.893836      36.893836    
    240000   0.43011293    -7.9417199     -7.2965596      2.6251402      50218.233      36.893836      36.893836      36.893836    
    250000   0.42742081    -7.9438359     -7.3027138      2.6021204      50218.233      36.893836      36.893836      36.893836    
    260000   0.43214191    -7.93995       -7.2917463      2.6364746      50218.233      36.893836      36.893836      36.893836    
    270000   0.43116437    -7.9386942     -7.2919569      2.6489241      50218.233      36.893836      36.893836      36.893836    
    280000   0.42984596    -7.9413645     -7.2966047      2.6225298      50218.233      36.893836      36.893836      36.893836    
    290000   0.43024218    -7.9402595     -7.2949054      2.6339989      50218.233      36.893836      36.893836      36.893836    
    300000   0.43098605    -7.9412635     -7.2947936      2.62453        50218.233      36.893836      36.893836      36.893836    
    310000   0.43240854    -7.9448685     -7.2962649      2.6048468      50218.233      36.893836      36.893836      36.893836    
    320000   0.4303741     -7.9372788     -7.2917269      2.663082       50218.233      36.893836      36.893836      36.893836    
    330000   0.43111201    -7.9389424     -7.2922836      2.6525522      50218.233      36.893836      36.893836      36.893836    
    340000   0.42970556    -7.9390742     -7.2945251      2.6387858      50218.233      36.893836      36.893836      36.893836    
    350000   0.42880131    -7.9419929     -7.2988001      2.6180387      50218.233      36.893836      36.893836      36.893836    
    360000   0.42984812    -7.9406994     -7.2959364      2.6359759      50218.233      36.893836      36.893836      36.893836    
    370000   0.43061638    -7.9385567     -7.2926413      2.6540846      50218.233      36.893836      36.893836      36.893836    
    380000   0.43209289    -7.9427523     -7.2946222      2.6236869      50218.233      36.893836      36.893836      36.893836    
    390000   0.42941258    -7.9449677     -7.300858       2.6018526      50218.233      36.893836      36.893836      36.893836    
    400000   0.43078635    -7.9400064     -7.293836       2.6464014      50218.233      36.893836      36.893836      36.893836    
    410000   0.43196676    -7.9425287     -7.2945877      2.6189045      50218.233      36.893836      36.893836      36.893836    
    420000   0.4310994     -7.9388827     -7.2922428      2.6533295      50218.233      36.893836      36.893836      36.893836    
    430000   0.43125886    -7.9431619     -7.2962828      2.6209934      50218.233      36.893836      36.893836      36.893836    
    440000   0.43043626    -7.9419056     -7.2962604      2.6266649      50218.233      36.893836      36.893836      36.893836    
    450000   0.43348956    -7.9379332     -7.2877081      2.6565048      50218.233      36.893836      36.893836      36.893836    
    460000   0.42876092    -7.9441041     -7.3009719      2.6110733      50218.233      36.893836      36.893836      36.893836    
    470000   0.43235894    -7.9447        -7.2961708      2.5949511      50218.233      36.893836      36.893836      36.893836    
    480000   0.43096796    -7.9459608     -7.2995181      2.5972081      50218.233      36.893836      36.893836      36.893836    
    490000   0.43029467    -7.9420681     -7.2966353      2.6234528      50218.233      36.893836      36.893836      36.893836    
    500000   0.43313804    -7.9435772     -7.2938794      2.6198463      50218.233      36.893836      36.893836      36.893836    
    510000   0.43151704    -7.9383961     -7.2911297      2.6536883      50218.233      36.893836      36.893836      36.893836    
    520000   0.42893978    -7.9386872     -7.2952867      2.6437778      50218.233      36.893836      36.893836      36.893836    
    530000   0.42968589    -7.9411508     -7.2966311      2.6267569      50218.233      36.893836      36.893836      36.893836    
    540000   0.42892975    -7.9373856     -7.2940002      2.649573       50218.233      36.893836      36.893836      36.893836    
    550000   0.43044302    -7.939703      -7.2940477      2.6418227      50218.233      36.893836      36.893836      36.893836    
    560000   0.43062148    -7.9403966     -7.2944735      2.6444129      50218.233      36.893836      36.893836      36.893836    
    570000   0.43069498    -7.9409783     -7.294945       2.6223985      50218.233      36.893836      36.893836      36.893836    
    580000   0.42931185    -7.942853      -7.2988944      2.6200549      50218.233      36.893836      36.893836      36.893836    
    590000   0.42925864    -7.9414048     -7.297526       2.6237851      50218.233      36.893836      36.893836      36.893836    
    600000   0.43090455    -7.9428189     -7.2964713      2.6208788      50218.233      36.893836      36.893836      36.893836    
    610000   0.43047801    -7.9419937     -7.2962859      2.6268491      50218.233      36.893836      36.893836      36.893836    
    620000   0.43480239    -7.9392311     -7.2870368      2.6579451      50218.233      36.893836      36.893836      36.893836    
    630000   0.42835504    -7.9416399     -7.2991165      2.6360666      50218.233      36.893836      36.893836      36.893836    
    640000   0.43110754    -7.9408268     -7.2941747      2.6418248      50218.233      36.893836      36.893836      36.893836    
    650000   0.42750148    -7.9391568     -7.2979137      2.6438717      50218.233      36.893836      36.893836      36.893836    
    660000   0.4288602     -7.9404978     -7.2972167      2.6367126      50218.233      36.893836      36.893836      36.893836    
    670000   0.43261407    -7.9392821     -7.2903702      2.6520289      50218.233      36.893836      36.893836      36.893836    
    680000   0.42854163    -7.938804      -7.2960006      2.643345       50218.233      36.893836      36.893836      36.893836    
    690000   0.42925265    -7.9387054     -7.2948355      2.645318       50218.233      36.893836      36.893836      36.893836    
    700000   0.42689392    -7.9435993     -7.3032676      2.6187596      50218.233      36.893836      36.893836      36.893836    
    710000   0.42910992    -7.9383425     -7.2946868      2.6482511      50218.233      36.893836      36.893836      36.893836    
    720000   0.43179485    -7.9433513     -7.2956683      2.6190455      50218.233      36.893836      36.893836      36.893836    
    730000   0.42904956    -7.9405351     -7.2969699      2.6422715      50218.233      36.893836      36.893836      36.893836    
    740000   0.43053734    -7.939822      -7.2940252      2.6432205      50218.233      36.893836      36.893836      36.893836    
    750000   0.42890115    -7.9405094     -7.2971668      2.6356556      50218.233      36.893836      36.893836      36.893836    
    760000   0.42947785    -7.9406723     -7.2964647      2.6298399      50218.233      36.893836      36.893836      36.893836    
    770000   0.43137819    -7.9413509     -7.2942928      2.6284781      50218.233      36.893836      36.893836      36.893836    
    780000   0.43205844    -7.9411479     -7.2930695      2.6411325      50218.233      36.893836      36.893836      36.893836    
    790000   0.43221314    -7.9389835     -7.290673       2.6453988      50218.233      36.893836      36.893836      36.893836    
    800000   0.43019156    -7.9425795     -7.2973013      2.6253686      50218.233      36.893836      36.893836      36.893836    
    810000   0.42986645    -7.9394721     -7.2946816      2.6444635      50218.233      36.893836      36.893836      36.893836    
    820000   0.42842792    -7.9424499     -7.2998172      2.6242591      50218.233      36.893836      36.893836      36.893836    
    830000   0.42861344    -7.9394328     -7.2965218      2.6511509      50218.233      36.893836      36.893836      36.893836    
    840000   0.42840516    -7.9415318     -7.2989332      2.6194399      50218.233      36.893836      36.893836      36.893836    
    850000   0.43109294    -7.9389369     -7.2923067      2.6475937      50218.233      36.893836      36.893836      36.893836    
    860000   0.43157359    -7.9393009     -7.2919497      2.6507174      50218.233      36.893836      36.893836      36.893836    
    870000   0.42904041    -7.9384782     -7.2949267      2.664378       50218.233      36.893836      36.893836      36.893836    
    880000   0.42784286    -7.9417731     -7.300018       2.6299928      50218.233      36.893836      36.893836      36.893836    
    890000   0.43105533    -7.9409711     -7.2943973      2.6374678      50218.233      36.893836      36.893836      36.893836    
    900000   0.42974413    -7.9424921     -7.297885       2.6073099      50218.233      36.893836      36.893836      36.893836    
    910000   0.42879953    -7.937107      -7.2939169      2.661283       50218.233      36.893836      36.893836      36.893836    
    920000   0.43135532    -7.9409515     -7.2939277      2.6353107      50218.233      36.893836      36.893836      36.893836    
    930000   0.42859236    -7.9449291     -7.3020497      2.5983383      50218.233      36.893836      36.893836      36.893836    
    940000   0.43123856    -7.9426021     -7.2957534      2.6143879      50218.233      36.893836      36.893836      36.893836    
    950000   0.43144502    -7.9426352     -7.2954769      2.6200083      50218.233      36.893836      36.893836      36.893836    
    960000   0.42977516    -7.9408601     -7.2962065      2.6346893      50218.233      36.893836      36.893836      36.893836    
    970000   0.43042353    -7.944094      -7.2984679      2.6039064      50218.233      36.893836      36.893836      36.893836    
    980000   0.42879839    -7.940641      -7.2974525      2.6315931      50218.233      36.893836      36.893836      36.893836    
    990000   0.43134638    -7.9415704     -7.2945601      2.6348468      50218.233      36.893836      36.893836      36.893836    
   1000000   0.43022398    -7.9431714     -7.2978446      2.6098072      50218.233      36.893836      36.893836      36.893836    
   1010000   0.43075921    -7.9402789     -7.2941493      2.6314465      50218.233      36.893836      36.893836      36.893836    
   1020000   0.43174426    -7.9468783     -7.2992711      2.5957821      50218.233      36.893836      36.893836      36.893836    
   1030000   0.42904073    -7.9417523     -7.2982003      2.6227315      50218.233      36.893836      36.893836      36.893836    
   1040000   0.42933063    -7.9435324     -7.2995457      2.6058585      50218.233      36.893836      36.893836      36.893836    
   1050000   0.42918465    -7.9382101     -7.2944423      2.6516931      50218.233      36.893836      36.893836      36.893836    
   1060000   0.42947707    -7.9408109     -7.2966044      2.6317173      50218.233      36.893836      36.893836      36.893836    
   1070000   0.43108333    -7.9393484     -7.2927326      2.6496871      50218.233      36.893836      36.893836      36.893836    
   1080000   0.42903605    -7.9428935     -7.2993486      2.6251148      50218.233      36.893836      36.893836      36.893836    
   1090000   0.43042827    -7.9413054     -7.2956722      2.6355144      50218.233      36.893836      36.893836      36.893836    
   1100000   0.43139838    -7.9400099     -7.2929215      2.6352498      50218.233      36.893836      36.893836      36.893836    
   1110000   0.43086459    -7.9429247     -7.296637       2.6229064      50218.233      36.893836      36.893836      36.893836    
   1120000   0.42741024    -7.9431029     -7.3019967      2.6103517      50218.233      36.893836      36.893836      36.893836    
   1130000   0.43050352    -7.9423257     -7.2965796      2.6363124      50218.233      36.893836      36.893836      36.893836    
   1140000   0.42916873    -7.9423512     -7.2986072      2.6225891      50218.233      36.893836      36.893836      36.893836    
   1150000   0.42947712    -7.9393104     -7.2951039      2.6431831      50218.233      36.893836      36.893836      36.893836    
   1160000   0.42818952    -7.9396694     -7.2973943      2.6388868      50218.233      36.893836      36.893836      36.893836    
   1170000   0.43148262    -7.9440899     -7.2968751      2.6079304      50218.233      36.893836      36.893836      36.893836    
   1180000   0.42966234    -7.9417405     -7.2972562      2.6383317      50218.233      36.893836      36.893836      36.893836    
   1190000   0.43154074    -7.9435112     -7.2962092      2.6166554      50218.233      36.893836      36.893836      36.893836    
   1200000   0.42980404    -7.9417596     -7.2970627      2.6154935      50218.233      36.893836      36.893836      36.893836    
   1210000   0.42979528    -7.9403141     -7.2956303      2.6376983      50218.233      36.893836      36.893836      36.893836    
   1220000   0.42983592    -7.9416121     -7.2968674      2.6223479      50218.233      36.893836      36.893836      36.893836    
   1230000   0.42915793    -7.9402084     -7.2964807      2.6331673      50218.233      36.893836      36.893836      36.893836    
   1240000   0.43142463    -7.9372408     -7.2901131      2.6582023      50218.233      36.893836      36.893836      36.893836    
   1250000   0.42869521    -7.9414464     -7.2984127      2.6217407      50218.233      36.893836      36.893836      36.893836    
   1260000   0.42825971    -7.9425109     -7.3001305      2.6264621      50218.233      36.893836      36.893836      36.893836    
   1270000   0.43185818    -7.9444285     -7.2966505      2.6028238      50218.233      36.893836      36.893836      36.893836    
   1280000   0.42984219    -7.9434942     -7.2987401      2.6097463      50218.233      36.893836      36.893836      36.893836    
   1290000   0.42852687    -7.9406173     -7.2978361      2.6340008      50218.233      36.893836      36.893836      36.893836    
   1300000   0.430405      -7.9424484     -7.2968501      2.6251894      50218.233      36.893836      36.893836      36.893836    
   1310000   0.42823688    -7.9390317     -7.2966855      2.6467557      50218.233      36.893836      36.893836      36.893836    
   1320000   0.43094928    -7.9429398     -7.2965251      2.6175767      50218.233      36.893836      36.893836      36.893836    
   1330000   0.42770547    -7.9445406     -7.3029915      2.6084295      50218.233      36.893836      36.893836      36.893836    
   1340000   0.42871664    -7.9407785     -7.2977126      2.6258969      50218.233      36.893836      36.893836      36.893836    
   1350000   0.42965767    -7.9385414     -7.294064       2.656495       50218.233      36.893836      36.893836      36.893836    
   1360000   0.43049319    -7.9448238     -7.2990932      2.6025347      50218.233      36.893836      36.893836      36.893836    
   1370000   0.43123199    -7.9431942     -7.2963554      2.6223252      50218.233      36.893836      36.893836      36.893836    
   1380000   0.42959429    -7.9403218     -7.2959396      2.6227088      50218.233      36.893836      36.893836      36.893836    
   1390000   0.43135365    -7.9415471     -7.2945259      2.6301655      50218.233      36.893836      36.893836      36.893836    
   1400000   0.42792304    -7.9419206     -7.3000452      2.6209536      50218.233      36.893836      36.893836      36.893836    
   1410000   0.42981506    -7.9441918     -7.2994784      2.6087595      50218.233      36.893836      36.893836      36.893836    
   1420000   0.42886605    -7.9471004     -7.3038104      2.581304       50218.233      36.893836      36.893836      36.893836    
   1430000   0.42909476    -7.9475569     -7.3039239      2.5738177      50218.233      36.893836      36.893836      36.893836    
   1440000   0.42837409    -7.9418924     -7.2993404      2.6195687      50218.233      36.893836      36.893836      36.893836    
   1450000   0.42957856    -7.9439518     -7.2995931      2.6070002      50218.233      36.893836      36.893836      36.893836    
   1460000   0.43080482    -7.943697      -7.297499       2.6134996      50218.233      36.893836      36.893836      36.893836    
   1470000   0.43122092    -7.9425477     -7.2957255      2.6236124      50218.233      36.893836      36.893836      36.893836    
   1480000   0.42945268    -7.9443337     -7.3001638      2.6146447      50218.233      36.893836      36.893836      36.893836    
   1490000   0.4306318     -7.9409901     -7.2950515      2.6405706      50218.233      36.893836      36.893836      36.893836    
   1500000   0.42871685    -7.944076      -7.3010099      2.6066979      50218.233      36.893836      36.893836      36.893836    
   1510000   0.42961371    -7.9403409     -7.2959295      2.6417967      50218.233      36.893836      36.893836      36.893836    
   1520000   0.42949548    -7.9422388     -7.2980047      2.6184456      50218.233      36.893836      36.893836      36.893836    
   1530000   0.42815586    -7.9444033     -7.3021786      2.6083856      50218.233      36.893836      36.893836      36.893836    
   1540000   0.43255891    -7.9450294     -7.2962002      2.6140887      50218.233      36.893836      36.893836      36.893836    
   1550000   0.43064054    -7.9440352     -7.2980836      2.6108944      50218.233      36.893836      36.893836      36.893836    
   1560000   0.43058279    -7.9459179     -7.3000529      2.5957934      50218.233      36.893836      36.893836      36.893836    
   1570000   0.42942261    -7.9410502     -7.2969255      2.6280247      50218.233      36.893836      36.893836      36.893836    
   1580000   0.42787432    -7.9391805     -7.2973782      2.6465614      50218.233      36.893836      36.893836      36.893836    
   1590000   0.42943859    -7.9434839     -7.2993352      2.6087952      50218.233      36.893836      36.893836      36.893836    
   1600000   0.43077       -7.9460348     -7.299889       2.5984289      50218.233      36.893836      36.893836      36.893836    
   1610000   0.42935973    -7.9417578     -7.2977274      2.6249893      50218.233      36.893836      36.893836      36.893836    
   1620000   0.42880503    -7.9388519     -7.2956535      2.6453605      50218.233      36.893836      36.893836      36.893836    
   1630000   0.43036541    -7.9409426     -7.2954036      2.6212585      50218.233      36.893836      36.893836      36.893836    
   1640000   0.43229454    -7.9434639     -7.2950313      2.6183209      50218.233      36.893836      36.893836      36.893836    
   1650000   0.42978846    -7.940006      -7.2953325      2.6381973      50218.233      36.893836      36.893836      36.893836    
   1660000   0.42919388    -7.9400092     -7.2962276      2.6327384      50218.233      36.893836      36.893836      36.893836    
   1670000   0.42929261    -7.9441756     -7.3002459      2.6086753      50218.233      36.893836      36.893836      36.893836    
   1680000   0.42855933    -7.9460576     -7.3032277      2.5925949      50218.233      36.893836      36.893836      36.893836    
   1690000   0.43121035    -7.9439593     -7.297153       2.6060688      50218.233      36.893836      36.893836      36.893836    
   1700000   0.43146928    -7.9359186     -7.2887239      2.6825849      50218.233      36.893836      36.893836      36.893836    
   1710000   0.43119115    -7.9390237     -7.2922462      2.6478327      50218.233      36.893836      36.893836      36.893836    
   1720000   0.42778095    -7.9429982     -7.3013359      2.6096397      50218.233      36.893836      36.893836      36.893836    
   1730000   0.42958566    -7.9401084     -7.2957391      2.6282906      50218.233      36.893836      36.893836      36.893836    
   1740000   0.42814344    -7.9392173     -7.2970113      2.6450607      50218.233      36.893836      36.893836      36.893836    
   1750000   0.43071884    -7.9411202     -7.2950511      2.6343613      50218.233      36.893836      36.893836      36.893836    
   1760000   0.42980295    -7.941341      -7.2966457      2.6259318      50218.233      36.893836      36.893836      36.893836    
   1770000   0.42964348    -7.9392061     -7.2947501      2.6458099      50218.233      36.893836      36.893836      36.893836    
   1780000   0.4281838     -7.9423795     -7.3001129      2.6259823      50218.233      36.893836      36.893836      36.893836    
   1790000   0.42794694    -7.9415138     -7.2996025      2.6086111      50218.233      36.893836      36.893836      36.893836    
   1800000   0.43015666    -7.9410103     -7.2957845      2.628882       50218.233      36.893836      36.893836      36.893836    
   1810000   0.43055129    -7.9446506     -7.2988328      2.5993527      50218.233      36.893836      36.893836      36.893836    
   1820000   0.43134556    -7.9418131     -7.294804       2.6360454      50218.233      36.893836      36.893836      36.893836    
   1830000   0.42973767    -7.9447786     -7.3001813      2.6088428      50218.233      36.893836      36.893836      36.893836    
   1840000   0.43062902    -7.9406277     -7.2946933      2.6276293      50218.233      36.893836      36.893836      36.893836    
   1850000   0.42978073    -7.9426586     -7.2979966      2.6173937      50218.233      36.893836      36.893836      36.893836    
   1860000   0.43032438    -7.9413004     -7.295823       2.6284336      50218.233      36.893836      36.893836      36.893836    
   1870000   0.43081092    -7.942591      -7.2963838      2.620301       50218.233      36.893836      36.893836      36.893836    
   1880000   0.42931176    -7.9426389     -7.2986804      2.6204839      50218.233      36.893836      36.893836      36.893836    
   1890000   0.4286989     -7.9422926     -7.2992534      2.6147577      50218.233      36.893836      36.893836      36.893836    
   1900000   0.43226022    -7.9423007     -7.2939196      2.629275       50218.233      36.893836      36.893836      36.893836    
   1910000   0.42958446    -7.9423093     -7.2979417      2.6178235      50218.233      36.893836      36.893836      36.893836    
   1920000   0.43103501    -7.9388527     -7.2923093      2.6408327      50218.233      36.893836      36.893836      36.893836    
   1930000   0.42900041    -7.942621      -7.2991295      2.6144753      50218.233      36.893836      36.893836      36.893836    
   1940000   0.43030389    -7.9421831     -7.2967365      2.62346        50218.233      36.893836      36.893836      36.893836    
   1950000   0.42824148    -7.9443417     -7.3019886      2.6037665      50218.233      36.893836      36.893836      36.893836    
   1960000   0.43221341    -7.9418105     -7.2934996      2.6205106      50218.233      36.893836      36.893836      36.893836    
   1970000   0.42897298    -7.9441584     -7.300708       2.6029124      50218.233      36.893836      36.893836      36.893836    
   1980000   0.42923563    -7.9438356     -7.2999913      2.613297       50218.233      36.893836      36.893836      36.893836    
   1990000   0.43041875    -7.9422825     -7.2966636      2.6194084      50218.233      36.893836      36.893836      36.893836    
   2000000   0.43293933    -7.9446828     -7.295283       2.615535       50218.233      36.893836      36.893836      36.893836    
   2010000   0.43163996    -7.944051      -7.2966003      2.6039654      50218.233      36.893836      36.893836      36.893836    
   2020000   0.43058969    -7.9427944     -7.2969191      2.6199472      50218.233      36.893836      36.893836      36.893836    
   2030000   0.42926126    -7.9403216     -7.2964388      2.6325865      50218.233      36.893836      36.893836      36.893836    
   2040000   0.4297311     -7.9414543     -7.2968668      2.6234893      50218.233      36.893836      36.893836      36.893836    
   2050000   0.43063494    -7.9417849     -7.2958416      2.6220065      50218.233      36.893836      36.893836      36.893836    
   2060000   0.43049679    -7.9425391     -7.2968031      2.6199195      50218.233      36.893836      36.893836      36.893836    
   2070000   0.42768219    -7.9403474     -7.2988332      2.6324575      50218.233      36.893836      36.893836      36.893836    
   2080000   0.43035732    -7.9423496     -7.2968228      2.6185917      50218.233      36.893836      36.893836      36.893836    
   2090000   0.42801243    -7.9436837     -7.3016742      2.6108691      50218.233      36.893836      36.893836      36.893836    
   2100000   0.42909893    -7.9446543     -7.3010151      2.6034142      50218.233      36.893836      36.893836      36.893836    
   2110000   0.43015509    -7.942814      -7.2975905      2.6157011      50218.233      36.893836      36.893836      36.893836    
   2120000   0.43016581    -7.9399195     -7.2946799      2.6467561      50218.233      36.893836      36.893836      36.893836    
   2130000   0.43103462    -7.9457302     -7.2991875      2.5915037      50218.233      36.893836      36.893836      36.893836    
   2140000   0.43021797    -7.9415653     -7.2962475      2.6300992      50218.233      36.893836      36.893836      36.893836    
   2150000   0.43137072    -7.942066      -7.2950191      2.6213103      50218.233      36.893836      36.893836      36.893836    
   2160000   0.42902613    -7.9383976     -7.2948676      2.6480084      50218.233      36.893836      36.893836      36.893836    
   2170000   0.4334974     -7.9457349     -7.295498       2.6024316      50218.233      36.893836      36.893836      36.893836    
   2180000   0.42954137    -7.9414749     -7.297172       2.620062       50218.233      36.893836      36.893836      36.893836    
   2190000   0.42856409    -7.9407659     -7.2979289      2.6306213      50218.233      36.893836      36.893836      36.893836    
   2200000   0.43012149    -7.9382729     -7.2930998      2.6575965      50218.233      36.893836      36.893836      36.893836    
   2210000   0.43146956    -7.941077      -7.2938818      2.6291934      50218.233      36.893836      36.893836      36.893836    
   2220000   0.43214457    -7.9444741     -7.2962665      2.6165544      50218.233      36.893836      36.893836      36.893836    
   2230000   0.42920753    -7.9402273     -7.2964251      2.6275815      50218.233      36.893836      36.893836      36.893836    
   2240000   0.43027536    -7.9406199     -7.295216       2.6285807      50218.233      36.893836      36.893836      36.893836    
   2250000   0.42894837    -7.9411563     -7.2977429      2.6239653      50218.233      36.893836      36.893836      36.893836    
   2260000   0.43101414    -7.9444756     -7.2979636      2.6007919      50218.233      36.893836      36.893836      36.893836    
   2270000   0.43015256    -7.9437405     -7.2985208      2.6133304      50218.233      36.893836      36.893836      36.893836    
   2280000   0.42975164    -7.9460755     -7.3014572      2.5894638      50218.233      36.893836      36.893836      36.893836    
   2290000   0.43086204    -7.9425893     -7.2963054      2.6103014      50218.233      36.893836      36.893836      36.893836    
   2300000   0.42870546    -7.9382455     -7.2951965      2.6522645      50218.233      36.893836      36.893836      36.893836    
   2310000   0.42897587    -7.9423808     -7.2989261      2.6178057      50218.233      36.893836      36.893836      36.893836    
   2320000   0.42857948    -7.9405662     -7.2977061      2.6393951      50218.233      36.893836      36.893836      36.893836    
   2330000   0.43288734    -7.9420474     -7.2927256      2.6286173      50218.233      36.893836      36.893836      36.893836    
   2340000   0.42778963    -7.9439057     -7.3022304      2.6024789      50218.233      36.893836      36.893836      36.893836    
   2350000   0.42981232    -7.941032      -7.2963227      2.6258034      50218.233      36.893836      36.893836      36.893836    
   2360000   0.42860083    -7.9457799     -7.3028878      2.5932473      50218.233      36.893836      36.893836      36.893836    
   2370000   0.43245222    -7.9395394     -7.2908703      2.6439659      50218.233      36.893836      36.893836      36.893836    
   2380000   0.42985848    -7.9429529     -7.2981743      2.6207513      50218.233      36.893836      36.893836      36.893836    
   2390000   0.42941499    -7.9450625     -7.3009491      2.5993204      50218.233      36.893836      36.893836      36.893836    
   2400000   0.42975624    -7.9435013     -7.2988761      2.6153174      50218.233      36.893836      36.893836      36.893836    
   2410000   0.4293109     -7.943171      -7.2992138      2.5994922      50218.233      36.893836      36.893836      36.893836    
   2420000   0.43026318    -7.9396555     -7.2942699      2.6483848      50218.233      36.893836      36.893836      36.893836    
   2430000   0.43109       -7.9414852     -7.2948594      2.6243276      50218.233      36.893836      36.893836      36.893836    
   2440000   0.43122371    -7.9405775     -7.2937511      2.6373753      50218.233      36.893836      36.893836      36.893836    
   2450000   0.43055596    -7.9434518     -7.2976271      2.6126777      50218.233      36.893836      36.893836      36.893836    
   2460000   0.42787159    -7.9428688     -7.3010705      2.6137843      50218.233      36.893836      36.893836      36.893836    
   2470000   0.42995564    -7.942779      -7.2978547      2.6216544      50218.233      36.893836      36.893836      36.893836    
   2480000   0.42851288    -7.9455161     -7.3027559      2.5964236      50218.233      36.893836      36.893836      36.893836    
   2490000   0.42872782    -7.939935      -7.2968524      2.6279891      50218.233      36.893836      36.893836      36.893836    
   2500000   0.42799155    -7.9402578     -7.2982796      2.6263492      50218.233      36.893836      36.893836      36.893836    
   2510000   0.42831803    -7.9443419     -7.301874       2.5969527      50218.233      36.893836      36.893836      36.893836    
   2520000   0.42988971    -7.9405444     -7.295719       2.6252654      50218.233      36.893836      36.893836      36.893836    
   2530000   0.43106462    -7.9410591     -7.2944714      2.6304944      50218.233      36.893836      36.893836      36.893836    
   2540000   0.42842158    -7.9381412     -7.295518       2.6566959      50218.233      36.893836      36.893836      36.893836    
   2550000   0.430642      -7.9425305     -7.2965766      2.6069623      50218.233      36.893836      36.893836      36.893836    
   2560000   0.42965271    -7.9421513     -7.2976814      2.6198154      50218.233      36.893836      36.893836      36.893836    
   2570000   0.43150257    -7.9422615     -7.2950168      2.6307106      50218.233      36.893836      36.893836      36.893836    
   2580000   0.4314963     -7.9408548     -7.2936195      2.632171       50218.233      36.893836      36.893836      36.893836    
   2590000   0.42992089    -7.9434595     -7.2985873      2.603316       50218.233      36.893836      36.893836      36.893836    
   2600000   0.42990753    -7.9434012     -7.2985491      2.6235564      50218.233      36.893836      36.893836      36.893836    
   2610000   0.42899379    -7.9447362     -7.3012547      2.6028763      50218.233      36.893836      36.893836      36.893836    
   2620000   0.42885976    -7.9388753     -7.2955948      2.6416205      50218.233      36.893836      36.893836      36.893836    
   2630000   0.42986334    -7.9449777     -7.3001919      2.5951554      50218.233      36.893836      36.893836      36.893836    
   2640000   0.43084659    -7.9444387     -7.298178       2.5905909      50218.233      36.893836      36.893836      36.893836    
   2650000   0.42985116    -7.9430776     -7.2983101      2.6204404      50218.233      36.893836      36.893836      36.893836    
   2660000   0.43132191    -7.9419741     -7.2950004      2.6214397      50218.233      36.893836      36.893836      36.893836    
   2670000   0.42991909    -7.9434        -7.2985306      2.6079983      50218.233      36.893836      36.893836      36.893836    
   2680000   0.42956879    -7.9457528     -7.3014088      2.5973696      50218.233      36.893836      36.893836      36.893836    
   2690000   0.43031438    -7.9465887     -7.3011263      2.5893986      50218.233      36.893836      36.893836      36.893836    
   2700000   0.43134925    -7.940846      -7.2938313      2.6241365      50218.233      36.893836      36.893836      36.893836    
   2710000   0.42788573    -7.9413528     -7.2995333      2.6327476      50218.233      36.893836      36.893836      36.893836    
   2720000   0.43131639    -7.9417899     -7.2948245      2.6370052      50218.233      36.893836      36.893836      36.893836    
   2730000   0.43399621    -7.9439779     -7.2929928      2.6082924      50218.233      36.893836      36.893836      36.893836    
   2740000   0.42867763    -7.9406665     -7.2976592      2.6320328      50218.233      36.893836      36.893836      36.893836    
   2750000   0.42997244    -7.93963       -7.2946805      2.6420335      50218.233      36.893836      36.893836      36.893836    
   2760000   0.43126493    -7.9393699     -7.2924817      2.6373605      50218.233      36.893836      36.893836      36.893836    
   2770000   0.42978445    -7.9407065     -7.2960389      2.6303894      50218.233      36.893836      36.893836      36.893836    
   2780000   0.42973276    -7.9420168     -7.2974269      2.628494       50218.233      36.893836      36.893836      36.893836    
   2790000   0.4305127     -7.9442308     -7.298471       2.6065588      50218.233      36.893836      36.893836      36.893836    
   2800000   0.43073808    -7.9383628     -7.2922649      2.6493779      50218.233      36.893836      36.893836      36.893836    
   2810000   0.43132319    -7.940488      -7.2935124      2.6372094      50218.233      36.893836      36.893836      36.893836    
   2820000   0.4318622     -7.9407947     -7.2930106      2.6340329      50218.233      36.893836      36.893836      36.893836    
   2830000   0.43188879    -7.9419305     -7.2941066      2.6264069      50218.233      36.893836      36.893836      36.893836    
   2840000   0.43191497    -7.9431982     -7.2953349      2.6155791      50218.233      36.893836      36.893836      36.893836    
   2850000   0.42927535    -7.9405108     -7.2966069      2.6233464      50218.233      36.893836      36.893836      36.893836    
   2860000   0.43121059    -7.9405772     -7.2937705      2.6282568      50218.233      36.893836      36.893836      36.893836    
   2870000   0.42842799    -7.9441921     -7.3015592      2.6112789      50218.233      36.893836      36.893836      36.893836    
   2880000   0.42844189    -7.9416715     -7.2990178      2.6281433      50218.233      36.893836      36.893836      36.893836    
   2890000   0.42915985    -7.9395085     -7.2957779      2.6436784      50218.233      36.893836      36.893836      36.893836    
   2900000   0.43023049    -7.9430912     -7.2977547      2.6155181      50218.233      36.893836      36.893836      36.893836    
   2910000   0.430386      -7.9441874     -7.2986176      2.6090022      50218.233      36.893836      36.893836      36.893836    
   2920000   0.42980462    -7.9443368     -7.299639       2.6053647      50218.233      36.893836      36.893836      36.893836    
   2930000   0.4302685     -7.9440115     -7.298618       2.6005934      50218.233      36.893836      36.893836      36.893836    
   2940000   0.43225301    -7.9440359     -7.2956656      2.6103169      50218.233      36.893836      36.893836      36.893836    
   2950000   0.42970443    -7.9391253     -7.2945778      2.6367445      50218.233      36.893836      36.893836      36.893836    
   2960000   0.43199582    -7.9401317     -7.2921472      2.6435854      50218.233      36.893836      36.893836      36.893836    
   2970000   0.43075083    -7.946134      -7.300017       2.5957722      50218.233      36.893836      36.893836      36.893836    
   2980000   0.42957964    -7.9458792     -7.3015189      2.5901411      50218.233      36.893836      36.893836      36.893836    
   2990000   0.4286145     -7.9438613     -7.3009487      2.6065405      50218.233      36.893836      36.893836      36.893836    
   3000000   0.43126498    -7.9445155     -7.2976272      2.604862       50218.233      36.893836      36.893836      36.893836    
   3010000   0.42944238    -7.9424152     -7.2982608      2.6167275      50218.233      36.893836      36.893836      36.893836    
   3020000   0.42980064    -7.9441973     -7.2995056      2.6004354      50218.233      36.893836      36.893836      36.893836    
   3030000   0.43177578    -7.9424212     -7.2947668      2.6238965      50218.233      36.893836      36.893836      36.893836    
   3040000   0.43150007    -7.9402629     -7.293022       2.6289498      50218.233      36.893836      36.893836      36.893836    
   3050000   0.42732341    -7.9436334     -7.3026574      2.6118985      50218.233      36.893836      36.893836      36.893836    
   3060000   0.43190917    -7.9426924     -7.2948378      2.6192458      50218.233      36.893836      36.893836      36.893836    
   3070000   0.4310679     -7.9456079     -7.2990153      2.5948721      50218.233      36.893836      36.893836      36.893836    
   3080000   0.42855774    -7.9440527     -7.3012252      2.6073764      50218.233      36.893836      36.893836      36.893836    
   3090000   0.43027608    -7.9382773     -7.2928723      2.655913       50218.233      36.893836      36.893836      36.893836    
   3100000   0.42788533    -7.9425496     -7.3007308      2.6171465      50218.233      36.893836      36.893836      36.893836    
   3110000   0.43005984    -7.9455259     -7.3004453      2.5976522      50218.233      36.893836      36.893836      36.893836    
   3120000   0.43078885    -7.9444857     -7.2983116      2.6079747      50218.233      36.893836      36.893836      36.893836    
   3130000   0.42907645    -7.9411434     -7.2975379      2.6219593      50218.233      36.893836      36.893836      36.893836    
   3140000   0.43199979    -7.9441038     -7.2961133      2.6059801      50218.233      36.893836      36.893836      36.893836    
   3150000   0.42989241    -7.9430191     -7.2981897      2.6158744      50218.233      36.893836      36.893836      36.893836    
   3160000   0.42851632    -7.9420822     -7.2993169      2.6198778      50218.233      36.893836      36.893836      36.893836    
   3170000   0.43102224    -7.9448573     -7.2983331      2.6090916      50218.233      36.893836      36.893836      36.893836    
   3180000   0.4292495     -7.9397308     -7.2958657      2.6286167      50218.233      36.893836      36.893836      36.893836    
   3190000   0.4281796     -7.9427064     -7.3004461      2.6094126      50218.233      36.893836      36.893836      36.893836    
   3200000   0.43017161    -7.9442126     -7.2989644      2.6073543      50218.233      36.893836      36.893836      36.893836    
   3210000   0.43150012    -7.9411214     -7.2938804      2.6246704      50218.233      36.893836      36.893836      36.893836    
   3220000   0.42999321    -7.9431052     -7.2981246      2.6152482      50218.233      36.893836      36.893836      36.893836    
   3230000   0.43016371    -7.9440753     -7.2988389      2.6092956      50218.233      36.893836      36.893836      36.893836    
   3240000   0.42958817    -7.9415332     -7.2971601      2.6307567      50218.233      36.893836      36.893836      36.893836    
   3250000   0.42937795    -7.9431766     -7.2991188      2.6261285      50218.233      36.893836      36.893836      36.893836    
   3260000   0.43083956    -7.9416602     -7.29541        2.6239823      50218.233      36.893836      36.893836      36.893836    
   3270000   0.4298573     -7.939897      -7.2951203      2.6359749      50218.233      36.893836      36.893836      36.893836    
   3280000   0.43167703    -7.9432594     -7.2957531      2.6112351      50218.233      36.893836      36.893836      36.893836    
   3290000   0.43116368    -7.9405726     -7.2938363      2.6395129      50218.233      36.893836      36.893836      36.893836    
   3300000   0.43038203    -7.9448454     -7.2992815      2.6080448      50218.233      36.893836      36.893836      36.893836    
   3310000   0.43322858    -7.9392246     -7.289391       2.6394837      50218.233      36.893836      36.893836      36.893836    
   3320000   0.42986697    -7.9445045     -7.2997132      2.605431       50218.233      36.893836      36.893836      36.893836    
   3330000   0.43109452    -7.9421466     -7.2955141      2.6095382      50218.233      36.893836      36.893836      36.893836    
   3340000   0.43120369    -7.943492      -7.2966957      2.6216375      50218.233      36.893836      36.893836      36.893836    
   3350000   0.43158619    -7.9443863     -7.2970162      2.6049683      50218.233      36.893836      36.893836      36.893836    
   3360000   0.43044353    -7.9442107     -7.2985546      2.5986537      50218.233      36.893836      36.893836      36.893836    
   3370000   0.43002298    -7.9452433     -7.300218       2.59086        50218.233      36.893836      36.893836      36.893836    
   3380000   0.42735906    -7.9402829     -7.2992534      2.6312977      50218.233      36.893836      36.893836      36.893836    
   3390000   0.42910268    -7.9438667     -7.3002218      2.6004325      50218.233      36.893836      36.893836      36.893836    
   3400000   0.42910573    -7.9420241     -7.2983747      2.6244728      50218.233      36.893836      36.893836      36.893836    
   3410000   0.42844936    -7.9429214     -7.3002565      2.6079181      50218.233      36.893836      36.893836      36.893836    
   3420000   0.43182009    -7.9462327     -7.2985118      2.5863764      50218.233      36.893836      36.893836      36.893836    
   3430000   0.43152362    -7.9436006     -7.2963244      2.6188068      50218.233      36.893836      36.893836      36.893836    
   3440000   0.4303811     -7.9421191     -7.2965567      2.6212066      50218.233      36.893836      36.893836      36.893836    
   3450000   0.43019052    -7.9439979     -7.2987213      2.6010739      50218.233      36.893836      36.893836      36.893836    
   3460000   0.42828832    -7.9463235     -7.3039001      2.5926909      50218.233      36.893836      36.893836      36.893836    
   3470000   0.42791455    -7.9408186     -7.2989559      2.6342301      50218.233      36.893836      36.893836      36.893836    
   3480000   0.42926944    -7.9448486     -7.3009536      2.5986241      50218.233      36.893836      36.893836      36.893836    
   3490000   0.42941529    -7.941506      -7.2973922      2.6211108      50218.233      36.893836      36.893836      36.893836    
   3500000   0.42895535    -7.9414        -7.2979761      2.6234892      50218.233      36.893836      36.893836      36.893836    
   3510000   0.4302314     -7.938058      -7.2927201      2.6464144      50218.233      36.893836      36.893836      36.893836    
   3520000   0.42802301    -7.9441989     -7.3021735      2.6108554      50218.233      36.893836      36.893836      36.893836    
   3530000   0.43144205    -7.9429936     -7.2958397      2.6103474      50218.233      36.893836      36.893836      36.893836    
   3540000   0.428059      -7.9450896     -7.3030102      2.6023719      50218.233      36.893836      36.893836      36.893836    
   3550000   0.42874397    -7.9453516     -7.3022448      2.5900094      50218.233      36.893836      36.893836      36.893836    
   3560000   0.43071524    -7.9422374     -7.2961737      2.6277808      50218.233      36.893836      36.893836      36.893836    
   3570000   0.42702138    -7.9429129     -7.30239        2.5951416      50218.233      36.893836      36.893836      36.893836    
   3580000   0.43007834    -7.9377013     -7.292593       2.652215       50218.233      36.893836      36.893836      36.893836    
   3590000   0.42949631    -7.944155      -7.2999197      2.6134643      50218.233      36.893836      36.893836      36.893836    
   3600000   0.43093982    -7.9445468     -7.2981463      2.603531       50218.233      36.893836      36.893836      36.893836    
   3610000   0.43008084    -7.9460783     -7.3009663      2.5946274      50218.233      36.893836      36.893836      36.893836    
   3620000   0.43152944    -7.9418843     -7.2945994      2.632514       50218.233      36.893836      36.893836      36.893836    
   3630000   0.42807924    -7.9443953     -7.3022856      2.6017634      50218.233      36.893836      36.893836      36.893836    
   3640000   0.43038295    -7.9457945     -7.3002292      2.5877437      50218.233      36.893836      36.893836      36.893836    
   3650000   0.43041298    -7.9440003     -7.29839        2.6068617      50218.233      36.893836      36.893836      36.893836    
   3660000   0.42978336    -7.944902      -7.3002361      2.6010434      50218.233      36.893836      36.893836      36.893836    
   3670000   0.43127702    -7.9446883     -7.297782       2.6042708      50218.233      36.893836      36.893836      36.893836    
   3680000   0.4284798     -7.9480013     -7.3052907      2.5764427      50218.233      36.893836      36.893836      36.893836    
   3690000   0.42934026    -7.9414833     -7.297482       2.6367071      50218.233      36.893836      36.893836      36.893836    
   3700000   0.42944443    -7.9457612     -7.3016037      2.5886864      50218.233      36.893836      36.893836      36.893836    
   3710000   0.42993756    -7.9450171     -7.30012        2.6032308      50218.233      36.893836      36.893836      36.893836    
   3720000   0.42839101    -7.9438406     -7.3012633      2.6100495      50218.233      36.893836      36.893836      36.893836    
   3730000   0.4306741     -7.9412245     -7.2952225      2.6288541      50218.233      36.893836      36.893836      36.893836    
   3740000   0.42835254    -7.9386104     -7.2960908      2.6524228      50218.233      36.893836      36.893836      36.893836    
   3750000   0.430486      -7.9426924     -7.2969726      2.6174895      50218.233      36.893836      36.893836      36.893836    
   3760000   0.42979421    -7.9464813     -7.3017991      2.5851562      50218.233      36.893836      36.893836      36.893836    
   3770000   0.42932256    -7.9423107     -7.298336       2.6281721      50218.233      36.893836      36.893836      36.893836    
   3780000   0.42850858    -7.9417229     -7.2989691      2.6211105      50218.233      36.893836      36.893836      36.893836    
   3790000   0.43014455    -7.9417204     -7.2965128      2.619191       50218.233      36.893836      36.893836      36.893836    
   3800000   0.43000293    -7.9428183     -7.2978231      2.6207851      50218.233      36.893836      36.893836      36.893836    
   3810000   0.42937748    -7.9430758     -7.2990187      2.6140134      50218.233      36.893836      36.893836      36.893836    
   3820000   0.42944643    -7.9430256     -7.2988651      2.6144158      50218.233      36.893836      36.893836      36.893836    
   3830000   0.43085075    -7.9433363     -7.2970693      2.6151491      50218.233      36.893836      36.893836      36.893836    
   3840000   0.42943171    -7.9410331     -7.2968946      2.6245882      50218.233      36.893836      36.893836      36.893836    
   3850000   0.42907257    -7.9433488     -7.2997491      2.6119788      50218.233      36.893836      36.893836      36.893836    
   3860000   0.42849331    -7.9397164     -7.2969856      2.6403428      50218.233      36.893836      36.893836      36.893836    
   3870000   0.42921668    -7.9422947     -7.2984789      2.617751       50218.233      36.893836      36.893836      36.893836    
   3880000   0.42917786    -7.9399797     -7.2962221      2.6377394      50218.233      36.893836      36.893836      36.893836    
   3890000   0.4312527     -7.9413069     -7.2944371      2.6375849      50218.233      36.893836      36.893836      36.893836    
   3900000   0.43067437    -7.9418464     -7.295844       2.6316957      50218.233      36.893836      36.893836      36.893836    
   3910000   0.42796059    -7.9419717     -7.3000399      2.6161135      50218.233      36.893836      36.893836      36.893836    
   3920000   0.43071473    -7.943707      -7.2976441      2.6025124      50218.233      36.893836      36.893836      36.893836    
   3930000   0.43000599    -7.9451882     -7.3001884      2.6049325      50218.233      36.893836      36.893836      36.893836    
   3940000   0.43123241    -7.9456759     -7.2988365      2.6039436      50218.233      36.893836      36.893836      36.893836    
   3950000   0.4306746     -7.9432787     -7.297276       2.6137551      50218.233      36.893836      36.893836      36.893836    
   3960000   0.43045624    -7.9488269     -7.3031518      2.569245       50218.233      36.893836      36.893836      36.893836    
   3970000   0.43055121    -7.9424238     -7.2966061      2.6184855      50218.233      36.893836      36.893836      36.893836    
   3980000   0.42928063    -7.9422394     -7.2983276      2.6217002      50218.233      36.893836      36.893836      36.893836    
   3990000   0.4296187     -7.9396926     -7.2952737      2.6406968      50218.233      36.893836      36.893836      36.893836    
   4000000   0.42925563    -7.9446562     -7.3007819      2.6116559      50218.233      36.893836      36.893836      36.893836    
   4010000   0.43089767    -7.9436822     -7.2973449      2.6097809      50218.233      36.893836      36.893836      36.893836    
   4020000   0.43081723    -7.9450464     -7.2988297      2.6025415      50218.233      36.893836      36.893836      36.893836    
   4030000   0.43109097    -7.9455895     -7.2989623      2.6084319      50218.233      36.893836      36.893836      36.893836    
   4040000   0.4312595     -7.9406663     -7.2937863      2.6307934      50218.233      36.893836      36.893836      36.893836    
   4050000   0.42922413    -7.9432754     -7.2994483      2.6169357      50218.233      36.893836      36.893836      36.893836    
   4060000   0.42923174    -7.9449939     -7.3011555      2.5935466      50218.233      36.893836      36.893836      36.893836    
   4070000   0.4286578     -7.9432714     -7.3002938      2.6110664      50218.233      36.893836      36.893836      36.893836    
   4080000   0.42835357    -7.9473393     -7.3048181      2.5677152      50218.233      36.893836      36.893836      36.893836    
   4090000   0.42799918    -7.941961      -7.2999714      2.6255244      50218.233      36.893836      36.893836      36.893836    
   4100000   0.43013407    -7.9399679     -7.294776       2.642748       50218.233      36.893836      36.893836      36.893836    
   4110000   0.42913196    -7.9444816     -7.3007928      2.5963963      50218.233      36.893836      36.893836      36.893836    
   4120000   0.42801281    -7.9420108     -7.3000007      2.6134941      50218.233      36.893836      36.893836      36.893836    
   4130000   0.42970829    -7.9418361     -7.2972828      2.6269588      50218.233      36.893836      36.893836      36.893836    
   4140000   0.43245249    -7.9445036     -7.2958341      2.6111731      50218.233      36.893836      36.893836      36.893836    
   4150000   0.42840497    -7.9460413     -7.303443       2.5955477      50218.233      36.893836      36.893836      36.893836    
   4160000   0.43005714    -7.9399995     -7.2949229      2.6377124      50218.233      36.893836      36.893836      36.893836    
   4170000   0.43077454    -7.9402606     -7.294108       2.6378395      50218.233      36.893836      36.893836      36.893836    
   4180000   0.42891181    -7.9399132     -7.2965546      2.6411895      50218.233      36.893836      36.893836      36.893836    
   4190000   0.42679924    -7.9415516     -7.3013619      2.6211777      50218.233      36.893836      36.893836      36.893836    
   4200000   0.43106565    -7.9392611     -7.2926718      2.6488429      50218.233      36.893836      36.893836      36.893836    
   4210000   0.42939472    -7.9427584     -7.2986755      2.6108624      50218.233      36.893836      36.893836      36.893836    
   4220000   0.43199341    -7.9430739     -7.295093       2.6123395      50218.233      36.893836      36.893836      36.893836    
   4230000   0.42901071    -7.9437338     -7.3002269      2.613137       50218.233      36.893836      36.893836      36.893836    
   4240000   0.42960507    -7.9431183     -7.2987199      2.6241921      50218.233      36.893836      36.893836      36.893836    
   4250000   0.43042019    -7.9400262     -7.2944051      2.6343751      50218.233      36.893836      36.893836      36.893836    
   4260000   0.43297083    -7.9439016     -7.2944546      2.6238407      50218.233      36.893836      36.893836      36.893836    
   4270000   0.4306263     -7.942368      -7.2964377      2.6226962      50218.233      36.893836      36.893836      36.893836    
   4280000   0.4308854     -7.9433391     -7.2970202      2.6092647      50218.233      36.893836      36.893836      36.893836    
   4290000   0.4307097     -7.9403655     -7.2943102      2.6413102      50218.233      36.893836      36.893836      36.893836    
   4300000   0.43179281    -7.9431101     -7.2954301      2.6202843      50218.233      36.893836      36.893836      36.893836    
   4310000   0.42921202    -7.9414132     -7.2976044      2.6316596      50218.233      36.893836      36.893836      36.893836    
   4320000   0.42990543    -7.9395065     -7.2946575      2.6562853      50218.233      36.893836      36.893836      36.893836    
   4330000   0.42841896    -7.9447861     -7.3021668      2.6078547      50218.233      36.893836      36.893836      36.893836    
   4340000   0.4311739     -7.9455164     -7.2987648      2.5962027      50218.233      36.893836      36.893836      36.893836    
   4350000   0.42899535    -7.9405946     -7.2971108      2.6325018      50218.233      36.893836      36.893836      36.893836    
   4360000   0.43088898    -7.9387509     -7.2924267      2.6554107      50218.233      36.893836      36.893836      36.893836    
   4370000   0.4294356     -7.9452983     -7.301154       2.6012655      50218.233      36.893836      36.893836      36.893836    
   4380000   0.43114008    -7.9409342     -7.2942332      2.6253155      50218.233      36.893836      36.893836      36.893836    
   4390000   0.42871817    -7.939327      -7.2962589      2.6570054      50218.233      36.893836      36.893836      36.893836    
   4400000   0.43041751    -7.9413523     -7.2957352      2.6324776      50218.233      36.893836      36.893836      36.893836    
   4410000   0.42838159    -7.9456764     -7.3031132      2.5944365      50218.233      36.893836      36.893836      36.893836    
   4420000   0.43168001    -7.9392979     -7.2917871      2.6454549      50218.233      36.893836      36.893836      36.893836    
   4430000   0.43125801    -7.9462149     -7.2993371      2.6099722      50218.233      36.893836      36.893836      36.893836    
   4440000   0.42970337    -7.9391372     -7.2945913      2.6525547      50218.233      36.893836      36.893836      36.893836    
   4450000   0.43221796    -7.9413688     -7.2930511      2.6357222      50218.233      36.893836      36.893836      36.893836    
   4460000   0.42955354    -7.9437425     -7.2994213      2.6110439      50218.233      36.893836      36.893836      36.893836    
   4470000   0.42936541    -7.9427376     -7.2986987      2.6342727      50218.233      36.893836      36.893836      36.893836    
   4480000   0.43089636    -7.9448818     -7.2985465      2.6125039      50218.233      36.893836      36.893836      36.893836    
   4490000   0.43038296    -7.9439781     -7.2984128      2.6152381      50218.233      36.893836      36.893836      36.893836    
   4500000   0.42643003    -7.9426208     -7.3029849      2.6058101      50218.233      36.893836      36.893836      36.893836    
   4510000   0.42967758    -7.9403852     -7.295878       2.6293811      50218.233      36.893836      36.893836      36.893836    
   4520000   0.43112852    -7.9436076     -7.296924       2.6164102      50218.233      36.893836      36.893836      36.893836    
   4530000   0.4297354     -7.9441338     -7.2995398      2.6166446      50218.233      36.893836      36.893836      36.893836    
   4540000   0.42862186    -7.944395      -7.3014714      2.6079707      50218.233      36.893836      36.893836      36.893836    
   4550000   0.43176374    -7.9458229     -7.2981865      2.6001409      50218.233      36.893836      36.893836      36.893836    
   4560000   0.43082066    -7.9409423     -7.2947205      2.6396397      50218.233      36.893836      36.893836      36.893836    
   4570000   0.42944875    -7.9416282     -7.2974642      2.6229922      50218.233      36.893836      36.893836      36.893836    
   4580000   0.43179729    -7.9403194     -7.2926327      2.6352487      50218.233      36.893836      36.893836      36.893836    
   4590000   0.42873086    -7.9444502     -7.301363       2.5915304      50218.233      36.893836      36.893836      36.893836    
   4600000   0.42896758    -7.9434202     -7.299978       2.6094572      50218.233      36.893836      36.893836      36.893836    
   4610000   0.42911611    -7.9428341     -7.2991691      2.6261616      50218.233      36.893836      36.893836      36.893836    
   4620000   0.4295426     -7.9426879     -7.2983832      2.6041534      50218.233      36.893836      36.893836      36.893836    
   4630000   0.43137596    -7.9415967     -7.294542       2.6272995      50218.233      36.893836      36.893836      36.893836    
   4640000   0.42553569    -7.9422679     -7.3039734      2.6150682      50218.233      36.893836      36.893836      36.893836    
   4650000   0.42908003    -7.9406537     -7.2970428      2.6380624      50218.233      36.893836      36.893836      36.893836    
   4660000   0.43063314    -7.940027      -7.2940864      2.6347078      50218.233      36.893836      36.893836      36.893836    
   4670000   0.43146409    -7.9431094     -7.2959225      2.6187756      50218.233      36.893836      36.893836      36.893836    
   4680000   0.42861606    -7.9432448     -7.3003299      2.611535       50218.233      36.893836      36.893836      36.893836    
   4690000   0.42925357    -7.9414902     -7.297619       2.6289085      50218.233      36.893836      36.893836      36.893836    
   4700000   0.42676025    -7.9426188     -7.3024876      2.6157152      50218.233      36.893836      36.893836      36.893836    
   4710000   0.42737514    -7.9416165     -7.3005629      2.6319108      50218.233      36.893836      36.893836      36.893836    
   4720000   0.42932969    -7.9444954     -7.30051        2.6048031      50218.233      36.893836      36.893836      36.893836    
   4730000   0.43078269    -7.9437788     -7.2976139      2.6228145      50218.233      36.893836      36.893836      36.893836    
   4740000   0.42952508    -7.9416638     -7.2973853      2.6284625      50218.233      36.893836      36.893836      36.893836    
   4750000   0.42971455    -7.9401874     -7.2956248      2.6379871      50218.233      36.893836      36.893836      36.893836    
   4760000   0.42962319    -7.9411533     -7.2967277      2.6350474      50218.233      36.893836      36.893836      36.893836    
   4770000   0.42719147    -7.9436252     -7.3028471      2.6064884      50218.233      36.893836      36.893836      36.893836    
   4780000   0.42812411    -7.9418553     -7.2996783      2.630901       50218.233      36.893836      36.893836      36.893836    
   4790000   0.42702995    -7.9415093     -7.3009735      2.6337257      50218.233      36.893836      36.893836      36.893836    
   4800000   0.42757252    -7.944294      -7.3029443      2.6188074      50218.233      36.893836      36.893836      36.893836    
   4810000   0.43065512    -7.9417066     -7.2957331      2.6218161      50218.233      36.893836      36.893836      36.893836    
   4820000   0.42905802    -7.9422563     -7.2986784      2.6163408      50218.233      36.893836      36.893836      36.893836    
   4830000   0.43067426    -7.9444619     -7.2984597      2.614883       50218.233      36.893836      36.893836      36.893836    
   4840000   0.43269093    -7.9428488     -7.2938216      2.6232107      50218.233      36.893836      36.893836      36.893836    
   4850000   0.43111171    -7.9394905     -7.2928321      2.6434145      50218.233      36.893836      36.893836      36.893836    
   4860000   0.42800609    -7.9412942     -7.2992942      2.6305566      50218.233      36.893836      36.893836      36.893836    
   4870000   0.43020207    -7.9431091     -7.2978151      2.6190573      50218.233      36.893836      36.893836      36.893836    
   4880000   0.43173756    -7.941391      -7.2937938      2.6331542      50218.233      36.893836      36.893836      36.893836    
   4890000   0.42799447    -7.9457368     -7.3037542      2.589093       50218.233      36.893836      36.893836      36.893836    
   4900000   0.43156308    -7.943283      -7.2959476      2.6150296      50218.233      36.893836      36.893836      36.893836    
   4910000   0.42921158    -7.9443552     -7.3005469      2.6092623      50218.233      36.893836      36.893836      36.893836    
   4920000   0.43062725    -7.9401505     -7.2942188      2.6348714      50218.233      36.893836      36.893836      36.893836    
   4930000   0.43084953    -7.944122      -7.2978569      2.5952706      50218.233      36.893836      36.893836      36.893836    
   4940000   0.42965491    -7.9450599     -7.3005867      2.6020667      50218.233      36.893836      36.893836      36.893836    
   4950000   0.42880389    -7.9436592     -7.3004625      2.6118469      50218.233      36.893836      36.893836      36.893836    
   4960000   0.43088394    -7.9456535     -7.2993368      2.6030335      50218.233      36.893836      36.893836      36.893836    
   4970000   0.43111117    -7.9422863     -7.2956288      2.6277278      50218.233      36.893836      36.893836      36.893836    
   4980000   0.42931768    -7.9443527     -7.3003854      2.6033885      50218.233      36.893836      36.893836      36.893836    
   4990000   0.42928749    -7.9461615     -7.3022394      2.5829629      50218.233      36.893836      36.893836      36.893836    
   5000000   0.43021076    -7.9426723     -7.2973653      2.6219988      50218.233      36.893836      36.893836      36.893836    
   5010000   0.43052865    -7.9435882     -7.2978044      2.6052099      50218.233      36.893836      36.893836      36.893836    
   5020000   0.43038306    -7.9446963     -7.2991309      2.6051874      50218.233      36.893836      36.893836      36.893836    
   5030000   0.42868629    -7.9406903     -7.29767        2.6314431      50218.233      36.893836      36.893836      36.893836    
   5040000   0.42974032    -7.9421055     -7.2975042      2.6319756      50218.233      36.893836      36.893836      36.893836    
   5050000   0.4305591     -7.9443184     -7.2984889      2.6139013      50218.233      36.893836      36.893836      36.893836    
   5060000   0.42939106    -7.942123      -7.2980456      2.631068       50218.233      36.893836      36.893836      36.893836    
   5070000   0.43075775    -7.9459545     -7.2998271      2.5960476      50218.233      36.893836      36.893836      36.893836    
   5080000   0.42783865    -7.944886      -7.3031372      2.611107       50218.233      36.893836      36.893836      36.893836    
   5090000   0.42875751    -7.9451631     -7.3020359      2.591551       50218.233      36.893836      36.893836      36.893836    
   5100000   0.42978425    -7.9469641     -7.3022969      2.5882504      50218.233      36.893836      36.893836      36.893836    
   5110000   0.43053823    -7.9419047     -7.2961065      2.6250237      50218.233      36.893836      36.893836      36.893836    
   5120000   0.42940105    -7.9416131     -7.2975207      2.6315313      50218.233      36.893836      36.893836      36.893836    
   5130000   0.43144946    -7.9419083     -7.2947433      2.6303606      50218.233      36.893836      36.893836      36.893836    
   5140000   0.43079428    -7.9450864     -7.2989041      2.5965637      50218.233      36.893836      36.893836      36.893836    
   5150000   0.43051674    -7.9427228     -7.2969568      2.6205158      50218.233      36.893836      36.893836      36.893836    
   5160000   0.42799921    -7.9429955     -7.3010058      2.6102318      50218.233      36.893836      36.893836      36.893836    
   5170000   0.42983451    -7.9404558     -7.2957132      2.6297257      50218.233      36.893836      36.893836      36.893836    
   5180000   0.43007517    -7.94127       -7.2961664      2.6280636      50218.233      36.893836      36.893836      36.893836    
   5190000   0.43086019    -7.9416485     -7.2953674      2.6311871      50218.233      36.893836      36.893836      36.893836    
   5200000   0.42897014    -7.9437994     -7.3003533      2.6098323      50218.233      36.893836      36.893836      36.893836    
   5210000   0.43054733    -7.9436139     -7.2978021      2.6085906      50218.233      36.893836      36.893836      36.893836    
   5220000   0.42991304    -7.9447233     -7.2998629      2.601679       50218.233      36.893836      36.893836      36.893836    
   5230000   0.43108832    -7.9416751     -7.2950518      2.6274437      50218.233      36.893836      36.893836      36.893836    
   5240000   0.43123559    -7.9427101     -7.2958659      2.6165417      50218.233      36.893836      36.893836      36.893836    
   5250000   0.42883953    -7.9395186     -7.2962685      2.6412952      50218.233      36.893836      36.893836      36.893836    
   5260000   0.43256013    -7.941041      -7.29221        2.6378485      50218.233      36.893836      36.893836      36.893836    
   5270000   0.42935623    -7.9431724     -7.2991472      2.6136835      50218.233      36.893836      36.893836      36.893836    
   5280000   0.42900228    -7.9414484     -7.2979541      2.6308488      50218.233      36.893836      36.893836      36.893836    
   5290000   0.43101634    -7.9418193     -7.295304       2.6390676      50218.233      36.893836      36.893836      36.893836    
   5300000   0.4291607     -7.9455457     -7.3018138      2.597387       50218.233      36.893836      36.893836      36.893836    
   5310000   0.42900529    -7.9437821     -7.3002833      2.6064567      50218.233      36.893836      36.893836      36.893836    
   5320000   0.43110995    -7.9423013     -7.2956456      2.6163453      50218.233      36.893836      36.893836      36.893836    
   5330000   0.43106948    -7.9437829     -7.2971879      2.6198022      50218.233      36.893836      36.893836      36.893836    
   5340000   0.42926286    -7.940103      -7.2962179      2.6335379      50218.233      36.893836      36.893836      36.893836    
   5350000   0.43057239    -7.9404149     -7.2945655      2.643182       50218.233      36.893836      36.893836      36.893836    
   5360000   0.43204082    -7.9466091     -7.2985571      2.5912721      50218.233      36.893836      36.893836      36.893836    
   5370000   0.43114805    -7.9424891     -7.2957763      2.6293471      50218.233      36.893836      36.893836      36.893836    
   5380000   0.43209644    -7.943417      -7.2952816      2.6201058      50218.233      36.893836      36.893836      36.893836    
   5390000   0.43127346    -7.9428951     -7.2959942      2.6127368      50218.233      36.893836      36.893836      36.893836    
   5400000   0.42914726    -7.9419576     -7.2982459      2.6296271      50218.233      36.893836      36.893836      36.893836    
   5410000   0.433399      -7.9430682     -7.292979       2.6179515      50218.233      36.893836      36.893836      36.893836    
   5420000   0.43019671    -7.9428391     -7.2975532      2.6216882      50218.233      36.893836      36.893836      36.893836    
   5430000   0.43021492    -7.942153      -7.2968398      2.6230727      50218.233      36.893836      36.893836      36.893836    
   5440000   0.42874237    -7.9461283     -7.3030239      2.601775       50218.233      36.893836      36.893836      36.893836    
   5450000   0.43058202    -7.9444107     -7.2985469      2.6162167      50218.233      36.893836      36.893836      36.893836    
   5460000   0.42949912    -7.9422949     -7.2980554      2.6173796      50218.233      36.893836      36.893836      36.893836    
   5470000   0.43183532    -7.9421016     -7.2943578      2.629108       50218.233      36.893836      36.893836      36.893836    
   5480000   0.42832461    -7.944073      -7.3015952      2.6032256      50218.233      36.893836      36.893836      36.893836    
   5490000   0.42921377    -7.9448903     -7.3010788      2.5908882      50218.233      36.893836      36.893836      36.893836    
   5500000   0.43202105    -7.9449741     -7.2969517      2.5921277      50218.233      36.893836      36.893836      36.893836    
   5510000   0.42949413    -7.944         -7.299768       2.6076297      50218.233      36.893836      36.893836      36.893836    
   5520000   0.42936853    -7.9464118     -7.3023682      2.5955313      50218.233      36.893836      36.893836      36.893836    
   5530000   0.42989028    -7.9442251     -7.2993988      2.6042189      50218.233      36.893836      36.893836      36.893836    
   5540000   0.42981036    -7.9433531     -7.2986467      2.6216282      50218.233      36.893836      36.893836      36.893836    
   5550000   0.42854609    -7.9442067     -7.3013967      2.6140963      50218.233      36.893836      36.893836      36.893836    
   5560000   0.43075083    -7.9406452     -7.2945282      2.642503       50218.233      36.893836      36.893836      36.893836    
   5570000   0.42986087    -7.9445077     -7.2997255      2.6077958      50218.233      36.893836      36.893836      36.893836    
   5580000   0.43057556    -7.9463688     -7.3005146      2.5936174      50218.233      36.893836      36.893836      36.893836    
   5590000   0.43193016    -7.9413787     -7.2934927      2.6294172      50218.233      36.893836      36.893836      36.893836    
   5600000   0.43002164    -7.943226      -7.2982028      2.6124998      50218.233      36.893836      36.893836      36.893836    
   5610000   0.43132872    -7.9440159     -7.297032       2.6124046      50218.233      36.893836      36.893836      36.893836    
   5620000   0.42913007    -7.9424522     -7.2987662      2.6189254      50218.233      36.893836      36.893836      36.893836    
   5630000   0.43074982    -7.9430063     -7.2968907      2.6245941      50218.233      36.893836      36.893836      36.893836    
   5640000   0.42875633    -7.9417519     -7.2986266      2.6232811      50218.233      36.893836      36.893836      36.893836    
   5650000   0.43092514    -7.942071      -7.2956925      2.6316783      50218.233      36.893836      36.893836      36.893836    
   5660000   0.42942833    -7.9428882     -7.2987549      2.6223501      50218.233      36.893836      36.893836      36.893836    
   5670000   0.42912225    -7.9399191     -7.2962449      2.6388548      50218.233      36.893836      36.893836      36.893836    
   5680000   0.43188352    -7.9425944     -7.2947783      2.6266127      50218.233      36.893836      36.893836      36.893836    
   5690000   0.43111721    -7.9429934     -7.2963268      2.6066867      50218.233      36.893836      36.893836      36.893836    
   5700000   0.43005134    -7.9441926     -7.2991248      2.6081918      50218.233      36.893836      36.893836      36.893836    
   5710000   0.43298512    -7.9383935     -7.288925       2.6593146      50218.233      36.893836      36.893836      36.893836    
   5720000   0.42976738    -7.9393606     -7.2947187      2.6449099      50218.233      36.893836      36.893836      36.893836    
   5730000   0.4310579     -7.943097      -7.2965194      2.625518       50218.233      36.893836      36.893836      36.893836    
   5740000   0.43118192    -7.9432995     -7.2965358      2.6131074      50218.233      36.893836      36.893836      36.893836    
   5750000   0.42835408    -7.9405467     -7.2980247      2.6226761      50218.233      36.893836      36.893836      36.893836    
   5760000   0.43081143    -7.9416538     -7.2954458      2.623653       50218.233      36.893836      36.893836      36.893836    
   5770000   0.4286239     -7.9417062     -7.2987794      2.6322405      50218.233      36.893836      36.893836      36.893836    
   5780000   0.43130348    -7.9412711     -7.2943251      2.6307646      50218.233      36.893836      36.893836      36.893836    
   5790000   0.42848668    -7.9438172     -7.3010963      2.6018245      50218.233      36.893836      36.893836      36.893836    
   5800000   0.43228435    -7.9406753     -7.292258       2.6389465      50218.233      36.893836      36.893836      36.893836    
   5810000   0.43062893    -7.9383361     -7.2924019      2.6457315      50218.233      36.893836      36.893836      36.893836    
   5820000   0.43036421    -7.9424003     -7.2968632      2.6165097      50218.233      36.893836      36.893836      36.893836    
   5830000   0.42825841    -7.9389859     -7.2966074      2.6431418      50218.233      36.893836      36.893836      36.893836    
   5840000   0.43228731    -7.9403158     -7.291894       2.6426407      50218.233      36.893836      36.893836      36.893836    
   5850000   0.43104014    -7.9439045     -7.2973535      2.6094083      50218.233      36.893836      36.893836      36.893836    
   5860000   0.43011588    -7.9451896     -7.3000249      2.6042837      50218.233      36.893836      36.893836      36.893836    
   5870000   0.42782357    -7.9435619     -7.3018357      2.5963005      50218.233      36.893836      36.893836      36.893836    
   5880000   0.43144192    -7.9435513     -7.2963976      2.6190994      50218.233      36.893836      36.893836      36.893836    
   5890000   0.42861921    -7.945287      -7.3023673      2.5973006      50218.233      36.893836      36.893836      36.893836    
   5900000   0.42802616    -7.9431829     -7.3011528      2.6130235      50218.233      36.893836      36.893836      36.893836    
   5910000   0.4324798     -7.9428553     -7.2941448      2.6241971      50218.233      36.893836      36.893836      36.893836    
   5920000   0.42888253    -7.9418277     -7.2985131      2.6277755      50218.233      36.893836      36.893836      36.893836    
   5930000   0.42989462    -7.9436205     -7.2987878      2.6144091      50218.233      36.893836      36.893836      36.893836    
   5940000   0.43009139    -7.9419744     -7.2968465      2.6249561      50218.233      36.893836      36.893836      36.893836    
   5950000   0.43094227    -7.946087      -7.2996828      2.5968653      50218.233      36.893836      36.893836      36.893836    
   5960000   0.43157658    -7.9443167     -7.296961       2.6049296      50218.233      36.893836      36.893836      36.893836    
   5970000   0.42988147    -7.9458673     -7.3010543      2.5958425      50218.233      36.893836      36.893836      36.893836    
   5980000   0.43074219    -7.9420413     -7.2959372      2.6288886      50218.233      36.893836      36.893836      36.893836    
   5990000   0.42973034    -7.9392896     -7.2947032      2.6401691      50218.233      36.893836      36.893836      36.893836    
   6000000   0.43037494    -7.9458578     -7.3003045      2.5943427      50218.233      36.893836      36.893836      36.893836    
   6010000   0.43045307    -7.9460545     -7.3003841      2.5991779      50218.233      36.893836      36.893836      36.893836    
   6020000   0.42968135    -7.9444794     -7.2999665      2.6019208      50218.233      36.893836      36.893836      36.893836    
   6030000   0.43052328    -7.9428161     -7.2970404      2.6165052      50218.233      36.893836      36.893836      36.893836    
   6040000   0.43243786    -7.9462389     -7.2975914      2.5898262      50218.233      36.893836      36.893836      36.893836    
   6050000   0.42885384    -7.9438425     -7.3005709      2.6026369      50218.233      36.893836      36.893836      36.893836    
   6060000   0.43011616    -7.942517      -7.2973519      2.6235391      50218.233      36.893836      36.893836      36.893836    
   6070000   0.43228712    -7.9434632     -7.2950418      2.6152279      50218.233      36.893836      36.893836      36.893836    
   6080000   0.42857782    -7.9436263     -7.3007687      2.6036887      50218.233      36.893836      36.893836      36.893836    
   6090000   0.42942974    -7.9454068     -7.3012713      2.5955886      50218.233      36.893836      36.893836      36.893836    
   6100000   0.42691806    -7.941954      -7.301586       2.6271589      50218.233      36.893836      36.893836      36.893836    
   6110000   0.42897497    -7.9428595     -7.2994062      2.6073624      50218.233      36.893836      36.893836      36.893836    
   6120000   0.43007128    -7.942665      -7.2975672      2.6131976      50218.233      36.893836      36.893836      36.893836    
   6130000   0.43022431    -7.9424948     -7.2971675      2.6236979      50218.233      36.893836      36.893836      36.893836    
   6140000   0.4303558     -7.9435523     -7.2980278      2.625062       50218.233      36.893836      36.893836      36.893836    
   6150000   0.43077518    -7.9442966     -7.298143       2.5982979      50218.233      36.893836      36.893836      36.893836    
   6160000   0.43090687    -7.9422673     -7.2959162      2.6246277      50218.233      36.893836      36.893836      36.893836    
   6170000   0.42824636    -7.9439149     -7.3015545      2.6106062      50218.233      36.893836      36.893836      36.893836    
   6180000   0.43126036    -7.94342       -7.2965386      2.6136444      50218.233      36.893836      36.893836      36.893836    
   6190000   0.42957784    -7.9398793     -7.2955217      2.6377506      50218.233      36.893836      36.893836      36.893836    
   6200000   0.42954649    -7.938865      -7.2945544      2.6460553      50218.233      36.893836      36.893836      36.893836    
   6210000   0.43049763    -7.9432328     -7.2974956      2.6161991      50218.233      36.893836      36.893836      36.893836    
   6220000   0.4305368     -7.9440918     -7.2982958      2.6095802      50218.233      36.893836      36.893836      36.893836    
   6230000   0.43211267    -7.9446148     -7.296455       2.6035634      50218.233      36.893836      36.893836      36.893836    
   6240000   0.43276287    -7.9412309     -7.2920958      2.6358106      50218.233      36.893836      36.893836      36.893836    
   6250000   0.43117173    -7.9382315     -7.2914831      2.6620192      50218.233      36.893836      36.893836      36.893836    
   6260000   0.42612978    -7.9418706     -7.302685       2.6154644      50218.233      36.893836      36.893836      36.893836    
   6270000   0.42848392    -7.9418074     -7.2990907      2.6333007      50218.233      36.893836      36.893836      36.893836    
   6280000   0.43087768    -7.9443161     -7.2980088      2.612843       50218.233      36.893836      36.893836      36.893836    
   6290000   0.43001925    -7.9450782     -7.3000585      2.6026813      50218.233      36.893836      36.893836      36.893836    
   6300000   0.42744929    -7.9415064     -7.3003416      2.6284374      50218.233      36.893836      36.893836      36.893836    
   6310000   0.42994958    -7.9451446     -7.3002294      2.5894865      50218.233      36.893836      36.893836      36.893836    
   6320000   0.43072783    -7.9407982     -7.2947156      2.6353583      50218.233      36.893836      36.893836      36.893836    
   6330000   0.42877144    -7.9459783     -7.3028303      2.5850705      50218.233      36.893836      36.893836      36.893836    
   6340000   0.43067429    -7.9408707     -7.2948685      2.6342436      50218.233      36.893836      36.893836      36.893836    
   6350000   0.43081061    -7.9456491     -7.2994424      2.5997819      50218.233      36.893836      36.893836      36.893836    
   6360000   0.42813653    -7.9435173     -7.3013216      2.6129533      50218.233      36.893836      36.893836      36.893836    
   6370000   0.43012867    -7.9407892     -7.2956054      2.6365602      50218.233      36.893836      36.893836      36.893836    
   6380000   0.42990881    -7.9442306     -7.2993766      2.6014695      50218.233      36.893836      36.893836      36.893836    
   6390000   0.42868611    -7.9426309     -7.2996109      2.6266223      50218.233      36.893836      36.893836      36.893836    
   6400000   0.42873462    -7.9395301     -7.2964373      2.6420704      50218.233      36.893836      36.893836      36.893836    
   6410000   0.42897086    -7.9438566     -7.3004095      2.6129316      50218.233      36.893836      36.893836      36.893836    
   6420000   0.43125369    -7.9422543     -7.295383       2.6171044      50218.233      36.893836      36.893836      36.893836    
   6430000   0.43062539    -7.9443641     -7.2984351      2.6027797      50218.233      36.893836      36.893836      36.893836    
   6440000   0.43148662    -7.9463306     -7.2991098      2.5944891      50218.233      36.893836      36.893836      36.893836    
   6450000   0.42990538    -7.9427704     -7.2979215      2.6215766      50218.233      36.893836      36.893836      36.893836    
   6460000   0.43005445    -7.9402297     -7.2951572      2.6403069      50218.233      36.893836      36.893836      36.893836    
   6470000   0.43042736    -7.9434955     -7.2978637      2.6133594      50218.233      36.893836      36.893836      36.893836    
   6480000   0.43108829    -7.9436043     -7.2969811      2.6041008      50218.233      36.893836      36.893836      36.893836    
   6490000   0.42796402    -7.9411597     -7.2992228      2.6234611      50218.233      36.893836      36.893836      36.893836    
   6500000   0.43133075    -7.9413864     -7.2943995      2.6302296      50218.233      36.893836      36.893836      36.893836    
   6510000   0.42950142    -7.9420984     -7.2978554      2.6161698      50218.233      36.893836      36.893836      36.893836    
   6520000   0.43088789    -7.9439981     -7.2976755      2.6083273      50218.233      36.893836      36.893836      36.893836    
   6530000   0.43087874    -7.9476663     -7.3013574      2.575246       50218.233      36.893836      36.893836      36.893836    
   6540000   0.42997436    -7.9406873     -7.2957349      2.6392351      50218.233      36.893836      36.893836      36.893836    
   6550000   0.43039103    -7.943909      -7.2983316      2.6042797      50218.233      36.893836      36.893836      36.893836    
   6560000   0.4300997     -7.9435972     -7.2984569      2.6068217      50218.233      36.893836      36.893836      36.893836    
   6570000   0.43162645    -7.9414899     -7.2940594      2.6212004      50218.233      36.893836      36.893836      36.893836    
   6580000   0.43027859    -7.9423109     -7.2969022      2.623561       50218.233      36.893836      36.893836      36.893836    
   6590000   0.42755393    -7.942428      -7.3011062      2.6126919      50218.233      36.893836      36.893836      36.893836    
   6600000   0.42844305    -7.9465426     -7.3038871      2.5873695      50218.233      36.893836      36.893836      36.893836    
   6610000   0.42790379    -7.9385841     -7.2967375      2.6462644      50218.233      36.893836      36.893836      36.893836    
   6620000   0.42971379    -7.9412615     -7.2967         2.6319499      50218.233      36.893836      36.893836      36.893836    
   6630000   0.42793805    -7.9471811     -7.3052831      2.5811331      50218.233      36.893836      36.893836      36.893836    
   6640000   0.43141029    -7.9462192     -7.2991129      2.5911275      50218.233      36.893836      36.893836      36.893836    
   6650000   0.42937638    -7.9439898     -7.2999344      2.6118415      50218.233      36.893836      36.893836      36.893836    
   6660000   0.43003825    -7.9429124     -7.2978642      2.6218148      50218.233      36.893836      36.893836      36.893836    
   6670000   0.43150531    -7.9423632     -7.2951144      2.6197816      50218.233      36.893836      36.893836      36.893836    
   6680000   0.43231986    -7.9424952     -7.2940246      2.6301395      50218.233      36.893836      36.893836      36.893836    
   6690000   0.42919187    -7.9455856     -7.3018069      2.5939224      50218.233      36.893836      36.893836      36.893836    
   6700000   0.43158661    -7.9377897     -7.290419       2.6582004      50218.233      36.893836      36.893836      36.893836    
   6710000   0.42973231    -7.9446219     -7.3000326      2.6136328      50218.233      36.893836      36.893836      36.893836    
   6720000   0.43383758    -7.9432868     -7.2925397      2.6120794      50218.233      36.893836      36.893836      36.893836    
   6730000   0.4301117     -7.9410096     -7.2958512      2.6267427      50218.233      36.893836      36.893836      36.893836    
   6740000   0.4291201     -7.9426165     -7.2989455      2.6240237      50218.233      36.893836      36.893836      36.893836    
   6750000   0.42985081    -7.9423665     -7.2975995      2.6231441      50218.233      36.893836      36.893836      36.893836    
   6760000   0.42791409    -7.9442198     -7.3023578      2.604741       50218.233      36.893836      36.893836      36.893836    
   6770000   0.4293055     -7.9408713     -7.2969222      2.6321927      50218.233      36.893836      36.893836      36.893836    
   6780000   0.43178916    -7.9397435     -7.2920689      2.6405841      50218.233      36.893836      36.893836      36.893836    
   6790000   0.43086758    -7.9392545     -7.2929623      2.6508311      50218.233      36.893836      36.893836      36.893836    
   6800000   0.42910179    -7.9430438     -7.2994003      2.608914       50218.233      36.893836      36.893836      36.893836    
   6810000   0.42868939    -7.9408923     -7.2978674      2.626775       50218.233      36.893836      36.893836      36.893836    
   6820000   0.43146096    -7.9423495     -7.2951672      2.6286017      50218.233      36.893836      36.893836      36.893836    
   6830000   0.42940453    -7.9449318     -7.3008342      2.6072309      50218.233      36.893836      36.893836      36.893836    
   6840000   0.42792572    -7.9420275     -7.300148       2.6171621      50218.233      36.893836      36.893836      36.893836    
   6850000   0.43002766    -7.9411996     -7.2961672      2.6222639      50218.233      36.893836      36.893836      36.893836    
   6860000   0.43306923    -7.9430885     -7.2934939      2.6148095      50218.233      36.893836      36.893836      36.893836    
   6870000   0.43116944    -7.9430077     -7.2962627      2.6174066      50218.233      36.893836      36.893836      36.893836    
   6880000   0.42910854    -7.9422644     -7.2986107      2.6236307      50218.233      36.893836      36.893836      36.893836    
   6890000   0.43241639    -7.9460859     -7.2974705      2.6027984      50218.233      36.893836      36.893836      36.893836    
   6900000   0.43057268    -7.9451031     -7.2992533      2.5970799      50218.233      36.893836      36.893836      36.893836    
   6910000   0.43222776    -7.9403254     -7.2919929      2.6393755      50218.233      36.893836      36.893836      36.893836    
   6920000   0.43205672    -7.9465277     -7.2984518      2.6061965      50218.233      36.893836      36.893836      36.893836    
   6930000   0.42866412    -7.9457277     -7.3027407      2.5961176      50218.233      36.893836      36.893836      36.893836    
   6940000   0.4308098     -7.9422186     -7.2960131      2.6298599      50218.233      36.893836      36.893836      36.893836    
   6950000   0.43104124    -7.9417145     -7.2951618      2.6313419      50218.233      36.893836      36.893836      36.893836    
   6960000   0.43041377    -7.9440789     -7.2984675      2.6054553      50218.233      36.893836      36.893836      36.893836    
   6970000   0.42826446    -7.9414881     -7.2991006      2.6181337      50218.233      36.893836      36.893836      36.893836    
   6980000   0.43133023    -7.9463229     -7.2993368      2.5952824      50218.233      36.893836      36.893836      36.893836    
   6990000   0.43085389    -7.9415368     -7.2952651      2.627595       50218.233      36.893836      36.893836      36.893836    
   7000000   0.43013957    -7.9453152     -7.300115       2.6002205      50218.233      36.893836      36.893836      36.893836    
   7010000   0.428469      -7.9421148     -7.2994204      2.6142887      50218.233      36.893836      36.893836      36.893836    
   7020000   0.42970046    -7.9438941     -7.2993526      2.6004798      50218.233      36.893836      36.893836      36.893836    
   7030000   0.43032258    -7.9418397     -7.296365       2.6310874      50218.233      36.893836      36.893836      36.893836    
   7040000   0.43070429    -7.9407124     -7.2946652      2.6325482      50218.233      36.893836      36.893836      36.893836    
   7050000   0.43032565    -7.942369      -7.2968897      2.6287846      50218.233      36.893836      36.893836      36.893836    
   7060000   0.42851268    -7.9440435     -7.3012836      2.599217       50218.233      36.893836      36.893836      36.893836    
   7070000   0.42907272    -7.9420867     -7.2984867      2.6231216      50218.233      36.893836      36.893836      36.893836    
   7080000   0.4284268     -7.9381916     -7.2955605      2.650045       50218.233      36.893836      36.893836      36.893836    
   7090000   0.42862143    -7.9440195     -7.3010965      2.5999423      50218.233      36.893836      36.893836      36.893836    
   7100000   0.42758616    -7.9444927     -7.3031225      2.6003168      50218.233      36.893836      36.893836      36.893836    
   7110000   0.42991732    -7.9420877     -7.2972208      2.6297601      50218.233      36.893836      36.893836      36.893836    
   7120000   0.43098216    -7.9413914     -7.2949274      2.6231084      50218.233      36.893836      36.893836      36.893836    
   7130000   0.43016393    -7.9418271     -7.2965903      2.6205256      50218.233      36.893836      36.893836      36.893836    
   7140000   0.43123671    -7.9410151     -7.2941693      2.6299952      50218.233      36.893836      36.893836      36.893836    
   7150000   0.43034828    -7.9388682     -7.293355       2.6372626      50218.233      36.893836      36.893836      36.893836    
   7160000   0.43127058    -7.9413811     -7.2944845      2.6319683      50218.233      36.893836      36.893836      36.893836    
   7170000   0.43196917    -7.9408929     -7.2929483      2.6346042      50218.233      36.893836      36.893836      36.893836    
   7180000   0.43043089    -7.9394811     -7.2938439      2.6468492      50218.233      36.893836      36.893836      36.893836    
   7190000   0.43095       -7.9424235     -7.2960077      2.6250177      50218.233      36.893836      36.893836      36.893836    
   7200000   0.43029001    -7.942851      -7.2974251      2.6121113      50218.233      36.893836      36.893836      36.893836    
   7210000   0.42833073    -7.9425817     -7.3000947      2.6178961      50218.233      36.893836      36.893836      36.893836    
   7220000   0.43155288    -7.9425378     -7.2952177      2.6184142      50218.233      36.893836      36.893836      36.893836    
   7230000   0.43020955    -7.9405595     -7.2952544      2.6361392      50218.233      36.893836      36.893836      36.893836    
   7240000   0.43163794    -7.9388431     -7.2913954      2.6392721      50218.233      36.893836      36.893836      36.893836    
   7250000   0.43051187    -7.9414577     -7.2956991      2.630037       50218.233      36.893836      36.893836      36.893836    
   7260000   0.42899491    -7.9434147     -7.2999315      2.6158395      50218.233      36.893836      36.893836      36.893836    
   7270000   0.42902428    -7.9430986     -7.2995713      2.614042       50218.233      36.893836      36.893836      36.893836    
   7280000   0.42961229    -7.9388559     -7.2944466      2.6494252      50218.233      36.893836      36.893836      36.893836    
   7290000   0.4282828     -7.9391877     -7.2967727      2.6351923      50218.233      36.893836      36.893836      36.893836    
   7300000   0.42908427    -7.9417331     -7.2981159      2.6306332      50218.233      36.893836      36.893836      36.893836    
   7310000   0.43223752    -7.9451487     -7.2968017      2.6006513      50218.233      36.893836      36.893836      36.893836    
   7320000   0.43290248    -7.9407349     -7.2913904      2.6463855      50218.233      36.893836      36.893836      36.893836    
   7330000   0.43038171    -7.944127      -7.2985636      2.6056564      50218.233      36.893836      36.893836      36.893836    
   7340000   0.42894501    -7.9438303     -7.3004219      2.6130386      50218.233      36.893836      36.893836      36.893836    
   7350000   0.42937603    -7.9425125     -7.2984576      2.614464       50218.233      36.893836      36.893836      36.893836    
   7360000   0.43080975    -7.9411232     -7.2949178      2.6317411      50218.233      36.893836      36.893836      36.893836    
   7370000   0.43187613    -7.9431338     -7.2953288      2.6185935      50218.233      36.893836      36.893836      36.893836    
   7380000   0.43094398    -7.9443755     -7.2979688      2.5979147      50218.233      36.893836      36.893836      36.893836    
   7390000   0.42713447    -7.9435699     -7.3028773      2.607524       50218.233      36.893836      36.893836      36.893836    
   7400000   0.42729652    -7.9428859     -7.3019503      2.6229705      50218.233      36.893836      36.893836      36.893836    
   7410000   0.42970893    -7.9418696     -7.2973154      2.6161501      50218.233      36.893836      36.893836      36.893836    
   7420000   0.43345509    -7.9431165     -7.2929431      2.6191053      50218.233      36.893836      36.893836      36.893836    
   7430000   0.43101625    -7.9449175     -7.2984023      2.6064576      50218.233      36.893836      36.893836      36.893836    
   7440000   0.42726591    -7.9434694     -7.3025796      2.6002991      50218.233      36.893836      36.893836      36.893836    
   7450000   0.43249369    -7.9443641     -7.2956328      2.604509       50218.233      36.893836      36.893836      36.893836    
   7460000   0.43039674    -7.9412182     -7.2956322      2.6291488      50218.233      36.893836      36.893836      36.893836    
   7470000   0.43200374    -7.9440651     -7.2960687      2.607351       50218.233      36.893836      36.893836      36.893836    
   7480000   0.42912659    -7.9432301     -7.2995494      2.6214794      50218.233      36.893836      36.893836      36.893836    
   7490000   0.42981432    -7.9407717     -7.2960594      2.6244884      50218.233      36.893836      36.893836      36.893836    
   7500000   0.43324113    -7.9451246     -7.2952722      2.6028445      50218.233      36.893836      36.893836      36.893836    
   7510000   0.42955328    -7.9439861     -7.2996653      2.6142709      50218.233      36.893836      36.893836      36.893836    
   7520000   0.42798708    -7.9418804     -7.2999089      2.6191311      50218.233      36.893836      36.893836      36.893836    
   7530000   0.43135287    -7.9421703     -7.2951502      2.6186328      50218.233      36.893836      36.893836      36.893836    
   7540000   0.42888662    -7.9439482     -7.3006274      2.6057829      50218.233      36.893836      36.893836      36.893836    
   7550000   0.43045774    -7.9437245     -7.298047       2.6011259      50218.233      36.893836      36.893836      36.893836    
   7560000   0.43352736    -7.937906      -7.2876242      2.6529003      50218.233      36.893836      36.893836      36.893836    
   7570000   0.4310865     -7.9428801     -7.2962595      2.6197752      50218.233      36.893836      36.893836      36.893836    
   7580000   0.42749508    -7.9417992     -7.3005657      2.6209722      50218.233      36.893836      36.893836      36.893836    
   7590000   0.42805588    -7.9401064     -7.2980317      2.6328414      50218.233      36.893836      36.893836      36.893836    
   7600000   0.4285614     -7.9397325     -7.2968995      2.6312225      50218.233      36.893836      36.893836      36.893836    
   7610000   0.4296513     -7.9443486     -7.2998808      2.5978714      50218.233      36.893836      36.893836      36.893836    
   7620000   0.43021644    -7.942181      -7.2968655      2.620334       50218.233      36.893836      36.893836      36.893836    
   7630000   0.42886003    -7.9397207     -7.2964398      2.6272472      50218.233      36.893836      36.893836      36.893836    
   7640000   0.43038983    -7.9406376     -7.295062       2.6349577      50218.233      36.893836      36.893836      36.893836    
   7650000   0.4310484     -7.9437802     -7.2972168      2.6135832      50218.233      36.893836      36.893836      36.893836    
   7660000   0.42887509    -7.9427914     -7.2994879      2.6116577      50218.233      36.893836      36.893836      36.893836    
   7670000   0.43135162    -7.9400506     -7.2930324      2.6348774      50218.233      36.893836      36.893836      36.893836    
   7680000   0.4310803     -7.9381959     -7.2915846      2.6500067      50218.233      36.893836      36.893836      36.893836    
   7690000   0.42866355    -7.9393581     -7.2963719      2.6304529      50218.233      36.893836      36.893836      36.893836    
   7700000   0.43102675    -7.9413004     -7.2947695      2.6226191      50218.233      36.893836      36.893836      36.893836    
   7710000   0.430717      -7.9436897     -7.2976234      2.6089933      50218.233      36.893836      36.893836      36.893836    
   7720000   0.43190707    -7.9409283     -7.2930769      2.63492        50218.233      36.893836      36.893836      36.893836    
   7730000   0.43039313    -7.9386479     -7.2930674      2.6454057      50218.233      36.893836      36.893836      36.893836    
   7740000   0.43183284    -7.9457699     -7.2980298      2.5947847      50218.233      36.893836      36.893836      36.893836    
   7750000   0.42973425    -7.9413292     -7.296737       2.6186464      50218.233      36.893836      36.893836      36.893836    
   7760000   0.43108147    -7.9449066     -7.2982936      2.6083203      50218.233      36.893836      36.893836      36.893836    
   7770000   0.42881086    -7.9409745     -7.2977674      2.6291527      50218.233      36.893836      36.893836      36.893836    
   7780000   0.43060962    -7.9444759     -7.2985707      2.606317       50218.233      36.893836      36.893836      36.893836    
   7790000   0.43151632    -7.9421103     -7.294845       2.6217346      50218.233      36.893836      36.893836      36.893836    
   7800000   0.42933337    -7.9442604     -7.3002695      2.6076734      50218.233      36.893836      36.893836      36.893836    
   7810000   0.43136828    -7.9396947     -7.2926515      2.6457136      50218.233      36.893836      36.893836      36.893836    
   7820000   0.42841966    -7.9423063     -7.2996859      2.6160905      50218.233      36.893836      36.893836      36.893836    
   7830000   0.42953379    -7.9402974     -7.2960059      2.6383272      50218.233      36.893836      36.893836      36.893836    
   7840000   0.42930732    -7.9408345     -7.2968827      2.6238798      50218.233      36.893836      36.893836      36.893836    
   7850000   0.43038539    -7.943099      -7.2975301      2.608094       50218.233      36.893836      36.893836      36.893836    
   7860000   0.4300575     -7.9444745     -7.2993974      2.6008942      50218.233      36.893836      36.893836      36.893836    
   7870000   0.43076753    -7.9421537     -7.2960116      2.6268935      50218.233      36.893836      36.893836      36.893836    
   7880000   0.4332583     -7.9457919     -7.2959137      2.6105052      50218.233      36.893836      36.893836      36.893836    
   7890000   0.42998409    -7.9416223     -7.2966553      2.6258301      50218.233      36.893836      36.893836      36.893836    
   7900000   0.4291323     -7.9437286     -7.3000393      2.619038       50218.233      36.893836      36.893836      36.893836    
   7910000   0.42914715    -7.9450433     -7.3013317      2.5932619      50218.233      36.893836      36.893836      36.893836    
   7920000   0.43378484    -7.9432017     -7.2925337      2.6221716      50218.233      36.893836      36.893836      36.893836    
   7930000   0.43296914    -7.940927      -7.2914825      2.6358891      50218.233      36.893836      36.893836      36.893836    
   7940000   0.42903625    -7.9512563     -7.3077111      2.5447326      50218.233      36.893836      36.893836      36.893836    
   7950000   0.42751616    -7.9437314     -7.3024663      2.6116736      50218.233      36.893836      36.893836      36.893836    
   7960000   0.43003209    -7.9451844     -7.3001454      2.5879789      50218.233      36.893836      36.893836      36.893836    
   7970000   0.42839398    -7.9438142     -7.3012323      2.6019139      50218.233      36.893836      36.893836      36.893836    
   7980000   0.43113461    -7.9409445     -7.2942518      2.6219847      50218.233      36.893836      36.893836      36.893836    
   7990000   0.4268045     -7.9456443     -7.3054467      2.5891347      50218.233      36.893836      36.893836      36.893836    
   8000000   0.43164578    -7.9456108     -7.2981514      2.5993257      50218.233      36.893836      36.893836      36.893836    
Loop time of 12545.8 on 5 procs for 8000000 steps with 70304 atoms

Performance: 550942.179 tau/day, 637.665 timesteps/s, 44.830 Matom-step/s
94.8% CPU use with 5 MPI tasks x 1 OpenMP threads

MPI task timing breakdown:
Section |  min time  |  avg time  |  max time  |%varavg| %total
---------------------------------------------------------------
Pair    | 4648.5     | 4973.1     | 5412.3     | 428.2 | 39.64
Neigh   | 37.152     | 40.24      | 41.438     |  24.8 |  0.32
Comm    | 1878.9     | 1895.8     | 1910.2     |  28.7 | 15.11
Output  | 0.14531    | 0.15002    | 0.15829    |   1.2 |  0.00
Modify  | 4581.2     | 5003.9     | 5352.9     | 430.0 | 39.88
Other   |            | 632.6      |            |       |  5.04

Nlocal:        14060.8 ave       14122 max       14003 min
Histogram: 1 0 0 1 1 0 1 0 0 1
Nghost:        18748.4 ave       18815 max       18679 min
Histogram: 1 0 0 2 0 0 0 0 1 1
Neighs:              0 ave           0 max           0 min
Histogram: 5 0 0 0 0 0 0 0 0 0

Total # of neighbors = 0
Ave neighs/atom = 0
Neighbor list builds = 1590280
Dangerous builds = 0
clear
OMP_NUM_THREADS environment is not set. Defaulting to 1 thread. (src/comm.cpp:98)
  using 1 OpenMP thread(s) per MPI task
package gpu 0
jump dms425.lmp

variable T equal 425
# T = 1000* (temp in LJ unit)
variable f equal 10000
log log.${T}
log log.425
