variable TLJ equal (${T}/1000)
variable TLJ equal (400/1000)
variable NCyle equal 10
variable iStep equal (${f})
variable iStep equal (10000)
variable dumpStep equal (${f}*100)
variable dumpStep equal (10000*100)
variable runStep equal (${f}*100*${NCyle})
variable runStep equal (10000*100*${NCyle})
variable runStep equal (10000*100*10)

units       lj
atom_style  atomic
dimension 3
boundary     p p p
pair_style  lj/cut 2.5
read_data  ../data/T${T}.dat
read_data  ../data/T400.dat
Reading data file ...
  orthogonal box = (0.97250269 0.97250269 0.97250269) to (37.866338 37.866338 37.866338)
  1 by 1 by 5 MPI processor grid
  reading atoms ...
  70304 atoms
  reading velocities ...
  70304 velocities
  read_data CPU = 0.209 seconds
change_box all triclinic
Changing box ...
  triclinic box = (0.97250269 0.97250269 0.97250269) to (37.866338 37.866338 37.866338) with tilt (0 0 0)
mass 1 1
mass 2 1
pair_modify shift yes
pair_coeff  1 1 1 1
pair_coeff  1 2 1.5 0.8
pair_coeff  2 2 0.5 0.88


timestep 0.01
thermo ${iStep}
thermo 10000
reset_timestep 0
thermo_style custom step temp pe etotal press vol lx ly lz
fix             1 all nvt temp ${TLJ}  ${TLJ}  0.1
fix             1 all nvt temp 0.4  ${TLJ}  0.1
fix             1 all nvt temp 0.4  0.4  0.1
thermo_modify flush yes

fix dsf all deform 1 xy  wiggle 0.5  ${f}   units box
fix dsf all deform 1 xy  wiggle 0.5  10000   units box
fix ps1 all ave/time 1 1 ${iStep} c_thermo_press[1] c_thermo_press[2]  c_thermo_press[3] c_thermo_press[4]  c_thermo_press[5] c_thermo_press[6]  file  stress.${T}
fix ps1 all ave/time 1 1 10000 c_thermo_press[1] c_thermo_press[2]  c_thermo_press[3] c_thermo_press[4]  c_thermo_press[5] c_thermo_press[6]  file  stress.${T}
fix ps1 all ave/time 1 1 10000 c_thermo_press[1] c_thermo_press[2]  c_thermo_press[3] c_thermo_press[4]  c_thermo_press[5] c_thermo_press[6]  file  stress.400
dump            1 all custom ${dumpStep} dump.${T} id type x y z
dump            1 all custom 1000000 dump.${T} id type x y z
dump            1 all custom 1000000 dump.400 id type x y z
dump_modify 1 sort id
fix nodrift all momentum 1  linear 1 1 1
fix com_seed all recenter INIT INIT INIT shift all
run ${runStep}
run 10000000
Generated 0 of 1 mixed pair_coeff terms from geometric mixing rule
Per MPI rank memory allocation (min/avg/max) = 8.915 | 8.919 | 8.923 Mbytes
   Step          Temp          PotEng         TotEng         Press          Volume           Lx             Ly             Lz      
         0   0.39834578    -7.9990818     -7.4015716      2.1561044      50218.233      36.893836      36.893836      36.893836    
     10000   0.39957141    -7.9859661     -7.3866176      2.249789       50218.233      36.893836      36.893836      36.893836    
     20000   0.40137029    -7.9907174     -7.3886705      2.2184597      50218.233      36.893836      36.893836      36.893836    
     30000   0.39883829    -7.9907691     -7.3925202      2.2101298      50218.233      36.893836      36.893836      36.893836    
     40000   0.39968918    -7.9855654     -7.3860402      2.2500674      50218.233      36.893836      36.893836      36.893836    
     50000   0.40168856    -7.9890633     -7.386539       2.2254243      50218.233      36.893836      36.893836      36.893836    
     60000   0.39901322    -7.9895814     -7.3910701      2.231772       50218.233      36.893836      36.893836      36.893836    
     70000   0.40077245    -7.9885275     -7.3873774      2.2343504      50218.233      36.893836      36.893836      36.893836    
     80000   0.39893568    -7.9845954     -7.3862004      2.2684315      50218.233      36.893836      36.893836      36.893836    
     90000   0.40143774    -7.9872665     -7.3851185      2.2515476      50218.233      36.893836      36.893836      36.893836    
    100000   0.39863003    -7.9873199     -7.3893833      2.2398409      50218.233      36.893836      36.893836      36.893836    
    110000   0.40172754    -7.9901184     -7.3875357      2.22791        50218.233      36.893836      36.893836      36.893836    
    120000   0.40198214    -7.9877429     -7.3847783      2.2277932      50218.233      36.893836      36.893836      36.893836    
    130000   0.3987195     -7.9882248     -7.3901541      2.2312852      50218.233      36.893836      36.893836      36.893836    
    140000   0.39800005    -7.9871329     -7.3901413      2.243379       50218.233      36.893836      36.893836      36.893836    
    150000   0.40040319    -7.9896825     -7.3890863      2.2247934      50218.233      36.893836      36.893836      36.893836    
    160000   0.39962494    -7.9865792     -7.3871503      2.2494112      50218.233      36.893836      36.893836      36.893836    
    170000   0.40109167    -7.9886251     -7.3869961      2.2277763      50218.233      36.893836      36.893836      36.893836    
    180000   0.39946016    -7.9881097     -7.388928       2.2338502      50218.233      36.893836      36.893836      36.893836    
    190000   0.40005391    -7.989025      -7.3889526      2.2380288      50218.233      36.893836      36.893836      36.893836    
    200000   0.39999645    -7.9861601     -7.3861739      2.2557049      50218.233      36.893836      36.893836      36.893836    
    210000   0.39999897    -7.9856223     -7.3856324      2.2529109      50218.233      36.893836      36.893836      36.893836    
    220000   0.40225952    -7.9887513     -7.3853706      2.2269573      50218.233      36.893836      36.893836      36.893836    
    230000   0.40076908    -7.9879185     -7.3867735      2.238849       50218.233      36.893836      36.893836      36.893836    
    240000   0.39950903    -7.9891628     -7.3899077      2.2302048      50218.233      36.893836      36.893836      36.893836    
    250000   0.40205567    -7.9886308     -7.3855559      2.2407307      50218.233      36.893836      36.893836      36.893836    
    260000   0.39903451    -7.9879892     -7.3894459      2.2347778      50218.233      36.893836      36.893836      36.893836    
    270000   0.40181986    -7.983943      -7.3812218      2.2716785      50218.233      36.893836      36.893836      36.893836    
    280000   0.39797402    -7.9891551     -7.3922026      2.231124       50218.233      36.893836      36.893836      36.893836    
    290000   0.3999917     -7.985028      -7.385049       2.2601503      50218.233      36.893836      36.893836      36.893836    
    300000   0.39910922    -7.9897642     -7.3911089      2.2147899      50218.233      36.893836      36.893836      36.893836    
    310000   0.4002355     -7.9853932     -7.3850485      2.2660025      50218.233      36.893836      36.893836      36.893836    
    320000   0.40040666    -7.9879184     -7.3873169      2.2328861      50218.233      36.893836      36.893836      36.893836    
    330000   0.3995217     -7.9873347     -7.3880607      2.2383176      50218.233      36.893836      36.893836      36.893836    
    340000   0.4009789     -7.9878338     -7.386374       2.2418371      50218.233      36.893836      36.893836      36.893836    
    350000   0.40155598    -7.9852721     -7.3829467      2.2588555      50218.233      36.893836      36.893836      36.893836    
    360000   0.40179662    -7.9847617     -7.3820754      2.2723906      50218.233      36.893836      36.893836      36.893836    
    370000   0.39913773    -7.9846775     -7.3859794      2.2590844      50218.233      36.893836      36.893836      36.893836    
    380000   0.40101015    -7.986987      -7.3854803      2.2483121      50218.233      36.893836      36.893836      36.893836    
    390000   0.40004479    -7.9870704     -7.3870118      2.2392653      50218.233      36.893836      36.893836      36.893836    
    400000   0.40073933    -7.9882253     -7.3871248      2.233414       50218.233      36.893836      36.893836      36.893836    
    410000   0.39992676    -7.9900354     -7.3901538      2.2167319      50218.233      36.893836      36.893836      36.893836    
    420000   0.39838349    -7.9885668     -7.391          2.2325138      50218.233      36.893836      36.893836      36.893836    
    430000   0.39817491    -7.9896367     -7.3923828      2.2249507      50218.233      36.893836      36.893836      36.893836    
    440000   0.40081356    -7.9872418     -7.38603        2.2388274      50218.233      36.893836      36.893836      36.893836    
    450000   0.400851      -7.9876374     -7.3863695      2.2385142      50218.233      36.893836      36.893836      36.893836    
    460000   0.40087294    -7.9838803     -7.3825795      2.2599209      50218.233      36.893836      36.893836      36.893836    
    470000   0.40104476    -7.9860103     -7.3844517      2.2583013      50218.233      36.893836      36.893836      36.893836    
    480000   0.40140743    -7.9888664     -7.3867638      2.2310009      50218.233      36.893836      36.893836      36.893836    
    490000   0.39882828    -7.9867153     -7.3884814      2.2350819      50218.233      36.893836      36.893836      36.893836    
    500000   0.4007959     -7.9905938     -7.3894085      2.2138389      50218.233      36.893836      36.893836      36.893836    
    510000   0.40066449    -7.9889706     -7.3879824      2.2392363      50218.233      36.893836      36.893836      36.893836    
    520000   0.40177861    -7.9868931     -7.3842337      2.2388126      50218.233      36.893836      36.893836      36.893836    
    530000   0.39988747    -7.9869073     -7.3870847      2.2513126      50218.233      36.893836      36.893836      36.893836    
    540000   0.39740919    -7.986735      -7.3906297      2.2433804      50218.233      36.893836      36.893836      36.893836    
    550000   0.39762618    -7.9883974     -7.3919666      2.2243627      50218.233      36.893836      36.893836      36.893836    
    560000   0.40172266    -7.9899015     -7.387326       2.2241464      50218.233      36.893836      36.893836      36.893836    
    570000   0.4001962     -7.9878377     -7.3875519      2.2327464      50218.233      36.893836      36.893836      36.893836    
    580000   0.39919519    -7.9861395     -7.3873552      2.2463401      50218.233      36.893836      36.893836      36.893836    
    590000   0.39992248    -7.9867544     -7.3868792      2.2481296      50218.233      36.893836      36.893836      36.893836    
    600000   0.40090956    -7.9894844     -7.3881286      2.2271349      50218.233      36.893836      36.893836      36.893836    
    610000   0.39900641    -7.9897364     -7.3912353      2.2261426      50218.233      36.893836      36.893836      36.893836    
    620000   0.40053622    -7.987875      -7.3870792      2.2359469      50218.233      36.893836      36.893836      36.893836    
    630000   0.3988746     -7.9862013     -7.3878979      2.2470723      50218.233      36.893836      36.893836      36.893836    
    640000   0.39811786    -7.9879455     -7.3907772      2.2285408      50218.233      36.893836      36.893836      36.893836    
    650000   0.40169084    -7.9884747     -7.385947       2.2328654      50218.233      36.893836      36.893836      36.893836    
    660000   0.40223798    -7.9881037     -7.3847553      2.2435872      50218.233      36.893836      36.893836      36.893836    
    670000   0.39986836    -7.9872805     -7.3874864      2.2293094      50218.233      36.893836      36.893836      36.893836    
    680000   0.39993336    -7.987286      -7.3873945      2.2457751      50218.233      36.893836      36.893836      36.893836    
    690000   0.40161579    -7.9869985     -7.3845834      2.2509755      50218.233      36.893836      36.893836      36.893836    
    700000   0.40117435    -7.9882114     -7.3864585      2.2387637      50218.233      36.893836      36.893836      36.893836    
    710000   0.39992768    -7.9880759     -7.3881929      2.2336565      50218.233      36.893836      36.893836      36.893836    
    720000   0.39938213    -7.9878118     -7.3887471      2.2303299      50218.233      36.893836      36.893836      36.893836    
    730000   0.40041726    -7.9853475     -7.3847302      2.2623624      50218.233      36.893836      36.893836      36.893836    
    740000   0.39830774    -7.9874034     -7.3899502      2.2430806      50218.233      36.893836      36.893836      36.893836    
    750000   0.40198171    -7.9920896     -7.3891256      2.2090624      50218.233      36.893836      36.893836      36.893836    
    760000   0.40102682    -7.9882513     -7.3867197      2.2455413      50218.233      36.893836      36.893836      36.893836    
    770000   0.40051181    -7.9874876     -7.3867285      2.2351222      50218.233      36.893836      36.893836      36.893836    
    780000   0.39916286    -7.9872953     -7.3885595      2.2447677      50218.233      36.893836      36.893836      36.893836    
    790000   0.40183201    -7.9848224     -7.382083       2.2597901      50218.233      36.893836      36.893836      36.893836    
    800000   0.40055078    -7.9844233     -7.3836057      2.269568       50218.233      36.893836      36.893836      36.893836    
    810000   0.4011422     -7.9862982     -7.3845934      2.2520025      50218.233      36.893836      36.893836      36.893836    
    820000   0.39900567    -7.9878391     -7.3893391      2.2328369      50218.233      36.893836      36.893836      36.893836    
    830000   0.40082456    -7.9878466     -7.3866183      2.2359777      50218.233      36.893836      36.893836      36.893836    
    840000   0.40110803    -7.9863057     -7.3846522      2.2475387      50218.233      36.893836      36.893836      36.893836    
    850000   0.39962708    -7.9865417     -7.3871096      2.2475888      50218.233      36.893836      36.893836      36.893836    
    860000   0.39866967    -7.9869269     -7.3889309      2.2412862      50218.233      36.893836      36.893836      36.893836    
    870000   0.40014901    -7.9879986     -7.3877836      2.2352975      50218.233      36.893836      36.893836      36.893836    
    880000   0.40046405    -7.9888087     -7.3881211      2.2300249      50218.233      36.893836      36.893836      36.893836    
    890000   0.40057737    -7.9870655     -7.386208       2.2494987      50218.233      36.893836      36.893836      36.893836    
    900000   0.40062417    -7.986261      -7.3853333      2.2470318      50218.233      36.893836      36.893836      36.893836    
    910000   0.40069819    -7.9866228     -7.3855841      2.2402289      50218.233      36.893836      36.893836      36.893836    
    920000   0.39888819    -7.9896769     -7.3913532      2.2199774      50218.233      36.893836      36.893836      36.893836    
    930000   0.39805009    -7.987352      -7.3902854      2.2469         50218.233      36.893836      36.893836      36.893836    
    940000   0.4014996     -7.9931752     -7.3909344      2.2047907      50218.233      36.893836      36.893836      36.893836    
    950000   0.40151803    -7.9896789     -7.3874104      2.2305542      50218.233      36.893836      36.893836      36.893836    
    960000   0.39957775    -7.9888837     -7.3895256      2.2150691      50218.233      36.893836      36.893836      36.893836    
    970000   0.39990721    -7.9896242     -7.389772       2.2206582      50218.233      36.893836      36.893836      36.893836    
    980000   0.40196381    -7.9890142     -7.3860771      2.2365502      50218.233      36.893836      36.893836      36.893836    
    990000   0.40011041    -7.9907928     -7.3906358      2.227174       50218.233      36.893836      36.893836      36.893836    
   1000000   0.40221007    -7.9903268     -7.3870202      2.2250093      50218.233      36.893836      36.893836      36.893836    
   1010000   0.40093477    -7.9891872     -7.3877936      2.2317152      50218.233      36.893836      36.893836      36.893836    
   1020000   0.39948636    -7.9877416     -7.3885206      2.237142       50218.233      36.893836      36.893836      36.893836    
   1030000   0.4009611     -7.987391      -7.3859579      2.2458549      50218.233      36.893836      36.893836      36.893836    
   1040000   0.40038471    -7.9899188     -7.3893503      2.2319162      50218.233      36.893836      36.893836      36.893836    
   1050000   0.39929496    -7.9905517     -7.3916178      2.2019609      50218.233      36.893836      36.893836      36.893836    
   1060000   0.39849002    -7.9914479     -7.3937214      2.2061733      50218.233      36.893836      36.893836      36.893836    
   1070000   0.40034084    -7.9894632     -7.3889605      2.2352358      50218.233      36.893836      36.893836      36.893836    
   1080000   0.40084601    -7.9895611     -7.3883006      2.2326875      50218.233      36.893836      36.893836      36.893836    
   1090000   0.39981264    -7.9890667     -7.3893563      2.2379388      50218.233      36.893836      36.893836      36.893836    
   1100000   0.3993635     -7.9867873     -7.3877506      2.253149       50218.233      36.893836      36.893836      36.893836    
   1110000   0.40055371    -7.9858747     -7.3850526      2.2597266      50218.233      36.893836      36.893836      36.893836    
   1120000   0.40204421    -7.9885977     -7.38554        2.2341693      50218.233      36.893836      36.893836      36.893836    
   1130000   0.39973593    -7.9914159     -7.3918206      2.2085442      50218.233      36.893836      36.893836      36.893836    
   1140000   0.39968962    -7.9860528     -7.3865269      2.2555374      50218.233      36.893836      36.893836      36.893836    
   1150000   0.39768843    -7.9847396     -7.3882154      2.2554096      50218.233      36.893836      36.893836      36.893836    
   1160000   0.39949116    -7.9903462     -7.3911179      2.210314       50218.233      36.893836      36.893836      36.893836    
   1170000   0.40124826    -7.9888358     -7.386972       2.2345598      50218.233      36.893836      36.893836      36.893836    
   1180000   0.3980422     -7.9887499     -7.3916951      2.2334516      50218.233      36.893836      36.893836      36.893836    
   1190000   0.39993153    -7.9890661     -7.3891773      2.2295158      50218.233      36.893836      36.893836      36.893836    
   1200000   0.39958405    -7.9883395     -7.3889719      2.2301415      50218.233      36.893836      36.893836      36.893836    
   1210000   0.40063797    -7.9882658     -7.3873174      2.2333278      50218.233      36.893836      36.893836      36.893836    
   1220000   0.40152658    -7.9910072     -7.3887259      2.216358       50218.233      36.893836      36.893836      36.893836    
   1230000   0.40023001    -7.9853173     -7.3849808      2.2572322      50218.233      36.893836      36.893836      36.893836    
   1240000   0.40186809    -7.9882303     -7.3854367      2.2404463      50218.233      36.893836      36.893836      36.893836    
   1250000   0.40048553    -7.9837248     -7.3830051      2.2689028      50218.233      36.893836      36.893836      36.893836    
   1260000   0.40087824    -7.9877711     -7.3864623      2.2375459      50218.233      36.893836      36.893836      36.893836    
   1270000   0.40015837    -7.9924921     -7.392263       2.2063395      50218.233      36.893836      36.893836      36.893836    
   1280000   0.39893137    -7.986947      -7.3885584      2.2501073      50218.233      36.893836      36.893836      36.893836    
   1290000   0.39913142    -7.9873158     -7.3886272      2.2410627      50218.233      36.893836      36.893836      36.893836    
   1300000   0.39804054    -7.9882911     -7.3912388      2.2363355      50218.233      36.893836      36.893836      36.893836    
   1310000   0.40292081    -7.9870085     -7.3826359      2.2503782      50218.233      36.893836      36.893836      36.893836    
   1320000   0.39962553    -7.9892327     -7.3898029      2.2360545      50218.233      36.893836      36.893836      36.893836    
   1330000   0.40120347    -7.9891712     -7.3873746      2.2271543      50218.233      36.893836      36.893836      36.893836    
   1340000   0.40027255    -7.9883557     -7.3879555      2.232365       50218.233      36.893836      36.893836      36.893836    
   1350000   0.40112388    -7.9867168     -7.3850395      2.2469495      50218.233      36.893836      36.893836      36.893836    
   1360000   0.40136794    -7.9903285     -7.3882852      2.2200112      50218.233      36.893836      36.893836      36.893836    
   1370000   0.40072463    -7.9863344     -7.385256       2.2395382      50218.233      36.893836      36.893836      36.893836    
   1380000   0.39952393    -7.9904375     -7.3911602      2.2175404      50218.233      36.893836      36.893836      36.893836    
   1390000   0.39911574    -7.9903846     -7.3917195      2.2135223      50218.233      36.893836      36.893836      36.893836    
   1400000   0.39886595    -7.9882151     -7.3899246      2.2295194      50218.233      36.893836      36.893836      36.893836    
   1410000   0.39843934    -7.9884891     -7.3908385      2.2315447      50218.233      36.893836      36.893836      36.893836    
   1420000   0.4020459     -7.9870465     -7.3839862      2.241205       50218.233      36.893836      36.893836      36.893836    
   1430000   0.39967774    -7.9896489     -7.3901408      2.2192576      50218.233      36.893836      36.893836      36.893836    
   1440000   0.40031988    -7.9855391     -7.3850678      2.2566894      50218.233      36.893836      36.893836      36.893836    
   1450000   0.40131747    -7.9907623     -7.3887947      2.2268127      50218.233      36.893836      36.893836      36.893836    
   1460000   0.39998185    -7.9884887     -7.3885245      2.2336135      50218.233      36.893836      36.893836      36.893836    
   1470000   0.39967103    -7.9887116     -7.3892136      2.2378545      50218.233      36.893836      36.893836      36.893836    
   1480000   0.40119309    -7.9885487     -7.3867676      2.2349388      50218.233      36.893836      36.893836      36.893836    
   1490000   0.39977971    -7.995257      -7.395596       2.1868618      50218.233      36.893836      36.893836      36.893836    
   1500000   0.40075236    -7.989103      -7.387983       2.2295597      50218.233      36.893836      36.893836      36.893836    
   1510000   0.40040751    -7.9900153     -7.3894126      2.2215754      50218.233      36.893836      36.893836      36.893836    
   1520000   0.40047676    -7.9879712     -7.3872646      2.2418515      50218.233      36.893836      36.893836      36.893836    
   1530000   0.39760088    -7.9856781     -7.3892852      2.2516687      50218.233      36.893836      36.893836      36.893836    
   1540000   0.40001841    -7.9900172     -7.3899981      2.2157172      50218.233      36.893836      36.893836      36.893836    
   1550000   0.40010949    -7.9889749     -7.3888192      2.2299271      50218.233      36.893836      36.893836      36.893836    
   1560000   0.39731695    -7.989566      -7.393599       2.2206127      50218.233      36.893836      36.893836      36.893836    
   1570000   0.39993446    -7.9891786     -7.3892854      2.2227197      50218.233      36.893836      36.893836      36.893836    
   1580000   0.4000904     -7.9872119     -7.3870848      2.2495468      50218.233      36.893836      36.893836      36.893836    
   1590000   0.39965385    -7.988734      -7.3892617      2.2294676      50218.233      36.893836      36.893836      36.893836    
   1600000   0.39907243    -7.9906767     -7.3920765      2.209054       50218.233      36.893836      36.893836      36.893836    
   1610000   0.39875058    -7.990019      -7.3919017      2.2255498      50218.233      36.893836      36.893836      36.893836    
   1620000   0.40185705    -7.9847899     -7.3820129      2.2597017      50218.233      36.893836      36.893836      36.893836    
   1630000   0.3991507     -7.9893689     -7.3906513      2.2290649      50218.233      36.893836      36.893836      36.893836    
   1640000   0.39917832    -7.9882639     -7.3895049      2.2432685      50218.233      36.893836      36.893836      36.893836    
   1650000   0.40253562    -7.9895819     -7.385787       2.2204856      50218.233      36.893836      36.893836      36.893836    
   1660000   0.39839065    -7.9892645     -7.391687       2.220621       50218.233      36.893836      36.893836      36.893836    
   1670000   0.40029975    -7.9863191     -7.385878       2.2533974      50218.233      36.893836      36.893836      36.893836    
   1680000   0.39817519    -7.9858335     -7.3885792      2.2516303      50218.233      36.893836      36.893836      36.893836    
   1690000   0.39951699    -7.9891033     -7.3898364      2.2201549      50218.233      36.893836      36.893836      36.893836    
   1700000   0.3999028     -7.9887165     -7.3888708      2.2331485      50218.233      36.893836      36.893836      36.893836    
   1710000   0.39957236    -7.9868953     -7.3875452      2.232545       50218.233      36.893836      36.893836      36.893836    
   1720000   0.39982486    -7.9872183     -7.3874896      2.2379552      50218.233      36.893836      36.893836      36.893836    
   1730000   0.39988266    -7.9853044     -7.3854889      2.2632129      50218.233      36.893836      36.893836      36.893836    
   1740000   0.39945616    -7.9836608     -7.3844851      2.2699617      50218.233      36.893836      36.893836      36.893836    
   1750000   0.39871578    -7.9870682     -7.389003       2.2430034      50218.233      36.893836      36.893836      36.893836    
   1760000   0.40035073    -7.9878809     -7.3873634      2.2390815      50218.233      36.893836      36.893836      36.893836    
   1770000   0.40037818    -7.9862016     -7.3856429      2.2444246      50218.233      36.893836      36.893836      36.893836    
   1780000   0.40307844    -7.9891815     -7.3845724      2.2381849      50218.233      36.893836      36.893836      36.893836    
   1790000   0.39842335    -7.9887809     -7.3911544      2.2319786      50218.233      36.893836      36.893836      36.893836    
   1800000   0.39994822    -7.9862135     -7.3862997      2.2589189      50218.233      36.893836      36.893836      36.893836    
   1810000   0.39975499    -7.9879989     -7.3883749      2.2345176      50218.233      36.893836      36.893836      36.893836    
   1820000   0.40143352    -7.9873135     -7.3851718      2.2449129      50218.233      36.893836      36.893836      36.893836    
   1830000   0.40134545    -7.9855019     -7.3834923      2.2623047      50218.233      36.893836      36.893836      36.893836    
   1840000   0.40033224    -7.9891389     -7.3886491      2.2246658      50218.233      36.893836      36.893836      36.893836    
   1850000   0.40054167    -7.988918      -7.388114       2.235804       50218.233      36.893836      36.893836      36.893836    
   1860000   0.40015981    -7.9881487     -7.3879175      2.2354132      50218.233      36.893836      36.893836      36.893836    
   1870000   0.3990694     -7.987831      -7.3892354      2.2342743      50218.233      36.893836      36.893836      36.893836    
   1880000   0.40235342    -7.9890013     -7.3854798      2.2337279      50218.233      36.893836      36.893836      36.893836    
   1890000   0.39899575    -7.9874895     -7.3890044      2.2438366      50218.233      36.893836      36.893836      36.893836    
   1900000   0.4032137     -7.9918114     -7.3869995      2.2125647      50218.233      36.893836      36.893836      36.893836    
   1910000   0.39938788    -7.9903982     -7.3913249      2.227081       50218.233      36.893836      36.893836      36.893836    
   1920000   0.40033753    -7.9827337     -7.3822359      2.2793322      50218.233      36.893836      36.893836      36.893836    
   1930000   0.40082103    -7.9892769     -7.3880539      2.2167721      50218.233      36.893836      36.893836      36.893836    
   1940000   0.40126043    -7.9916498     -7.3897677      2.2139239      50218.233      36.893836      36.893836      36.893836    
   1950000   0.39910252    -7.990395      -7.3917498      2.2111249      50218.233      36.893836      36.893836      36.893836    
   1960000   0.40089411    -7.9890474     -7.3877148      2.2308161      50218.233      36.893836      36.893836      36.893836    
   1970000   0.40067698    -7.9899421     -7.3889352      2.2215008      50218.233      36.893836      36.893836      36.893836    
   1980000   0.39850665    -7.9882954     -7.3905439      2.2330921      50218.233      36.893836      36.893836      36.893836    
   1990000   0.39906706    -7.9905035     -7.3919114      2.2142337      50218.233      36.893836      36.893836      36.893836    
   2000000   0.40033889    -7.9889362     -7.3884364      2.2329291      50218.233      36.893836      36.893836      36.893836    
   2010000   0.39730166    -7.9881447     -7.3922007      2.2371633      50218.233      36.893836      36.893836      36.893836    
   2020000   0.40020511    -7.9871589     -7.3868598      2.2477077      50218.233      36.893836      36.893836      36.893836    
   2030000   0.39983757    -7.9898365     -7.3900887      2.2183338      50218.233      36.893836      36.893836      36.893836    
   2040000   0.39910517    -7.9874496     -7.3888004      2.2295888      50218.233      36.893836      36.893836      36.893836    
   2050000   0.39923907    -7.9922638     -7.3934137      2.2012633      50218.233      36.893836      36.893836      36.893836    
   2060000   0.4004019     -7.9916175     -7.3910232      2.2075344      50218.233      36.893836      36.893836      36.893836    
   2070000   0.40009027    -7.9885389     -7.3884121      2.2219126      50218.233      36.893836      36.893836      36.893836    
   2080000   0.39868078    -7.9886498     -7.3906371      2.2252523      50218.233      36.893836      36.893836      36.893836    
   2090000   0.40034596    -7.9878882     -7.3873778      2.2441489      50218.233      36.893836      36.893836      36.893836    
   2100000   0.40070046    -7.9881967     -7.3871545      2.2398248      50218.233      36.893836      36.893836      36.893836    
   2110000   0.40164792    -7.9872172     -7.3847538      2.2386838      50218.233      36.893836      36.893836      36.893836    
   2120000   0.400635      -7.9885916     -7.3876477      2.2311043      50218.233      36.893836      36.893836      36.893836    
   2130000   0.39897309    -7.9901813     -7.3917302      2.2102434      50218.233      36.893836      36.893836      36.893836    
   2140000   0.40058892    -7.9906989     -7.3898241      2.2244604      50218.233      36.893836      36.893836      36.893836    
   2150000   0.40113699    -7.990108      -7.3884111      2.2254411      50218.233      36.893836      36.893836      36.893836    
   2160000   0.40128833    -7.9893506     -7.3874266      2.2251332      50218.233      36.893836      36.893836      36.893836    
   2170000   0.39838389    -7.9867334     -7.389166       2.2464448      50218.233      36.893836      36.893836      36.893836    
   2180000   0.39893923    -7.985514      -7.3871137      2.2621807      50218.233      36.893836      36.893836      36.893836    
   2190000   0.40107217    -7.9863621     -7.3847624      2.2504578      50218.233      36.893836      36.893836      36.893836    
   2200000   0.39955494    -7.9918395     -7.3925156      2.2125735      50218.233      36.893836      36.893836      36.893836    
   2210000   0.40114821    -7.9880083     -7.3862945      2.2325143      50218.233      36.893836      36.893836      36.893836    
   2220000   0.40033941    -7.9930612     -7.3925606      2.1902206      50218.233      36.893836      36.893836      36.893836    
   2230000   0.40080566    -7.985134      -7.3839341      2.2607537      50218.233      36.893836      36.893836      36.893836    
   2240000   0.39973958    -7.986516      -7.3869152      2.2435341      50218.233      36.893836      36.893836      36.893836    
   2250000   0.40071896    -7.986585      -7.3855151      2.2549429      50218.233      36.893836      36.893836      36.893836    
   2260000   0.40041482    -7.9870629     -7.3864492      2.2426613      50218.233      36.893836      36.893836      36.893836    
   2270000   0.40020557    -7.9869992     -7.3866994      2.2481093      50218.233      36.893836      36.893836      36.893836    
   2280000   0.39768782    -7.9884943     -7.3919711      2.2309761      50218.233      36.893836      36.893836      36.893836    
   2290000   0.39874707    -7.9891702     -7.3910581      2.2265584      50218.233      36.893836      36.893836      36.893836    
   2300000   0.40049623    -7.9900933     -7.3893575      2.2231515      50218.233      36.893836      36.893836      36.893836    
   2310000   0.40021775    -7.9854612     -7.3851431      2.2553205      50218.233      36.893836      36.893836      36.893836    
   2320000   0.39992118    -7.9921325     -7.3922593      2.2046731      50218.233      36.893836      36.893836      36.893836    
   2330000   0.3998131     -7.9879179     -7.3882067      2.2401188      50218.233      36.893836      36.893836      36.893836    
   2340000   0.4018775     -7.989081      -7.3862733      2.2406012      50218.233      36.893836      36.893836      36.893836    
   2350000   0.39928119    -7.989016      -7.3901027      2.2299283      50218.233      36.893836      36.893836      36.893836    
   2360000   0.401221      -7.987346      -7.385523       2.2405528      50218.233      36.893836      36.893836      36.893836    
   2370000   0.40025479    -7.987946      -7.3875723      2.2410506      50218.233      36.893836      36.893836      36.893836    
   2380000   0.40082079    -7.9908676     -7.389645       2.2258545      50218.233      36.893836      36.893836      36.893836    
   2390000   0.39981255    -7.989424      -7.3897137      2.2287323      50218.233      36.893836      36.893836      36.893836    
   2400000   0.40007527    -7.9905435     -7.3904392      2.2133633      50218.233      36.893836      36.893836      36.893836    
   2410000   0.39873584    -7.9871063     -7.389011       2.2407167      50218.233      36.893836      36.893836      36.893836    
   2420000   0.40049493    -7.9891284     -7.3883945      2.2312817      50218.233      36.893836      36.893836      36.893836    
   2430000   0.40020625    -7.9899778     -7.389677       2.2255957      50218.233      36.893836      36.893836      36.893836    
   2440000   0.40037524    -7.9901917     -7.3896373      2.2131241      50218.233      36.893836      36.893836      36.893836    
   2450000   0.40180923    -7.989164      -7.3864588      2.2311763      50218.233      36.893836      36.893836      36.893836    
   2460000   0.40197102    -7.9911707     -7.3882228      2.2127749      50218.233      36.893836      36.893836      36.893836    
   2470000   0.39762381    -7.9896676     -7.3932403      2.2168413      50218.233      36.893836      36.893836      36.893836    
   2480000   0.39997646    -7.9895658     -7.3896096      2.2267217      50218.233      36.893836      36.893836      36.893836    
   2490000   0.40054628    -7.9906399     -7.389829       2.2102362      50218.233      36.893836      36.893836      36.893836    
   2500000   0.40050392    -7.9895995     -7.3888521      2.2284034      50218.233      36.893836      36.893836      36.893836    
   2510000   0.4001474     -7.9880291     -7.3878166      2.2364018      50218.233      36.893836      36.893836      36.893836    
   2520000   0.39991929    -7.9933562     -7.3934858      2.1940882      50218.233      36.893836      36.893836      36.893836    
   2530000   0.39762207    -7.9873731     -7.3909484      2.2340093      50218.233      36.893836      36.893836      36.893836    
   2540000   0.3994106     -7.990189      -7.3910816      2.2153099      50218.233      36.893836      36.893836      36.893836    
   2550000   0.40069573    -7.9882154     -7.3871804      2.2305942      50218.233      36.893836      36.893836      36.893836    
   2560000   0.39961277    -7.9865176     -7.387107       2.2508933      50218.233      36.893836      36.893836      36.893836    
   2570000   0.39976099    -7.9871719     -7.3875389      2.241309       50218.233      36.893836      36.893836      36.893836    
   2580000   0.40160265    -7.9878924     -7.385497       2.2375427      50218.233      36.893836      36.893836      36.893836    
   2590000   0.40044389    -7.9844187     -7.3837614      2.2615922      50218.233      36.893836      36.893836      36.893836    
   2600000   0.39953642    -7.9889014     -7.3896053      2.2275381      50218.233      36.893836      36.893836      36.893836    
   2610000   0.40150445    -7.9876094     -7.3853613      2.2404816      50218.233      36.893836      36.893836      36.893836    
   2620000   0.3998452     -7.9912497     -7.3914904      2.2047497      50218.233      36.893836      36.893836      36.893836    
   2630000   0.3998858     -7.9942921     -7.394472       2.1852397      50218.233      36.893836      36.893836      36.893836    
   2640000   0.40158752    -7.9870748     -7.3847021      2.2425021      50218.233      36.893836      36.893836      36.893836    
   2650000   0.40135212    -7.9875994     -7.3855797      2.2440086      50218.233      36.893836      36.893836      36.893836    
   2660000   0.40173952    -7.9899134     -7.3873127      2.2242038      50218.233      36.893836      36.893836      36.893836    
   2670000   0.39858721    -7.9879194     -7.3900471      2.2348975      50218.233      36.893836      36.893836      36.893836    
   2680000   0.40028571    -7.9894669     -7.3890469      2.2242345      50218.233      36.893836      36.893836      36.893836    
   2690000   0.39816615    -7.9915701     -7.3943294      2.2091578      50218.233      36.893836      36.893836      36.893836    
   2700000   0.4009924     -7.9906209     -7.3891409      2.2095781      50218.233      36.893836      36.893836      36.893836    
   2710000   0.40314339    -7.9884227     -7.3837162      2.2288682      50218.233      36.893836      36.893836      36.893836    
   2720000   0.40034083    -7.9897811     -7.3892784      2.2274773      50218.233      36.893836      36.893836      36.893836    
   2730000   0.39878981    -7.9842343     -7.3860581      2.2652054      50218.233      36.893836      36.893836      36.893836    
   2740000   0.40097175    -7.9854836     -7.3840345      2.2602805      50218.233      36.893836      36.893836      36.893836    
   2750000   0.39859166    -7.987141      -7.389262       2.2440809      50218.233      36.893836      36.893836      36.893836    
   2760000   0.40130707    -7.9893419     -7.3873898      2.2317707      50218.233      36.893836      36.893836      36.893836    
   2770000   0.39892884    -7.9887565     -7.3903718      2.2306152      50218.233      36.893836      36.893836      36.893836    
   2780000   0.40116484    -7.9879676     -7.3862289      2.2487492      50218.233      36.893836      36.893836      36.893836    
   2790000   0.40237721    -7.9888733     -7.3853161      2.2330044      50218.233      36.893836      36.893836      36.893836    
   2800000   0.40050108    -7.9880271     -7.3872841      2.2457548      50218.233      36.893836      36.893836      36.893836    
   2810000   0.40056693    -7.989474      -7.3886322      2.2258057      50218.233      36.893836      36.893836      36.893836    
   2820000   0.40048235    -7.9857892     -7.3850742      2.2424473      50218.233      36.893836      36.893836      36.893836    
   2830000   0.39786772    -7.9874502     -7.3906571      2.2345358      50218.233      36.893836      36.893836      36.893836    
   2840000   0.39925842    -7.9900188     -7.3911397      2.2331537      50218.233      36.893836      36.893836      36.893836    
   2850000   0.40133643    -7.9887303     -7.3867342      2.2226939      50218.233      36.893836      36.893836      36.893836    
   2860000   0.39862824    -7.9921196     -7.3941857      2.2072679      50218.233      36.893836      36.893836      36.893836    
   2870000   0.40022717    -7.9886225     -7.3882903      2.2343904      50218.233      36.893836      36.893836      36.893836    
   2880000   0.39945587    -7.9871149     -7.3879396      2.241577       50218.233      36.893836      36.893836      36.893836    
   2890000   0.39905807    -7.990169      -7.3915904      2.2206767      50218.233      36.893836      36.893836      36.893836    
   2900000   0.40038642    -7.9873094     -7.3867384      2.2345938      50218.233      36.893836      36.893836      36.893836    
   2910000   0.39973633    -7.9859382     -7.3863422      2.2490775      50218.233      36.893836      36.893836      36.893836    
   2920000   0.40141576    -7.9878825     -7.3857674      2.2338331      50218.233      36.893836      36.893836      36.893836    
   2930000   0.40017044    -7.989979      -7.3897319      2.2174681      50218.233      36.893836      36.893836      36.893836    
   2940000   0.40074027    -7.9888932     -7.3877913      2.2327605      50218.233      36.893836      36.893836      36.893836    
   2950000   0.39852984    -7.9921802     -7.3943939      2.2008795      50218.233      36.893836      36.893836      36.893836    
   2960000   0.4024341     -7.9891504     -7.3855078      2.2305231      50218.233      36.893836      36.893836      36.893836    
   2970000   0.40278063    -7.990385      -7.3862227      2.2158758      50218.233      36.893836      36.893836      36.893836    
   2980000   0.40108694    -7.9889053     -7.3872834      2.2261706      50218.233      36.893836      36.893836      36.893836    
   2990000   0.40100782    -7.9889211     -7.3874179      2.2344214      50218.233      36.893836      36.893836      36.893836    
   3000000   0.39877957    -7.9901024     -7.3919416      2.2137696      50218.233      36.893836      36.893836      36.893836    
   3010000   0.3984223     -7.9856245     -7.3879996      2.2429968      50218.233      36.893836      36.893836      36.893836    
   3020000   0.39931482    -7.9910561     -7.3920924      2.2062459      50218.233      36.893836      36.893836      36.893836    
   3030000   0.40265593    -7.9872026     -7.3832273      2.255908       50218.233      36.893836      36.893836      36.893836    
   3040000   0.39942886    -7.9893826     -7.3902478      2.2296735      50218.233      36.893836      36.893836      36.893836    
   3050000   0.40175253    -7.9884903     -7.38587        2.2330143      50218.233      36.893836      36.893836      36.893836    
   3060000   0.40078397    -7.9892886     -7.3881212      2.2226964      50218.233      36.893836      36.893836      36.893836    
   3070000   0.40024237    -7.9874297     -7.3870747      2.2348882      50218.233      36.893836      36.893836      36.893836    
   3080000   0.39994119    -7.9880778     -7.3881745      2.229224       50218.233      36.893836      36.893836      36.893836    
   3090000   0.39946669    -7.9864979     -7.3873064      2.2389806      50218.233      36.893836      36.893836      36.893836    
   3100000   0.39945127    -7.9856148     -7.3864464      2.2497982      50218.233      36.893836      36.893836      36.893836    
   3110000   0.40066357    -7.9910898     -7.390103       2.2061761      50218.233      36.893836      36.893836      36.893836    
   3120000   0.40125326    -7.9904504     -7.3885791      2.2245567      50218.233      36.893836      36.893836      36.893836    
   3130000   0.40121892    -7.9890186     -7.3871987      2.2352151      50218.233      36.893836      36.893836      36.893836    
   3140000   0.40065304    -7.9929117     -7.3919407      2.1902384      50218.233      36.893836      36.893836      36.893836    
   3150000   0.39971631    -7.9887722     -7.3892062      2.2287894      50218.233      36.893836      36.893836      36.893836    
   3160000   0.39769183    -7.9828709     -7.3863417      2.2673332      50218.233      36.893836      36.893836      36.893836    
   3170000   0.4005507     -7.9904852     -7.3896676      2.2083821      50218.233      36.893836      36.893836      36.893836    
   3180000   0.40048699    -7.9894693     -7.3887474      2.2321974      50218.233      36.893836      36.893836      36.893836    
   3190000   0.3998402     -7.9888469     -7.3890951      2.2283508      50218.233      36.893836      36.893836      36.893836    
   3200000   0.39965748    -7.9879594     -7.3884817      2.2321748      50218.233      36.893836      36.893836      36.893836    
   3210000   0.39906281    -7.9911705     -7.3925848      2.2066752      50218.233      36.893836      36.893836      36.893836    
   3220000   0.40011421    -7.9899277     -7.3897649      2.222805       50218.233      36.893836      36.893836      36.893836    
   3230000   0.39867688    -7.9881168     -7.39011        2.2299862      50218.233      36.893836      36.893836      36.893836    
   3240000   0.39961275    -7.9914839     -7.3920733      2.2058058      50218.233      36.893836      36.893836      36.893836    
   3250000   0.3996011     -7.9889348     -7.3895416      2.2227998      50218.233      36.893836      36.893836      36.893836    
   3260000   0.4000589     -7.990662      -7.3905822      2.2118203      50218.233      36.893836      36.893836      36.893836    
   3270000   0.401059      -7.9873086     -7.3857286      2.2310153      50218.233      36.893836      36.893836      36.893836    
   3280000   0.39966669    -7.9897063     -7.3902148      2.2293766      50218.233      36.893836      36.893836      36.893836    
   3290000   0.400091      -7.986663      -7.386535       2.2443251      50218.233      36.893836      36.893836      36.893836    
   3300000   0.40023828    -7.985036      -7.3846872      2.2607295      50218.233      36.893836      36.893836      36.893836    
   3310000   0.40123157    -7.9883688     -7.38653        2.2314901      50218.233      36.893836      36.893836      36.893836    
   3320000   0.40031924    -7.9887545     -7.3882842      2.2305065      50218.233      36.893836      36.893836      36.893836    
   3330000   0.39980621    -7.990202      -7.3905012      2.2313573      50218.233      36.893836      36.893836      36.893836    
   3340000   0.40120593    -7.9914269     -7.3896265      2.2122413      50218.233      36.893836      36.893836      36.893836    
   3350000   0.40101788    -7.9886941     -7.3871758      2.2376633      50218.233      36.893836      36.893836      36.893836    
   3360000   0.4016521     -7.9888516     -7.386382       2.2407909      50218.233      36.893836      36.893836      36.893836    
   3370000   0.40055142    -7.9906508     -7.3898322      2.2132539      50218.233      36.893836      36.893836      36.893836    
   3380000   0.39902742    -7.9890296     -7.390497       2.2336052      50218.233      36.893836      36.893836      36.893836    
   3390000   0.39662562    -7.9838851     -7.3889552      2.2550369      50218.233      36.893836      36.893836      36.893836    
   3400000   0.39792133    -7.9894522     -7.3925787      2.2193321      50218.233      36.893836      36.893836      36.893836    
   3410000   0.39954549    -7.987162      -7.3878523      2.2524998      50218.233      36.893836      36.893836      36.893836    
   3420000   0.39916491    -7.9905961     -7.3918572      2.2165154      50218.233      36.893836      36.893836      36.893836    
   3430000   0.39963146    -7.9891381     -7.3896994      2.2217204      50218.233      36.893836      36.893836      36.893836    
   3440000   0.3988398     -7.9885232     -7.390272       2.2211758      50218.233      36.893836      36.893836      36.893836    
   3450000   0.40014676    -7.9921869     -7.3919753      2.2140457      50218.233      36.893836      36.893836      36.893836    
   3460000   0.39859697    -7.9903284     -7.3924415      2.2183159      50218.233      36.893836      36.893836      36.893836    
   3470000   0.39723656    -7.9890688     -7.3932224      2.2185503      50218.233      36.893836      36.893836      36.893836    
   3480000   0.4003536     -7.9907911     -7.3902692      2.215792       50218.233      36.893836      36.893836      36.893836    
   3490000   0.40207642    -7.9879604     -7.3848544      2.2311584      50218.233      36.893836      36.893836      36.893836    
   3500000   0.39879956    -7.989974      -7.3917831      2.2237293      50218.233      36.893836      36.893836      36.893836    
   3510000   0.39883821    -7.9881742     -7.3899254      2.2288945      50218.233      36.893836      36.893836      36.893836    
   3520000   0.40102417    -7.9903914     -7.3888637      2.2206489      50218.233      36.893836      36.893836      36.893836    
   3530000   0.39852928    -7.991634      -7.3938485      2.2180446      50218.233      36.893836      36.893836      36.893836    
   3540000   0.40308411    -7.9911445     -7.3865269      2.2190445      50218.233      36.893836      36.893836      36.893836    
   3550000   0.39928179    -7.9914271     -7.392513       2.2069988      50218.233      36.893836      36.893836      36.893836    
   3560000   0.40104541    -7.9891733     -7.3876138      2.2345976      50218.233      36.893836      36.893836      36.893836    
   3570000   0.39863369    -7.9888913     -7.3909493      2.22685        50218.233      36.893836      36.893836      36.893836    
   3580000   0.39856622    -7.9900621     -7.3922213      2.2202187      50218.233      36.893836      36.893836      36.893836    
   3590000   0.40010054    -7.9918194     -7.3916771      2.203853       50218.233      36.893836      36.893836      36.893836    
   3600000   0.40046478    -7.9894348     -7.3887462      2.2285174      50218.233      36.893836      36.893836      36.893836    
   3610000   0.39992719    -7.9878105     -7.3879283      2.2432067      50218.233      36.893836      36.893836      36.893836    
   3620000   0.40239993    -7.985581      -7.3819897      2.2522855      50218.233      36.893836      36.893836      36.893836    
   3630000   0.39897432    -7.989069      -7.390616       2.2362986      50218.233      36.893836      36.893836      36.893836    
   3640000   0.39903193    -7.9906917     -7.3921523      2.2141669      50218.233      36.893836      36.893836      36.893836    
   3650000   0.40091219    -7.9892436     -7.3878839      2.2354018      50218.233      36.893836      36.893836      36.893836    
   3660000   0.40236811    -7.9876272     -7.3840836      2.2445674      50218.233      36.893836      36.893836      36.893836    
   3670000   0.40010571    -7.9906283     -7.3904783      2.221905       50218.233      36.893836      36.893836      36.893836    
   3680000   0.40246823    -7.9907469     -7.3870531      2.2259452      50218.233      36.893836      36.893836      36.893836    
   3690000   0.40066676    -7.990153      -7.3891614      2.2074777      50218.233      36.893836      36.893836      36.893836    
   3700000   0.40058738    -7.9889858     -7.3881133      2.2259694      50218.233      36.893836      36.893836      36.893836    
   3710000   0.39899502    -7.9854426     -7.3869586      2.2566645      50218.233      36.893836      36.893836      36.893836    
   3720000   0.40095829    -7.9888924     -7.3874635      2.2258304      50218.233      36.893836      36.893836      36.893836    
   3730000   0.39857462    -7.9875641     -7.3897107      2.2376864      50218.233      36.893836      36.893836      36.893836    
   3740000   0.40055696    -7.9888834     -7.3880565      2.2314         50218.233      36.893836      36.893836      36.893836    
   3750000   0.39999038    -7.9890456     -7.3890686      2.2308033      50218.233      36.893836      36.893836      36.893836    
   3760000   0.40076434    -7.9879343     -7.3867963      2.2427503      50218.233      36.893836      36.893836      36.893836    
   3770000   0.39998869    -7.9864094     -7.3864349      2.2506334      50218.233      36.893836      36.893836      36.893836    
   3780000   0.40129753    -7.9862786     -7.3843409      2.2584475      50218.233      36.893836      36.893836      36.893836    
   3790000   0.40245191    -7.9845849     -7.3809156      2.2569867      50218.233      36.893836      36.893836      36.893836    
   3800000   0.39843187    -7.9928917     -7.3952524      2.1985975      50218.233      36.893836      36.893836      36.893836    
   3810000   0.40134107    -7.9931377     -7.3911347      2.2019219      50218.233      36.893836      36.893836      36.893836    
   3820000   0.39916193    -7.9899102     -7.3911759      2.2241402      50218.233      36.893836      36.893836      36.893836    
   3830000   0.39966531    -7.988611      -7.3891216      2.235352       50218.233      36.893836      36.893836      36.893836    
   3840000   0.39962798    -7.9845521     -7.3851186      2.2577107      50218.233      36.893836      36.893836      36.893836    
   3850000   0.40121801    -7.9869314     -7.385113       2.2476017      50218.233      36.893836      36.893836      36.893836    
   3860000   0.40347566    -7.9892986     -7.3840938      2.2375223      50218.233      36.893836      36.893836      36.893836    
   3870000   0.4009671     -7.9893893     -7.3879472      2.2285735      50218.233      36.893836      36.893836      36.893836    
   3880000   0.39979649    -7.9901425     -7.3904563      2.2185728      50218.233      36.893836      36.893836      36.893836    
   3890000   0.40030961    -7.989212      -7.3887562      2.2308408      50218.233      36.893836      36.893836      36.893836    
   3900000   0.39998083    -7.98843       -7.3884673      2.2268056      50218.233      36.893836      36.893836      36.893836    
   3910000   0.40091033    -7.9870779     -7.385721       2.2388596      50218.233      36.893836      36.893836      36.893836    
   3920000   0.40083329    -7.9883054     -7.387064       2.232259       50218.233      36.893836      36.893836      36.893836    
   3930000   0.39878624    -7.9862822     -7.3881113      2.2538043      50218.233      36.893836      36.893836      36.893836    
   3940000   0.40182014    -7.9886609     -7.3859393      2.2398218      50218.233      36.893836      36.893836      36.893836    
   3950000   0.39939507    -7.9888963     -7.3898122      2.2294688      50218.233      36.893836      36.893836      36.893836    
   3960000   0.40170861    -7.9931607     -7.3906064      2.2064672      50218.233      36.893836      36.893836      36.893836    
   3970000   0.40070618    -7.9886478     -7.3875971      2.2254407      50218.233      36.893836      36.893836      36.893836    
   3980000   0.4021846     -7.984884      -7.3816157      2.2587798      50218.233      36.893836      36.893836      36.893836    
   3990000   0.40045132    -7.9910007     -7.3903322      2.2206951      50218.233      36.893836      36.893836      36.893836    
   4000000   0.39830904    -7.9882303     -7.3907752      2.2425338      50218.233      36.893836      36.893836      36.893836    
   4010000   0.40088597    -7.9910328     -7.3897124      2.2215009      50218.233      36.893836      36.893836      36.893836    
   4020000   0.40197969    -7.9890746     -7.3861137      2.2240248      50218.233      36.893836      36.893836      36.893836    
   4030000   0.40088652    -7.9908978     -7.3895766      2.2163201      50218.233      36.893836      36.893836      36.893836    
   4040000   0.40188951    -7.9905985     -7.3877728      2.2222882      50218.233      36.893836      36.893836      36.893836    
   4050000   0.40045216    -7.9897514     -7.3890817      2.2371557      50218.233      36.893836      36.893836      36.893836    
   4060000   0.40002997    -7.9907497     -7.3907133      2.2109902      50218.233      36.893836      36.893836      36.893836    
   4070000   0.40210482    -7.9920122     -7.3888636      2.2085131      50218.233      36.893836      36.893836      36.893836    
   4080000   0.39880859    -7.9905937     -7.3923893      2.2129409      50218.233      36.893836      36.893836      36.893836    
   4090000   0.39870152    -7.9869496     -7.3889058      2.2385808      50218.233      36.893836      36.893836      36.893836    
   4100000   0.39964739    -7.9875388     -7.3880762      2.2455504      50218.233      36.893836      36.893836      36.893836    
   4110000   0.39899765    -7.9900751     -7.3915872      2.2171321      50218.233      36.893836      36.893836      36.893836    
   4120000   0.40114977    -7.9891422     -7.3874261      2.2323528      50218.233      36.893836      36.893836      36.893836    
   4130000   0.39909013    -7.9889797     -7.390353       2.224865       50218.233      36.893836      36.893836      36.893836    
   4140000   0.40168523    -7.9886697     -7.3861504      2.2337126      50218.233      36.893836      36.893836      36.893836    
   4150000   0.39827301    -7.9890382     -7.3916372      2.2221724      50218.233      36.893836      36.893836      36.893836    
   4160000   0.39990914    -7.9881535     -7.3882983      2.2376584      50218.233      36.893836      36.893836      36.893836    
   4170000   0.40104681    -7.9883014     -7.3867397      2.2262694      50218.233      36.893836      36.893836      36.893836    
   4180000   0.3998003     -7.9912718     -7.3915798      2.2234151      50218.233      36.893836      36.893836      36.893836    
   4190000   0.40184544    -7.9868624     -7.3841029      2.2491177      50218.233      36.893836      36.893836      36.893836    
   4200000   0.39861986    -7.9880812     -7.39016        2.237439       50218.233      36.893836      36.893836      36.893836    
   4210000   0.40139385    -7.9867025     -7.3846203      2.2470322      50218.233      36.893836      36.893836      36.893836    
   4220000   0.39658112    -7.9890837     -7.3942205      2.2175573      50218.233      36.893836      36.893836      36.893836    
   4230000   0.39658731    -7.988308      -7.3934355      2.2292957      50218.233      36.893836      36.893836      36.893836    
   4240000   0.39993443    -7.9901556     -7.3902625      2.22198        50218.233      36.893836      36.893836      36.893836    
   4250000   0.39962625    -7.9881509     -7.3887201      2.2293917      50218.233      36.893836      36.893836      36.893836    
   4260000   0.40139942    -7.989541      -7.3874505      2.234297       50218.233      36.893836      36.893836      36.893836    
   4270000   0.40013198    -7.9861396     -7.3859502      2.2515029      50218.233      36.893836      36.893836      36.893836    
   4280000   0.39982375    -7.9865987     -7.3868717      2.2449996      50218.233      36.893836      36.893836      36.893836    
   4290000   0.39963736    -7.9892734     -7.3898259      2.2344399      50218.233      36.893836      36.893836      36.893836    
   4300000   0.40100186    -7.9902539     -7.3887597      2.2413203      50218.233      36.893836      36.893836      36.893836    
   4310000   0.40165111    -7.98794       -7.3854719      2.2367155      50218.233      36.893836      36.893836      36.893836    
   4320000   0.39910296    -7.9894285     -7.3907825      2.228562       50218.233      36.893836      36.893836      36.893836    
   4330000   0.40095299    -7.9892478     -7.3878268      2.221551       50218.233      36.893836      36.893836      36.893836    
   4340000   0.40127643    -7.9874872     -7.3855811      2.246894       50218.233      36.893836      36.893836      36.893836    
   4350000   0.39907639    -7.986987      -7.3883809      2.2393425      50218.233      36.893836      36.893836      36.893836    
   4360000   0.40143305    -7.988722      -7.386581       2.2383618      50218.233      36.893836      36.893836      36.893836    
   4370000   0.39799921    -7.9882266     -7.3912362      2.2363533      50218.233      36.893836      36.893836      36.893836    
   4380000   0.399964      -7.9897333     -7.3897958      2.2256634      50218.233      36.893836      36.893836      36.893836    
   4390000   0.39633569    -7.9916213     -7.3971262      2.210268       50218.233      36.893836      36.893836      36.893836    
   4400000   0.39900375    -7.9880878     -7.3895907      2.2342874      50218.233      36.893836      36.893836      36.893836    
   4410000   0.40066907    -7.9868609     -7.3858658      2.2338104      50218.233      36.893836      36.893836      36.893836    
   4420000   0.39769544    -7.987064      -7.3905293      2.2479201      50218.233      36.893836      36.893836      36.893836    
   4430000   0.40075152    -7.9899067     -7.3887879      2.2197419      50218.233      36.893836      36.893836      36.893836    
   4440000   0.3998786     -7.9893836     -7.3895742      2.2187374      50218.233      36.893836      36.893836      36.893836    
   4450000   0.40061117    -7.9890598     -7.3881516      2.2324219      50218.233      36.893836      36.893836      36.893836    
   4460000   0.40074208    -7.9897368     -7.3886323      2.2159818      50218.233      36.893836      36.893836      36.893836    
   4470000   0.4019662     -7.9896861     -7.3867454      2.2293954      50218.233      36.893836      36.893836      36.893836    
   4480000   0.40005502    -7.9882058     -7.3881318      2.2334081      50218.233      36.893836      36.893836      36.893836    
   4490000   0.39895637    -7.9884575     -7.3900314      2.2326524      50218.233      36.893836      36.893836      36.893836    
   4500000   0.40044538    -7.9891442     -7.3884846      2.2255697      50218.233      36.893836      36.893836      36.893836    
   4510000   0.39926308    -7.9889716     -7.3900855      2.237874       50218.233      36.893836      36.893836      36.893836    
   4520000   0.4040882     -7.9890305     -7.3829068      2.2375635      50218.233      36.893836      36.893836      36.893836    
   4530000   0.39909341    -7.9880293     -7.3893977      2.240097       50218.233      36.893836      36.893836      36.893836    
   4540000   0.40163669    -7.9873615     -7.384915       2.2410831      50218.233      36.893836      36.893836      36.893836    
   4550000   0.39843714    -7.9889375     -7.3912903      2.24005        50218.233      36.893836      36.893836      36.893836    
   4560000   0.39876467    -7.991179      -7.3930405      2.217907       50218.233      36.893836      36.893836      36.893836    
   4570000   0.40192086    -7.9886517     -7.3857789      2.2234478      50218.233      36.893836      36.893836      36.893836    
   4580000   0.39919068    -7.9896298     -7.3908523      2.2240364      50218.233      36.893836      36.893836      36.893836    
   4590000   0.3992186     -7.9893488     -7.3905294      2.2278506      50218.233      36.893836      36.893836      36.893836    
   4600000   0.40022727    -7.9913605     -7.3910281      2.2099262      50218.233      36.893836      36.893836      36.893836    
   4610000   0.39917286    -7.9858146     -7.3870639      2.2421056      50218.233      36.893836      36.893836      36.893836    
   4620000   0.40061797    -7.9929048     -7.3919864      2.2015652      50218.233      36.893836      36.893836      36.893836    
   4630000   0.4006247     -7.9891543     -7.3882258      2.231549       50218.233      36.893836      36.893836      36.893836    
   4640000   0.3999882     -7.9872776     -7.3873038      2.2372458      50218.233      36.893836      36.893836      36.893836    
   4650000   0.40046688    -7.9876353     -7.3869435      2.2462171      50218.233      36.893836      36.893836      36.893836    
   4660000   0.40216776    -7.9882706     -7.3850275      2.234342       50218.233      36.893836      36.893836      36.893836    
   4670000   0.39995403    -7.9901431     -7.3902206      2.2183181      50218.233      36.893836      36.893836      36.893836    
   4680000   0.39969323    -7.9903383     -7.390807       2.2192691      50218.233      36.893836      36.893836      36.893836    
   4690000   0.40085934    -7.9914465     -7.390166       2.2075197      50218.233      36.893836      36.893836      36.893836    
   4700000   0.40080737    -7.9882135     -7.387011       2.2431056      50218.233      36.893836      36.893836      36.893836    
   4710000   0.39919962    -7.9880091     -7.3892182      2.2305875      50218.233      36.893836      36.893836      36.893836    
   4720000   0.39914403    -7.9882216     -7.3895141      2.2365914      50218.233      36.893836      36.893836      36.893836    
   4730000   0.40143039    -7.9852886     -7.3831516      2.2571514      50218.233      36.893836      36.893836      36.893836    
   4740000   0.3998597     -7.9870164     -7.3872354      2.2355877      50218.233      36.893836      36.893836      36.893836    
   4750000   0.39760658    -7.9857084     -7.3893071      2.2472184      50218.233      36.893836      36.893836      36.893836    
   4760000   0.4017382     -7.9871777     -7.384579       2.2457645      50218.233      36.893836      36.893836      36.893836    
   4770000   0.40026848    -7.988483      -7.3880889      2.2222283      50218.233      36.893836      36.893836      36.893836    
   4780000   0.39866066    -7.987374      -7.3893915      2.2357951      50218.233      36.893836      36.893836      36.893836    
   4790000   0.40037088    -7.9875855     -7.3870378      2.2310509      50218.233      36.893836      36.893836      36.893836    
   4800000   0.40167937    -7.9874698     -7.3849593      2.2421821      50218.233      36.893836      36.893836      36.893836    
   4810000   0.40048939    -7.9903073     -7.3895818      2.2241579      50218.233      36.893836      36.893836      36.893836    
   4820000   0.39839215    -7.9894412     -7.3918615      2.2284782      50218.233      36.893836      36.893836      36.893836    
   4830000   0.39935184    -7.9887702     -7.389751       2.2282671      50218.233      36.893836      36.893836      36.893836    
   4840000   0.40188621    -7.9887958     -7.3859751      2.2322303      50218.233      36.893836      36.893836      36.893836    
   4850000   0.39890937    -7.9919691     -7.3936135      2.2078141      50218.233      36.893836      36.893836      36.893836    
   4860000   0.40163166    -7.986548      -7.384109       2.2545618      50218.233      36.893836      36.893836      36.893836    
   4870000   0.40251388    -7.9909591     -7.3871969      2.2336249      50218.233      36.893836      36.893836      36.893836    
   4880000   0.39948348    -7.9901702     -7.3909535      2.2194035      50218.233      36.893836      36.893836      36.893836    
   4890000   0.40154553    -7.9865407     -7.384231       2.2502936      50218.233      36.893836      36.893836      36.893836    
   4900000   0.40044159    -7.9894649     -7.388811       2.2256725      50218.233      36.893836      36.893836      36.893836    
   4910000   0.39959031    -7.988887      -7.3895101      2.2343316      50218.233      36.893836      36.893836      36.893836    
   4920000   0.400791      -7.9913981     -7.3902202      2.2171945      50218.233      36.893836      36.893836      36.893836    
   4930000   0.40046864    -7.9888794     -7.388185       2.2283777      50218.233      36.893836      36.893836      36.893836    
   4940000   0.39875167    -7.993528      -7.395409       2.1896878      50218.233      36.893836      36.893836      36.893836    
   4950000   0.39862026    -7.9904608     -7.3925389      2.2175293      50218.233      36.893836      36.893836      36.893836    
   4960000   0.40097722    -7.9899394     -7.3884821      2.226653       50218.233      36.893836      36.893836      36.893836    
   4970000   0.40010504    -7.9888543     -7.3887052      2.2312714      50218.233      36.893836      36.893836      36.893836    
   4980000   0.40201767    -7.9891791     -7.3861611      2.2314481      50218.233      36.893836      36.893836      36.893836    
   4990000   0.40174658    -7.9894399     -7.3868286      2.228399       50218.233      36.893836      36.893836      36.893836    
   5000000   0.39973155    -7.9903808     -7.390792       2.2109881      50218.233      36.893836      36.893836      36.893836    
   5010000   0.40065024    -7.9862299     -7.385263       2.2363702      50218.233      36.893836      36.893836      36.893836    
   5020000   0.39942687    -7.9887104     -7.3895787      2.2287891      50218.233      36.893836      36.893836      36.893836    
   5030000   0.4010749     -7.9879669     -7.3863632      2.2418433      50218.233      36.893836      36.893836      36.893836    
   5040000   0.3991792     -7.9873315     -7.3885712      2.2370543      50218.233      36.893836      36.893836      36.893836    
   5050000   0.39830837    -7.9916196     -7.3941656      2.1999402      50218.233      36.893836      36.893836      36.893836    
   5060000   0.39760189    -7.9894675     -7.3930731      2.2131104      50218.233      36.893836      36.893836      36.893836    
   5070000   0.39887769    -7.989574      -7.391266       2.2138786      50218.233      36.893836      36.893836      36.893836    
   5080000   0.40148432    -7.9886194     -7.3864015      2.2262485      50218.233      36.893836      36.893836      36.893836    
   5090000   0.40097319    -7.9905637     -7.3891125      2.2155659      50218.233      36.893836      36.893836      36.893836    
   5100000   0.40056004    -7.9906578     -7.3898263      2.2175936      50218.233      36.893836      36.893836      36.893836    
   5110000   0.40025669    -7.9892248     -7.3888483      2.2184532      50218.233      36.893836      36.893836      36.893836    
   5120000   0.40020619    -7.9890066     -7.3887058      2.2202323      50218.233      36.893836      36.893836      36.893836    
   5130000   0.40010881    -7.989782      -7.3896273      2.2235928      50218.233      36.893836      36.893836      36.893836    
   5140000   0.40191088    -7.9863858     -7.3835281      2.2530042      50218.233      36.893836      36.893836      36.893836    
   5150000   0.40120944    -7.9928603     -7.3910547      2.2009379      50218.233      36.893836      36.893836      36.893836    
   5160000   0.39822998    -7.9862235     -7.388887       2.2488427      50218.233      36.893836      36.893836      36.893836    
   5170000   0.40008931    -7.9874058     -7.3872803      2.2316334      50218.233      36.893836      36.893836      36.893836    
   5180000   0.40103653    -7.98921       -7.3876638      2.2341589      50218.233      36.893836      36.893836      36.893836    
   5190000   0.39952113    -7.9900338     -7.3907606      2.2242638      50218.233      36.893836      36.893836      36.893836    
   5200000   0.4004302     -7.9878923     -7.3872555      2.2381437      50218.233      36.893836      36.893836      36.893836    
   5210000   0.39847335    -7.9886121     -7.3909106      2.2379711      50218.233      36.893836      36.893836      36.893836    
   5220000   0.39824821    -7.9859155     -7.3885517      2.2497523      50218.233      36.893836      36.893836      36.893836    
   5230000   0.40014308    -7.9835244     -7.3833184      2.2708151      50218.233      36.893836      36.893836      36.893836    
   5240000   0.39847301    -7.9867617     -7.3890606      2.2456185      50218.233      36.893836      36.893836      36.893836    
   5250000   0.40043418    -7.9884365     -7.3877938      2.2345083      50218.233      36.893836      36.893836      36.893836    
   5260000   0.39924885    -7.9889109     -7.3900461      2.2277979      50218.233      36.893836      36.893836      36.893836    
   5270000   0.40036896    -7.9876726     -7.3871277      2.2394413      50218.233      36.893836      36.893836      36.893836    
   5280000   0.39945955    -7.9884018     -7.389221       2.2280248      50218.233      36.893836      36.893836      36.893836    
   5290000   0.39870621    -7.9877338     -7.3896829      2.2335615      50218.233      36.893836      36.893836      36.893836    
   5300000   0.4002096     -7.9856518     -7.3853459      2.2475227      50218.233      36.893836      36.893836      36.893836    
   5310000   0.40093409    -7.9863322     -7.3849396      2.2512503      50218.233      36.893836      36.893836      36.893836    
   5320000   0.40020405    -7.9913555     -7.391058       2.2165176      50218.233      36.893836      36.893836      36.893836    
   5330000   0.4018538     -7.9903434     -7.3875713      2.2258932      50218.233      36.893836      36.893836      36.893836    
   5340000   0.39850609    -7.9865093     -7.3887587      2.242687       50218.233      36.893836      36.893836      36.893836    
   5350000   0.39932299    -7.9875823     -7.3886063      2.2454163      50218.233      36.893836      36.893836      36.893836    
   5360000   0.39931785    -7.9883021     -7.3893339      2.2242109      50218.233      36.893836      36.893836      36.893836    
   5370000   0.39995916    -7.9922295     -7.3922993      2.1938127      50218.233      36.893836      36.893836      36.893836    
   5380000   0.39988147    -7.9880849     -7.3882713      2.2427148      50218.233      36.893836      36.893836      36.893836    
   5390000   0.40178466    -7.9895583     -7.3868899      2.2300646      50218.233      36.893836      36.893836      36.893836    
   5400000   0.39862729    -7.9867681     -7.3888357      2.2407059      50218.233      36.893836      36.893836      36.893836    
   5410000   0.39782633    -7.9897172     -7.3929862      2.2147775      50218.233      36.893836      36.893836      36.893836    
   5420000   0.39995898    -7.987728      -7.3877981      2.2314451      50218.233      36.893836      36.893836      36.893836    
   5430000   0.39914362    -7.9879595     -7.3892525      2.2415476      50218.233      36.893836      36.893836      36.893836    
   5440000   0.39901168    -7.9899446     -7.3914356      2.2242226      50218.233      36.893836      36.893836      36.893836    
   5450000   0.39953309    -7.9917445     -7.3924534      2.203687       50218.233      36.893836      36.893836      36.893836    
   5460000   0.39949678    -7.9886428     -7.3894062      2.2310343      50218.233      36.893836      36.893836      36.893836    
   5470000   0.40032771    -7.9926912     -7.3922082      2.2042351      50218.233      36.893836      36.893836      36.893836    
   5480000   0.39945293    -7.9889122     -7.3897414      2.2240667      50218.233      36.893836      36.893836      36.893836    
   5490000   0.3983432     -7.9911517     -7.3936454      2.2054703      50218.233      36.893836      36.893836      36.893836    
   5500000   0.40020267    -7.9858741     -7.3855786      2.252944       50218.233      36.893836      36.893836      36.893836    
   5510000   0.39968617    -7.9894393     -7.3899185      2.2229731      50218.233      36.893836      36.893836      36.893836    
   5520000   0.39907275    -7.9883256     -7.389725       2.2423922      50218.233      36.893836      36.893836      36.893836    
   5530000   0.4012547     -7.991648      -7.3897745      2.2132077      50218.233      36.893836      36.893836      36.893836    
   5540000   0.40071883    -7.9908086     -7.3897389      2.2206583      50218.233      36.893836      36.893836      36.893836    
   5550000   0.40206031    -7.9897694     -7.3866875      2.229042       50218.233      36.893836      36.893836      36.893836    
   5560000   0.39957722    -7.9871484     -7.3877911      2.2505038      50218.233      36.893836      36.893836      36.893836    
   5570000   0.40015168    -7.9879182     -7.3876993      2.2290945      50218.233      36.893836      36.893836      36.893836    
   5580000   0.40287815    -7.9874631     -7.3831545      2.2473759      50218.233      36.893836      36.893836      36.893836    
   5590000   0.40063527    -7.9896184     -7.3886741      2.2282773      50218.233      36.893836      36.893836      36.893836    
   5600000   0.39893863    -7.9899221     -7.3915227      2.2243219      50218.233      36.893836      36.893836      36.893836    
   5610000   0.40122139    -7.9890652     -7.3872417      2.2333511      50218.233      36.893836      36.893836      36.893836    
   5620000   0.39727849    -7.9914203     -7.3955111      2.2041652      50218.233      36.893836      36.893836      36.893836    
   5630000   0.400312      -7.9905774     -7.390118       2.2168207      50218.233      36.893836      36.893836      36.893836    
   5640000   0.40057421    -7.9899606     -7.3891078      2.2241816      50218.233      36.893836      36.893836      36.893836    
   5650000   0.40064837    -7.9864227     -7.3854587      2.2430771      50218.233      36.893836      36.893836      36.893836    
   5660000   0.40248941    -7.9908646     -7.3871391      2.2275493      50218.233      36.893836      36.893836      36.893836    
   5670000   0.40067829    -7.9892121     -7.3882032      2.2336039      50218.233      36.893836      36.893836      36.893836    
   5680000   0.40068073    -7.9920769     -7.3910643      2.212496       50218.233      36.893836      36.893836      36.893836    
   5690000   0.40068611    -7.9886024     -7.3875818      2.2313844      50218.233      36.893836      36.893836      36.893836    
   5700000   0.39827823    -7.9886874     -7.3912785      2.2167227      50218.233      36.893836      36.893836      36.893836    
   5710000   0.40034236    -7.985878      -7.385373       2.255388       50218.233      36.893836      36.893836      36.893836    
   5720000   0.3991425     -7.9898746     -7.3911694      2.220457       50218.233      36.893836      36.893836      36.893836    
   5730000   0.40085847    -7.9901117     -7.3888325      2.2285722      50218.233      36.893836      36.893836      36.893836    
   5740000   0.39968609    -7.9906539     -7.3911333      2.2180679      50218.233      36.893836      36.893836      36.893836    
   5750000   0.39957719    -7.9901167     -7.3907595      2.2192014      50218.233      36.893836      36.893836      36.893836    
   5760000   0.39914536    -7.9891102     -7.3904007      2.2267407      50218.233      36.893836      36.893836      36.893836    
   5770000   0.40096985    -7.9854171     -7.3839709      2.2545782      50218.233      36.893836      36.893836      36.893836    
   5780000   0.40068628    -7.9891791     -7.3881582      2.2202164      50218.233      36.893836      36.893836      36.893836    
   5790000   0.3965188     -7.9913591     -7.3965894      2.2015338      50218.233      36.893836      36.893836      36.893836    
   5800000   0.4018739     -7.9877702     -7.3849679      2.2456183      50218.233      36.893836      36.893836      36.893836    
   5810000   0.40057266    -7.9910229     -7.3901724      2.2149301      50218.233      36.893836      36.893836      36.893836    
   5820000   0.40177251    -7.9908273     -7.3881771      2.216656       50218.233      36.893836      36.893836      36.893836    
   5830000   0.39958904    -7.989019      -7.389644       2.2335291      50218.233      36.893836      36.893836      36.893836    
   5840000   0.39895682    -7.9884674     -7.3900407      2.2319295      50218.233      36.893836      36.893836      36.893836    
   5850000   0.39755951    -7.988643      -7.3923122      2.2277856      50218.233      36.893836      36.893836      36.893836    
   5860000   0.40077355    -7.9864475     -7.3852957      2.2506684      50218.233      36.893836      36.893836      36.893836    
   5870000   0.40097159    -7.9884121     -7.3869632      2.2335129      50218.233      36.893836      36.893836      36.893836    
   5880000   0.40210854    -7.9887036     -7.3855494      2.2282209      50218.233      36.893836      36.893836      36.893836    
   5890000   0.40080294    -7.9890845     -7.3878887      2.2253821      50218.233      36.893836      36.893836      36.893836    
   5900000   0.39913845    -7.9905856     -7.3918865      2.2211662      50218.233      36.893836      36.893836      36.893836    
   5910000   0.40006492    -7.9900417     -7.3899528      2.2205604      50218.233      36.893836      36.893836      36.893836    
   5920000   0.39839853    -7.9875614     -7.3899721      2.2338978      50218.233      36.893836      36.893836      36.893836    
   5930000   0.40065678    -7.9903482     -7.3893715      2.238048       50218.233      36.893836      36.893836      36.893836    
   5940000   0.4001048     -7.9886512     -7.3885025      2.2316752      50218.233      36.893836      36.893836      36.893836    
   5950000   0.39905294    -7.9906518     -7.3920809      2.2135416      50218.233      36.893836      36.893836      36.893836    
   5960000   0.40255393    -7.9904722     -7.3866499      2.224765       50218.233      36.893836      36.893836      36.893836    
   5970000   0.40066187    -7.9911269     -7.3901426      2.215656       50218.233      36.893836      36.893836      36.893836    
   5980000   0.39937536    -7.9872686     -7.3882141      2.2431526      50218.233      36.893836      36.893836      36.893836    
   5990000   0.40108349    -7.9890674     -7.3874508      2.2309354      50218.233      36.893836      36.893836      36.893836    
   6000000   0.4005863     -7.9933769     -7.392506       2.1957955      50218.233      36.893836      36.893836      36.893836    
   6010000   0.39994112    -7.9866486     -7.3867454      2.244476       50218.233      36.893836      36.893836      36.893836    
   6020000   0.39950025    -7.9899498     -7.390708       2.2232143      50218.233      36.893836      36.893836      36.893836    
   6030000   0.39996886    -7.9918204     -7.3918757      2.202972       50218.233      36.893836      36.893836      36.893836    
   6040000   0.40000447    -7.9904786     -7.3904804      2.2107973      50218.233      36.893836      36.893836      36.893836    
   6050000   0.39711541    -7.9925347     -7.39687        2.2075404      50218.233      36.893836      36.893836      36.893836    
   6060000   0.39830705    -7.9908508     -7.3933987      2.2067086      50218.233      36.893836      36.893836      36.893836    
   6070000   0.4001092     -7.9880949     -7.3879397      2.2249686      50218.233      36.893836      36.893836      36.893836    
   6080000   0.40004762    -7.9933392     -7.3932763      2.1907501      50218.233      36.893836      36.893836      36.893836    
   6090000   0.40141568    -7.989945      -7.38783        2.2240027      50218.233      36.893836      36.893836      36.893836    
   6100000   0.39857383    -7.9911303     -7.3932781      2.1977607      50218.233      36.893836      36.893836      36.893836    
   6110000   0.40043901    -7.9890208     -7.3883709      2.2291845      50218.233      36.893836      36.893836      36.893836    
   6120000   0.3998239     -7.9882197     -7.3884924      2.2278449      50218.233      36.893836      36.893836      36.893836    
   6130000   0.40102759    -7.9872154     -7.3856826      2.2403798      50218.233      36.893836      36.893836      36.893836    
   6140000   0.39944778    -7.9893702     -7.390207       2.2324668      50218.233      36.893836      36.893836      36.893836    
   6150000   0.39837632    -7.9926695     -7.3951135      2.1936709      50218.233      36.893836      36.893836      36.893836    
   6160000   0.39790792    -7.9904616     -7.3936082      2.2186596      50218.233      36.893836      36.893836      36.893836    
   6170000   0.39790098    -7.9878775     -7.3910345      2.2333345      50218.233      36.893836      36.893836      36.893836    
   6180000   0.40114763    -7.9902458     -7.388533       2.2253345      50218.233      36.893836      36.893836      36.893836    
   6190000   0.39799235    -7.9896277     -7.3926477      2.2262397      50218.233      36.893836      36.893836      36.893836    
   6200000   0.39856121    -7.9890695     -7.3912362      2.2203281      50218.233      36.893836      36.893836      36.893836    
   6210000   0.40176419    -7.9881261     -7.3854884      2.2411812      50218.233      36.893836      36.893836      36.893836    
   6220000   0.39912771    -7.986826      -7.3881429      2.2378763      50218.233      36.893836      36.893836      36.893836    
   6230000   0.40075406    -7.9907645     -7.389642       2.2181742      50218.233      36.893836      36.893836      36.893836    
   6240000   0.4007914     -7.9897806     -7.388602       2.2261259      50218.233      36.893836      36.893836      36.893836    
   6250000   0.40071884    -7.9896183     -7.3885486      2.2322103      50218.233      36.893836      36.893836      36.893836    
   6260000   0.40072335    -7.9910899     -7.3900134      2.2166458      50218.233      36.893836      36.893836      36.893836    
   6270000   0.39916907    -7.9865175     -7.3877724      2.2459135      50218.233      36.893836      36.893836      36.893836    
   6280000   0.39858212    -7.9883229     -7.3904582      2.2348384      50218.233      36.893836      36.893836      36.893836    
   6290000   0.39800064    -7.9880627     -7.3910702      2.2358107      50218.233      36.893836      36.893836      36.893836    
   6300000   0.39994444    -7.9888661     -7.388958       2.2277506      50218.233      36.893836      36.893836      36.893836    
   6310000   0.39971766    -7.987646      -7.388078       2.2391582      50218.233      36.893836      36.893836      36.893836    
   6320000   0.3984312     -7.9900418     -7.3924035      2.2173652      50218.233      36.893836      36.893836      36.893836    
   6330000   0.39973849    -7.9892892     -7.38969        2.2302801      50218.233      36.893836      36.893836      36.893836    
   6340000   0.40172314    -7.989807      -7.3872308      2.2305784      50218.233      36.893836      36.893836      36.893836    
   6350000   0.40181309    -7.9904348     -7.3877237      2.2269466      50218.233      36.893836      36.893836      36.893836    
   6360000   0.40136688    -7.9892743     -7.3872325      2.2330318      50218.233      36.893836      36.893836      36.893836    
   6370000   0.40059324    -7.9941188     -7.3932375      2.182983       50218.233      36.893836      36.893836      36.893836    
   6380000   0.39851088    -7.989224      -7.3914662      2.221907       50218.233      36.893836      36.893836      36.893836    
   6390000   0.40056711    -7.9894793     -7.3886372      2.2276126      50218.233      36.893836      36.893836      36.893836    
   6400000   0.39890527    -7.9894868     -7.3911374      2.2305457      50218.233      36.893836      36.893836      36.893836    
   6410000   0.40055276    -7.9914202     -7.3905996      2.21818        50218.233      36.893836      36.893836      36.893836    
   6420000   0.4013167     -7.992059      -7.3900925      2.2030265      50218.233      36.893836      36.893836      36.893836    
   6430000   0.39976348    -7.9899749     -7.3903382      2.2176446      50218.233      36.893836      36.893836      36.893836    
   6440000   0.39947471    -7.989874      -7.3906705      2.2326341      50218.233      36.893836      36.893836      36.893836    
   6450000   0.40110988    -7.9919873     -7.3903311      2.2148369      50218.233      36.893836      36.893836      36.893836    
   6460000   0.39832692    -7.9876625     -7.3901806      2.2423231      50218.233      36.893836      36.893836      36.893836    
   6470000   0.40069432    -7.9902478     -7.3892149      2.2086307      50218.233      36.893836      36.893836      36.893836    
   6480000   0.39940042    -7.9882707     -7.3891786      2.2207269      50218.233      36.893836      36.893836      36.893836    
   6490000   0.40076495    -7.9890051     -7.3878662      2.2352386      50218.233      36.893836      36.893836      36.893836    
   6500000   0.39756884    -7.9866123     -7.3902675      2.2453439      50218.233      36.893836      36.893836      36.893836    
   6510000   0.39932358    -7.9911391     -7.3921623      2.2091779      50218.233      36.893836      36.893836      36.893836    
   6520000   0.39981487    -7.986593      -7.3868792      2.2477121      50218.233      36.893836      36.893836      36.893836    
   6530000   0.40073183    -7.9954743     -7.3943851      2.1824668      50218.233      36.893836      36.893836      36.893836    
   6540000   0.40018444    -7.989779      -7.3895109      2.2348602      50218.233      36.893836      36.893836      36.893836    
   6550000   0.39968143    -7.9897313     -7.3902177      2.2207081      50218.233      36.893836      36.893836      36.893836    
   6560000   0.40145664    -7.9912927     -7.3891163      2.2148169      50218.233      36.893836      36.893836      36.893836    
   6570000   0.39824262    -7.9886458     -7.3912904      2.2290218      50218.233      36.893836      36.893836      36.893836    
   6580000   0.40028775    -7.9882316     -7.3878085      2.2370747      50218.233      36.893836      36.893836      36.893836    
   6590000   0.39988409    -7.9876134     -7.3877958      2.2454324      50218.233      36.893836      36.893836      36.893836    
   6600000   0.40163726    -7.9863395     -7.3838922      2.2500601      50218.233      36.893836      36.893836      36.893836    
   6610000   0.40063968    -7.9849401     -7.3839891      2.2582141      50218.233      36.893836      36.893836      36.893836    
   6620000   0.4005091     -7.9900583     -7.3893032      2.2253232      50218.233      36.893836      36.893836      36.893836    
   6630000   0.4006884     -7.9868879     -7.3858638      2.2527582      50218.233      36.893836      36.893836      36.893836    
   6640000   0.39871715    -7.9905476     -7.3924804      2.2091217      50218.233      36.893836      36.893836      36.893836    
   6650000   0.40056375    -7.9901823     -7.3893452      2.2226549      50218.233      36.893836      36.893836      36.893836    
   6660000   0.3990523     -7.9892672     -7.3906973      2.2247396      50218.233      36.893836      36.893836      36.893836    
   6670000   0.40204467    -7.9902686     -7.3872102      2.2283835      50218.233      36.893836      36.893836      36.893836    
   6680000   0.40122735    -7.991242      -7.3894095      2.2143278      50218.233      36.893836      36.893836      36.893836    
   6690000   0.39925669    -7.988934      -7.3900575      2.2282188      50218.233      36.893836      36.893836      36.893836    
   6700000   0.40083635    -7.9872946     -7.3860487      2.2363817      50218.233      36.893836      36.893836      36.893836    
   6710000   0.40190673    -7.9892151     -7.3863636      2.2335839      50218.233      36.893836      36.893836      36.893836    
   6720000   0.39849929    -7.9859634     -7.3882229      2.2524224      50218.233      36.893836      36.893836      36.893836    
   6730000   0.39759914    -7.990401      -7.3940108      2.2233338      50218.233      36.893836      36.893836      36.893836    
   6740000   0.40039077    -7.9850789     -7.3845013      2.2605257      50218.233      36.893836      36.893836      36.893836    
   6750000   0.40068939    -7.9883592     -7.3873336      2.2367918      50218.233      36.893836      36.893836      36.893836    
   6760000   0.40006595    -7.9875596     -7.3874692      2.2406545      50218.233      36.893836      36.893836      36.893836    
   6770000   0.39994953    -7.989338      -7.3894222      2.2301124      50218.233      36.893836      36.893836      36.893836    
   6780000   0.40001316    -7.9886281     -7.3886169      2.2292236      50218.233      36.893836      36.893836      36.893836    
   6790000   0.40024508    -7.9904209     -7.3900619      2.2158109      50218.233      36.893836      36.893836      36.893836    
   6800000   0.39956187    -7.987861      -7.3885267      2.2384165      50218.233      36.893836      36.893836      36.893836    
   6810000   0.39813198    -7.9890487     -7.3918592      2.2300735      50218.233      36.893836      36.893836      36.893836    
   6820000   0.39967608    -7.9889502     -7.3894446      2.2261776      50218.233      36.893836      36.893836      36.893836    
   6830000   0.39953111    -7.9903132     -7.391025       2.2204088      50218.233      36.893836      36.893836      36.893836    
   6840000   0.39918557    -7.9904365     -7.3916667      2.2181464      50218.233      36.893836      36.893836      36.893836    
   6850000   0.40044128    -7.992061      -7.3914076      2.2124142      50218.233      36.893836      36.893836      36.893836    
   6860000   0.3995421     -7.9865748     -7.3872702      2.2415238      50218.233      36.893836      36.893836      36.893836    
   6870000   0.39998429    -7.9887036     -7.3887357      2.2332765      50218.233      36.893836      36.893836      36.893836    
   6880000   0.40060585    -7.9901073     -7.3892071      2.2187533      50218.233      36.893836      36.893836      36.893836    
   6890000   0.40104854    -7.9907626     -7.3891984      2.214735       50218.233      36.893836      36.893836      36.893836    
   6900000   0.40020888    -7.9877844     -7.3874796      2.2425167      50218.233      36.893836      36.893836      36.893836    
   6910000   0.40112591    -7.9910835     -7.3894031      2.2052386      50218.233      36.893836      36.893836      36.893836    
   6920000   0.39895545    -7.9895586     -7.391134       2.2201605      50218.233      36.893836      36.893836      36.893836    
   6930000   0.39729601    -7.9889115     -7.392976       2.2269592      50218.233      36.893836      36.893836      36.893836    
   6940000   0.40130453    -7.9920829     -7.3901347      2.2108488      50218.233      36.893836      36.893836      36.893836    
   6950000   0.39959534    -7.9885982     -7.3892137      2.2340269      50218.233      36.893836      36.893836      36.893836    
   6960000   0.40139117    -7.9903501     -7.3882719      2.2236865      50218.233      36.893836      36.893836      36.893836    
   6970000   0.40165389    -7.9935863     -7.391114       2.2048533      50218.233      36.893836      36.893836      36.893836    
   6980000   0.39734251    -7.9895771     -7.3935718      2.2108291      50218.233      36.893836      36.893836      36.893836    
   6990000   0.3999337     -7.990678      -7.390786       2.2081814      50218.233      36.893836      36.893836      36.893836    
   7000000   0.40048903    -7.9890466     -7.3883216      2.2285197      50218.233      36.893836      36.893836      36.893836    
   7010000   0.3978764     -7.9886819     -7.3918758      2.2184613      50218.233      36.893836      36.893836      36.893836    
   7020000   0.40202323    -7.9873432     -7.3843169      2.2406018      50218.233      36.893836      36.893836      36.893836    
   7030000   0.40037884    -7.9902916     -7.3897319      2.2186647      50218.233      36.893836      36.893836      36.893836    
   7040000   0.40159191    -7.9905975     -7.3882182      2.2221914      50218.233      36.893836      36.893836      36.893836    
   7050000   0.39920294    -7.9900145     -7.3912187      2.2255164      50218.233      36.893836      36.893836      36.893836    
   7060000   0.40181357    -7.9891245     -7.3864127      2.2291366      50218.233      36.893836      36.893836      36.893836    
   7070000   0.39931026    -7.9899585     -7.3910017      2.2181774      50218.233      36.893836      36.893836      36.893836    
   7080000   0.40086599    -7.9882482     -7.3869578      2.2349717      50218.233      36.893836      36.893836      36.893836    
   7090000   0.39946263    -7.9910475     -7.391862       2.2080471      50218.233      36.893836      36.893836      36.893836    
   7100000   0.39960411    -7.9880351     -7.3886375      2.2325998      50218.233      36.893836      36.893836      36.893836    
   7110000   0.40002641    -7.9901427     -7.3901116      2.2147798      50218.233      36.893836      36.893836      36.893836    
   7120000   0.39936984    -7.9870814     -7.3880351      2.2419398      50218.233      36.893836      36.893836      36.893836    
   7130000   0.4008973     -7.9919574     -7.39062        2.2048898      50218.233      36.893836      36.893836      36.893836    
   7140000   0.40066271    -7.9881753     -7.3871898      2.2408218      50218.233      36.893836      36.893836      36.893836    
   7150000   0.40142171    -7.9904793     -7.3883553      2.221637       50218.233      36.893836      36.893836      36.893836    
   7160000   0.39994067    -7.9873402     -7.3874377      2.2395255      50218.233      36.893836      36.893836      36.893836    
   7170000   0.39962566    -7.9864266     -7.3869967      2.2583568      50218.233      36.893836      36.893836      36.893836    
   7180000   0.40024521    -7.990375      -7.3900157      2.2106098      50218.233      36.893836      36.893836      36.893836    
   7190000   0.40156476    -7.9886855     -7.386347       2.2349702      50218.233      36.893836      36.893836      36.893836    
   7200000   0.39973827    -7.9886858     -7.3890869      2.2267494      50218.233      36.893836      36.893836      36.893836    
   7210000   0.40079665    -7.9908634     -7.389677       2.2179295      50218.233      36.893836      36.893836      36.893836    
   7220000   0.40009224    -7.9880224     -7.3878926      2.2312025      50218.233      36.893836      36.893836      36.893836    
   7230000   0.40039357    -7.9885861     -7.3880043      2.241428       50218.233      36.893836      36.893836      36.893836    
   7240000   0.39873713    -7.9872046     -7.3891074      2.2434238      50218.233      36.893836      36.893836      36.893836    
   7250000   0.40254201    -7.9893395     -7.3855351      2.2339038      50218.233      36.893836      36.893836      36.893836    
   7260000   0.39881829    -7.9894833     -7.3912644      2.2279674      50218.233      36.893836      36.893836      36.893836    
   7270000   0.40013835    -7.9922929     -7.3920939      2.2063354      50218.233      36.893836      36.893836      36.893836    
   7280000   0.39883955    -7.9914387     -7.3931879      2.2172311      50218.233      36.893836      36.893836      36.893836    
   7290000   0.3971925     -7.9857072     -7.389927       2.2551162      50218.233      36.893836      36.893836      36.893836    
   7300000   0.39798414    -7.9875569     -7.3905892      2.2438242      50218.233      36.893836      36.893836      36.893836    
   7310000   0.40083161    -7.9867935     -7.3855546      2.2511674      50218.233      36.893836      36.893836      36.893836    
   7320000   0.40071522    -7.9907114     -7.3896471      2.2219654      50218.233      36.893836      36.893836      36.893836    
   7330000   0.40010273    -7.9901415     -7.389996       2.2183054      50218.233      36.893836      36.893836      36.893836    
   7340000   0.39841823    -7.9887197     -7.3911008      2.2343106      50218.233      36.893836      36.893836      36.893836    
   7350000   0.39897955    -7.9910202     -7.3925594      2.2221212      50218.233      36.893836      36.893836      36.893836    
   7360000   0.39954735    -7.9896556     -7.3903431      2.2303796      50218.233      36.893836      36.893836      36.893836    
   7370000   0.40040959    -7.9901933     -7.3895874      2.2230742      50218.233      36.893836      36.893836      36.893836    
   7380000   0.40156397    -7.9882863     -7.3859489      2.2299817      50218.233      36.893836      36.893836      36.893836    
   7390000   0.39867241    -7.9893337     -7.3913335      2.2163925      50218.233      36.893836      36.893836      36.893836    
   7400000   0.40078133    -7.9912018     -7.3900383      2.213994       50218.233      36.893836      36.893836      36.893836    
   7410000   0.40072196    -7.9887235     -7.3876491      2.2387654      50218.233      36.893836      36.893836      36.893836    
   7420000   0.39896908    -7.9903487     -7.3919036      2.2089014      50218.233      36.893836      36.893836      36.893836    
   7430000   0.39686951    -7.9904534     -7.3951576      2.2083629      50218.233      36.893836      36.893836      36.893836    
   7440000   0.39970628    -7.989385      -7.3898341      2.2266305      50218.233      36.893836      36.893836      36.893836    
   7450000   0.39799363    -7.9876261     -7.3906442      2.2357682      50218.233      36.893836      36.893836      36.893836    
   7460000   0.3984733     -7.9890649     -7.3913635      2.2228047      50218.233      36.893836      36.893836      36.893836    
   7470000   0.40182565    -7.9897155     -7.3869855      2.2208211      50218.233      36.893836      36.893836      36.893836    
   7480000   0.40079341    -7.9871186     -7.3859371      2.2446972      50218.233      36.893836      36.893836      36.893836    
   7490000   0.40161061    -7.9885168     -7.3861094      2.2360674      50218.233      36.893836      36.893836      36.893836    
   7500000   0.40225912    -7.9921472     -7.3887671      2.2051121      50218.233      36.893836      36.893836      36.893836    
   7510000   0.40035579    -7.9914606     -7.3909355      2.2171283      50218.233      36.893836      36.893836      36.893836    
   7520000   0.4012484     -7.9899869     -7.3881228      2.2361354      50218.233      36.893836      36.893836      36.893836    
   7530000   0.40021513    -7.9909995     -7.3906854      2.2199447      50218.233      36.893836      36.893836      36.893836    
   7540000   0.39958888    -7.9889425     -7.3895677      2.2252167      50218.233      36.893836      36.893836      36.893836    
   7550000   0.39854483    -7.9904605     -7.3926518      2.2238918      50218.233      36.893836      36.893836      36.893836    
   7560000   0.40012512    -7.9903378     -7.3901587      2.2095958      50218.233      36.893836      36.893836      36.893836    
   7570000   0.3998375     -7.9910071     -7.3912594      2.2156823      50218.233      36.893836      36.893836      36.893836    
   7580000   0.40064263    -7.9896693     -7.3887139      2.2289046      50218.233      36.893836      36.893836      36.893836    
   7590000   0.40127837    -7.9891674     -7.3872584      2.2333659      50218.233      36.893836      36.893836      36.893836    
   7600000   0.39935121    -7.9934023     -7.394384       2.1846396      50218.233      36.893836      36.893836      36.893836    
   7610000   0.40191675    -7.9883099     -7.3854433      2.2383502      50218.233      36.893836      36.893836      36.893836    
   7620000   0.40210276    -7.9920234     -7.3888779      2.2083357      50218.233      36.893836      36.893836      36.893836    
   7630000   0.40033944    -7.9901805     -7.3896799      2.2257684      50218.233      36.893836      36.893836      36.893836    
   7640000   0.39656887    -7.9872746     -7.3924298      2.2353652      50218.233      36.893836      36.893836      36.893836    
   7650000   0.40120698    -7.9898609     -7.388059       2.2215481      50218.233      36.893836      36.893836      36.893836    
   7660000   0.4002077     -7.9880967     -7.3877937      2.2327013      50218.233      36.893836      36.893836      36.893836    
   7670000   0.40036199    -7.9893748     -7.3888403      2.2298937      50218.233      36.893836      36.893836      36.893836    
   7680000   0.40004021    -7.9879078     -7.387856       2.2381833      50218.233      36.893836      36.893836      36.893836    
   7690000   0.39929227    -7.9886004     -7.3896706      2.223554       50218.233      36.893836      36.893836      36.893836    
   7700000   0.40056371    -7.9846495     -7.3838125      2.2611599      50218.233      36.893836      36.893836      36.893836    
   7710000   0.40222403    -7.990969      -7.3876415      2.2184471      50218.233      36.893836      36.893836      36.893836    
   7720000   0.40039914    -7.9905242     -7.3899341      2.2182025      50218.233      36.893836      36.893836      36.893836    
   7730000   0.40072353    -7.9861794     -7.3851027      2.2489236      50218.233      36.893836      36.893836      36.893836    
   7740000   0.40024141    -7.9909106     -7.390557       2.2178175      50218.233      36.893836      36.893836      36.893836    
   7750000   0.40036077    -7.9860678     -7.3855352      2.2532326      50218.233      36.893836      36.893836      36.893836    
   7760000   0.39995978    -7.9879425     -7.3880114      2.2344679      50218.233      36.893836      36.893836      36.893836    
   7770000   0.39845268    -7.9896053     -7.3919348      2.2217669      50218.233      36.893836      36.893836      36.893836    
   7780000   0.39905892    -7.9893469     -7.390767       2.2251676      50218.233      36.893836      36.893836      36.893836    
   7790000   0.40028366    -7.9890427     -7.3886258      2.2351822      50218.233      36.893836      36.893836      36.893836    
   7800000   0.39969667    -7.9855314     -7.3859949      2.2573166      50218.233      36.893836      36.893836      36.893836    
   7810000   0.40004814    -7.9897285     -7.3896648      2.2263444      50218.233      36.893836      36.893836      36.893836    
   7820000   0.39937084    -7.9878544     -7.3888066      2.2381091      50218.233      36.893836      36.893836      36.893836    
   7830000   0.4014457     -7.9894741     -7.3873141      2.2394759      50218.233      36.893836      36.893836      36.893836    
   7840000   0.40098627    -7.9890818     -7.3876109      2.2371728      50218.233      36.893836      36.893836      36.893836    
   7850000   0.40094182    -7.9925726     -7.3911684      2.1995457      50218.233      36.893836      36.893836      36.893836    
   7860000   0.40077608    -7.9897933     -7.3886377      2.2292819      50218.233      36.893836      36.893836      36.893836    
   7870000   0.40019837    -7.9907068     -7.3904178      2.2231103      50218.233      36.893836      36.893836      36.893836    
   7880000   0.39914001    -7.9859337     -7.3872322      2.2550081      50218.233      36.893836      36.893836      36.893836    
   7890000   0.39850908    -7.9873907     -7.3896355      2.2339067      50218.233      36.893836      36.893836      36.893836    
   7900000   0.40005475    -7.992209      -7.3921354      2.2070651      50218.233      36.893836      36.893836      36.893836    
   7910000   0.40050795    -7.9919969     -7.3912435      2.2118572      50218.233      36.893836      36.893836      36.893836    
   7920000   0.39822342    -7.9876574     -7.3903308      2.2424202      50218.233      36.893836      36.893836      36.893836    
   7930000   0.39935136    -7.9877941     -7.3887756      2.239463       50218.233      36.893836      36.893836      36.893836    
   7940000   0.39902032    -7.9907913     -7.3922693      2.217729       50218.233      36.893836      36.893836      36.893836    
   7950000   0.40171593    -7.9895737     -7.3870084      2.2242111      50218.233      36.893836      36.893836      36.893836    
   7960000   0.39990165    -7.9901232     -7.3902793      2.2241146      50218.233      36.893836      36.893836      36.893836    
   7970000   0.39980649    -7.991938      -7.3922368      2.1960729      50218.233      36.893836      36.893836      36.893836    
   7980000   0.39888647    -7.9909687     -7.3926475      2.2132804      50218.233      36.893836      36.893836      36.893836    
   7990000   0.39944949    -7.9896737     -7.390508       2.2250795      50218.233      36.893836      36.893836      36.893836    
   8000000   0.40146387    -7.9869215     -7.3847343      2.2593211      50218.233      36.893836      36.893836      36.893836    
   8010000   0.40177283    -7.9862206     -7.38357        2.2528979      50218.233      36.893836      36.893836      36.893836    
   8020000   0.40043078    -7.9896005     -7.3889628      2.2377466      50218.233      36.893836      36.893836      36.893836    
   8030000   0.39745908    -7.9915812     -7.3954011      2.2047579      50218.233      36.893836      36.893836      36.893836    
   8040000   0.39936962    -7.9916901     -7.3926442      2.2006997      50218.233      36.893836      36.893836      36.893836    
   8050000   0.40010438    -7.9878145     -7.3876665      2.237115       50218.233      36.893836      36.893836      36.893836    
   8060000   0.39890474    -7.9919841     -7.3936355      2.2058058      50218.233      36.893836      36.893836      36.893836    
   8070000   0.40001169    -7.9894364     -7.3894274      2.2176548      50218.233      36.893836      36.893836      36.893836    
   8080000   0.39913678    -7.9882881     -7.3895914      2.2369318      50218.233      36.893836      36.893836      36.893836    
   8090000   0.40126471    -7.9884728     -7.3865843      2.2262791      50218.233      36.893836      36.893836      36.893836    
   8100000   0.39903666    -7.9884897     -7.3899432      2.2409174      50218.233      36.893836      36.893836      36.893836    
   8110000   0.39954979    -7.9896917     -7.3903755      2.2204068      50218.233      36.893836      36.893836      36.893836    
   8120000   0.39788159    -7.9898513     -7.3930374      2.2250673      50218.233      36.893836      36.893836      36.893836    
   8130000   0.39978417    -7.986559      -7.3868913      2.2486157      50218.233      36.893836      36.893836      36.893836    
   8140000   0.39871103    -7.9879208     -7.3898628      2.2317159      50218.233      36.893836      36.893836      36.893836    
   8150000   0.3992999     -7.9899704     -7.3910291      2.2133687      50218.233      36.893836      36.893836      36.893836    
   8160000   0.40000803    -7.9887355     -7.388732       2.2285786      50218.233      36.893836      36.893836      36.893836    
   8170000   0.40040661    -7.9899645     -7.3893632      2.2117094      50218.233      36.893836      36.893836      36.893836    
   8180000   0.40094958    -7.985494      -7.3840781      2.2551444      50218.233      36.893836      36.893836      36.893836    
   8190000   0.39990052    -7.9903194     -7.3904772      2.2124955      50218.233      36.893836      36.893836      36.893836    
   8200000   0.40016294    -7.9906321     -7.3903962      2.2303296      50218.233      36.893836      36.893836      36.893836    
   8210000   0.40138617    -7.9858068     -7.3837361      2.2614501      50218.233      36.893836      36.893836      36.893836    
   8220000   0.40034842    -7.9877113     -7.3871973      2.2299966      50218.233      36.893836      36.893836      36.893836    
   8230000   0.40087361    -7.9875245     -7.3862226      2.2362898      50218.233      36.893836      36.893836      36.893836    
   8240000   0.39973317    -7.9885961     -7.3890048      2.2189745      50218.233      36.893836      36.893836      36.893836    
   8250000   0.39932568    -7.989403      -7.390423       2.2276407      50218.233      36.893836      36.893836      36.893836    
   8260000   0.39831147    -7.9878223     -7.3903636      2.2312472      50218.233      36.893836      36.893836      36.893836    
   8270000   0.39865509    -7.9912699     -7.3932958      2.2154901      50218.233      36.893836      36.893836      36.893836    
   8280000   0.39910923    -7.9884288     -7.3897734      2.2342862      50218.233      36.893836      36.893836      36.893836    
   8290000   0.40101734    -7.9881208     -7.3866033      2.2404308      50218.233      36.893836      36.893836      36.893836    
   8300000   0.40054598    -7.987251      -7.3864406      2.2417343      50218.233      36.893836      36.893836      36.893836    
   8310000   0.39875979    -7.99107       -7.3929388      2.2166131      50218.233      36.893836      36.893836      36.893836    
   8320000   0.39921765    -7.9873672     -7.3885492      2.2331385      50218.233      36.893836      36.893836      36.893836    
   8330000   0.40158015    -7.9865201     -7.3841585      2.256819       50218.233      36.893836      36.893836      36.893836    
   8340000   0.39972679    -7.9877492     -7.3881676      2.2393783      50218.233      36.893836      36.893836      36.893836    
   8350000   0.39896712    -7.9919808     -7.3935387      2.2089834      50218.233      36.893836      36.893836      36.893836    
   8360000   0.4000638     -7.992474      -7.3923869      2.2078062      50218.233      36.893836      36.893836      36.893836    
   8370000   0.39897564    -7.9858935     -7.3874385      2.2482845      50218.233      36.893836      36.893836      36.893836    
   8380000   0.40038877    -7.9895631     -7.3889884      2.2221443      50218.233      36.893836      36.893836      36.893836    
   8390000   0.40145958    -7.9882624     -7.3860816      2.2443268      50218.233      36.893836      36.893836      36.893836    
   8400000   0.39906898    -7.9920132     -7.3934182      2.2043724      50218.233      36.893836      36.893836      36.893836    
   8410000   0.40048627    -7.989934      -7.3892132      2.2149956      50218.233      36.893836      36.893836      36.893836    
   8420000   0.39776616    -7.9913984     -7.3947577      2.1993119      50218.233      36.893836      36.893836      36.893836    
   8430000   0.40124661    -7.9927071     -7.3908457      2.194794       50218.233      36.893836      36.893836      36.893836    
   8440000   0.40047532    -7.990252      -7.3895476      2.2133518      50218.233      36.893836      36.893836      36.893836    
   8450000   0.40331118    -7.9896708     -7.3847126      2.2237885      50218.233      36.893836      36.893836      36.893836    
   8460000   0.40011296    -7.9929048     -7.3927439      2.1950705      50218.233      36.893836      36.893836      36.893836    
   8470000   0.39907063    -7.9908873     -7.3922898      2.2114063      50218.233      36.893836      36.893836      36.893836    
   8480000   0.39926306    -7.9909631     -7.3920771      2.2104913      50218.233      36.893836      36.893836      36.893836    
   8490000   0.4002239     -7.9882236     -7.3878963      2.2338209      50218.233      36.893836      36.893836      36.893836    
   8500000   0.40028403    -7.9910619     -7.3906444      2.2135686      50218.233      36.893836      36.893836      36.893836    
   8510000   0.40104171    -7.9922015     -7.3906475      2.2061567      50218.233      36.893836      36.893836      36.893836    
   8520000   0.3996287     -7.9908814     -7.3914469      2.2057426      50218.233      36.893836      36.893836      36.893836    
   8530000   0.40146798    -7.9919246     -7.3897312      2.2096947      50218.233      36.893836      36.893836      36.893836    
   8540000   0.40099085    -7.9881932     -7.3867155      2.238268       50218.233      36.893836      36.893836      36.893836    
   8550000   0.40101976    -7.9880871     -7.386566       2.2358471      50218.233      36.893836      36.893836      36.893836    
   8560000   0.40028436    -7.9906482     -7.3902302      2.2137241      50218.233      36.893836      36.893836      36.893836    
   8570000   0.39970473    -7.9882906     -7.388742       2.2300837      50218.233      36.893836      36.893836      36.893836    
   8580000   0.39920466    -7.9892175     -7.3904191      2.2258283      50218.233      36.893836      36.893836      36.893836    
   8590000   0.3984562     -7.9901699     -7.3924941      2.2160313      50218.233      36.893836      36.893836      36.893836    
   8600000   0.39951369    -7.9878836     -7.3886216      2.227282       50218.233      36.893836      36.893836      36.893836    
   8610000   0.39893843    -7.9843597     -7.3859605      2.264839       50218.233      36.893836      36.893836      36.893836    
   8620000   0.39995571    -7.9905213     -7.3905963      2.2099552      50218.233      36.893836      36.893836      36.893836    
   8630000   0.40027709    -7.9878608     -7.3874537      2.2402288      50218.233      36.893836      36.893836      36.893836    
   8640000   0.40198445    -7.9927751     -7.389807       2.2044182      50218.233      36.893836      36.893836      36.893836    
   8650000   0.40093683    -7.9891752     -7.3877785      2.2208842      50218.233      36.893836      36.893836      36.893836    
   8660000   0.39845922    -7.9866784     -7.3889981      2.2393774      50218.233      36.893836      36.893836      36.893836    
   8670000   0.40170681    -7.9899018     -7.3873501      2.2156121      50218.233      36.893836      36.893836      36.893836    
   8680000   0.39896375    -7.9868302     -7.3883931      2.2454571      50218.233      36.893836      36.893836      36.893836    
   8690000   0.3991554     -7.9865219     -7.3877973      2.2524228      50218.233      36.893836      36.893836      36.893836    
   8700000   0.40272883    -7.9911747     -7.3870901      2.220771       50218.233      36.893836      36.893836      36.893836    
   8710000   0.40220071    -7.9878822     -7.3845897      2.2367428      50218.233      36.893836      36.893836      36.893836    
   8720000   0.39958822    -7.9913709     -7.3919971      2.2078561      50218.233      36.893836      36.893836      36.893836    
   8730000   0.39911754    -7.9861625     -7.3874947      2.2467772      50218.233      36.893836      36.893836      36.893836    
   8740000   0.39964318    -7.98786       -7.3884038      2.2292123      50218.233      36.893836      36.893836      36.893836    
   8750000   0.39881657    -7.9899037     -7.3916873      2.2138632      50218.233      36.893836      36.893836      36.893836    
   8760000   0.39963379    -7.990428      -7.3909858      2.2191766      50218.233      36.893836      36.893836      36.893836    
   8770000   0.39957935    -7.9880986     -7.3887381      2.2391739      50218.233      36.893836      36.893836      36.893836    
   8780000   0.40067236    -7.9879596     -7.3869596      2.2445296      50218.233      36.893836      36.893836      36.893836    
   8790000   0.40023275    -7.9884014     -7.3880608      2.2440325      50218.233      36.893836      36.893836      36.893836    
   8800000   0.40076027    -7.9884415     -7.3873096      2.2299419      50218.233      36.893836      36.893836      36.893836    
   8810000   0.39879083    -7.9870558     -7.3888781      2.2374901      50218.233      36.893836      36.893836      36.893836    
   8820000   0.39955683    -7.9876733     -7.3883466      2.2306998      50218.233      36.893836      36.893836      36.893836    
   8830000   0.39959925    -7.988128      -7.3887376      2.2378977      50218.233      36.893836      36.893836      36.893836    
   8840000   0.40190424    -7.9893266     -7.3864788      2.2309603      50218.233      36.893836      36.893836      36.893836    
   8850000   0.3995441     -7.9863635     -7.3870559      2.2556843      50218.233      36.893836      36.893836      36.893836    
   8860000   0.40017192    -7.992796      -7.3925467      2.1966215      50218.233      36.893836      36.893836      36.893836    
   8870000   0.39989534    -7.9860819     -7.3862474      2.2489298      50218.233      36.893836      36.893836      36.893836    
   8880000   0.40083336    -7.9878482     -7.3866067      2.2377084      50218.233      36.893836      36.893836      36.893836    
   8890000   0.40174939    -7.9900166     -7.387401       2.2248876      50218.233      36.893836      36.893836      36.893836    
   8900000   0.40043353    -7.9910774     -7.3904356      2.2205188      50218.233      36.893836      36.893836      36.893836    
   8910000   0.40015926    -7.9915144     -7.391284       2.2064894      50218.233      36.893836      36.893836      36.893836    
   8920000   0.40105285    -7.987282      -7.3857112      2.2481529      50218.233      36.893836      36.893836      36.893836    
   8930000   0.39996965    -7.9902017     -7.3902558      2.2196771      50218.233      36.893836      36.893836      36.893836    
   8940000   0.40084312    -7.9941879     -7.3929317      2.198561       50218.233      36.893836      36.893836      36.893836    
   8950000   0.39940258    -7.9897754     -7.39068        2.2302615      50218.233      36.893836      36.893836      36.893836    
   8960000   0.39829898    -7.9909166     -7.3934766      2.2201855      50218.233      36.893836      36.893836      36.893836    
   8970000   0.39951733    -7.9873896     -7.3881221      2.2387737      50218.233      36.893836      36.893836      36.893836    
   8980000   0.40141104    -7.9872706     -7.3851626      2.2478048      50218.233      36.893836      36.893836      36.893836    
   8990000   0.39715166    -7.9901533     -7.3944343      2.2104173      50218.233      36.893836      36.893836      36.893836    
   9000000   0.40139251    -7.9907074     -7.3886272      2.212248       50218.233      36.893836      36.893836      36.893836    
   9010000   0.39908146    -7.9899909     -7.3913773      2.2267798      50218.233      36.893836      36.893836      36.893836    
   9020000   0.40042049    -7.9883746     -7.3877524      2.2285023      50218.233      36.893836      36.893836      36.893836    
   9030000   0.39881923    -7.9885392     -7.3903188      2.2323989      50218.233      36.893836      36.893836      36.893836    
   9040000   0.39901694    -7.9897302     -7.3912133      2.2406165      50218.233      36.893836      36.893836      36.893836    
   9050000   0.39957486    -7.9913052     -7.3919514      2.2040842      50218.233      36.893836      36.893836      36.893836    
   9060000   0.39729011    -7.9876571     -7.3917304      2.2380296      50218.233      36.893836      36.893836      36.893836    
   9070000   0.39970464    -7.9898382     -7.3902898      2.2163875      50218.233      36.893836      36.893836      36.893836    
   9080000   0.40249601    -7.9906962     -7.3869607      2.2190291      50218.233      36.893836      36.893836      36.893836    
   9090000   0.40023566    -7.9907753     -7.3904304      2.2219533      50218.233      36.893836      36.893836      36.893836    
   9100000   0.39829544    -7.9905015     -7.3930668      2.2097874      50218.233      36.893836      36.893836      36.893836    
   9110000   0.40228242    -7.9884801     -7.3850651      2.2391383      50218.233      36.893836      36.893836      36.893836    
   9120000   0.40147987    -7.9893291     -7.3871179      2.2243567      50218.233      36.893836      36.893836      36.893836    
   9130000   0.4003513     -7.9895693     -7.3890509      2.2226015      50218.233      36.893836      36.893836      36.893836    
   9140000   0.39928088    -7.9945878     -7.395675       2.1913198      50218.233      36.893836      36.893836      36.893836    
   9150000   0.40101978    -7.9907707     -7.3892496      2.2206049      50218.233      36.893836      36.893836      36.893836    
   9160000   0.40038827    -7.9935816     -7.3930077      2.1861837      50218.233      36.893836      36.893836      36.893836    
   9170000   0.40118062    -7.9872184     -7.385456       2.2488014      50218.233      36.893836      36.893836      36.893836    
   9180000   0.40200683    -7.9892116     -7.38621        2.2471899      50218.233      36.893836      36.893836      36.893836    
   9190000   0.40068111    -7.9888885     -7.3878754      2.2285965      50218.233      36.893836      36.893836      36.893836    
   9200000   0.39701325    -7.9896711     -7.3941597      2.2226417      50218.233      36.893836      36.893836      36.893836    
   9210000   0.3989002     -7.9886632     -7.3903214      2.232912       50218.233      36.893836      36.893836      36.893836    
   9220000   0.39959154    -7.9911097     -7.3917309      2.2136779      50218.233      36.893836      36.893836      36.893836    
   9230000   0.40149165    -7.9910396     -7.3888107      2.2218564      50218.233      36.893836      36.893836      36.893836    
   9240000   0.39946509    -7.9893686     -7.3901795      2.2286353      50218.233      36.893836      36.893836      36.893836    
   9250000   0.40090121    -7.9893911     -7.3880478      2.2284169      50218.233      36.893836      36.893836      36.893836    
   9260000   0.39879931    -7.9886711     -7.3904807      2.2291779      50218.233      36.893836      36.893836      36.893836    
   9270000   0.39893881    -7.9898175     -7.3914178      2.2261536      50218.233      36.893836      36.893836      36.893836    
   9280000   0.40201222    -7.9922428     -7.389233       2.2064402      50218.233      36.893836      36.893836      36.893836    
   9290000   0.40120523    -7.9878298     -7.3860305      2.235375       50218.233      36.893836      36.893836      36.893836    
   9300000   0.40091612    -7.9903527     -7.388987       2.225356       50218.233      36.893836      36.893836      36.893836    
   9310000   0.40078524    -7.9866896     -7.3855203      2.2415901      50218.233      36.893836      36.893836      36.893836    
   9320000   0.40120154    -7.9891311     -7.3873374      2.229541       50218.233      36.893836      36.893836      36.893836    
   9330000   0.40343801    -7.988479      -7.3833306      2.2428605      50218.233      36.893836      36.893836      36.893836    
   9340000   0.39962866    -7.9894056     -7.3899712      2.2218095      50218.233      36.893836      36.893836      36.893836    
   9350000   0.39978547    -7.9893735     -7.3897038      2.2313785      50218.233      36.893836      36.893836      36.893836    
   9360000   0.40032627    -7.9899339     -7.389453       2.2280078      50218.233      36.893836      36.893836      36.893836    
   9370000   0.40214875    -7.9897648     -7.3865502      2.238448       50218.233      36.893836      36.893836      36.893836    
   9380000   0.39991111    -7.9919657     -7.3921075      2.2111726      50218.233      36.893836      36.893836      36.893836    
   9390000   0.39985178    -7.9901879     -7.3904188      2.2262668      50218.233      36.893836      36.893836      36.893836    
   9400000   0.40044418    -7.9889309     -7.3882732      2.2317155      50218.233      36.893836      36.893836      36.893836    
   9410000   0.40218575    -7.9901382     -7.3868682      2.22345        50218.233      36.893836      36.893836      36.893836    
   9420000   0.39998489    -7.9941317     -7.3941629      2.1892161      50218.233      36.893836      36.893836      36.893836    
   9430000   0.400865      -7.9898312     -7.3885422      2.22985        50218.233      36.893836      36.893836      36.893836    
   9440000   0.3995591     -7.9885963     -7.3892662      2.2272928      50218.233      36.893836      36.893836      36.893836    
   9450000   0.39828215    -7.9912245     -7.3938098      2.2170831      50218.233      36.893836      36.893836      36.893836    
   9460000   0.39888218    -7.990606      -7.3922912      2.2187534      50218.233      36.893836      36.893836      36.893836    
   9470000   0.39912066    -7.9943439     -7.3956714      2.1862064      50218.233      36.893836      36.893836      36.893836    
   9480000   0.39931989    -7.9928496     -7.3938782      2.1969567      50218.233      36.893836      36.893836      36.893836    
   9490000   0.40110353    -7.9935263     -7.3918796      2.1964379      50218.233      36.893836      36.893836      36.893836    
   9500000   0.40101056    -7.9896973     -7.3881901      2.2217393      50218.233      36.893836      36.893836      36.893836    
   9510000   0.3997692     -7.9899782     -7.390333       2.2248061      50218.233      36.893836      36.893836      36.893836    
   9520000   0.39872095    -7.9912473     -7.3931744      2.2052012      50218.233      36.893836      36.893836      36.893836    
   9530000   0.40068723    -7.9905094     -7.3894871      2.2186437      50218.233      36.893836      36.893836      36.893836    
   9540000   0.40112175    -7.9903666     -7.3886925      2.2231628      50218.233      36.893836      36.893836      36.893836    
   9550000   0.39942296    -7.9863657     -7.3872398      2.2424346      50218.233      36.893836      36.893836      36.893836    
   9560000   0.39952009    -7.9922555     -7.3929839      2.1949181      50218.233      36.893836      36.893836      36.893836    
   9570000   0.39865262    -7.992164      -7.3941936      2.2165467      50218.233      36.893836      36.893836      36.893836    
   9580000   0.39942774    -7.9909843     -7.3918512      2.2177135      50218.233      36.893836      36.893836      36.893836    
   9590000   0.39915644    -7.988673      -7.3899468      2.2314167      50218.233      36.893836      36.893836      36.893836    
   9600000   0.39924978    -7.990579      -7.3917128      2.2115589      50218.233      36.893836      36.893836      36.893836    
   9610000   0.4002473     -7.9904439     -7.3900815      2.2151487      50218.233      36.893836      36.893836      36.893836    
   9620000   0.39900574    -7.9893728     -7.3908727      2.2271764      50218.233      36.893836      36.893836      36.893836    
   9630000   0.40061128    -7.9878909     -7.3869826      2.2357147      50218.233      36.893836      36.893836      36.893836    
   9640000   0.40189578    -7.9949817     -7.3921466      2.1889357      50218.233      36.893836      36.893836      36.893836    
   9650000   0.40100347    -7.9867873     -7.3852907      2.2540946      50218.233      36.893836      36.893836      36.893836    
   9660000   0.4006419     -7.9893253     -7.388371       2.2319444      50218.233      36.893836      36.893836      36.893836    
   9670000   0.40038447    -7.9916074     -7.3910392      2.2146498      50218.233      36.893836      36.893836      36.893836    
   9680000   0.3998888     -7.9903895     -7.3905649      2.2210441      50218.233      36.893836      36.893836      36.893836    
   9690000   0.39881472    -7.9936349     -7.3954213      2.1882103      50218.233      36.893836      36.893836      36.893836    
   9700000   0.39863845    -7.9914039     -7.3934547      2.2174686      50218.233      36.893836      36.893836      36.893836    
   9710000   0.39893943    -7.9899571     -7.3915565      2.2234373      50218.233      36.893836      36.893836      36.893836    
   9720000   0.40089918    -7.98587       -7.3845298      2.251878       50218.233      36.893836      36.893836      36.893836    
   9730000   0.40005312    -7.9887148     -7.3886437      2.2376706      50218.233      36.893836      36.893836      36.893836    
   9740000   0.40141491    -7.9913748     -7.389261       2.2244714      50218.233      36.893836      36.893836      36.893836    
   9750000   0.40027       -7.9875606     -7.3871641      2.2404522      50218.233      36.893836      36.893836      36.893836    
   9760000   0.40099684    -7.9872955     -7.3858088      2.2459604      50218.233      36.893836      36.893836      36.893836    
   9770000   0.39970709    -7.9879519     -7.3883998      2.2358722      50218.233      36.893836      36.893836      36.893836    
   9780000   0.39922547    -7.9906472     -7.3918175      2.2057351      50218.233      36.893836      36.893836      36.893836    
   9790000   0.40032326    -7.991335      -7.3908587      2.2145224      50218.233      36.893836      36.893836      36.893836    
   9800000   0.39822306    -7.9875044     -7.3901783      2.2422607      50218.233      36.893836      36.893836      36.893836    
   9810000   0.39880411    -7.9917403     -7.3935426      2.2060855      50218.233      36.893836      36.893836      36.893836    
   9820000   0.40142991    -7.9870979     -7.3849616      2.2451637      50218.233      36.893836      36.893836      36.893836    
   9830000   0.40052667    -7.9916695     -7.390888       2.2051999      50218.233      36.893836      36.893836      36.893836    
   9840000   0.40077927    -7.9875453     -7.386385       2.2383039      50218.233      36.893836      36.893836      36.893836    
   9850000   0.40163815    -7.9873163     -7.3848677      2.2403276      50218.233      36.893836      36.893836      36.893836    
   9860000   0.40035089    -7.989858      -7.3893402      2.2222901      50218.233      36.893836      36.893836      36.893836    
   9870000   0.39896506    -7.9888565     -7.3904174      2.2441044      50218.233      36.893836      36.893836      36.893836    
   9880000   0.40088399    -7.987932      -7.3866146      2.2399634      50218.233      36.893836      36.893836      36.893836    
   9890000   0.40126815    -7.9892968     -7.3874031      2.2350732      50218.233      36.893836      36.893836      36.893836    
   9900000   0.39994332    -7.9902964     -7.3903899      2.2194228      50218.233      36.893836      36.893836      36.893836    
   9910000   0.40028801    -7.9911675     -7.390744       2.2116063      50218.233      36.893836      36.893836      36.893836    
   9920000   0.40007234    -7.9927534     -7.3926534      2.2066202      50218.233      36.893836      36.893836      36.893836    
   9930000   0.39853082    -7.991423      -7.3936352      2.1980273      50218.233      36.893836      36.893836      36.893836    
   9940000   0.39784379    -7.989125      -7.3923678      2.2254659      50218.233      36.893836      36.893836      36.893836    
   9950000   0.39928013    -7.9892435     -7.3903318      2.2196843      50218.233      36.893836      36.893836      36.893836    
   9960000   0.40016265    -7.9914382     -7.3912028      2.2099493      50218.233      36.893836      36.893836      36.893836    
   9970000   0.39794732    -7.9943618     -7.3974493      2.184474       50218.233      36.893836      36.893836      36.893836    
   9980000   0.4002032     -7.991575      -7.3912787      2.2102935      50218.233      36.893836      36.893836      36.893836    
   9990000   0.40134308    -7.9895397     -7.3875336      2.2299008      50218.233      36.893836      36.893836      36.893836    
  10000000   0.40149556    -7.9918019     -7.3895671      2.2163387      50218.233      36.893836      36.893836      36.893836    
Loop time of 15526.5 on 5 procs for 10000000 steps with 70304 atoms

Performance: 556466.979 tau/day, 644.059 timesteps/s, 45.280 Matom-step/s
94.8% CPU use with 5 MPI tasks x 1 OpenMP threads

MPI task timing breakdown:
Section |  min time  |  avg time  |  max time  |%varavg| %total
---------------------------------------------------------------
Pair    | 5766.1     | 6226.2     | 6801.9     | 550.8 | 40.10
Neigh   | 42.694     | 45.448     | 47.667     |  28.5 |  0.29
Comm    | 2278.9     | 2293.4     | 2312.3     |  26.4 | 14.77
Output  | 0.17911    | 0.18466    | 0.19498    |   1.3 |  0.00
Modify  | 5620.5     | 6207.2     | 6641.2     | 554.1 | 39.98
Other   |            | 754.2      |            |       |  4.86

Nlocal:        14060.8 ave       14125 max       14012 min
Histogram: 2 0 0 0 0 2 0 0 0 1
Nghost:        18748.2 ave       18847 max       18673 min
Histogram: 1 1 0 1 0 0 1 0 0 1
Neighs:              0 ave           0 max           0 min
Histogram: 5 0 0 0 0 0 0 0 0 0

Total # of neighbors = 0
Ave neighs/atom = 0
Neighbor list builds = 1908939
Dangerous builds = 0
clear
OMP_NUM_THREADS environment is not set. Defaulting to 1 thread. (src/comm.cpp:98)
  using 1 OpenMP thread(s) per MPI task
package gpu 0
jump dms380.lmp

variable T equal 380
# T = 1000* (temp in LJ unit)
variable f equal 10000
log log.${T}
log log.380
