variable TLJ equal (${T}/1000)
variable TLJ equal (505/1000)
variable NCyle equal 8
variable iStep equal (${f})
variable iStep equal (10000)
variable dumpStep equal (${f}*100)
variable dumpStep equal (10000*100)
variable runStep equal (${f}*100*${NCyle})
variable runStep equal (10000*100*${NCyle})
variable runStep equal (10000*100*8)

units       lj
atom_style  atomic
dimension 3
boundary     p p p
pair_style  lj/cut 2.5
read_data  ../data/T${T}.dat
read_data  ../data/T505.dat
Reading data file ...
  orthogonal box = (0.97250269 0.97250269 0.97250269) to (37.866338 37.866338 37.866338)
  1 by 1 by 5 MPI processor grid
  reading atoms ...
  70304 atoms
  reading velocities ...
  70304 velocities
  read_data CPU = 0.209 seconds
change_box all triclinic
Changing box ...
  triclinic box = (0.97250269 0.97250269 0.97250269) to (37.866338 37.866338 37.866338) with tilt (0 0 0)
mass 1 1
mass 2 1
pair_modify shift yes
pair_coeff  1 1 1 1
pair_coeff  1 2 1.5 0.8
pair_coeff  2 2 0.5 0.88


timestep 0.01
thermo ${iStep}
thermo 10000
reset_timestep 0
thermo_style custom step temp pe etotal press vol lx ly lz
fix             1 all nvt temp ${TLJ}  ${TLJ}  0.1
fix             1 all nvt temp 0.505  ${TLJ}  0.1
fix             1 all nvt temp 0.505  0.505  0.1
thermo_modify flush yes

fix dsf all deform 1 xy  wiggle 0.5  ${f}   units box
fix dsf all deform 1 xy  wiggle 0.5  10000   units box
fix ps1 all ave/time 1 1 ${iStep} c_thermo_press[1] c_thermo_press[2]  c_thermo_press[3] c_thermo_press[4]  c_thermo_press[5] c_thermo_press[6]  file  stress.${T}
fix ps1 all ave/time 1 1 10000 c_thermo_press[1] c_thermo_press[2]  c_thermo_press[3] c_thermo_press[4]  c_thermo_press[5] c_thermo_press[6]  file  stress.${T}
fix ps1 all ave/time 1 1 10000 c_thermo_press[1] c_thermo_press[2]  c_thermo_press[3] c_thermo_press[4]  c_thermo_press[5] c_thermo_press[6]  file  stress.505
dump            1 all custom ${dumpStep} dump.${T} id type x y z
dump            1 all custom 1000000 dump.${T} id type x y z
dump            1 all custom 1000000 dump.505 id type x y z
dump_modify 1 sort id
fix nodrift all momentum 1  linear 1 1 1
fix com_seed all recenter INIT INIT INIT shift all
run ${runStep}
run 8000000
Generated 0 of 1 mixed pair_coeff terms from geometric mixing rule
Per MPI rank memory allocation (min/avg/max) = 6.668 | 8.469 | 8.923 Mbytes
   Step          Temp          PotEng         TotEng         Press          Volume           Lx             Ly             Lz      
         0   0.50504113    -7.8194685     -7.0619175      3.6333487      50218.233      36.893836      36.893836      36.893836    
     10000   0.50585386    -7.8076751     -7.0489051      3.7017955      50218.233      36.893836      36.893836      36.893836    
     20000   0.50453871    -7.8033494     -7.0465521      3.7497691      50218.233      36.893836      36.893836      36.893836    
     30000   0.50408008    -7.8036856     -7.0475762      3.760521       50218.233      36.893836      36.893836      36.893836    
     40000   0.50500773    -7.804834      -7.0473332      3.7411344      50218.233      36.893836      36.893836      36.893836    
     50000   0.50462573    -7.8037145     -7.0467867      3.7535649      50218.233      36.893836      36.893836      36.893836    
     60000   0.50400973    -7.8078387     -7.0518348      3.7155786      50218.233      36.893836      36.893836      36.893836    
     70000   0.50260534    -7.805005      -7.0511077      3.7362776      50218.233      36.893836      36.893836      36.893836    
     80000   0.50406723    -7.8021758     -7.0460857      3.756054       50218.233      36.893836      36.893836      36.893836    
     90000   0.50552792    -7.8048134     -7.0465323      3.724738       50218.233      36.893836      36.893836      36.893836    
    100000   0.50672685    -7.8016336     -7.0415541      3.7735613      50218.233      36.893836      36.893836      36.893836    
    110000   0.50547834    -7.8030229     -7.0448161      3.763685       50218.233      36.893836      36.893836      36.893836    
    120000   0.50542762    -7.806793      -7.0486624      3.7151656      50218.233      36.893836      36.893836      36.893836    
    130000   0.5035675     -7.8024742     -7.0471337      3.7558328      50218.233      36.893836      36.893836      36.893836    
    140000   0.50439588    -7.8098078     -7.0532247      3.696942       50218.233      36.893836      36.893836      36.893836    
    150000   0.50621351    -7.803389      -7.0440795      3.7572345      50218.233      36.893836      36.893836      36.893836    
    160000   0.50196944    -7.8025914     -7.0496479      3.7564255      50218.233      36.893836      36.893836      36.893836    
    170000   0.50458286    -7.8004507     -7.0435872      3.7747238      50218.233      36.893836      36.893836      36.893836    
    180000   0.50484171    -7.8040342     -7.0467824      3.7503337      50218.233      36.893836      36.893836      36.893836    
    190000   0.5071374     -7.8035549     -7.0428596      3.7624793      50218.233      36.893836      36.893836      36.893836    
    200000   0.50678391    -7.7997042     -7.0395392      3.774037       50218.233      36.893836      36.893836      36.893836    
    210000   0.50572405    -7.8001795     -7.0416042      3.7750296      50218.233      36.893836      36.893836      36.893836    
    220000   0.5016806     -7.8050525     -7.0525423      3.7421834      50218.233      36.893836      36.893836      36.893836    
    230000   0.50487356    -7.8021657     -7.0448661      3.7559814      50218.233      36.893836      36.893836      36.893836    
    240000   0.50398543    -7.7976275     -7.0416601      3.7842028      50218.233      36.893836      36.893836      36.893836    
    250000   0.50795128    -7.8032341     -7.041318       3.7497169      50218.233      36.893836      36.893836      36.893836    
    260000   0.50507676    -7.8013179     -7.0437136      3.7696988      50218.233      36.893836      36.893836      36.893836    
    270000   0.50570077    -7.8012065     -7.0426661      3.7651753      50218.233      36.893836      36.893836      36.893836    
    280000   0.50645101    -7.8033904     -7.0437247      3.7588326      50218.233      36.893836      36.893836      36.893836    
    290000   0.50206006    -7.8017961     -7.0487168      3.7637451      50218.233      36.893836      36.893836      36.893836    
    300000   0.50570844    -7.8029075     -7.0443556      3.7506494      50218.233      36.893836      36.893836      36.893836    
    310000   0.50566122    -7.8027485     -7.0442675      3.7619663      50218.233      36.893836      36.893836      36.893836    
    320000   0.50488714    -7.8021855     -7.0448656      3.7645106      50218.233      36.893836      36.893836      36.893836    
    330000   0.50614133    -7.8054505     -7.0462493      3.7361149      50218.233      36.893836      36.893836      36.893836    
    340000   0.50627935    -7.805295      -7.0458868      3.7289141      50218.233      36.893836      36.893836      36.893836    
    350000   0.50221386    -7.8051805     -7.0518704      3.7317499      50218.233      36.893836      36.893836      36.893836    
    360000   0.50418787    -7.8062729     -7.0500018      3.726253       50218.233      36.893836      36.893836      36.893836    
    370000   0.50516202    -7.8037334     -7.0460011      3.7508678      50218.233      36.893836      36.893836      36.893836    
    380000   0.50593387    -7.8054467     -7.0465567      3.7385829      50218.233      36.893836      36.893836      36.893836    
    390000   0.5055886     -7.8060588     -7.0476867      3.7150707      50218.233      36.893836      36.893836      36.893836    
    400000   0.50780164    -7.8024737     -7.0407821      3.7623666      50218.233      36.893836      36.893836      36.893836    
    410000   0.50439808    -7.7999517     -7.0433654      3.7721838      50218.233      36.893836      36.893836      36.893836    
    420000   0.50332523    -7.8093372     -7.0543601      3.7132947      50218.233      36.893836      36.893836      36.893836    
    430000   0.50162197    -7.8059663     -7.053544       3.733968       50218.233      36.893836      36.893836      36.893836    
    440000   0.50477961    -7.8046026     -7.047444       3.7459763      50218.233      36.893836      36.893836      36.893836    
    450000   0.50621779    -7.8042916     -7.0449757      3.7497703      50218.233      36.893836      36.893836      36.893836    
    460000   0.50867119    -7.8046305     -7.0416346      3.7426943      50218.233      36.893836      36.893836      36.893836    
    470000   0.50340062    -7.8061819     -7.0510917      3.7296697      50218.233      36.893836      36.893836      36.893836    
    480000   0.50533883    -7.8043405     -7.046343       3.7486021      50218.233      36.893836      36.893836      36.893836    
    490000   0.50514078    -7.7997968     -7.0420964      3.764646       50218.233      36.893836      36.893836      36.893836    
    500000   0.50480171    -7.8042571     -7.0470654      3.7401025      50218.233      36.893836      36.893836      36.893836    
    510000   0.50514932    -7.8031832     -7.04547        3.7543099      50218.233      36.893836      36.893836      36.893836    
    520000   0.50615083    -7.8037691     -7.0445537      3.7404321      50218.233      36.893836      36.893836      36.893836    
    530000   0.5062264     -7.8060265     -7.0466977      3.7314307      50218.233      36.893836      36.893836      36.893836    
    540000   0.50414965    -7.8017297     -7.045516       3.7574311      50218.233      36.893836      36.893836      36.893836    
    550000   0.5047755     -7.8021481     -7.0449956      3.7625167      50218.233      36.893836      36.893836      36.893836    
    560000   0.50606166    -7.8042953     -7.0452136      3.7478764      50218.233      36.893836      36.893836      36.893836    
    570000   0.50268524    -7.8005112     -7.046494       3.7789262      50218.233      36.893836      36.893836      36.893836    
    580000   0.50338494    -7.8062886     -7.0512219      3.7244829      50218.233      36.893836      36.893836      36.893836    
    590000   0.50733957    -7.8038458     -7.0428473      3.7554925      50218.233      36.893836      36.893836      36.893836    
    600000   0.50453416    -7.801461      -7.0446705      3.7648597      50218.233      36.893836      36.893836      36.893836    
    610000   0.50667224    -7.8011134     -7.0411159      3.7711109      50218.233      36.893836      36.893836      36.893836    
    620000   0.50287825    -7.7989586     -7.044652       3.7809532      50218.233      36.893836      36.893836      36.893836    
    630000   0.50598846    -7.8027212     -7.0437493      3.7568834      50218.233      36.893836      36.893836      36.893836    
    640000   0.50398274    -7.8036831     -7.0477198      3.7459734      50218.233      36.893836      36.893836      36.893836    
    650000   0.50486002    -7.8059642     -7.048685       3.7261162      50218.233      36.893836      36.893836      36.893836    
    660000   0.5018295     -7.7975748     -7.0448413      3.7967841      50218.233      36.893836      36.893836      36.893836    
    670000   0.50707837    -7.7990989     -7.0384921      3.781359       50218.233      36.893836      36.893836      36.893836    
    680000   0.50654821    -7.8029784     -7.0431669      3.7638789      50218.233      36.893836      36.893836      36.893836    
    690000   0.50328294    -7.8042187     -7.049305       3.7355665      50218.233      36.893836      36.893836      36.893836    
    700000   0.50479422    -7.8063724     -7.0491918      3.7339445      50218.233      36.893836      36.893836      36.893836    
    710000   0.50741171    -7.8020644     -7.0409577      3.7592449      50218.233      36.893836      36.893836      36.893836    
    720000   0.50476901    -7.8017034     -7.0445606      3.7688826      50218.233      36.893836      36.893836      36.893836    
    730000   0.50479786    -7.8016867     -7.0445007      3.7742231      50218.233      36.893836      36.893836      36.893836    
    740000   0.50582839    -7.8036555     -7.0449237      3.7546674      50218.233      36.893836      36.893836      36.893836    
    750000   0.50162672    -7.8062217     -7.0537923      3.7251049      50218.233      36.893836      36.893836      36.893836    
    760000   0.50896818    -7.7991871     -7.0357456      3.7820317      50218.233      36.893836      36.893836      36.893836    
    770000   0.50520792    -7.8047458     -7.0469447      3.7536356      50218.233      36.893836      36.893836      36.893836    
    780000   0.50551188    -7.8052683     -7.0470113      3.7396846      50218.233      36.893836      36.893836      36.893836    
    790000   0.50572987    -7.8043254     -7.0457414      3.7473168      50218.233      36.893836      36.893836      36.893836    
    800000   0.50469968    -7.806174      -7.0491353      3.7357571      50218.233      36.893836      36.893836      36.893836    
    810000   0.50166858    -7.8064999     -7.0540078      3.7254441      50218.233      36.893836      36.893836      36.893836    
    820000   0.50546336    -7.8056555     -7.0474713      3.7443689      50218.233      36.893836      36.893836      36.893836    
    830000   0.50435505    -7.8011576     -7.0446358      3.7798452      50218.233      36.893836      36.893836      36.893836    
    840000   0.50323355    -7.8084291     -7.0535895      3.7020979      50218.233      36.893836      36.893836      36.893836    
    850000   0.50504355    -7.8009044     -7.0433498      3.770113       50218.233      36.893836      36.893836      36.893836    
    860000   0.50638063    -7.8046946     -7.0451345      3.7423927      50218.233      36.893836      36.893836      36.893836    
    870000   0.50649636    -7.7991525     -7.0394188      3.7816521      50218.233      36.893836      36.893836      36.893836    
    880000   0.50494087    -7.799599      -7.0421985      3.7711155      50218.233      36.893836      36.893836      36.893836    
    890000   0.50434612    -7.8020235     -7.045515       3.7564388      50218.233      36.893836      36.893836      36.893836    
    900000   0.50757315    -7.805574      -7.0442251      3.7344108      50218.233      36.893836      36.893836      36.893836    
    910000   0.50416883    -7.8022211     -7.0459786      3.7564287      50218.233      36.893836      36.893836      36.893836    
    920000   0.50519105    -7.8023032     -7.0445274      3.7545287      50218.233      36.893836      36.893836      36.893836    
    930000   0.50492882    -7.805151      -7.0477685      3.7303378      50218.233      36.893836      36.893836      36.893836    
    940000   0.50363791    -7.804358      -7.0489119      3.7489374      50218.233      36.893836      36.893836      36.893836    
    950000   0.50588367    -7.8051804     -7.0463657      3.7450354      50218.233      36.893836      36.893836      36.893836    
    960000   0.50631881    -7.7992295     -7.0397621      3.7821748      50218.233      36.893836      36.893836      36.893836    
    970000   0.50526322    -7.802695      -7.044811       3.7550286      50218.233      36.893836      36.893836      36.893836    
    980000   0.50529584    -7.8065531     -7.0486201      3.7242346      50218.233      36.893836      36.893836      36.893836    
    990000   0.50507392    -7.8029497     -7.0453496      3.7589919      50218.233      36.893836      36.893836      36.893836    
   1000000   0.50395307    -7.79788       -7.0419611      3.7915851      50218.233      36.893836      36.893836      36.893836    
   1010000   0.50365369    -7.8044055     -7.0489357      3.7385848      50218.233      36.893836      36.893836      36.893836    
   1020000   0.50610573    -7.8045299     -7.0453821      3.7509175      50218.233      36.893836      36.893836      36.893836    
   1030000   0.50754883    -7.8037658     -7.0424534      3.7452783      50218.233      36.893836      36.893836      36.893836    
   1040000   0.50399637    -7.8073666     -7.0513828      3.7125129      50218.233      36.893836      36.893836      36.893836    
   1050000   0.50364502    -7.8063766     -7.0509198      3.7345152      50218.233      36.893836      36.893836      36.893836    
   1060000   0.50377191    -7.8062303     -7.0505832      3.7250141      50218.233      36.893836      36.893836      36.893836    
   1070000   0.50370337    -7.8013636     -7.0458193      3.7570072      50218.233      36.893836      36.893836      36.893836    
   1080000   0.50439021    -7.8074776     -7.0509031      3.7249223      50218.233      36.893836      36.893836      36.893836    
   1090000   0.50417199    -7.7991501     -7.0429029      3.7768335      50218.233      36.893836      36.893836      36.893836    
   1100000   0.50520897    -7.8039823     -7.0461796      3.7442464      50218.233      36.893836      36.893836      36.893836    
   1110000   0.5061417     -7.8023601     -7.0431583      3.7675872      50218.233      36.893836      36.893836      36.893836    
   1120000   0.50597762    -7.8062565     -7.0473008      3.7317244      50218.233      36.893836      36.893836      36.893836    
   1130000   0.50634912    -7.8036932     -7.0441803      3.755263       50218.233      36.893836      36.893836      36.893836    
   1140000   0.50544699    -7.801294      -7.0431343      3.7651516      50218.233      36.893836      36.893836      36.893836    
   1150000   0.50527103    -7.8027394     -7.0448437      3.7602381      50218.233      36.893836      36.893836      36.893836    
   1160000   0.50569306    -7.8008458     -7.042317       3.7715003      50218.233      36.893836      36.893836      36.893836    
   1170000   0.50688782    -7.8074122     -7.0470913      3.7295375      50218.233      36.893836      36.893836      36.893836    
   1180000   0.50283906    -7.8070392     -7.0527913      3.7154988      50218.233      36.893836      36.893836      36.893836    
   1190000   0.50709802    -7.8013474     -7.0407112      3.7747866      50218.233      36.893836      36.893836      36.893836    
   1200000   0.50516957    -7.8006422     -7.0428986      3.7777104      50218.233      36.893836      36.893836      36.893836    
   1210000   0.50512859    -7.8032068     -7.0455247      3.7598148      50218.233      36.893836      36.893836      36.893836    
   1220000   0.5042564     -7.8081264     -7.0517525      3.7165808      50218.233      36.893836      36.893836      36.893836    
   1230000   0.50511178    -7.8037509     -7.046094       3.755971       50218.233      36.893836      36.893836      36.893836    
   1240000   0.50311615    -7.8004863     -7.0458228      3.7702114      50218.233      36.893836      36.893836      36.893836    
   1250000   0.503687      -7.8013575     -7.0458378      3.771948       50218.233      36.893836      36.893836      36.893836    
   1260000   0.5049112     -7.7996697     -7.0423137      3.7846611      50218.233      36.893836      36.893836      36.893836    
   1270000   0.50483974    -7.7993022     -7.0420534      3.779933       50218.233      36.893836      36.893836      36.893836    
   1280000   0.50538915    -7.8016463     -7.0435733      3.7690965      50218.233      36.893836      36.893836      36.893836    
   1290000   0.50527119    -7.8013318     -7.0434358      3.7745578      50218.233      36.893836      36.893836      36.893836    
   1300000   0.50275644    -7.7974833     -7.0433594      3.7941875      50218.233      36.893836      36.893836      36.893836    
   1310000   0.50458205    -7.8043306     -7.0474683      3.7365651      50218.233      36.893836      36.893836      36.893836    
   1320000   0.50478478    -7.8030667     -7.0459003      3.7572112      50218.233      36.893836      36.893836      36.893836    
   1330000   0.50395283    -7.8062542     -7.0503357      3.7299427      50218.233      36.893836      36.893836      36.893836    
   1340000   0.50240934    -7.8028069     -7.0492036      3.7534347      50218.233      36.893836      36.893836      36.893836    
   1350000   0.50629351    -7.8033931     -7.0439637      3.7516625      50218.233      36.893836      36.893836      36.893836    
   1360000   0.5037918     -7.7998902     -7.0442132      3.7829739      50218.233      36.893836      36.893836      36.893836    
   1370000   0.50388465    -7.8053112     -7.049495       3.7302745      50218.233      36.893836      36.893836      36.893836    
   1380000   0.50564657    -7.8054393     -7.0469802      3.7334835      50218.233      36.893836      36.893836      36.893836    
   1390000   0.50595393    -7.7988511     -7.039931       3.7914743      50218.233      36.893836      36.893836      36.893836    
   1400000   0.50295971    -7.8035669     -7.0491381      3.7468766      50218.233      36.893836      36.893836      36.893836    
   1410000   0.50342165    -7.8039069     -7.0487851      3.7441863      50218.233      36.893836      36.893836      36.893836    
   1420000   0.50462741    -7.7985464     -7.041616       3.7917725      50218.233      36.893836      36.893836      36.893836    
   1430000   0.5043718     -7.8067889     -7.0502419      3.729961       50218.233      36.893836      36.893836      36.893836    
   1440000   0.50206345    -7.8004722     -7.0473877      3.7561362      50218.233      36.893836      36.893836      36.893836    
   1450000   0.50404193    -7.8044873     -7.0484352      3.7301559      50218.233      36.893836      36.893836      36.893836    
   1460000   0.50541381    -7.8022337     -7.0441238      3.7603399      50218.233      36.893836      36.893836      36.893836    
   1470000   0.50790521    -7.80457       -7.042723       3.7476786      50218.233      36.893836      36.893836      36.893836    
   1480000   0.5031501     -7.8007586     -7.0460441      3.7664626      50218.233      36.893836      36.893836      36.893836    
   1490000   0.50408777    -7.8041422     -7.0480213      3.7439061      50218.233      36.893836      36.893836      36.893836    
   1500000   0.50615366    -7.8033582     -7.0441385      3.7567084      50218.233      36.893836      36.893836      36.893836    
   1510000   0.50577818    -7.8040594     -7.045403       3.7494483      50218.233      36.893836      36.893836      36.893836    
   1520000   0.50621146    -7.8061801     -7.0468737      3.727293       50218.233      36.893836      36.893836      36.893836    
   1530000   0.50684876    -7.8076876     -7.0474253      3.7343222      50218.233      36.893836      36.893836      36.893836    
   1540000   0.50633408    -7.8041331     -7.0446428      3.7511388      50218.233      36.893836      36.893836      36.893836    
   1550000   0.5033562     -7.803246      -7.0482225      3.762206       50218.233      36.893836      36.893836      36.893836    
   1560000   0.50427424    -7.8049022     -7.0485016      3.7322604      50218.233      36.893836      36.893836      36.893836    
   1570000   0.50060793    -7.8053781     -7.0544769      3.736622       50218.233      36.893836      36.893836      36.893836    
   1580000   0.50461169    -7.8061418     -7.049235       3.7302613      50218.233      36.893836      36.893836      36.893836    
   1590000   0.50401125    -7.8012707     -7.0452646      3.7684583      50218.233      36.893836      36.893836      36.893836    
   1600000   0.50740277    -7.8002446     -7.0391513      3.7901367      50218.233      36.893836      36.893836      36.893836    
   1610000   0.50614173    -7.8050113     -7.0458095      3.7339685      50218.233      36.893836      36.893836      36.893836    
   1620000   0.5030255     -7.8043559     -7.0498283      3.7265198      50218.233      36.893836      36.893836      36.893836    
   1630000   0.50335357    -7.8116458     -7.0566262      3.6917108      50218.233      36.893836      36.893836      36.893836    
   1640000   0.50363258    -7.805309      -7.0498709      3.7305473      50218.233      36.893836      36.893836      36.893836    
   1650000   0.50275098    -7.8026498     -7.0485341      3.7537669      50218.233      36.893836      36.893836      36.893836    
   1660000   0.50590055    -7.8009325     -7.0420924      3.7635134      50218.233      36.893836      36.893836      36.893836    
   1670000   0.50461916    -7.8074863     -7.0505683      3.7166893      50218.233      36.893836      36.893836      36.893836    
   1680000   0.50414988    -7.8036519     -7.0474378      3.7558554      50218.233      36.893836      36.893836      36.893836    
   1690000   0.50705281    -7.8093336     -7.0487652      3.701787       50218.233      36.893836      36.893836      36.893836    
   1700000   0.50527859    -7.8065505     -7.0486434      3.7282233      50218.233      36.893836      36.893836      36.893836    
   1710000   0.50620613    -7.8043709     -7.0450725      3.7352075      50218.233      36.893836      36.893836      36.893836    
   1720000   0.5039724     -7.8064988     -7.050551       3.7227529      50218.233      36.893836      36.893836      36.893836    
   1730000   0.50472526    -7.8037922     -7.046715       3.7416461      50218.233      36.893836      36.893836      36.893836    
   1740000   0.50514391    -7.8003939     -7.0426888      3.7631017      50218.233      36.893836      36.893836      36.893836    
   1750000   0.50432444    -7.8050543     -7.0485784      3.7290895      50218.233      36.893836      36.893836      36.893836    
   1760000   0.5076604     -7.8030299     -7.0415501      3.760329       50218.233      36.893836      36.893836      36.893836    
   1770000   0.50513117    -7.8023504     -7.0446644      3.7549914      50218.233      36.893836      36.893836      36.893836    
   1780000   0.50364025    -7.8008708     -7.0454212      3.7624507      50218.233      36.893836      36.893836      36.893836    
   1790000   0.50819667    -7.8031845     -7.0409003      3.751429       50218.233      36.893836      36.893836      36.893836    
   1800000   0.50719361    -7.801912      -7.0411324      3.7580775      50218.233      36.893836      36.893836      36.893836    
   1810000   0.50486857    -7.8045437     -7.0472516      3.7434168      50218.233      36.893836      36.893836      36.893836    
   1820000   0.50365485    -7.8046476     -7.049176       3.7280067      50218.233      36.893836      36.893836      36.893836    
   1830000   0.50497438    -7.8064659     -7.0490151      3.7239934      50218.233      36.893836      36.893836      36.893836    
   1840000   0.50253063    -7.8030595     -7.0492743      3.7437178      50218.233      36.893836      36.893836      36.893836    
   1850000   0.50501484    -7.804624      -7.0471125      3.750129       50218.233      36.893836      36.893836      36.893836    
   1860000   0.50605156    -7.8025746     -7.0435081      3.7563269      50218.233      36.893836      36.893836      36.893836    
   1870000   0.50521325    -7.8035997     -7.0457906      3.7375222      50218.233      36.893836      36.893836      36.893836    
   1880000   0.50278956    -7.801998      -7.0478244      3.7496096      50218.233      36.893836      36.893836      36.893836    
   1890000   0.50620034    -7.8003582     -7.0410685      3.771993       50218.233      36.893836      36.893836      36.893836    
   1900000   0.5071059     -7.8086633     -7.0480153      3.7190474      50218.233      36.893836      36.893836      36.893836    
   1910000   0.50557308    -7.7989759     -7.040627       3.7815946      50218.233      36.893836      36.893836      36.893836    
   1920000   0.50382474    -7.8055627     -7.0498363      3.7257766      50218.233      36.893836      36.893836      36.893836    
   1930000   0.50705759    -7.7998322     -7.0392566      3.7766866      50218.233      36.893836      36.893836      36.893836    
   1940000   0.50570209    -7.802099      -7.0435567      3.7592944      50218.233      36.893836      36.893836      36.893836    
   1950000   0.5031896     -7.8041336     -7.0493599      3.7399171      50218.233      36.893836      36.893836      36.893836    
   1960000   0.50256716    -7.8031791     -7.0493391      3.7407093      50218.233      36.893836      36.893836      36.893836    
   1970000   0.50645737    -7.8020041     -7.0423289      3.7574929      50218.233      36.893836      36.893836      36.893836    
   1980000   0.50419307    -7.8015521     -7.0452732      3.7680689      50218.233      36.893836      36.893836      36.893836    
   1990000   0.50619016    -7.800966      -7.0416915      3.766186       50218.233      36.893836      36.893836      36.893836    
   2000000   0.50214661    -7.8030094     -7.0498002      3.7522658      50218.233      36.893836      36.893836      36.893836    
   2010000   0.50554935    -7.8017506     -7.0434373      3.7686346      50218.233      36.893836      36.893836      36.893836    
   2020000   0.50516102    -7.7978643     -7.0401336      3.7849111      50218.233      36.893836      36.893836      36.893836    
   2030000   0.50624959    -7.8022815     -7.042918       3.7595912      50218.233      36.893836      36.893836      36.893836    
   2040000   0.50695773    -7.8019905     -7.0415647      3.7663142      50218.233      36.893836      36.893836      36.893836    
   2050000   0.50678329    -7.8024802     -7.0423161      3.7650507      50218.233      36.893836      36.893836      36.893836    
   2060000   0.50784522    -7.8003605     -7.0386035      3.7851673      50218.233      36.893836      36.893836      36.893836    
   2070000   0.50516369    -7.8029434     -7.0452087      3.7578655      50218.233      36.893836      36.893836      36.893836    
   2080000   0.50455282    -7.8021187     -7.0453002      3.7683702      50218.233      36.893836      36.893836      36.893836    
   2090000   0.50380875    -7.8024        -7.0466977      3.7521878      50218.233      36.893836      36.893836      36.893836    
   2100000   0.50342442    -7.8019637     -7.0468379      3.7738472      50218.233      36.893836      36.893836      36.893836    
   2110000   0.50466052    -7.8009637     -7.0439837      3.7761423      50218.233      36.893836      36.893836      36.893836    
   2120000   0.50676486    -7.8029136     -7.0427771      3.7545655      50218.233      36.893836      36.893836      36.893836    
   2130000   0.50194492    -7.8041616     -7.051255       3.7477216      50218.233      36.893836      36.893836      36.893836    
   2140000   0.50447762    -7.8018309     -7.0451252      3.7687509      50218.233      36.893836      36.893836      36.893836    
   2150000   0.50458856    -7.797242      -7.0403699      3.788969       50218.233      36.893836      36.893836      36.893836    
   2160000   0.50515958    -7.8056245     -7.0478959      3.7354629      50218.233      36.893836      36.893836      36.893836    
   2170000   0.50878638    -7.8045289     -7.0413601      3.7467072      50218.233      36.893836      36.893836      36.893836    
   2180000   0.50466891    -7.8032782     -7.0462856      3.7531022      50218.233      36.893836      36.893836      36.893836    
   2190000   0.50599225    -7.8022433     -7.0432657      3.7716864      50218.233      36.893836      36.893836      36.893836    
   2200000   0.50689938    -7.7976102     -7.037272       3.8019395      50218.233      36.893836      36.893836      36.893836    
   2210000   0.50793373    -7.8033549     -7.0414652      3.7461376      50218.233      36.893836      36.893836      36.893836    
   2220000   0.50444508    -7.8045963     -7.0479394      3.7322336      50218.233      36.893836      36.893836      36.893836    
   2230000   0.504718      -7.8035024     -7.0464362      3.7434263      50218.233      36.893836      36.893836      36.893836    
   2240000   0.50094321    -7.8041528     -7.0527487      3.7396873      50218.233      36.893836      36.893836      36.893836    
   2250000   0.50456719    -7.7986126     -7.0417726      3.7852545      50218.233      36.893836      36.893836      36.893836    
   2260000   0.50535968    -7.8017516     -7.0437228      3.7513611      50218.233      36.893836      36.893836      36.893836    
   2270000   0.50695387    -7.8032144     -7.0427944      3.74926        50218.233      36.893836      36.893836      36.893836    
   2280000   0.50415856    -7.8012878     -7.0450607      3.7611528      50218.233      36.893836      36.893836      36.893836    
   2290000   0.50686963    -7.801616      -7.0413224      3.7570174      50218.233      36.893836      36.893836      36.893836    
   2300000   0.50448955    -7.8019706     -7.045247       3.7493058      50218.233      36.893836      36.893836      36.893836    
   2310000   0.50454536    -7.798853      -7.0420458      3.777683       50218.233      36.893836      36.893836      36.893836    
   2320000   0.50427819    -7.8013074     -7.0449009      3.7627005      50218.233      36.893836      36.893836      36.893836    
   2330000   0.50752127    -7.8034814     -7.0422103      3.7594209      50218.233      36.893836      36.893836      36.893836    
   2340000   0.50465196    -7.8003261     -7.0433589      3.7762028      50218.233      36.893836      36.893836      36.893836    
   2350000   0.50597509    -7.8008139     -7.0418621      3.7627848      50218.233      36.893836      36.893836      36.893836    
   2360000   0.50467307    -7.8033728     -7.046374       3.7396234      50218.233      36.893836      36.893836      36.893836    
   2370000   0.50213547    -7.8043556     -7.0511631      3.7483141      50218.233      36.893836      36.893836      36.893836    
   2380000   0.50589133    -7.804593      -7.0457668      3.7519398      50218.233      36.893836      36.893836      36.893836    
   2390000   0.50539756    -7.8035521     -7.0454666      3.7651831      50218.233      36.893836      36.893836      36.893836    
   2400000   0.50367134    -7.8039206     -7.0484243      3.7421319      50218.233      36.893836      36.893836      36.893836    
   2410000   0.50575778    -7.8058288     -7.0472029      3.7308748      50218.233      36.893836      36.893836      36.893836    
   2420000   0.50683024    -7.8041681     -7.0439335      3.7487851      50218.233      36.893836      36.893836      36.893836    
   2430000   0.50683693    -7.8073033     -7.0470587      3.7300346      50218.233      36.893836      36.893836      36.893836    
   2440000   0.50635135    -7.8027869     -7.0432707      3.7555636      50218.233      36.893836      36.893836      36.893836    
   2450000   0.50621614    -7.8036047     -7.0442913      3.7560993      50218.233      36.893836      36.893836      36.893836    
   2460000   0.50465353    -7.8074275     -7.050458       3.7095561      50218.233      36.893836      36.893836      36.893836    
   2470000   0.50421119    -7.8058507     -7.0495447      3.7316702      50218.233      36.893836      36.893836      36.893836    
   2480000   0.5064272     -7.80345       -7.04382        3.758068       50218.233      36.893836      36.893836      36.893836    
   2490000   0.50441854    -7.8033325     -7.0467154      3.7562367      50218.233      36.893836      36.893836      36.893836    
   2500000   0.50525411    -7.8028302     -7.0449598      3.7595576      50218.233      36.893836      36.893836      36.893836    
   2510000   0.50570211    -7.8028926     -7.0443502      3.7424513      50218.233      36.893836      36.893836      36.893836    
   2520000   0.50427335    -7.8047343     -7.0483351      3.7352054      50218.233      36.893836      36.893836      36.893836    
   2530000   0.50669086    -7.8038777     -7.0438522      3.7405283      50218.233      36.893836      36.893836      36.893836    
   2540000   0.50614993    -7.8044853     -7.0452712      3.7484017      50218.233      36.893836      36.893836      36.893836    
   2550000   0.50497662    -7.8042259     -7.0467717      3.7534302      50218.233      36.893836      36.893836      36.893836    
   2560000   0.50447123    -7.8026723     -7.0459763      3.7511848      50218.233      36.893836      36.893836      36.893836    
   2570000   0.50529311    -7.8088046     -7.0508757      3.7110832      50218.233      36.893836      36.893836      36.893836    
   2580000   0.50680476    -7.8043722     -7.0441759      3.7562297      50218.233      36.893836      36.893836      36.893836    
   2590000   0.50810685    -7.8010009     -7.0388514      3.7686381      50218.233      36.893836      36.893836      36.893836    
   2600000   0.50155518    -7.8029486     -7.0506265      3.7488207      50218.233      36.893836      36.893836      36.893836    
   2610000   0.50502904    -7.8041942     -7.0466614      3.7488965      50218.233      36.893836      36.893836      36.893836    
   2620000   0.50496434    -7.8061796     -7.0487438      3.7320786      50218.233      36.893836      36.893836      36.893836    
   2630000   0.50752583    -7.795598      -7.0343201      3.8164991      50218.233      36.893836      36.893836      36.893836    
   2640000   0.50444263    -7.8051324     -7.0484792      3.7469831      50218.233      36.893836      36.893836      36.893836    
   2650000   0.5049293     -7.801768      -7.0443848      3.756966       50218.233      36.893836      36.893836      36.893836    
   2660000   0.50514745    -7.8023591     -7.0446487      3.7596745      50218.233      36.893836      36.893836      36.893836    
   2670000   0.50637647    -7.803489      -7.0439351      3.7552499      50218.233      36.893836      36.893836      36.893836    
   2680000   0.50642633    -7.7990645     -7.0394358      3.7851542      50218.233      36.893836      36.893836      36.893836    
   2690000   0.50499107    -7.8027392     -7.0452634      3.7526674      50218.233      36.893836      36.893836      36.893836    
   2700000   0.50524243    -7.7984656     -7.0406127      3.7944581      50218.233      36.893836      36.893836      36.893836    
   2710000   0.50635493    -7.8004859     -7.0409643      3.778412       50218.233      36.893836      36.893836      36.893836    
   2720000   0.50290798    -7.8008399     -7.0464887      3.7646126      50218.233      36.893836      36.893836      36.893836    
   2730000   0.504531      -7.8036323     -7.0468466      3.7350456      50218.233      36.893836      36.893836      36.893836    
   2740000   0.50214806    -7.8030506     -7.0498392      3.7489583      50218.233      36.893836      36.893836      36.893836    
   2750000   0.50486834    -7.7998677     -7.0425759      3.7848683      50218.233      36.893836      36.893836      36.893836    
   2760000   0.50826048    -7.8043083     -7.0419284      3.7484149      50218.233      36.893836      36.893836      36.893836    
   2770000   0.50425263    -7.8040447     -7.0476765      3.7515723      50218.233      36.893836      36.893836      36.893836    
   2780000   0.5052763     -7.8014601     -7.0435564      3.7795643      50218.233      36.893836      36.893836      36.893836    
   2790000   0.50464478    -7.8027219     -7.0457655      3.7552035      50218.233      36.893836      36.893836      36.893836    
   2800000   0.50717827    -7.800011      -7.0392544      3.7766322      50218.233      36.893836      36.893836      36.893836    
   2810000   0.50414243    -7.8059977     -7.0497948      3.7324817      50218.233      36.893836      36.893836      36.893836    
   2820000   0.50430771    -7.8008327     -7.0443819      3.7777712      50218.233      36.893836      36.893836      36.893836    
   2830000   0.50571883    -7.7998939     -7.0413264      3.7775379      50218.233      36.893836      36.893836      36.893836    
   2840000   0.50854662    -7.8031301     -7.040321       3.7488898      50218.233      36.893836      36.893836      36.893836    
   2850000   0.50355024    -7.8038588     -7.0485442      3.7399748      50218.233      36.893836      36.893836      36.893836    
   2860000   0.50590073    -7.8041565     -7.0453162      3.746115       50218.233      36.893836      36.893836      36.893836    
   2870000   0.50632229    -7.8059216     -7.0464489      3.733312       50218.233      36.893836      36.893836      36.893836    
   2880000   0.50864689    -7.8031125     -7.040153       3.7547993      50218.233      36.893836      36.893836      36.893836    
   2890000   0.50414806    -7.8070896     -7.0508783      3.7149332      50218.233      36.893836      36.893836      36.893836    
   2900000   0.50637745    -7.8028859     -7.0433305      3.7524088      50218.233      36.893836      36.893836      36.893836    
   2910000   0.50290981    -7.8024669     -7.0481129      3.7536612      50218.233      36.893836      36.893836      36.893836    
   2920000   0.50333311    -7.8052454     -7.0502565      3.7350191      50218.233      36.893836      36.893836      36.893836    
   2930000   0.50626573    -7.803805      -7.0444172      3.7564276      50218.233      36.893836      36.893836      36.893836    
   2940000   0.50223275    -7.8000153     -7.0466769      3.7716739      50218.233      36.893836      36.893836      36.893836    
   2950000   0.50545953    -7.8048221     -7.0466436      3.7428757      50218.233      36.893836      36.893836      36.893836    
   2960000   0.5061684     -7.8009823     -7.0417405      3.7760019      50218.233      36.893836      36.893836      36.893836    
   2970000   0.50628327    -7.802137      -7.0427229      3.7629708      50218.233      36.893836      36.893836      36.893836    
   2980000   0.50457432    -7.8040002     -7.0471495      3.743108       50218.233      36.893836      36.893836      36.893836    
   2990000   0.5041555     -7.7993802     -7.0431577      3.7807262      50218.233      36.893836      36.893836      36.893836    
   3000000   0.50422556    -7.807168      -7.0508404      3.7194472      50218.233      36.893836      36.893836      36.893836    
   3010000   0.50675901    -7.8062041     -7.0460764      3.7389443      50218.233      36.893836      36.893836      36.893836    
   3020000   0.50342558    -7.8028944     -7.0477667      3.7564299      50218.233      36.893836      36.893836      36.893836    
   3030000   0.50556912    -7.8033328     -7.0449899      3.7468496      50218.233      36.893836      36.893836      36.893836    
   3040000   0.50425608    -7.8053195     -7.0489462      3.7342916      50218.233      36.893836      36.893836      36.893836    
   3050000   0.50518676    -7.7999641     -7.0421947      3.7739909      50218.233      36.893836      36.893836      36.893836    
   3060000   0.5055911     -7.7996821     -7.0413063      3.7756121      50218.233      36.893836      36.893836      36.893836    
   3070000   0.50744233    -7.8012457     -7.040093       3.7730694      50218.233      36.893836      36.893836      36.893836    
   3080000   0.50328264    -7.8030609     -7.0481477      3.7548054      50218.233      36.893836      36.893836      36.893836    
   3090000   0.50449559    -7.8026563     -7.0459237      3.7598678      50218.233      36.893836      36.893836      36.893836    
   3100000   0.50628095    -7.7964404     -7.0370298      3.8025396      50218.233      36.893836      36.893836      36.893836    
   3110000   0.50561742    -7.8008347     -7.0424194      3.7680066      50218.233      36.893836      36.893836      36.893836    
   3120000   0.50547136    -7.8031578     -7.0449616      3.7634742      50218.233      36.893836      36.893836      36.893836    
   3130000   0.50517293    -7.8004816     -7.042733       3.7675056      50218.233      36.893836      36.893836      36.893836    
   3140000   0.50490446    -7.8024        -7.045054       3.7601488      50218.233      36.893836      36.893836      36.893836    
   3150000   0.50456289    -7.7994631     -7.0426295      3.7786418      50218.233      36.893836      36.893836      36.893836    
   3160000   0.50302063    -7.8035672     -7.049047       3.7424405      50218.233      36.893836      36.893836      36.893836    
   3170000   0.50747674    -7.8054295     -7.0442252      3.7382897      50218.233      36.893836      36.893836      36.893836    
   3180000   0.50664167    -7.7994307     -7.039479       3.7801555      50218.233      36.893836      36.893836      36.893836    
   3190000   0.50553522    -7.7986795     -7.0403874      3.7818426      50218.233      36.893836      36.893836      36.893836    
   3200000   0.50580166    -7.7982532     -7.0395615      3.7862167      50218.233      36.893836      36.893836      36.893836    
   3210000   0.50247165    -7.8044072     -7.0507104      3.7383741      50218.233      36.893836      36.893836      36.893836    
   3220000   0.50687252    -7.8011006     -7.0408026      3.77934        50218.233      36.893836      36.893836      36.893836    
   3230000   0.50575145    -7.8034153     -7.0447989      3.7590375      50218.233      36.893836      36.893836      36.893836    
   3240000   0.50649076    -7.8013491     -7.0416237      3.7719646      50218.233      36.893836      36.893836      36.893836    
   3250000   0.50461622    -7.8038658     -7.0469522      3.7518172      50218.233      36.893836      36.893836      36.893836    
   3260000   0.50369744    -7.8030578     -7.0475224      3.7577098      50218.233      36.893836      36.893836      36.893836    
   3270000   0.50786052    -7.8009653     -7.0391854      3.7744068      50218.233      36.893836      36.893836      36.893836    
   3280000   0.50546798    -7.8007331     -7.0425419      3.7690952      50218.233      36.893836      36.893836      36.893836    
   3290000   0.50649       -7.7998449     -7.0401207      3.7829293      50218.233      36.893836      36.893836      36.893836    
   3300000   0.50151993    -7.7985364     -7.0462672      3.7847718      50218.233      36.893836      36.893836      36.893836    
   3310000   0.50303355    -7.8021178     -7.0475782      3.7513427      50218.233      36.893836      36.893836      36.893836    
   3320000   0.50526906    -7.8046829     -7.0467901      3.7422066      50218.233      36.893836      36.893836      36.893836    
   3330000   0.50415082    -7.8060085     -7.049793       3.7339166      50218.233      36.893836      36.893836      36.893836    
   3340000   0.50406788    -7.8065996     -7.0505086      3.7284465      50218.233      36.893836      36.893836      36.893836    
   3350000   0.50542008    -7.8020636     -7.0439442      3.7674621      50218.233      36.893836      36.893836      36.893836    
   3360000   0.50583778    -7.8016489     -7.0429031      3.7652782      50218.233      36.893836      36.893836      36.893836    
   3370000   0.50504455    -7.7976006     -7.0400445      3.797073       50218.233      36.893836      36.893836      36.893836    
   3380000   0.50745168    -7.799803      -7.0386363      3.7775881      50218.233      36.893836      36.893836      36.893836    
   3390000   0.50277639    -7.8007835     -7.0466296      3.7724282      50218.233      36.893836      36.893836      36.893836    
   3400000   0.50673583    -7.8055015     -7.0454086      3.7445392      50218.233      36.893836      36.893836      36.893836    
   3410000   0.50421138    -7.8001878     -7.0438814      3.7853477      50218.233      36.893836      36.893836      36.893836    
   3420000   0.50349919    -7.8011418     -7.0459037      3.7562296      50218.233      36.893836      36.893836      36.893836    
   3430000   0.50664289    -7.8039608     -7.0440072      3.7429161      50218.233      36.893836      36.893836      36.893836    
   3440000   0.50448831    -7.8017487     -7.045027       3.7595339      50218.233      36.893836      36.893836      36.893836    
   3450000   0.50531494    -7.804101      -7.0461394      3.7480257      50218.233      36.893836      36.893836      36.893836    
   3460000   0.50513906    -7.7993137     -7.0416159      3.7888317      50218.233      36.893836      36.893836      36.893836    
   3470000   0.50661223    -7.8023183     -7.0424108      3.7584757      50218.233      36.893836      36.893836      36.893836    
   3480000   0.50566211    -7.8036154     -7.045133       3.7436444      50218.233      36.893836      36.893836      36.893836    
   3490000   0.50614335    -7.8007407     -7.0415364      3.7659021      50218.233      36.893836      36.893836      36.893836    
   3500000   0.50537707    -7.8044182     -7.0463634      3.7353002      50218.233      36.893836      36.893836      36.893836    
   3510000   0.50168028    -7.7997131     -7.0472034      3.782122       50218.233      36.893836      36.893836      36.893836    
   3520000   0.50452063    -7.8007222     -7.0439521      3.771641       50218.233      36.893836      36.893836      36.893836    
   3530000   0.50504517    -7.8048731     -7.0473161      3.7471328      50218.233      36.893836      36.893836      36.893836    
   3540000   0.50707138    -7.8007959     -7.0401996      3.7831714      50218.233      36.893836      36.893836      36.893836    
   3550000   0.50597483    -7.7998125     -7.0408611      3.7809498      50218.233      36.893836      36.893836      36.893836    
   3560000   0.50404896    -7.7994774     -7.0434147      3.7693145      50218.233      36.893836      36.893836      36.893836    
   3570000   0.50535475    -7.8006604     -7.042639       3.7820589      50218.233      36.893836      36.893836      36.893836    
   3580000   0.50454807    -7.8005529     -7.0437415      3.7712753      50218.233      36.893836      36.893836      36.893836    
   3590000   0.5070318     -7.7990311     -7.0384943      3.784755       50218.233      36.893836      36.893836      36.893836    
   3600000   0.50502294    -7.7975013     -7.0399777      3.7920575      50218.233      36.893836      36.893836      36.893836    
   3610000   0.50385413    -7.8020424     -7.0462719      3.7596121      50218.233      36.893836      36.893836      36.893836    
   3620000   0.50702008    -7.8022368     -7.0417175      3.7641757      50218.233      36.893836      36.893836      36.893836    
   3630000   0.50401408    -7.8035012     -7.0474908      3.7490414      50218.233      36.893836      36.893836      36.893836    
   3640000   0.50288529    -7.8019605     -7.0476433      3.7669692      50218.233      36.893836      36.893836      36.893836    
   3650000   0.50375307    -7.8023394     -7.0467206      3.7630479      50218.233      36.893836      36.893836      36.893836    
   3660000   0.5039117     -7.8024797     -7.0466229      3.7576107      50218.233      36.893836      36.893836      36.893836    
   3670000   0.5075588     -7.8010628     -7.0397354      3.7682876      50218.233      36.893836      36.893836      36.893836    
   3680000   0.50584885    -7.8002653     -7.0415028      3.7597404      50218.233      36.893836      36.893836      36.893836    
   3690000   0.50412762    -7.8001963     -7.0440156      3.7839198      50218.233      36.893836      36.893836      36.893836    
   3700000   0.50453659    -7.7999607     -7.0431665      3.7748494      50218.233      36.893836      36.893836      36.893836    
   3710000   0.50547535    -7.8023098     -7.0441075      3.7712778      50218.233      36.893836      36.893836      36.893836    
   3720000   0.50219708    -7.7957414     -7.0424565      3.8120143      50218.233      36.893836      36.893836      36.893836    
   3730000   0.50595178    -7.8051333     -7.0462165      3.749745       50218.233      36.893836      36.893836      36.893836    
   3740000   0.5015506     -7.8038184     -7.0515032      3.7572767      50218.233      36.893836      36.893836      36.893836    
   3750000   0.50623858    -7.7997289     -7.0403818      3.7738673      50218.233      36.893836      36.893836      36.893836    
   3760000   0.50502991    -7.8033965     -7.0458624      3.7506936      50218.233      36.893836      36.893836      36.893836    
   3770000   0.50557733    -7.8022676     -7.0439124      3.7603187      50218.233      36.893836      36.893836      36.893836    
   3780000   0.50587944    -7.8037519     -7.0449435      3.738986       50218.233      36.893836      36.893836      36.893836    
   3790000   0.50492768    -7.8007675     -7.0433867      3.7752574      50218.233      36.893836      36.893836      36.893836    
   3800000   0.50477325    -7.804879      -7.0477298      3.725922       50218.233      36.893836      36.893836      36.893836    
   3810000   0.50519688    -7.8035693     -7.0457848      3.7378216      50218.233      36.893836      36.893836      36.893836    
   3820000   0.50535079    -7.8035998     -7.0455844      3.7544281      50218.233      36.893836      36.893836      36.893836    
   3830000   0.50362318    -7.8063164     -7.0508924      3.7227572      50218.233      36.893836      36.893836      36.893836    
   3840000   0.50584788    -7.8047569     -7.0459958      3.7458017      50218.233      36.893836      36.893836      36.893836    
   3850000   0.50461805    -7.8039795     -7.0470632      3.7465065      50218.233      36.893836      36.893836      36.893836    
   3860000   0.5035187     -7.8061318     -7.0508645      3.7359975      50218.233      36.893836      36.893836      36.893836    
   3870000   0.50712135    -7.8083743     -7.0477031      3.7121619      50218.233      36.893836      36.893836      36.893836    
   3880000   0.50360634    -7.8058977     -7.0504989      3.7307592      50218.233      36.893836      36.893836      36.893836    
   3890000   0.50527649    -7.80559       -7.047686       3.7322466      50218.233      36.893836      36.893836      36.893836    
   3900000   0.50605121    -7.8063291     -7.0472631      3.720663       50218.233      36.893836      36.893836      36.893836    
   3910000   0.50313774    -7.805303      -7.0506071      3.7403578      50218.233      36.893836      36.893836      36.893836    
   3920000   0.50774663    -7.8012456     -7.0396365      3.7668404      50218.233      36.893836      36.893836      36.893836    
   3930000   0.50490003    -7.8010608     -7.0437216      3.7646177      50218.233      36.893836      36.893836      36.893836    
   3940000   0.50584103    -7.8059868     -7.0472361      3.7321301      50218.233      36.893836      36.893836      36.893836    
   3950000   0.50506514    -7.8029233     -7.0453364      3.7558193      50218.233      36.893836      36.893836      36.893836    
   3960000   0.50294982    -7.8044707     -7.0500567      3.7381417      50218.233      36.893836      36.893836      36.893836    
   3970000   0.50702554    -7.8019419     -7.0414144      3.7525612      50218.233      36.893836      36.893836      36.893836    
   3980000   0.50433857    -7.8002704     -7.0437733      3.7657265      50218.233      36.893836      36.893836      36.893836    
   3990000   0.5053538     -7.8006472     -7.0426273      3.7715431      50218.233      36.893836      36.893836      36.893836    
   4000000   0.50425371    -7.7989721     -7.0426023      3.7840261      50218.233      36.893836      36.893836      36.893836    
   4010000   0.50222344    -7.8017421     -7.0484177      3.759345       50218.233      36.893836      36.893836      36.893836    
   4020000   0.50734572    -7.8026112     -7.0416034      3.75674        50218.233      36.893836      36.893836      36.893836    
   4030000   0.5037979     -7.8002949     -7.0446088      3.7626919      50218.233      36.893836      36.893836      36.893836    
   4040000   0.50551235    -7.8027929     -7.0445352      3.7490767      50218.233      36.893836      36.893836      36.893836    
   4050000   0.50427643    -7.8040912     -7.0476873      3.7605462      50218.233      36.893836      36.893836      36.893836    
   4060000   0.50711411    -7.8079573     -7.047297       3.7131066      50218.233      36.893836      36.893836      36.893836    
   4070000   0.50531068    -7.8041575     -7.0462023      3.7387036      50218.233      36.893836      36.893836      36.893836    
   4080000   0.50649583    -7.805133      -7.0454001      3.7471387      50218.233      36.893836      36.893836      36.893836    
   4090000   0.50522757    -7.802571      -7.0447404      3.7455511      50218.233      36.893836      36.893836      36.893836    
   4100000   0.5053479     -7.8017399     -7.0437288      3.7611193      50218.233      36.893836      36.893836      36.893836    
   4110000   0.50454646    -7.8046949     -7.0478859      3.7419354      50218.233      36.893836      36.893836      36.893836    
   4120000   0.50504517    -7.8041149     -7.0465579      3.7455783      50218.233      36.893836      36.893836      36.893836    
   4130000   0.5056461     -7.806355      -7.0478966      3.7192979      50218.233      36.893836      36.893836      36.893836    
   4140000   0.50433342    -7.8041336     -7.0476442      3.7375761      50218.233      36.893836      36.893836      36.893836    
   4150000   0.51050228    -7.8040315     -7.038289       3.7455915      50218.233      36.893836      36.893836      36.893836    
   4160000   0.5029409     -7.8043438     -7.0499432      3.7395197      50218.233      36.893836      36.893836      36.893836    
   4170000   0.50238269    -7.8018584     -7.0482951      3.7615327      50218.233      36.893836      36.893836      36.893836    
   4180000   0.5044544     -7.8077315     -7.0510606      3.7164094      50218.233      36.893836      36.893836      36.893836    
   4190000   0.50381424    -7.8076452     -7.0519346      3.7112857      50218.233      36.893836      36.893836      36.893836    
   4200000   0.50276802    -7.7984175     -7.0442762      3.7879729      50218.233      36.893836      36.893836      36.893836    
   4210000   0.50461344    -7.8012108     -7.0443014      3.7668387      50218.233      36.893836      36.893836      36.893836    
   4220000   0.50771892    -7.8005729     -7.0390054      3.7705258      50218.233      36.893836      36.893836      36.893836    
   4230000   0.5045316     -7.7986561     -7.0418695      3.7836172      50218.233      36.893836      36.893836      36.893836    
   4240000   0.50569438    -7.804965      -7.0464343      3.7295918      50218.233      36.893836      36.893836      36.893836    
   4250000   0.50374326    -7.7991697     -7.0435656      3.7881287      50218.233      36.893836      36.893836      36.893836    
   4260000   0.50392958    -7.804582      -7.0486983      3.735172       50218.233      36.893836      36.893836      36.893836    
   4270000   0.50289263    -7.8030987     -7.0487705      3.7505343      50218.233      36.893836      36.893836      36.893836    
   4280000   0.50815479    -7.8008113     -7.0385899      3.7673635      50218.233      36.893836      36.893836      36.893836    
   4290000   0.50706515    -7.8027613     -7.0421744      3.7554757      50218.233      36.893836      36.893836      36.893836    
   4300000   0.50412416    -7.8042218     -7.0480463      3.7556359      50218.233      36.893836      36.893836      36.893836    
   4310000   0.50394724    -7.8003673     -7.0444572      3.7643198      50218.233      36.893836      36.893836      36.893836    
   4320000   0.50566238    -7.8015663     -7.0430835      3.7632223      50218.233      36.893836      36.893836      36.893836    
   4330000   0.50352504    -7.8018145     -7.0465377      3.7580367      50218.233      36.893836      36.893836      36.893836    
   4340000   0.50392455    -7.8036547     -7.0477786      3.741849       50218.233      36.893836      36.893836      36.893836    
   4350000   0.50576783    -7.8011076     -7.0424666      3.7635629      50218.233      36.893836      36.893836      36.893836    
   4360000   0.50528817    -7.8009859     -7.0430645      3.7663097      50218.233      36.893836      36.893836      36.893836    
   4370000   0.50637706    -7.8013006     -7.0417458      3.7714531      50218.233      36.893836      36.893836      36.893836    
   4380000   0.50510442    -7.8025561     -7.0449102      3.7572588      50218.233      36.893836      36.893836      36.893836    
   4390000   0.50394837    -7.8001924     -7.0442806      3.7828303      50218.233      36.893836      36.893836      36.893836    
   4400000   0.50463588    -7.7965603     -7.0396173      3.8042275      50218.233      36.893836      36.893836      36.893836    
   4410000   0.50435804    -7.8003399     -7.0438136      3.7661785      50218.233      36.893836      36.893836      36.893836    
   4420000   0.50507298    -7.7986843     -7.0410856      3.7833067      50218.233      36.893836      36.893836      36.893836    
   4430000   0.50161334    -7.8022354     -7.0498261      3.748278       50218.233      36.893836      36.893836      36.893836    
   4440000   0.50282205    -7.804034      -7.0498116      3.7461193      50218.233      36.893836      36.893836      36.893836    
   4450000   0.50676917    -7.801397      -7.041254       3.7576848      50218.233      36.893836      36.893836      36.893836    
   4460000   0.50433214    -7.7992044     -7.042717       3.7809599      50218.233      36.893836      36.893836      36.893836    
   4470000   0.50544534    -7.7968851     -7.0387279      3.7916181      50218.233      36.893836      36.893836      36.893836    
   4480000   0.50516162    -7.8011483     -7.0434166      3.7725093      50218.233      36.893836      36.893836      36.893836    
   4490000   0.50288874    -7.798006      -7.0436836      3.7966426      50218.233      36.893836      36.893836      36.893836    
   4500000   0.50559521    -7.8040903     -7.0457082      3.7462469      50218.233      36.893836      36.893836      36.893836    
   4510000   0.50616887    -7.8033731     -7.0441306      3.7550675      50218.233      36.893836      36.893836      36.893836    
   4520000   0.50616402    -7.800137      -7.0409018      3.7754394      50218.233      36.893836      36.893836      36.893836    
   4530000   0.50362808    -7.8034257     -7.0479944      3.7521144      50218.233      36.893836      36.893836      36.893836    
   4540000   0.5053374     -7.7982616     -7.0402662      3.7992973      50218.233      36.893836      36.893836      36.893836    
   4550000   0.50669602    -7.8023086     -7.0422754      3.7576237      50218.233      36.893836      36.893836      36.893836    
   4560000   0.5056836     -7.803921      -7.0454064      3.7648914      50218.233      36.893836      36.893836      36.893836    
   4570000   0.50411142    -7.800102      -7.0439456      3.7733388      50218.233      36.893836      36.893836      36.893836    
   4580000   0.50168941    -7.8022926     -7.0497691      3.7587665      50218.233      36.893836      36.893836      36.893836    
   4590000   0.50319284    -7.7994108     -7.0446323      3.7734675      50218.233      36.893836      36.893836      36.893836    
   4600000   0.50314197    -7.8034745     -7.0487723      3.7384589      50218.233      36.893836      36.893836      36.893836    
   4610000   0.50531265    -7.796737      -7.0387788      3.7920879      50218.233      36.893836      36.893836      36.893836    
   4620000   0.50518949    -7.8005765     -7.0428031      3.7639032      50218.233      36.893836      36.893836      36.893836    
   4630000   0.50482471    -7.8013769     -7.0441506      3.7642352      50218.233      36.893836      36.893836      36.893836    
   4640000   0.50607504    -7.7986864     -7.0395846      3.7751598      50218.233      36.893836      36.893836      36.893836    
   4650000   0.50512358    -7.8032554     -7.0455808      3.7527755      50218.233      36.893836      36.893836      36.893836    
   4660000   0.50727317    -7.8003854     -7.0394865      3.7664248      50218.233      36.893836      36.893836      36.893836    
   4670000   0.50564497    -7.7972036     -7.0387469      3.7863578      50218.233      36.893836      36.893836      36.893836    
   4680000   0.50695092    -7.8018445     -7.0414289      3.7602363      50218.233      36.893836      36.893836      36.893836    
   4690000   0.50295167    -7.79992       -7.0455032      3.7615427      50218.233      36.893836      36.893836      36.893836    
   4700000   0.50704116    -7.8018576     -7.0413067      3.7565639      50218.233      36.893836      36.893836      36.893836    
   4710000   0.50398597    -7.8001405     -7.0441723      3.769015       50218.233      36.893836      36.893836      36.893836    
   4720000   0.505971      -7.7987432     -7.0397975      3.7794888      50218.233      36.893836      36.893836      36.893836    
   4730000   0.50379998    -7.7975103     -7.0418211      3.7918889      50218.233      36.893836      36.893836      36.893836    
   4740000   0.50147061    -7.7975423     -7.0453471      3.785739       50218.233      36.893836      36.893836      36.893836    
   4750000   0.50474323    -7.8038252     -7.0467211      3.7433585      50218.233      36.893836      36.893836      36.893836    
   4760000   0.50253152    -7.796139      -7.0423524      3.8030134      50218.233      36.893836      36.893836      36.893836    
   4770000   0.50351585    -7.799229      -7.043966       3.783826       50218.233      36.893836      36.893836      36.893836    
   4780000   0.50635955    -7.7968836     -7.037355       3.8049872      50218.233      36.893836      36.893836      36.893836    
   4790000   0.50458531    -7.7984256     -7.0415584      3.7785661      50218.233      36.893836      36.893836      36.893836    
   4800000   0.50691019    -7.8014032     -7.0410487      3.7752554      50218.233      36.893836      36.893836      36.893836    
   4810000   0.50161006    -7.7984576     -7.0460532      3.7675475      50218.233      36.893836      36.893836      36.893836    
   4820000   0.50522793    -7.8017634     -7.0439323      3.7585085      50218.233      36.893836      36.893836      36.893836    
   4830000   0.50325595    -7.7949164     -7.0400432      3.8214496      50218.233      36.893836      36.893836      36.893836    
   4840000   0.50443183    -7.8016616     -7.0450246      3.7637762      50218.233      36.893836      36.893836      36.893836    
   4850000   0.50387618    -7.8016554     -7.0458519      3.7574395      50218.233      36.893836      36.893836      36.893836    
   4860000   0.50565829    -7.8048967     -7.0464201      3.7376071      50218.233      36.893836      36.893836      36.893836    
   4870000   0.50427379    -7.7999921     -7.0435922      3.7630681      50218.233      36.893836      36.893836      36.893836    
   4880000   0.50804579    -7.7966662     -7.0346084      3.8056933      50218.233      36.893836      36.893836      36.893836    
   4890000   0.50593903    -7.797894      -7.0389962      3.7962714      50218.233      36.893836      36.893836      36.893836    
   4900000   0.50493612    -7.8000151     -7.0426217      3.7722194      50218.233      36.893836      36.893836      36.893836    
   4910000   0.50739351    -7.8031597     -7.0420803      3.7555122      50218.233      36.893836      36.893836      36.893836    
   4920000   0.50621714    -7.8015032     -7.0421883      3.7617378      50218.233      36.893836      36.893836      36.893836    
   4930000   0.50655889    -7.802169      -7.0423415      3.7602082      50218.233      36.893836      36.893836      36.893836    
   4940000   0.50346086    -7.8004292     -7.0452487      3.7690515      50218.233      36.893836      36.893836      36.893836    
   4950000   0.50317613    -7.7993744     -7.044621       3.7711469      50218.233      36.893836      36.893836      36.893836    
   4960000   0.50753737    -7.8021848     -7.0408896      3.7535137      50218.233      36.893836      36.893836      36.893836    
   4970000   0.50308852    -7.7962189     -7.0415969      3.7942005      50218.233      36.893836      36.893836      36.893836    
   4980000   0.50437818    -7.7995755     -7.043019       3.7736887      50218.233      36.893836      36.893836      36.893836    
   4990000   0.50522089    -7.8019106     -7.04409        3.7666154      50218.233      36.893836      36.893836      36.893836    
   5000000   0.50154544    -7.7984938     -7.0461863      3.7754741      50218.233      36.893836      36.893836      36.893836    
   5010000   0.50664292    -7.7999144     -7.0399608      3.7725458      50218.233      36.893836      36.893836      36.893836    
   5020000   0.50769333    -7.8068413     -7.0453122      3.7236501      50218.233      36.893836      36.893836      36.893836    
   5030000   0.50486169    -7.8029373     -7.0456555      3.7650072      50218.233      36.893836      36.893836      36.893836    
   5040000   0.5080525     -7.8038478     -7.0417799      3.7474096      50218.233      36.893836      36.893836      36.893836    
   5050000   0.50637418    -7.7975993     -7.0380488      3.7944765      50218.233      36.893836      36.893836      36.893836    
   5060000   0.50349007    -7.7956416     -7.0404172      3.7920694      50218.233      36.893836      36.893836      36.893836    
   5070000   0.50541352    -7.8006949     -7.0425854      3.7739251      50218.233      36.893836      36.893836      36.893836    
   5080000   0.50532535    -7.8010452     -7.0430679      3.7660021      50218.233      36.893836      36.893836      36.893836    
   5090000   0.50518679    -7.7945964     -7.036827       3.8205138      50218.233      36.893836      36.893836      36.893836    
   5100000   0.50386102    -7.8050496     -7.0492688      3.7334557      50218.233      36.893836      36.893836      36.893836    
   5110000   0.5048485     -7.8017898     -7.0445278      3.7604941      50218.233      36.893836      36.893836      36.893836    
   5120000   0.50581176    -7.794899      -7.0361921      3.8111668      50218.233      36.893836      36.893836      36.893836    
   5130000   0.50348632    -7.7984891     -7.0432703      3.7917081      50218.233      36.893836      36.893836      36.893836    
   5140000   0.50270021    -7.7968296     -7.04279        3.7931094      50218.233      36.893836      36.893836      36.893836    
   5150000   0.50340269    -7.8010298     -7.0459365      3.7635601      50218.233      36.893836      36.893836      36.893836    
   5160000   0.50746695    -7.8030065     -7.0418169      3.752645       50218.233      36.893836      36.893836      36.893836    
   5170000   0.50328685    -7.8020371     -7.0471175      3.7466402      50218.233      36.893836      36.893836      36.893836    
   5180000   0.50300964    -7.8014226     -7.0469189      3.7652807      50218.233      36.893836      36.893836      36.893836    
   5190000   0.50129457    -7.8032899     -7.0513587      3.7474316      50218.233      36.893836      36.893836      36.893836    
   5200000   0.50211616    -7.7946287     -7.0414652      3.8085855      50218.233      36.893836      36.893836      36.893836    
   5210000   0.50496808    -7.7967045     -7.0392632      3.7937329      50218.233      36.893836      36.893836      36.893836    
   5220000   0.50576458    -7.800702      -7.0420659      3.7618321      50218.233      36.893836      36.893836      36.893836    
   5230000   0.50579454    -7.7959755     -7.0372945      3.8103703      50218.233      36.893836      36.893836      36.893836    
   5240000   0.50589873    -7.7997977     -7.0409604      3.7680527      50218.233      36.893836      36.893836      36.893836    
   5250000   0.50528279    -7.8020508     -7.0441374      3.7616123      50218.233      36.893836      36.893836      36.893836    
   5260000   0.50541757    -7.8020019     -7.0438863      3.7602525      50218.233      36.893836      36.893836      36.893836    
   5270000   0.50537088    -7.8011374     -7.0430918      3.7611433      50218.233      36.893836      36.893836      36.893836    
   5280000   0.50161834    -7.7971932     -7.0447764      3.787248       50218.233      36.893836      36.893836      36.893836    
   5290000   0.50482888    -7.7986688     -7.0414362      3.7858914      50218.233      36.893836      36.893836      36.893836    
   5300000   0.50506436    -7.7956457     -7.03806        3.7972483      50218.233      36.893836      36.893836      36.893836    
   5310000   0.50236121    -7.8054263     -7.0518952      3.7337549      50218.233      36.893836      36.893836      36.893836    
   5320000   0.50547945    -7.7996445     -7.0414361      3.772557       50218.233      36.893836      36.893836      36.893836    
   5330000   0.50297917    -7.800484      -7.0460259      3.7660898      50218.233      36.893836      36.893836      36.893836    
   5340000   0.50665742    -7.7997158     -7.0397405      3.7832034      50218.233      36.893836      36.893836      36.893836    
   5350000   0.50435149    -7.7995147     -7.0429983      3.7805131      50218.233      36.893836      36.893836      36.893836    
   5360000   0.50684783    -7.8020953     -7.0418344      3.7648253      50218.233      36.893836      36.893836      36.893836    
   5370000   0.50501157    -7.8003354     -7.0428288      3.7679999      50218.233      36.893836      36.893836      36.893836    
   5380000   0.50411344    -7.7999735     -7.0438141      3.7789921      50218.233      36.893836      36.893836      36.893836    
   5390000   0.50240152    -7.7971956     -7.043604       3.7947825      50218.233      36.893836      36.893836      36.893836    
   5400000   0.5052729     -7.8046016     -7.046703       3.7419797      50218.233      36.893836      36.893836      36.893836    
   5410000   0.50455594    -7.8030936     -7.0462705      3.747293       50218.233      36.893836      36.893836      36.893836    
   5420000   0.50376513    -7.8028534     -7.0472164      3.7593515      50218.233      36.893836      36.893836      36.893836    
   5430000   0.50500865    -7.8050411     -7.0475389      3.7368666      50218.233      36.893836      36.893836      36.893836    
   5440000   0.50553118    -7.8000844     -7.0417984      3.775479       50218.233      36.893836      36.893836      36.893836    
   5450000   0.50389802    -7.797432      -7.0415958      3.7798296      50218.233      36.893836      36.893836      36.893836    
   5460000   0.50572646    -7.7997918     -7.0412129      3.7899031      50218.233      36.893836      36.893836      36.893836    
   5470000   0.50520495    -7.8036135     -7.0458169      3.7520949      50218.233      36.893836      36.893836      36.893836    
   5480000   0.50412278    -7.8033266     -7.0471532      3.754467       50218.233      36.893836      36.893836      36.893836    
   5490000   0.50426228    -7.8035616     -7.0471789      3.7426106      50218.233      36.893836      36.893836      36.893836    
   5500000   0.50511213    -7.7995214     -7.041864       3.7708343      50218.233      36.893836      36.893836      36.893836    
   5510000   0.5057966     -7.8011825     -7.0424984      3.7639207      50218.233      36.893836      36.893836      36.893836    
   5520000   0.50514211    -7.7998137     -7.0421113      3.7597634      50218.233      36.893836      36.893836      36.893836    
   5530000   0.5078694     -7.799522      -7.0377287      3.7838637      50218.233      36.893836      36.893836      36.893836    
   5540000   0.50523301    -7.8007323     -7.0428936      3.7607049      50218.233      36.893836      36.893836      36.893836    
   5550000   0.50583631    -7.8030403     -7.0442967      3.7563162      50218.233      36.893836      36.893836      36.893836    
   5560000   0.50415358    -7.8015413     -7.0453217      3.7561768      50218.233      36.893836      36.893836      36.893836    
   5570000   0.50413957    -7.8030281     -7.0468295      3.7412359      50218.233      36.893836      36.893836      36.893836    
   5580000   0.50801974    -7.8032174     -7.0411986      3.7613423      50218.233      36.893836      36.893836      36.893836    
   5590000   0.50577361    -7.8017573     -7.0431077      3.7641501      50218.233      36.893836      36.893836      36.893836    
   5600000   0.50661542    -7.8007436     -7.0408313      3.7708516      50218.233      36.893836      36.893836      36.893836    
   5610000   0.50433562    -7.8003144     -7.0438217      3.763703       50218.233      36.893836      36.893836      36.893836    
   5620000   0.50706794    -7.8043301     -7.0437391      3.753021       50218.233      36.893836      36.893836      36.893836    
   5630000   0.50490203    -7.798919      -7.0415767      3.7691583      50218.233      36.893836      36.893836      36.893836    
   5640000   0.50561688    -7.8056236     -7.0472091      3.7413265      50218.233      36.893836      36.893836      36.893836    
   5650000   0.50598176    -7.8011409     -7.042179       3.7550662      50218.233      36.893836      36.893836      36.893836    
   5660000   0.50374757    -7.8020847     -7.0464741      3.7518175      50218.233      36.893836      36.893836      36.893836    
   5670000   0.50522094    -7.7985099     -7.0406892      3.7815076      50218.233      36.893836      36.893836      36.893836    
   5680000   0.50562341    -7.7973968     -7.0389725      3.7783916      50218.233      36.893836      36.893836      36.893836    
   5690000   0.50354221    -7.799721      -7.0444185      3.7701677      50218.233      36.893836      36.893836      36.893836    
   5700000   0.5032472     -7.7987167     -7.0438566      3.7733905      50218.233      36.893836      36.893836      36.893836    
   5710000   0.50546068    -7.7987872     -7.040607       3.7826582      50218.233      36.893836      36.893836      36.893836    
   5720000   0.50194912    -7.8010091     -7.0480962      3.7675303      50218.233      36.893836      36.893836      36.893836    
   5730000   0.50579783    -7.8012431     -7.0425572      3.7618302      50218.233      36.893836      36.893836      36.893836    
   5740000   0.50501818    -7.7971252     -7.0396087      3.7977757      50218.233      36.893836      36.893836      36.893836    
   5750000   0.50516201    -7.8006684     -7.0429362      3.7665368      50218.233      36.893836      36.893836      36.893836    
   5760000   0.50678963    -7.799387      -7.0392133      3.7724848      50218.233      36.893836      36.893836      36.893836    
   5770000   0.50666793    -7.8002246     -7.0402335      3.7728826      50218.233      36.893836      36.893836      36.893836    
   5780000   0.50679758    -7.795684      -7.0354984      3.8047147      50218.233      36.893836      36.893836      36.893836    
   5790000   0.50384324    -7.7972145     -7.0414604      3.7965404      50218.233      36.893836      36.893836      36.893836    
   5800000   0.50545387    -7.794933      -7.0367629      3.8089275      50218.233      36.893836      36.893836      36.893836    
   5810000   0.50395983    -7.7959177     -7.0399888      3.7996358      50218.233      36.893836      36.893836      36.893836    
   5820000   0.50558738    -7.7966815     -7.0383113      3.7969007      50218.233      36.893836      36.893836      36.893836    
   5830000   0.50548461    -7.8002468     -7.0420306      3.7651128      50218.233      36.893836      36.893836      36.893836    
   5840000   0.50405442    -7.8014744     -7.0454035      3.7610151      50218.233      36.893836      36.893836      36.893836    
   5850000   0.50591068    -7.8014769     -7.0426217      3.7652527      50218.233      36.893836      36.893836      36.893836    
   5860000   0.50583628    -7.8007079     -7.0419642      3.7647182      50218.233      36.893836      36.893836      36.893836    
   5870000   0.50443265    -7.7995697     -7.0429314      3.7747792      50218.233      36.893836      36.893836      36.893836    
   5880000   0.50304179    -7.8011011     -7.0465492      3.7645097      50218.233      36.893836      36.893836      36.893836    
   5890000   0.50608716    -7.7977741     -7.0386542      3.7971818      50218.233      36.893836      36.893836      36.893836    
   5900000   0.502832      -7.8037165     -7.0494792      3.7431442      50218.233      36.893836      36.893836      36.893836    
   5910000   0.50807406    -7.7954943     -7.0333941      3.8142291      50218.233      36.893836      36.893836      36.893836    
   5920000   0.50788594    -7.8014646     -7.0396466      3.7621583      50218.233      36.893836      36.893836      36.893836    
   5930000   0.50603745    -7.796898      -7.0378527      3.8011555      50218.233      36.893836      36.893836      36.893836    
   5940000   0.5070949     -7.7987514     -7.0381198      3.7860118      50218.233      36.893836      36.893836      36.893836    
   5950000   0.50596249    -7.7986436     -7.0397107      3.7868255      50218.233      36.893836      36.893836      36.893836    
   5960000   0.50487464    -7.7978313     -7.0405301      3.7903439      50218.233      36.893836      36.893836      36.893836    
   5970000   0.50366427    -7.8070364     -7.0515507      3.72614        50218.233      36.893836      36.893836      36.893836    
   5980000   0.50617868    -7.8025234     -7.0432662      3.7485165      50218.233      36.893836      36.893836      36.893836    
   5990000   0.50294435    -7.8035445     -7.0491388      3.7598619      50218.233      36.893836      36.893836      36.893836    
   6000000   0.50611281    -7.8039312     -7.0447728      3.7448627      50218.233      36.893836      36.893836      36.893836    
   6010000   0.50281428    -7.80341       -7.0491993      3.7403643      50218.233      36.893836      36.893836      36.893836    
   6020000   0.50225745    -7.8033401     -7.0499646      3.7461519      50218.233      36.893836      36.893836      36.893836    
   6030000   0.50147579    -7.7989025     -7.0466995      3.7780074      50218.233      36.893836      36.893836      36.893836    
   6040000   0.5056479     -7.8045567     -7.0460956      3.7389236      50218.233      36.893836      36.893836      36.893836    
   6050000   0.50501118    -7.8044357     -7.0469297      3.7386837      50218.233      36.893836      36.893836      36.893836    
   6060000   0.50703198    -7.7998404     -7.0393032      3.771622       50218.233      36.893836      36.893836      36.893836    
   6070000   0.50563812    -7.8028165     -7.0443701      3.7493362      50218.233      36.893836      36.893836      36.893836    
   6080000   0.5049686     -7.7972305     -7.0397883      3.7818614      50218.233      36.893836      36.893836      36.893836    
   6090000   0.50573415    -7.7966606     -7.0380701      3.7894234      50218.233      36.893836      36.893836      36.893836    
   6100000   0.50615928    -7.8002694     -7.0410413      3.7665916      50218.233      36.893836      36.893836      36.893836    
   6110000   0.50498306    -7.8016604     -7.0441966      3.7559716      50218.233      36.893836      36.893836      36.893836    
   6120000   0.50735878    -7.7990702     -7.0380429      3.7888493      50218.233      36.893836      36.893836      36.893836    
   6130000   0.50700437    -7.798335      -7.0378393      3.7875638      50218.233      36.893836      36.893836      36.893836    
   6140000   0.50489698    -7.8019499     -7.0446152      3.7619147      50218.233      36.893836      36.893836      36.893836    
   6150000   0.49986284    -7.8019706     -7.052187       3.7469878      50218.233      36.893836      36.893836      36.893836    
   6160000   0.50432347    -7.8010816     -7.0446071      3.760208       50218.233      36.893836      36.893836      36.893836    
   6170000   0.50239864    -7.7980634     -7.0444761      3.77422        50218.233      36.893836      36.893836      36.893836    
   6180000   0.50493077    -7.7985542     -7.0411689      3.7768362      50218.233      36.893836      36.893836      36.893836    
   6190000   0.50450696    -7.7982651     -7.0415154      3.7906665      50218.233      36.893836      36.893836      36.893836    
   6200000   0.50502933    -7.8012562     -7.043723       3.7650466      50218.233      36.893836      36.893836      36.893836    
   6210000   0.50302648    -7.8051523     -7.0506233      3.7199799      50218.233      36.893836      36.893836      36.893836    
   6220000   0.50558592    -7.793668      -7.0352999      3.8172901      50218.233      36.893836      36.893836      36.893836    
   6230000   0.50466771    -7.8002657     -7.0432749      3.7633689      50218.233      36.893836      36.893836      36.893836    
   6240000   0.50536421    -7.7997106     -7.0416751      3.7752721      50218.233      36.893836      36.893836      36.893836    
   6250000   0.50556275    -7.798874      -7.0405407      3.7789906      50218.233      36.893836      36.893836      36.893836    
   6260000   0.50359897    -7.7975648     -7.0421771      3.7886811      50218.233      36.893836      36.893836      36.893836    
   6270000   0.50364841    -7.7995541     -7.0440923      3.7720549      50218.233      36.893836      36.893836      36.893836    
   6280000   0.50664464    -7.7967633     -7.0368072      3.7930406      50218.233      36.893836      36.893836      36.893836    
   6290000   0.50368935    -7.7987815     -7.0432582      3.7841273      50218.233      36.893836      36.893836      36.893836    
   6300000   0.5059052     -7.8032295     -7.0443825      3.7520509      50218.233      36.893836      36.893836      36.893836    
   6310000   0.50397785    -7.8025787     -7.0466227      3.7506264      50218.233      36.893836      36.893836      36.893836    
   6320000   0.50467585    -7.7971331     -7.0401301      3.8004199      50218.233      36.893836      36.893836      36.893836    
   6330000   0.5083427     -7.8014709     -7.0389677      3.7645933      50218.233      36.893836      36.893836      36.893836    
   6340000   0.50466615    -7.8013143     -7.0443258      3.7666286      50218.233      36.893836      36.893836      36.893836    
   6350000   0.5060731     -7.7995685     -7.0404696      3.7698089      50218.233      36.893836      36.893836      36.893836    
   6360000   0.50701473    -7.8029815     -7.0424702      3.7507619      50218.233      36.893836      36.893836      36.893836    
   6370000   0.50644484    -7.7977419     -7.0380854      3.8006887      50218.233      36.893836      36.893836      36.893836    
   6380000   0.50375938    -7.8033968     -7.0477684      3.7625116      50218.233      36.893836      36.893836      36.893836    
   6390000   0.50609212    -7.7999587     -7.0408314      3.7785832      50218.233      36.893836      36.893836      36.893836    
   6400000   0.50464586    -7.8037318     -7.0467738      3.7491632      50218.233      36.893836      36.893836      36.893836    
   6410000   0.50404805    -7.8049018     -7.0488405      3.7366456      50218.233      36.893836      36.893836      36.893836    
   6420000   0.50689509    -7.8025424     -7.0422106      3.763054       50218.233      36.893836      36.893836      36.893836    
   6430000   0.50240224    -7.8015392     -7.0479466      3.7521389      50218.233      36.893836      36.893836      36.893836    
   6440000   0.5063613     -7.8010919     -7.0415608      3.766238       50218.233      36.893836      36.893836      36.893836    
   6450000   0.5045455     -7.799837      -7.0430295      3.7807368      50218.233      36.893836      36.893836      36.893836    
   6460000   0.50507656    -7.8025078     -7.0449038      3.7692779      50218.233      36.893836      36.893836      36.893836    
   6470000   0.50333575    -7.7978139     -7.042821       3.7942507      50218.233      36.893836      36.893836      36.893836    
   6480000   0.50446487    -7.802221      -7.0455345      3.7578962      50218.233      36.893836      36.893836      36.893836    
   6490000   0.50415933    -7.7966757     -7.0404474      3.8025075      50218.233      36.893836      36.893836      36.893836    
   6500000   0.50268196    -7.8011724     -7.0471601      3.7677233      50218.233      36.893836      36.893836      36.893836    
   6510000   0.50076607    -7.7972018     -7.0460634      3.7984686      50218.233      36.893836      36.893836      36.893836    
   6520000   0.50728625    -7.800004      -7.0390855      3.7891409      50218.233      36.893836      36.893836      36.893836    
   6530000   0.50271421    -7.797862      -7.0438014      3.7933189      50218.233      36.893836      36.893836      36.893836    
   6540000   0.50643798    -7.7997134     -7.0400672      3.7812042      50218.233      36.893836      36.893836      36.893836    
   6550000   0.50467426    -7.8023582     -7.0453575      3.7720534      50218.233      36.893836      36.893836      36.893836    
   6560000   0.5075098     -7.804294      -7.0430402      3.7393098      50218.233      36.893836      36.893836      36.893836    
   6570000   0.50585502    -7.8040412     -7.0452695      3.7391399      50218.233      36.893836      36.893836      36.893836    
   6580000   0.50470111    -7.7968716     -7.0398307      3.8054235      50218.233      36.893836      36.893836      36.893836    
   6590000   0.50613839    -7.7988903     -7.0396935      3.7843189      50218.233      36.893836      36.893836      36.893836    
   6600000   0.50503301    -7.797774      -7.0402353      3.8046875      50218.233      36.893836      36.893836      36.893836    
   6610000   0.50462156    -7.804873      -7.0479515      3.7478271      50218.233      36.893836      36.893836      36.893836    
   6620000   0.50462806    -7.8051311     -7.0481998      3.7343043      50218.233      36.893836      36.893836      36.893836    
   6630000   0.50381013    -7.8014359     -7.0457314      3.7817153      50218.233      36.893836      36.893836      36.893836    
   6640000   0.50451023    -7.7987686     -7.042014       3.790318       50218.233      36.893836      36.893836      36.893836    
   6650000   0.50452268    -7.8027986     -7.0460254      3.7464845      50218.233      36.893836      36.893836      36.893836    
   6660000   0.50241808    -7.800064      -7.0464477      3.7723458      50218.233      36.893836      36.893836      36.893836    
   6670000   0.50601722    -7.8034491     -7.0444341      3.7500745      50218.233      36.893836      36.893836      36.893836    
   6680000   0.50625196    -7.8034855     -7.0441184      3.7523492      50218.233      36.893836      36.893836      36.893836    
   6690000   0.50708631    -7.804125      -7.0435064      3.7423394      50218.233      36.893836      36.893836      36.893836    
   6700000   0.50367458    -7.8003573     -7.0448561      3.7781821      50218.233      36.893836      36.893836      36.893836    
   6710000   0.50673225    -7.802401      -7.0423134      3.7734071      50218.233      36.893836      36.893836      36.893836    
   6720000   0.50784871    -7.802003      -7.0402408      3.7621658      50218.233      36.893836      36.893836      36.893836    
   6730000   0.50403114    -7.8011166     -7.0450806      3.7804973      50218.233      36.893836      36.893836      36.893836    
   6740000   0.50194202    -7.80255       -7.0496477      3.7585441      50218.233      36.893836      36.893836      36.893836    
   6750000   0.50376228    -7.801679      -7.0460464      3.7538336      50218.233      36.893836      36.893836      36.893836    
   6760000   0.50455874    -7.7995313     -7.0427039      3.7813021      50218.233      36.893836      36.893836      36.893836    
   6770000   0.50364715    -7.7979532     -7.0424932      3.7868453      50218.233      36.893836      36.893836      36.893836    
   6780000   0.50727592    -7.8007334     -7.0398304      3.7630062      50218.233      36.893836      36.893836      36.893836    
   6790000   0.50504457    -7.8009462     -7.0433902      3.7662622      50218.233      36.893836      36.893836      36.893836    
   6800000   0.50481921    -7.7960617     -7.0388436      3.801439       50218.233      36.893836      36.893836      36.893836    
   6810000   0.50289367    -7.8002298     -7.0459         3.760316       50218.233      36.893836      36.893836      36.893836    
   6820000   0.50645609    -7.799522      -7.0398487      3.7715345      50218.233      36.893836      36.893836      36.893836    
   6830000   0.50426458    -7.7977769     -7.0413908      3.7899851      50218.233      36.893836      36.893836      36.893836    
   6840000   0.506256      -7.802044      -7.0426708      3.7557384      50218.233      36.893836      36.893836      36.893836    
   6850000   0.50393199    -7.7980864     -7.0421992      3.7770545      50218.233      36.893836      36.893836      36.893836    
   6860000   0.50555795    -7.799846      -7.0415198      3.7825311      50218.233      36.893836      36.893836      36.893836    
   6870000   0.50516153    -7.7978937     -7.0401622      3.7868598      50218.233      36.893836      36.893836      36.893836    
   6880000   0.50849331    -7.8003497     -7.0376206      3.7720273      50218.233      36.893836      36.893836      36.893836    
   6890000   0.5044191     -7.8002716     -7.0436537      3.7738654      50218.233      36.893836      36.893836      36.893836    
   6900000   0.50518378    -7.7981878     -7.0404229      3.7802389      50218.233      36.893836      36.893836      36.893836    
   6910000   0.50612819    -7.8010039     -7.0418224      3.7751857      50218.233      36.893836      36.893836      36.893836    
   6920000   0.50710503    -7.8025584     -7.0419117      3.7576954      50218.233      36.893836      36.893836      36.893836    
   6930000   0.50237755    -7.7967856     -7.04323        3.7987674      50218.233      36.893836      36.893836      36.893836    
   6940000   0.50448994    -7.8020109     -7.0452867      3.7542125      50218.233      36.893836      36.893836      36.893836    
   6950000   0.50589392    -7.799621      -7.040791       3.7846495      50218.233      36.893836      36.893836      36.893836    
   6960000   0.50527399    -7.7995722     -7.041672       3.7782146      50218.233      36.893836      36.893836      36.893836    
   6970000   0.50643746    -7.8007836     -7.0411382      3.7659206      50218.233      36.893836      36.893836      36.893836    
   6980000   0.50283576    -7.7948707     -7.0406278      3.8168974      50218.233      36.893836      36.893836      36.893836    
   6990000   0.50442459    -7.797481      -7.0408549      3.7937339      50218.233      36.893836      36.893836      36.893836    
   7000000   0.50260671    -7.7989594     -7.04506        3.7791753      50218.233      36.893836      36.893836      36.893836    
   7010000   0.50571767    -7.7985682     -7.0400025      3.7796709      50218.233      36.893836      36.893836      36.893836    
   7020000   0.50215078    -7.8018841     -7.0486687      3.7567199      50218.233      36.893836      36.893836      36.893836    
   7030000   0.50427947    -7.8016741     -7.0452656      3.7588694      50218.233      36.893836      36.893836      36.893836    
   7040000   0.50450056    -7.7983827     -7.0416426      3.7894802      50218.233      36.893836      36.893836      36.893836    
   7050000   0.50647204    -7.8037809     -7.0440837      3.7490335      50218.233      36.893836      36.893836      36.893836    
   7060000   0.5056588     -7.7975144     -7.039037       3.7913056      50218.233      36.893836      36.893836      36.893836    
   7070000   0.50295239    -7.7978136     -7.0433958      3.7905932      50218.233      36.893836      36.893836      36.893836    
   7080000   0.50451079    -7.8021383     -7.0453829      3.7567672      50218.233      36.893836      36.893836      36.893836    
   7090000   0.50457706    -7.7994301     -7.0425752      3.7800611      50218.233      36.893836      36.893836      36.893836    
   7100000   0.50786383    -7.7942304     -7.0324455      3.8186845      50218.233      36.893836      36.893836      36.893836    
   7110000   0.50853885    -7.798303      -7.0355055      3.8034129      50218.233      36.893836      36.893836      36.893836    
   7120000   0.50579338    -7.8000946     -7.0414153      3.7665777      50218.233      36.893836      36.893836      36.893836    
   7130000   0.50432262    -7.8017793     -7.0453061      3.7601226      50218.233      36.893836      36.893836      36.893836    
   7140000   0.50364128    -7.8005543     -7.0451031      3.7727905      50218.233      36.893836      36.893836      36.893836    
   7150000   0.5011285     -7.7968941     -7.045212       3.7912497      50218.233      36.893836      36.893836      36.893836    
   7160000   0.50389974    -7.8010099     -7.045171       3.7748865      50218.233      36.893836      36.893836      36.893836    
   7170000   0.50302126    -7.8020084     -7.0474872      3.7600088      50218.233      36.893836      36.893836      36.893836    
   7180000   0.50590517    -7.797705      -7.038858       3.7919478      50218.233      36.893836      36.893836      36.893836    
   7190000   0.5049637     -7.7939294     -7.0364946      3.8201479      50218.233      36.893836      36.893836      36.893836    
   7200000   0.50670774    -7.7968963     -7.0368455      3.7917885      50218.233      36.893836      36.893836      36.893836    
   7210000   0.50476646    -7.7993403     -7.0422014      3.7849126      50218.233      36.893836      36.893836      36.893836    
   7220000   0.50560002    -7.7999039     -7.0415146      3.7652487      50218.233      36.893836      36.893836      36.893836    
   7230000   0.50705852    -7.7993813     -7.0388044      3.7917367      50218.233      36.893836      36.893836      36.893836    
   7240000   0.50779091    -7.7996385     -7.0379629      3.7810492      50218.233      36.893836      36.893836      36.893836    
   7250000   0.50582276    -7.7957574     -7.037034       3.8111491      50218.233      36.893836      36.893836      36.893836    
   7260000   0.50504632    -7.7987597     -7.0412009      3.7836828      50218.233      36.893836      36.893836      36.893836    
   7270000   0.50603881    -7.800638      -7.0415906      3.7867485      50218.233      36.893836      36.893836      36.893836    
   7280000   0.50398451    -7.7989832     -7.0430172      3.7847685      50218.233      36.893836      36.893836      36.893836    
   7290000   0.50414612    -7.8000496     -7.0438412      3.7684864      50218.233      36.893836      36.893836      36.893836    
   7300000   0.50444109    -7.8015772     -7.0449263      3.7619819      50218.233      36.893836      36.893836      36.893836    
   7310000   0.50475885    -7.8013252     -7.0441977      3.7686111      50218.233      36.893836      36.893836      36.893836    
   7320000   0.50499981    -7.8005883     -7.0430994      3.7748035      50218.233      36.893836      36.893836      36.893836    
   7330000   0.50584532    -7.8029384     -7.0441812      3.7561315      50218.233      36.893836      36.893836      36.893836    
   7340000   0.50583792    -7.8015094     -7.0427633      3.7690523      50218.233      36.893836      36.893836      36.893836    
   7350000   0.50309795    -7.8021516     -7.0475155      3.7460163      50218.233      36.893836      36.893836      36.893836    
   7360000   0.50778146    -7.7986075     -7.0369461      3.7815548      50218.233      36.893836      36.893836      36.893836    
   7370000   0.50424648    -7.7992891     -7.0429301      3.7769691      50218.233      36.893836      36.893836      36.893836    
   7380000   0.50465057    -7.7993623     -7.0423973      3.7825625      50218.233      36.893836      36.893836      36.893836    
   7390000   0.50708085    -7.8023499     -7.0417395      3.7614271      50218.233      36.893836      36.893836      36.893836    
   7400000   0.50624119    -7.8013844     -7.0420335      3.7693625      50218.233      36.893836      36.893836      36.893836    
   7410000   0.50591343    -7.8004114     -7.041552       3.780842       50218.233      36.893836      36.893836      36.893836    
   7420000   0.50841803    -7.7974386     -7.0348224      3.7932868      50218.233      36.893836      36.893836      36.893836    
   7430000   0.50566242    -7.800583      -7.0421002      3.7714319      50218.233      36.893836      36.893836      36.893836    
   7440000   0.50705433    -7.8046428     -7.0440721      3.7393276      50218.233      36.893836      36.893836      36.893836    
   7450000   0.50563808    -7.8021483     -7.0437019      3.757303       50218.233      36.893836      36.893836      36.893836    
   7460000   0.50436547    -7.7967842     -7.0402467      3.7964156      50218.233      36.893836      36.893836      36.893836    
   7470000   0.50447859    -7.8017813     -7.0450742      3.7606516      50218.233      36.893836      36.893836      36.893836    
   7480000   0.5068198     -7.8036774     -7.0434585      3.7645378      50218.233      36.893836      36.893836      36.893836    
   7490000   0.50814549    -7.7965177     -7.0343103      3.8132741      50218.233      36.893836      36.893836      36.893836    
   7500000   0.50686001    -7.8010747     -7.0407955      3.7642739      50218.233      36.893836      36.893836      36.893836    
   7510000   0.50586645    -7.7976953     -7.0389064      3.7887255      50218.233      36.893836      36.893836      36.893836    
   7520000   0.50537864    -7.7992632     -7.041206       3.7708239      50218.233      36.893836      36.893836      36.893836    
   7530000   0.50690881    -7.7999195     -7.0395671      3.7734341      50218.233      36.893836      36.893836      36.893836    
   7540000   0.50507041    -7.7999779     -7.042383       3.7610435      50218.233      36.893836      36.893836      36.893836    
   7550000   0.50453938    -7.8035404     -7.0467421      3.7528207      50218.233      36.893836      36.893836      36.893836    
   7560000   0.50398078    -7.7982932     -7.0423328      3.7819877      50218.233      36.893836      36.893836      36.893836    
   7570000   0.50161283    -7.8032362     -7.0508277      3.7368422      50218.233      36.893836      36.893836      36.893836    
   7580000   0.50569057    -7.8007227     -7.0421976      3.7716281      50218.233      36.893836      36.893836      36.893836    
   7590000   0.50542761    -7.8020381     -7.0439075      3.766062       50218.233      36.893836      36.893836      36.893836    
   7600000   0.50542027    -7.80237       -7.0442504      3.7704827      50218.233      36.893836      36.893836      36.893836    
   7610000   0.50905666    -7.801836      -7.0382618      3.7542152      50218.233      36.893836      36.893836      36.893836    
   7620000   0.50562417    -7.7983831     -7.0399576      3.7861007      50218.233      36.893836      36.893836      36.893836    
   7630000   0.50470857    -7.7964443     -7.0393922      3.7920445      50218.233      36.893836      36.893836      36.893836    
   7640000   0.50405649    -7.7970525     -7.0409785      3.7910809      50218.233      36.893836      36.893836      36.893836    
   7650000   0.50524099    -7.8001555     -7.0423048      3.7776519      50218.233      36.893836      36.893836      36.893836    
   7660000   0.5024797     -7.797127      -7.0434181      3.7945288      50218.233      36.893836      36.893836      36.893836    
   7670000   0.50583347    -7.7944969     -7.0357575      3.8222707      50218.233      36.893836      36.893836      36.893836    
   7680000   0.50699844    -7.7980324     -7.0375455      3.7910419      50218.233      36.893836      36.893836      36.893836    
   7690000   0.50181923    -7.7970668     -7.0443486      3.7953207      50218.233      36.893836      36.893836      36.893836    
   7700000   0.50471207    -7.8032712     -7.0462138      3.7402563      50218.233      36.893836      36.893836      36.893836    
   7710000   0.50568292    -7.7968228     -7.0383092      3.791585       50218.233      36.893836      36.893836      36.893836    
   7720000   0.50696569    -7.7983263     -7.0378885      3.800768       50218.233      36.893836      36.893836      36.893836    
   7730000   0.50526897    -7.7960098     -7.0381171      3.8032036      50218.233      36.893836      36.893836      36.893836    
   7740000   0.50328966    -7.799563      -7.0446392      3.7735905      50218.233      36.893836      36.893836      36.893836    
   7750000   0.50469602    -7.7961082     -7.039075       3.7877678      50218.233      36.893836      36.893836      36.893836    
   7760000   0.50108056    -7.8005139     -7.0489037      3.7628159      50218.233      36.893836      36.893836      36.893836    
   7770000   0.50585149    -7.8023847     -7.0436182      3.7614633      50218.233      36.893836      36.893836      36.893836    
   7780000   0.50576875    -7.802391      -7.0437487      3.7529865      50218.233      36.893836      36.893836      36.893836    
   7790000   0.50464005    -7.8023701     -7.0454207      3.7464802      50218.233      36.893836      36.893836      36.893836    
   7800000   0.50384387    -7.7984946     -7.0427396      3.781773       50218.233      36.893836      36.893836      36.893836    
   7810000   0.50315561    -7.8010921     -7.0463694      3.7582391      50218.233      36.893836      36.893836      36.893836    
   7820000   0.50484228    -7.7992824     -7.0420298      3.7755559      50218.233      36.893836      36.893836      36.893836    
   7830000   0.50457272    -7.7985633     -7.041715       3.7891821      50218.233      36.893836      36.893836      36.893836    
   7840000   0.50476797    -7.7974225     -7.0402814      3.7931358      50218.233      36.893836      36.893836      36.893836    
   7850000   0.50429895    -7.8003731     -7.0439355      3.7821903      50218.233      36.893836      36.893836      36.893836    
   7860000   0.50666665    -7.7994335     -7.0394443      3.7820398      50218.233      36.893836      36.893836      36.893836    
   7870000   0.50405327    -7.7961848     -7.0401157      3.8148988      50218.233      36.893836      36.893836      36.893836    
   7880000   0.50488718    -7.7984219     -7.0411019      3.786062       50218.233      36.893836      36.893836      36.893836    
   7890000   0.50541665    -7.8019022     -7.043788       3.7659637      50218.233      36.893836      36.893836      36.893836    
   7900000   0.50750007    -7.8011329     -7.0398936      3.7733028      50218.233      36.893836      36.893836      36.893836    
   7910000   0.50636719    -7.7984185     -7.0388785      3.79236        50218.233      36.893836      36.893836      36.893836    
   7920000   0.50525493    -7.8055169     -7.0476453      3.7437728      50218.233      36.893836      36.893836      36.893836    
   7930000   0.50477968    -7.8013188     -7.04416        3.7528092      50218.233      36.893836      36.893836      36.893836    
   7940000   0.50597695    -7.8014653     -7.0425107      3.7707489      50218.233      36.893836      36.893836      36.893836    
   7950000   0.50483483    -7.800606      -7.0433645      3.7698546      50218.233      36.893836      36.893836      36.893836    
   7960000   0.50494906    -7.8037159     -7.0463031      3.7481924      50218.233      36.893836      36.893836      36.893836    
   7970000   0.50718879    -7.8008363     -7.040064       3.7663381      50218.233      36.893836      36.893836      36.893836    
   7980000   0.50426082    -7.7993918     -7.0430113      3.7713899      50218.233      36.893836      36.893836      36.893836    
   7990000   0.50463281    -7.8030571     -7.0461187      3.752505       50218.233      36.893836      36.893836      36.893836    
   8000000   0.50622313    -7.8005336     -7.0412098      3.7725108      50218.233      36.893836      36.893836      36.893836    
Loop time of 12663.6 on 5 procs for 8000000 steps with 70304 atoms

Performance: 545815.966 tau/day, 631.731 timesteps/s, 44.413 Matom-step/s
94.1% CPU use with 5 MPI tasks x 1 OpenMP threads

MPI task timing breakdown:
Section |  min time  |  avg time  |  max time  |%varavg| %total
---------------------------------------------------------------
Pair    | 3719.1     | 4902.9     | 6089.5     |1182.5 | 38.72
Neigh   | 37.306     | 42.707     | 46.95      |  53.7 |  0.34
Comm    | 1883.7     | 1897.7     | 1909.8     |  19.5 | 14.99
Output  | 0.14614    | 0.1508     | 0.15871    |   1.1 |  0.00
Modify  | 4022.4     | 5188.4     | 6390       |1145.8 | 40.97
Other   |            | 631.7      |            |       |  4.99

Nlocal:        14060.8 ave       14081 max       14031 min
Histogram: 1 0 0 0 1 1 0 0 0 2
Nghost:        18762.4 ave       18804 max       18745 min
Histogram: 2 1 1 0 0 0 0 0 0 1
Neighs:              0 ave           0 max           0 min
Histogram: 5 0 0 0 0 0 0 0 0 0

Total # of neighbors = 0
Ave neighs/atom = 0
Neighbor list builds = 1642658
Dangerous builds = 0
clear
OMP_NUM_THREADS environment is not set. Defaulting to 1 thread. (src/comm.cpp:98)
  using 1 OpenMP thread(s) per MPI task
package gpu 0
jump dms485.lmp

variable T equal 485
# T = 1000* (temp in LJ unit)
variable f equal 10000
log log.${T}
log log.485
