variable TLJ equal (${T}/1000)
variable TLJ equal (550/1000)
variable NCyle equal 8
variable iStep equal (${f})
variable iStep equal (10000)
variable dumpStep equal (${f}*100)
variable dumpStep equal (10000*100)
variable runStep equal (${f}*100*${NCyle})
variable runStep equal (10000*100*${NCyle})
variable runStep equal (10000*100*8)

units       lj
atom_style  atomic
dimension 3
boundary     p p p
pair_style  lj/cut 2.5
read_data  ../data/T${T}.dat
read_data  ../data/T550.dat
Reading data file ...
  orthogonal box = (0.97250269 0.97250269 0.97250269) to (37.866338 37.866338 37.866338)
  1 by 1 by 5 MPI processor grid
  reading atoms ...
  70304 atoms
  reading velocities ...
  70304 velocities
  read_data CPU = 0.218 seconds
change_box all triclinic
Changing box ...
  triclinic box = (0.97250269 0.97250269 0.97250269) to (37.866338 37.866338 37.866338) with tilt (0 0 0)
mass 1 1
mass 2 1
pair_modify shift yes
pair_coeff  1 1 1 1
pair_coeff  1 2 1.5 0.8
pair_coeff  2 2 0.5 0.88


timestep 0.01
thermo ${iStep}
thermo 10000
reset_timestep 0
thermo_style custom step temp pe etotal press vol lx ly lz
fix             1 all nvt temp ${TLJ}  ${TLJ}  0.1
fix             1 all nvt temp 0.55  ${TLJ}  0.1
fix             1 all nvt temp 0.55  0.55  0.1
thermo_modify flush yes

fix dsf all deform 1 xy  wiggle 0.5  ${f}   units box
fix dsf all deform 1 xy  wiggle 0.5  10000   units box
fix ps1 all ave/time 1 1 ${iStep} c_thermo_press[1] c_thermo_press[2]  c_thermo_press[3] c_thermo_press[4]  c_thermo_press[5] c_thermo_press[6]  file  stress.${T}
fix ps1 all ave/time 1 1 10000 c_thermo_press[1] c_thermo_press[2]  c_thermo_press[3] c_thermo_press[4]  c_thermo_press[5] c_thermo_press[6]  file  stress.${T}
fix ps1 all ave/time 1 1 10000 c_thermo_press[1] c_thermo_press[2]  c_thermo_press[3] c_thermo_press[4]  c_thermo_press[5] c_thermo_press[6]  file  stress.550
dump            1 all custom ${dumpStep} dump.${T} id type x y z
dump            1 all custom 1000000 dump.${T} id type x y z
dump            1 all custom 1000000 dump.550 id type x y z
dump_modify 1 sort id
fix nodrift all momentum 1  linear 1 1 1
fix com_seed all recenter INIT INIT INIT shift all
run ${runStep}
run 8000000
Generated 0 of 1 mixed pair_coeff terms from geometric mixing rule
Per MPI rank memory allocation (min/avg/max) = 6.664 | 8.018 | 8.92 Mbytes
   Step          Temp          PotEng         TotEng         Press          Volume           Lx             Ly             Lz      
         0   0.54988594    -7.7135182     -6.8887011      4.476909       50218.233      36.893836      36.893836      36.893836    
     10000   0.54913571    -7.7042598     -6.880568       4.5440274      50218.233      36.893836      36.893836      36.893836    
     20000   0.55087508    -7.7019541     -6.8756532      4.5666216      50218.233      36.893836      36.893836      36.893836    
     30000   0.5510652     -7.702881      -6.8762949      4.546115       50218.233      36.893836      36.893836      36.893836    
     40000   0.55333398    -7.7030977     -6.8731085      4.5563917      50218.233      36.893836      36.893836      36.893836    
     50000   0.5509898     -7.705896      -6.8794231      4.5393123      50218.233      36.893836      36.893836      36.893836    
     60000   0.54932921    -7.7042195     -6.8802374      4.5513941      50218.233      36.893836      36.893836      36.893836    
     70000   0.54977651    -7.7035499     -6.8788969      4.5385149      50218.233      36.893836      36.893836      36.893836    
     80000   0.55003142    -7.7030103     -6.8779749      4.5640756      50218.233      36.893836      36.893836      36.893836    
     90000   0.55193384    -7.7119054     -6.8840164      4.4891664      50218.233      36.893836      36.893836      36.893836    
    100000   0.54907245    -7.7022121     -6.8786151      4.553559       50218.233      36.893836      36.893836      36.893836    
    110000   0.55111982    -7.7031842     -6.8765162      4.5487341      50218.233      36.893836      36.893836      36.893836    
    120000   0.5510554     -7.700637      -6.8740656      4.5691855      50218.233      36.893836      36.893836      36.893836    
    130000   0.55048124    -7.7033124     -6.8776023      4.5424184      50218.233      36.893836      36.893836      36.893836    
    140000   0.5497976     -7.7008617     -6.8761771      4.5583561      50218.233      36.893836      36.893836      36.893836    
    150000   0.54988529    -7.7071412     -6.882325       4.5112152      50218.233      36.893836      36.893836      36.893836    
    160000   0.54762604    -7.7071573     -6.8857299      4.5167821      50218.233      36.893836      36.893836      36.893836    
    170000   0.54900881    -7.7039502     -6.8804487      4.539633       50218.233      36.893836      36.893836      36.893836    
    180000   0.55196817    -7.7051236     -6.8771831      4.5362717      50218.233      36.893836      36.893836      36.893836    
    190000   0.55015615    -7.7030255     -6.877803       4.5407621      50218.233      36.893836      36.893836      36.893836    
    200000   0.54818949    -7.7060732     -6.8838006      4.5265121      50218.233      36.893836      36.893836      36.893836    
    210000   0.55044984    -7.7028228     -6.8771598      4.5331858      50218.233      36.893836      36.893836      36.893836    
    220000   0.55021051    -7.7031113     -6.8778073      4.5426973      50218.233      36.893836      36.893836      36.893836    
    230000   0.54767911    -7.7019689     -6.8804619      4.5537454      50218.233      36.893836      36.893836      36.893836    
    240000   0.55108813    -7.703526      -6.8769056      4.5490863      50218.233      36.893836      36.893836      36.893836    
    250000   0.54929229    -7.705272      -6.8813453      4.5351081      50218.233      36.893836      36.893836      36.893836    
    260000   0.54924074    -7.7061294     -6.88228        4.5228821      50218.233      36.893836      36.893836      36.893836    
    270000   0.54928069    -7.7046557     -6.8807464      4.5427352      50218.233      36.893836      36.893836      36.893836    
    280000   0.54862512    -7.7075148     -6.8845888      4.5014087      50218.233      36.893836      36.893836      36.893836    
    290000   0.5500989     -7.7048239     -6.8796873      4.5465449      50218.233      36.893836      36.893836      36.893836    
    300000   0.54917712    -7.7081361     -6.8843822      4.5216943      50218.233      36.893836      36.893836      36.893836    
    310000   0.5468131     -7.7039313     -6.8837233      4.5437697      50218.233      36.893836      36.893836      36.893836    
    320000   0.55344237    -7.703611      -6.8734593      4.5455227      50218.233      36.893836      36.893836      36.893836    
    330000   0.54990709    -7.7053889     -6.88054        4.5308085      50218.233      36.893836      36.893836      36.893836    
    340000   0.54889806    -7.7065599     -6.8832245      4.52181        50218.233      36.893836      36.893836      36.893836    
    350000   0.55001019    -7.7035671     -6.8785636      4.5513908      50218.233      36.893836      36.893836      36.893836    
    360000   0.5492039     -7.7077978     -6.8840037      4.514877       50218.233      36.893836      36.893836      36.893836    
    370000   0.5476666     -7.7033957     -6.8819075      4.5440471      50218.233      36.893836      36.893836      36.893836    
    380000   0.5511297     -7.7108825     -6.8841997      4.4881428      50218.233      36.893836      36.893836      36.893836    
    390000   0.5478214     -7.7044199     -6.8826995      4.5376536      50218.233      36.893836      36.893836      36.893836    
    400000   0.5511118     -7.7031699     -6.8765139      4.5554552      50218.233      36.893836      36.893836      36.893836    
    410000   0.54754116    -7.7038451     -6.882545       4.5379521      50218.233      36.893836      36.893836      36.893836    
    420000   0.54902248    -7.7002207     -6.8766987      4.5709413      50218.233      36.893836      36.893836      36.893836    
    430000   0.54889604    -7.7013917     -6.8780593      4.5741884      50218.233      36.893836      36.893836      36.893836    
    440000   0.5482846     -7.7062148     -6.8837996      4.5412611      50218.233      36.893836      36.893836      36.893836    
    450000   0.54913777    -7.7045528     -6.8808578      4.5389559      50218.233      36.893836      36.893836      36.893836    
    460000   0.54949746    -7.7095309     -6.8852964      4.4997505      50218.233      36.893836      36.893836      36.893836    
    470000   0.55314912    -7.7037352     -6.8740233      4.5509443      50218.233      36.893836      36.893836      36.893836    
    480000   0.55210369    -7.7104674     -6.8823237      4.4963312      50218.233      36.893836      36.893836      36.893836    
    490000   0.54917464    -7.7064896     -6.8827394      4.5259213      50218.233      36.893836      36.893836      36.893836    
    500000   0.54931615    -7.7104548     -6.8864923      4.4914023      50218.233      36.893836      36.893836      36.893836    
    510000   0.54784469    -7.7052975     -6.8835422      4.5404092      50218.233      36.893836      36.893836      36.893836    
    520000   0.55103492    -7.7101002     -6.8835595      4.5050248      50218.233      36.893836      36.893836      36.893836    
    530000   0.54764111    -7.7063443     -6.8848943      4.5242714      50218.233      36.893836      36.893836      36.893836    
    540000   0.55172826    -7.7053204     -6.8777398      4.5443845      50218.233      36.893836      36.893836      36.893836    
    550000   0.54997497    -7.7003636     -6.8754129      4.5667022      50218.233      36.893836      36.893836      36.893836    
    560000   0.55131705    -7.7054716     -6.8785078      4.5407362      50218.233      36.893836      36.893836      36.893836    
    570000   0.55032545    -7.7026987     -6.8772223      4.5578638      50218.233      36.893836      36.893836      36.893836    
    580000   0.55181476    -7.705899      -6.8781886      4.5444576      50218.233      36.893836      36.893836      36.893836    
    590000   0.551743      -7.7049441     -6.8773413      4.5396113      50218.233      36.893836      36.893836      36.893836    
    600000   0.54878965    -7.7033743     -6.8802016      4.5417559      50218.233      36.893836      36.893836      36.893836    
    610000   0.55055628    -7.7096216     -6.883799       4.5031043      50218.233      36.893836      36.893836      36.893836    
    620000   0.54668819    -7.7070592     -6.8870386      4.5150947      50218.233      36.893836      36.893836      36.893836    
    630000   0.54942159    -7.7045001     -6.8803795      4.5265002      50218.233      36.893836      36.893836      36.893836    
    640000   0.54790872    -7.7083962     -6.8865448      4.4988448      50218.233      36.893836      36.893836      36.893836    
    650000   0.54902738    -7.7032506     -6.8797212      4.5321162      50218.233      36.893836      36.893836      36.893836    
    660000   0.54796569    -7.7061675     -6.8842306      4.5221306      50218.233      36.893836      36.893836      36.893836    
    670000   0.55311437    -7.7056991     -6.8760393      4.5387365      50218.233      36.893836      36.893836      36.893836    
    680000   0.55154504    -7.7059644     -6.8786586      4.5223487      50218.233      36.893836      36.893836      36.893836    
    690000   0.55287332    -7.7151207     -6.8858225      4.4625551      50218.233      36.893836      36.893836      36.893836    
    700000   0.54778245    -7.7068638     -6.8852018      4.5193154      50218.233      36.893836      36.893836      36.893836    
    710000   0.54947655    -7.71          -6.8857969      4.5006246      50218.233      36.893836      36.893836      36.893836    
    720000   0.55005991    -7.7054451     -6.880367       4.5369786      50218.233      36.893836      36.893836      36.893836    
    730000   0.54782912    -7.7078852     -6.8861532      4.5107898      50218.233      36.893836      36.893836      36.893836    
    740000   0.5504967     -7.7071281     -6.8813948      4.5203227      50218.233      36.893836      36.893836      36.893836    
    750000   0.54959524    -7.7067005     -6.8823194      4.5332252      50218.233      36.893836      36.893836      36.893836    
    760000   0.55254034    -7.7077145     -6.8789158      4.5261555      50218.233      36.893836      36.893836      36.893836    
    770000   0.55151742    -7.705584      -6.8783196      4.5216535      50218.233      36.893836      36.893836      36.893836    
    780000   0.55050919    -7.7021565     -6.8764045      4.5604094      50218.233      36.893836      36.893836      36.893836    
    790000   0.55113627    -7.7056364     -6.8789438      4.5482423      50218.233      36.893836      36.893836      36.893836    
    800000   0.5495588     -7.7086464     -6.8843199      4.5203648      50218.233      36.893836      36.893836      36.893836    
    810000   0.55041064    -7.7091939     -6.8835897      4.5117329      50218.233      36.893836      36.893836      36.893836    
    820000   0.55268268    -7.7100194     -6.8810072      4.4994874      50218.233      36.893836      36.893836      36.893836    
    830000   0.54986948    -7.7104498     -6.8856573      4.5013167      50218.233      36.893836      36.893836      36.893836    
    840000   0.54785313    -7.7099657     -6.8881977      4.4871664      50218.233      36.893836      36.893836      36.893836    
    850000   0.55478453    -7.706414      -6.874249       4.5227103      50218.233      36.893836      36.893836      36.893836    
    860000   0.55425041    -7.7074789     -6.8761151      4.5210758      50218.233      36.893836      36.893836      36.893836    
    870000   0.55152955    -7.7111479     -6.8838653      4.4809761      50218.233      36.893836      36.893836      36.893836    
    880000   0.5499339     -7.7069082     -6.8820191      4.520114       50218.233      36.893836      36.893836      36.893836    
    890000   0.54842089    -7.7072917     -6.884672       4.5205836      50218.233      36.893836      36.893836      36.893836    
    900000   0.55067987    -7.707053      -6.8810449      4.5259925      50218.233      36.893836      36.893836      36.893836    
    910000   0.54949894    -7.7079505     -6.8837138      4.5167326      50218.233      36.893836      36.893836      36.893836    
    920000   0.54891565    -7.7053912     -6.8820294      4.5339667      50218.233      36.893836      36.893836      36.893836    
    930000   0.54907997    -7.7112599     -6.8876516      4.4701144      50218.233      36.893836      36.893836      36.893836    
    940000   0.55147832    -7.7048738     -6.8776681      4.5480023      50218.233      36.893836      36.893836      36.893836    
    950000   0.55047067    -7.7020546     -6.8763604      4.5578669      50218.233      36.893836      36.893836      36.893836    
    960000   0.55080882    -7.7040916     -6.8778901      4.5345133      50218.233      36.893836      36.893836      36.893836    
    970000   0.55021073    -7.7056448     -6.8803404      4.5276457      50218.233      36.893836      36.893836      36.893836    
    980000   0.55028389    -7.7015126     -6.8760985      4.5739087      50218.233      36.893836      36.893836      36.893836    
    990000   0.54804922    -7.708197      -6.8861349      4.5231106      50218.233      36.893836      36.893836      36.893836    
   1000000   0.54911755    -7.7026747     -6.8790101      4.5435213      50218.233      36.893836      36.893836      36.893836    
   1010000   0.54786122    -7.7041984     -6.8824183      4.5551335      50218.233      36.893836      36.893836      36.893836    
   1020000   0.54764957    -7.7055378     -6.8840751      4.5458681      50218.233      36.893836      36.893836      36.893836    
   1030000   0.55012049    -7.7057941     -6.8806251      4.5366994      50218.233      36.893836      36.893836      36.893836    
   1040000   0.55331734    -7.7061708     -6.8762066      4.5189793      50218.233      36.893836      36.893836      36.893836    
   1050000   0.54819122    -7.7026479     -6.8803728      4.5374515      50218.233      36.893836      36.893836      36.893836    
   1060000   0.55011548    -7.7060716     -6.8809101      4.5160998      50218.233      36.893836      36.893836      36.893836    
   1070000   0.55006432    -7.700853      -6.8757683      4.5628769      50218.233      36.893836      36.893836      36.893836    
   1080000   0.55022864    -7.7021216     -6.8767904      4.5607909      50218.233      36.893836      36.893836      36.893836    
   1090000   0.54927905    -7.7063874     -6.8824806      4.5317887      50218.233      36.893836      36.893836      36.893836    
   1100000   0.54836013    -7.7029926     -6.8804641      4.5603783      50218.233      36.893836      36.893836      36.893836    
   1110000   0.55145682    -7.7064707     -6.8792972      4.5319113      50218.233      36.893836      36.893836      36.893836    
   1120000   0.54783132    -7.6982061     -6.8764708      4.5848246      50218.233      36.893836      36.893836      36.893836    
   1130000   0.54841034    -7.6998102     -6.8772064      4.5686482      50218.233      36.893836      36.893836      36.893836    
   1140000   0.54910701    -7.7004106     -6.8767618      4.5723979      50218.233      36.893836      36.893836      36.893836    
   1150000   0.54744798    -7.7019698     -6.8808095      4.5580124      50218.233      36.893836      36.893836      36.893836    
   1160000   0.55007386    -7.6989926     -6.8738936      4.5824739      50218.233      36.893836      36.893836      36.893836    
   1170000   0.54993703    -7.701058      -6.8761642      4.5650375      50218.233      36.893836      36.893836      36.893836    
   1180000   0.55427996    -7.704529      -6.8731209      4.5396817      50218.233      36.893836      36.893836      36.893836    
   1190000   0.54953872    -7.7025813     -6.8782849      4.5401521      50218.233      36.893836      36.893836      36.893836    
   1200000   0.5505327     -7.706645      -6.8808577      4.5215052      50218.233      36.893836      36.893836      36.893836    
   1210000   0.54934212    -7.7083413     -6.8843399      4.5062701      50218.233      36.893836      36.893836      36.893836    
   1220000   0.55146609    -7.708159      -6.8809716      4.5070737      50218.233      36.893836      36.893836      36.893836    
   1230000   0.54828701    -7.7088148     -6.886396       4.4998051      50218.233      36.893836      36.893836      36.893836    
   1240000   0.55014491    -7.7039985     -6.8787928      4.5319625      50218.233      36.893836      36.893836      36.893836    
   1250000   0.55006932    -7.7064388     -6.8813465      4.5239459      50218.233      36.893836      36.893836      36.893836    
   1260000   0.54943927    -7.7055298     -6.8813826      4.5356939      50218.233      36.893836      36.893836      36.893836    
   1270000   0.55017081    -7.7022149     -6.8769704      4.545827       50218.233      36.893836      36.893836      36.893836    
   1280000   0.54858229    -7.7046769     -6.8818152      4.5353271      50218.233      36.893836      36.893836      36.893836    
   1290000   0.55100708    -7.6999283     -6.8734295      4.5777801      50218.233      36.893836      36.893836      36.893836    
   1300000   0.55143824    -7.7060415     -6.8788959      4.5268658      50218.233      36.893836      36.893836      36.893836    
   1310000   0.5509231     -7.7056283     -6.8792555      4.5321045      50218.233      36.893836      36.893836      36.893836    
   1320000   0.54834643    -7.7059332     -6.8834253      4.521699       50218.233      36.893836      36.893836      36.893836    
   1330000   0.55127629    -7.7060855     -6.8791828      4.5291333      50218.233      36.893836      36.893836      36.893836    
   1340000   0.54960452    -7.7016533     -6.8772582      4.5576035      50218.233      36.893836      36.893836      36.893836    
   1350000   0.55098029    -7.7025446     -6.8760859      4.5543204      50218.233      36.893836      36.893836      36.893836    
   1360000   0.55275179    -7.7029952     -6.8738793      4.5512888      50218.233      36.893836      36.893836      36.893836    
   1370000   0.54796623    -7.7046367     -6.8826991      4.5309969      50218.233      36.893836      36.893836      36.893836    
   1380000   0.55067672    -7.7057121     -6.8797088      4.5277303      50218.233      36.893836      36.893836      36.893836    
   1390000   0.5510221     -7.7064594     -6.879938       4.5167595      50218.233      36.893836      36.893836      36.893836    
   1400000   0.54995202    -7.7055796     -6.8806633      4.5231538      50218.233      36.893836      36.893836      36.893836    
   1410000   0.55194309    -7.7047654     -6.8768625      4.539793       50218.233      36.893836      36.893836      36.893836    
   1420000   0.550467      -7.7046508     -6.878962       4.5465191      50218.233      36.893836      36.893836      36.893836    
   1430000   0.55328187    -7.709138      -6.879227       4.4988584      50218.233      36.893836      36.893836      36.893836    
   1440000   0.55079477    -7.7071162     -6.8809358      4.525703       50218.233      36.893836      36.893836      36.893836    
   1450000   0.55086764    -7.705042      -6.8787523      4.5418968      50218.233      36.893836      36.893836      36.893836    
   1460000   0.55182088    -7.706286      -6.8785664      4.5407541      50218.233      36.893836      36.893836      36.893836    
   1470000   0.55073004    -7.7010958     -6.8750125      4.5692983      50218.233      36.893836      36.893836      36.893836    
   1480000   0.54772735    -7.7011338     -6.8795544      4.5642894      50218.233      36.893836      36.893836      36.893836    
   1490000   0.55198812    -7.7047937     -6.8768233      4.5485418      50218.233      36.893836      36.893836      36.893836    
   1500000   0.54890879    -7.7059734     -6.882622       4.5193804      50218.233      36.893836      36.893836      36.893836    
   1510000   0.55070389    -7.7029994     -6.8769553      4.550508       50218.233      36.893836      36.893836      36.893836    
   1520000   0.55325454    -7.7028871     -6.8730171      4.5660783      50218.233      36.893836      36.893836      36.893836    
   1530000   0.55247186    -7.7063262     -6.8776302      4.5380629      50218.233      36.893836      36.893836      36.893836    
   1540000   0.55081877    -7.7112298     -6.8850134      4.4882299      50218.233      36.893836      36.893836      36.893836    
   1550000   0.54779618    -7.7087891     -6.8871065      4.514547       50218.233      36.893836      36.893836      36.893836    
   1560000   0.54880856    -7.7010487     -6.8778476      4.5654785      50218.233      36.893836      36.893836      36.893836    
   1570000   0.5508702     -7.7052535     -6.8789599      4.547533       50218.233      36.893836      36.893836      36.893836    
   1580000   0.55109879    -7.7046119     -6.8779755      4.5355618      50218.233      36.893836      36.893836      36.893836    
   1590000   0.54805444    -7.7065875     -6.8845175      4.5205614      50218.233      36.893836      36.893836      36.893836    
   1600000   0.54861818    -7.7095615     -6.886646       4.5087695      50218.233      36.893836      36.893836      36.893836    
   1610000   0.54663975    -7.7094623     -6.8895143      4.5008033      50218.233      36.893836      36.893836      36.893836    
   1620000   0.55298803    -7.7075518     -6.8780815      4.5266124      50218.233      36.893836      36.893836      36.893836    
   1630000   0.55217683    -7.7103639     -6.8821104      4.5073046      50218.233      36.893836      36.893836      36.893836    
   1640000   0.54968307    -7.7058446     -6.8813317      4.5360056      50218.233      36.893836      36.893836      36.893836    
   1650000   0.5521111     -7.7061095     -6.8779546      4.5375379      50218.233      36.893836      36.893836      36.893836    
   1660000   0.54929334    -7.704902      -6.8809737      4.546366       50218.233      36.893836      36.893836      36.893836    
   1670000   0.548842      -7.7055227     -6.8822715      4.5189574      50218.233      36.893836      36.893836      36.893836    
   1680000   0.55112877    -7.7071858     -6.8805044      4.5222762      50218.233      36.893836      36.893836      36.893836    
   1690000   0.55129567    -7.7044601     -6.8775284      4.5558417      50218.233      36.893836      36.893836      36.893836    
   1700000   0.54978324    -7.7052        -6.8805369      4.5413157      50218.233      36.893836      36.893836      36.893836    
   1710000   0.55215244    -7.7054596     -6.8772427      4.5464203      50218.233      36.893836      36.893836      36.893836    
   1720000   0.54695207    -7.7085516     -6.8881352      4.509903       50218.233      36.893836      36.893836      36.893836    
   1730000   0.55137183    -7.7099518     -6.8829058      4.5006499      50218.233      36.893836      36.893836      36.893836    
   1740000   0.54713406    -7.7089937     -6.8883043      4.5087003      50218.233      36.893836      36.893836      36.893836    
   1750000   0.55125349    -7.7100862     -6.8832178      4.5014534      50218.233      36.893836      36.893836      36.893836    
   1760000   0.55296188    -7.7075984     -6.8781673      4.5092699      50218.233      36.893836      36.893836      36.893836    
   1770000   0.55139107    -7.6993728     -6.872298       4.5747701      50218.233      36.893836      36.893836      36.893836    
   1780000   0.54984325    -7.6992462     -6.8744931      4.5899782      50218.233      36.893836      36.893836      36.893836    
   1790000   0.54837055    -7.7066978     -6.8841537      4.5239743      50218.233      36.893836      36.893836      36.893836    
   1800000   0.55254124    -7.7032316     -6.8744315      4.5621679      50218.233      36.893836      36.893836      36.893836    
   1810000   0.54948427    -7.7043646     -6.8801499      4.5424806      50218.233      36.893836      36.893836      36.893836    
   1820000   0.54653265    -7.7063732     -6.8865859      4.5324056      50218.233      36.893836      36.893836      36.893836    
   1830000   0.54983524    -7.7010459     -6.8763048      4.5657213      50218.233      36.893836      36.893836      36.893836    
   1840000   0.55161298    -7.7062471     -6.8788394      4.5276418      50218.233      36.893836      36.893836      36.893836    
   1850000   0.54893697    -7.7085642     -6.8851705      4.513118       50218.233      36.893836      36.893836      36.893836    
   1860000   0.55008067    -7.7053003     -6.880191       4.5386393      50218.233      36.893836      36.893836      36.893836    
   1870000   0.55014281    -7.7085269     -6.8833245      4.515106       50218.233      36.893836      36.893836      36.893836    
   1880000   0.54935774    -7.7052984     -6.8812735      4.5469963      50218.233      36.893836      36.893836      36.893836    
   1890000   0.55121605    -7.7092313     -6.882419       4.5028108      50218.233      36.893836      36.893836      36.893836    
   1900000   0.54844748    -7.7095849     -6.8869253      4.5067418      50218.233      36.893836      36.893836      36.893836    
   1910000   0.55007637    -7.7030146     -6.8779118      4.5378724      50218.233      36.893836      36.893836      36.893836    
   1920000   0.55082601    -7.7051503     -6.878923       4.5392777      50218.233      36.893836      36.893836      36.893836    
   1930000   0.55117581    -7.6993059     -6.872554       4.5923826      50218.233      36.893836      36.893836      36.893836    
   1940000   0.55003117    -7.7023057     -6.8772707      4.5728109      50218.233      36.893836      36.893836      36.893836    
   1950000   0.54914983    -7.7033499     -6.8796369      4.5529814      50218.233      36.893836      36.893836      36.893836    
   1960000   0.54807253    -7.7052056     -6.8831085      4.5307872      50218.233      36.893836      36.893836      36.893836    
   1970000   0.54999519    -7.7062797     -6.8812986      4.5300573      50218.233      36.893836      36.893836      36.893836    
   1980000   0.55159143    -7.6976157     -6.8702403      4.5913251      50218.233      36.893836      36.893836      36.893836    
   1990000   0.55002083    -7.7069321     -6.8819126      4.5324686      50218.233      36.893836      36.893836      36.893836    
   2000000   0.5488366     -7.7028284     -6.8795852      4.5531348      50218.233      36.893836      36.893836      36.893836    
   2010000   0.55186405    -7.7053903     -6.877606       4.5285559      50218.233      36.893836      36.893836      36.893836    
   2020000   0.54983364    -7.7066118     -6.8818731      4.5388004      50218.233      36.893836      36.893836      36.893836    
   2030000   0.55109677    -7.7004768     -6.8738434      4.5560256      50218.233      36.893836      36.893836      36.893836    
   2040000   0.55390248    -7.7022178     -6.8713759      4.5630922      50218.233      36.893836      36.893836      36.893836    
   2050000   0.5472471     -7.7015987     -6.8807397      4.5515923      50218.233      36.893836      36.893836      36.893836    
   2060000   0.54954543    -7.7075555     -6.8832491      4.5191347      50218.233      36.893836      36.893836      36.893836    
   2070000   0.55054907    -7.7071585     -6.8813466      4.5285797      50218.233      36.893836      36.893836      36.893836    
   2080000   0.5492901     -7.7013453     -6.8774219      4.5630382      50218.233      36.893836      36.893836      36.893836    
   2090000   0.54822122    -7.7072319     -6.8849117      4.5113128      50218.233      36.893836      36.893836      36.893836    
   2100000   0.54841794    -7.7057733     -6.8831581      4.5305612      50218.233      36.893836      36.893836      36.893836    
   2110000   0.55040275    -7.7045145     -6.8789221      4.5458655      50218.233      36.893836      36.893836      36.893836    
   2120000   0.54782051    -7.710039      -6.8883199      4.4909815      50218.233      36.893836      36.893836      36.893836    
   2130000   0.55056181    -7.7045256     -6.8786946      4.535728       50218.233      36.893836      36.893836      36.893836    
   2140000   0.55198932    -7.7053239     -6.8773517      4.5317053      50218.233      36.893836      36.893836      36.893836    
   2150000   0.5485555     -7.7008847     -6.8780631      4.5632352      50218.233      36.893836      36.893836      36.893836    
   2160000   0.55097986    -7.6980799     -6.8716219      4.5978565      50218.233      36.893836      36.893836      36.893836    
   2170000   0.54798785    -7.705352      -6.8833819      4.5341732      50218.233      36.893836      36.893836      36.893836    
   2180000   0.54870601    -7.7031807     -6.8801334      4.5461692      50218.233      36.893836      36.893836      36.893836    
   2190000   0.55051907    -7.7028043     -6.8770374      4.5478773      50218.233      36.893836      36.893836      36.893836    
   2200000   0.54899922    -7.7067355     -6.8832484      4.5245362      50218.233      36.893836      36.893836      36.893836    
   2210000   0.5504288     -7.6988635     -6.8732321      4.5852963      50218.233      36.893836      36.893836      36.893836    
   2220000   0.55103867    -7.7080351     -6.8814889      4.5149508      50218.233      36.893836      36.893836      36.893836    
   2230000   0.54973393    -7.7011742     -6.8765851      4.5666004      50218.233      36.893836      36.893836      36.893836    
   2240000   0.54983313    -7.7082507     -6.8835127      4.5046898      50218.233      36.893836      36.893836      36.893836    
   2250000   0.55188409    -7.709735      -6.8819207      4.502144       50218.233      36.893836      36.893836      36.893836    
   2260000   0.55006957    -7.7036373     -6.8785447      4.5457033      50218.233      36.893836      36.893836      36.893836    
   2270000   0.55192015    -7.7060254     -6.8781569      4.5283093      50218.233      36.893836      36.893836      36.893836    
   2280000   0.55070092    -7.7060847     -6.8800451      4.5220108      50218.233      36.893836      36.893836      36.893836    
   2290000   0.55106804    -7.7070011     -6.8804107      4.522152       50218.233      36.893836      36.893836      36.893836    
   2300000   0.55148698    -7.709417      -6.8821983      4.5026268      50218.233      36.893836      36.893836      36.893836    
   2310000   0.55051931    -7.7037994     -6.8780322      4.5555506      50218.233      36.893836      36.893836      36.893836    
   2320000   0.54884512    -7.701972      -6.878716       4.5601134      50218.233      36.893836      36.893836      36.893836    
   2330000   0.55195059    -7.7077868     -6.8798727      4.5179959      50218.233      36.893836      36.893836      36.893836    
   2340000   0.55031211    -7.7081946     -6.8827382      4.5246371      50218.233      36.893836      36.893836      36.893836    
   2350000   0.54703955    -7.7062204     -6.8856727      4.5255104      50218.233      36.893836      36.893836      36.893836    
   2360000   0.54750268    -7.7076549     -6.8864126      4.5145479      50218.233      36.893836      36.893836      36.893836    
   2370000   0.55069866    -7.7065236     -6.8804874      4.5363392      50218.233      36.893836      36.893836      36.893836    
   2380000   0.54750494    -7.7024212     -6.8811755      4.5564359      50218.233      36.893836      36.893836      36.893836    
   2390000   0.54938024    -7.704355      -6.8802964      4.5386645      50218.233      36.893836      36.893836      36.893836    
   2400000   0.5514212     -7.7081667     -6.8810467      4.513613       50218.233      36.893836      36.893836      36.893836    
   2410000   0.55260353    -7.708889      -6.8799955      4.5174944      50218.233      36.893836      36.893836      36.893836    
   2420000   0.55024156    -7.7060634     -6.8807128      4.5416184      50218.233      36.893836      36.893836      36.893836    
   2430000   0.54892845    -7.702177      -6.878796       4.5630025      50218.233      36.893836      36.893836      36.893836    
   2440000   0.54638312    -7.7106916     -6.8911286      4.4900048      50218.233      36.893836      36.893836      36.893836    
   2450000   0.54865161    -7.7067556     -6.8837899      4.5230008      50218.233      36.893836      36.893836      36.893836    
   2460000   0.54787551    -7.712414      -6.8906124      4.488706       50218.233      36.893836      36.893836      36.893836    
   2470000   0.5481762     -7.7074776     -6.885225       4.5108874      50218.233      36.893836      36.893836      36.893836    
   2480000   0.54945699    -7.7038307     -6.879657       4.5531731      50218.233      36.893836      36.893836      36.893836    
   2490000   0.54983947    -7.7084423     -6.8836949      4.5080817      50218.233      36.893836      36.893836      36.893836    
   2500000   0.55058956    -7.7082438     -6.8823712      4.5045165      50218.233      36.893836      36.893836      36.893836    
   2510000   0.55118065    -7.7099065     -6.8831473      4.4972444      50218.233      36.893836      36.893836      36.893836    
   2520000   0.55053665    -7.7075864     -6.8817932      4.5200618      50218.233      36.893836      36.893836      36.893836    
   2530000   0.55120284    -7.703722      -6.8769295      4.5411455      50218.233      36.893836      36.893836      36.893836    
   2540000   0.54964458    -7.7063988     -6.8819436      4.5287966      50218.233      36.893836      36.893836      36.893836    
   2550000   0.55060403    -7.7058836     -6.8799893      4.5189775      50218.233      36.893836      36.893836      36.893836    
   2560000   0.55274408    -7.7073109     -6.8782066      4.5392676      50218.233      36.893836      36.893836      36.893836    
   2570000   0.5504221     -7.704577      -6.8789556      4.5481397      50218.233      36.893836      36.893836      36.893836    
   2580000   0.54928111    -7.7088381     -6.8849282      4.5099453      50218.233      36.893836      36.893836      36.893836    
   2590000   0.54982976    -7.7079666     -6.8832337      4.5240324      50218.233      36.893836      36.893836      36.893836    
   2600000   0.55101731    -7.707115      -6.8806008      4.5169897      50218.233      36.893836      36.893836      36.893836    
   2610000   0.55069673    -7.7008926     -6.8748593      4.5633418      50218.233      36.893836      36.893836      36.893836    
   2620000   0.54849633    -7.7038161     -6.8810833      4.5476258      50218.233      36.893836      36.893836      36.893836    
   2630000   0.55171842    -7.7064214     -6.8788556      4.5225972      50218.233      36.893836      36.893836      36.893836    
   2640000   0.55109671    -7.7054369     -6.8788036      4.5312684      50218.233      36.893836      36.893836      36.893836    
   2650000   0.55066246    -7.703909      -6.8779271      4.5446392      50218.233      36.893836      36.893836      36.893836    
   2660000   0.54779273    -7.7059741     -6.8842967      4.5220503      50218.233      36.893836      36.893836      36.893836    
   2670000   0.55005459    -7.7031593     -6.8780891      4.5574762      50218.233      36.893836      36.893836      36.893836    
   2680000   0.55000401    -7.7031217     -6.8781274      4.5461008      50218.233      36.893836      36.893836      36.893836    
   2690000   0.55133851    -7.7108358     -6.8838398      4.4860417      50218.233      36.893836      36.893836      36.893836    
   2700000   0.55166226    -7.7053466     -6.877865       4.5326106      50218.233      36.893836      36.893836      36.893836    
   2710000   0.54884868    -7.710739      -6.8874777      4.488765       50218.233      36.893836      36.893836      36.893836    
   2720000   0.55079734    -7.7097634     -6.8835791      4.5035418      50218.233      36.893836      36.893836      36.893836    
   2730000   0.5480813     -7.7086888     -6.8865785      4.5041962      50218.233      36.893836      36.893836      36.893836    
   2740000   0.54907917    -7.7095466     -6.8859396      4.4987048      50218.233      36.893836      36.893836      36.893836    
   2750000   0.55023374    -7.7042996     -6.8789607      4.5492054      50218.233      36.893836      36.893836      36.893836    
   2760000   0.55301278    -7.7026895     -6.8731821      4.5464137      50218.233      36.893836      36.893836      36.893836    
   2770000   0.54770457    -7.7109893     -6.8894442      4.4740983      50218.233      36.893836      36.893836      36.893836    
   2780000   0.5493054     -7.7090053     -6.8850589      4.4957783      50218.233      36.893836      36.893836      36.893836    
   2790000   0.55141316    -7.7038387     -6.8767308      4.5435533      50218.233      36.893836      36.893836      36.893836    
   2800000   0.55028283    -7.708893      -6.8834805      4.5199626      50218.233      36.893836      36.893836      36.893836    
   2810000   0.54980011    -7.71114       -6.8864516      4.4885456      50218.233      36.893836      36.893836      36.893836    
   2820000   0.55096857    -7.7038514     -6.8774103      4.5600296      50218.233      36.893836      36.893836      36.893836    
   2830000   0.55013123    -7.7084753     -6.8832901      4.5177244      50218.233      36.893836      36.893836      36.893836    
   2840000   0.55238113    -7.7075048     -6.8789449      4.5139672      50218.233      36.893836      36.893836      36.893836    
   2850000   0.54750835    -7.7050266     -6.8837758      4.5362412      50218.233      36.893836      36.893836      36.893836    
   2860000   0.55025063    -7.7048402     -6.879476       4.5379021      50218.233      36.893836      36.893836      36.893836    
   2870000   0.54910172    -7.7053736     -6.8817327      4.530964       50218.233      36.893836      36.893836      36.893836    
   2880000   0.54662243    -7.7055704     -6.8856484      4.5288459      50218.233      36.893836      36.893836      36.893836    
   2890000   0.54978611    -7.7077719     -6.8831045      4.5223504      50218.233      36.893836      36.893836      36.893836    
   2900000   0.54931806    -7.7020588     -6.8780934      4.5502734      50218.233      36.893836      36.893836      36.893836    
   2910000   0.54946433    -7.7059644     -6.8817797      4.5245481      50218.233      36.893836      36.893836      36.893836    
   2920000   0.54503526    -7.7051989     -6.8876576      4.5208295      50218.233      36.893836      36.893836      36.893836    
   2930000   0.55102424    -7.7045995     -6.8780749      4.537869       50218.233      36.893836      36.893836      36.893836    
   2940000   0.54991281    -7.7073295     -6.882472       4.515822       50218.233      36.893836      36.893836      36.893836    
   2950000   0.5521228     -7.7039285     -6.875756       4.5643326      50218.233      36.893836      36.893836      36.893836    
   2960000   0.54900933    -7.7067758     -6.8832735      4.521374       50218.233      36.893836      36.893836      36.893836    
   2970000   0.54824416    -7.7056624     -6.8833079      4.5354467      50218.233      36.893836      36.893836      36.893836    
   2980000   0.54859034    -7.700745      -6.8778712      4.5724285      50218.233      36.893836      36.893836      36.893836    
   2990000   0.55042969    -7.7065365     -6.8809037      4.5175252      50218.233      36.893836      36.893836      36.893836    
   3000000   0.55104428    -7.7016633     -6.8751086      4.5793943      50218.233      36.893836      36.893836      36.893836    
   3010000   0.5498959     -7.7052717     -6.8804396      4.5485163      50218.233      36.893836      36.893836      36.893836    
   3020000   0.54952497    -7.7050804     -6.8808047      4.5371621      50218.233      36.893836      36.893836      36.893836    
   3030000   0.55204679    -7.7042623     -6.8762039      4.5409819      50218.233      36.893836      36.893836      36.893836    
   3040000   0.54803367    -7.7082426     -6.8862038      4.5145056      50218.233      36.893836      36.893836      36.893836    
   3050000   0.55273235    -7.7080251     -6.8789384      4.5284333      50218.233      36.893836      36.893836      36.893836    
   3060000   0.55145838    -7.7054976     -6.8783218      4.5379333      50218.233      36.893836      36.893836      36.893836    
   3070000   0.551606      -7.7052474     -6.8778502      4.5279991      50218.233      36.893836      36.893836      36.893836    
   3080000   0.54893463    -7.7032974     -6.8799071      4.5364075      50218.233      36.893836      36.893836      36.893836    
   3090000   0.55016659    -7.7055086     -6.8802705      4.5196905      50218.233      36.893836      36.893836      36.893836    
   3100000   0.54836051    -7.7052283     -6.8826992      4.519733       50218.233      36.893836      36.893836      36.893836    
   3110000   0.55254452    -7.6964884     -6.8676834      4.6009525      50218.233      36.893836      36.893836      36.893836    
   3120000   0.55160747    -7.7028679     -6.8754684      4.557615       50218.233      36.893836      36.893836      36.893836    
   3130000   0.54761187    -7.7041933     -6.8827872      4.5302622      50218.233      36.893836      36.893836      36.893836    
   3140000   0.55293995    -7.7082214     -6.8788232      4.5184599      50218.233      36.893836      36.893836      36.893836    
   3150000   0.55173039    -7.7066017     -6.8790179      4.5205877      50218.233      36.893836      36.893836      36.893836    
   3160000   0.55003381    -7.7061227     -6.8810837      4.5210502      50218.233      36.893836      36.893836      36.893836    
   3170000   0.55092874    -7.7005329     -6.8741515      4.5796373      50218.233      36.893836      36.893836      36.893836    
   3180000   0.54914658    -7.701411      -6.8777028      4.5640295      50218.233      36.893836      36.893836      36.893836    
   3190000   0.55095039    -7.7011423     -6.8747285      4.5575847      50218.233      36.893836      36.893836      36.893836    
   3200000   0.55184042    -7.6999377     -6.8721889      4.5741098      50218.233      36.893836      36.893836      36.893836    
   3210000   0.55418658    -7.7068573     -6.8755893      4.5142159      50218.233      36.893836      36.893836      36.893836    
   3220000   0.54937349    -7.7054251     -6.8813765      4.543236       50218.233      36.893836      36.893836      36.893836    
   3230000   0.54721716    -7.7000706     -6.8792566      4.5746194      50218.233      36.893836      36.893836      36.893836    
   3240000   0.5493699     -7.69773       -6.8736869      4.5792262      50218.233      36.893836      36.893836      36.893836    
   3250000   0.54881813    -7.7045789     -6.8813634      4.530272       50218.233      36.893836      36.893836      36.893836    
   3260000   0.54811014    -7.6995383     -6.8773847      4.5725271      50218.233      36.893836      36.893836      36.893836    
   3270000   0.54703294    -7.7071136     -6.8865758      4.5126584      50218.233      36.893836      36.893836      36.893836    
   3280000   0.54997053    -7.70527       -6.8803259      4.5281349      50218.233      36.893836      36.893836      36.893836    
   3290000   0.55111178    -7.7064312     -6.8797753      4.5298271      50218.233      36.893836      36.893836      36.893836    
   3300000   0.55075585    -7.7024202     -6.8762982      4.559402       50218.233      36.893836      36.893836      36.893836    
   3310000   0.55010835    -7.6999389     -6.8747881      4.5805039      50218.233      36.893836      36.893836      36.893836    
   3320000   0.54770739    -7.7044274     -6.882878       4.5306517      50218.233      36.893836      36.893836      36.893836    
   3330000   0.5507239     -7.7014476     -6.8753735      4.5642615      50218.233      36.893836      36.893836      36.893836    
   3340000   0.54930636    -7.7073086     -6.8833608      4.5186577      50218.233      36.893836      36.893836      36.893836    
   3350000   0.54957739    -7.7026477     -6.8782933      4.5548806      50218.233      36.893836      36.893836      36.893836    
   3360000   0.54968189    -7.7038144     -6.8793033      4.5529922      50218.233      36.893836      36.893836      36.893836    
   3370000   0.5484362     -7.7022562     -6.8796136      4.556522       50218.233      36.893836      36.893836      36.893836    
   3380000   0.55133116    -7.7017234     -6.8747384      4.5577895      50218.233      36.893836      36.893836      36.893836    
   3390000   0.54728501    -7.7050762     -6.8841604      4.5310041      50218.233      36.893836      36.893836      36.893836    
   3400000   0.55104242    -7.7062298     -6.8796779      4.5334064      50218.233      36.893836      36.893836      36.893836    
   3410000   0.54821074    -7.7029767     -6.8806723      4.5514409      50218.233      36.893836      36.893836      36.893836    
   3420000   0.54896396    -7.7086454     -6.8852112      4.5024818      50218.233      36.893836      36.893836      36.893836    
   3430000   0.54837197    -7.7004627     -6.8779164      4.566043       50218.233      36.893836      36.893836      36.893836    
   3440000   0.55172064    -7.7014044     -6.8738352      4.5639326      50218.233      36.893836      36.893836      36.893836    
   3450000   0.54978402    -7.6970289     -6.8723646      4.5862746      50218.233      36.893836      36.893836      36.893836    
   3460000   0.54879327    -7.7011513     -6.8779731      4.5684571      50218.233      36.893836      36.893836      36.893836    
   3470000   0.54974319    -7.7053831     -6.8807801      4.5344789      50218.233      36.893836      36.893836      36.893836    
   3480000   0.54674641    -7.7050473     -6.8849393      4.5291704      50218.233      36.893836      36.893836      36.893836    
   3490000   0.54596248    -7.6973671     -6.878435       4.5787579      50218.233      36.893836      36.893836      36.893836    
   3500000   0.55051333    -7.7032309     -6.8774726      4.5564957      50218.233      36.893836      36.893836      36.893836    
   3510000   0.54888126    -7.7059327     -6.8826226      4.5354689      50218.233      36.893836      36.893836      36.893836    
   3520000   0.5530212     -7.701273      -6.871753       4.5687799      50218.233      36.893836      36.893836      36.893836    
   3530000   0.54835743    -7.6989021     -6.8763777      4.585511       50218.233      36.893836      36.893836      36.893836    
   3540000   0.54943328    -7.698706      -6.8745678      4.5870405      50218.233      36.893836      36.893836      36.893836    
   3550000   0.55109811    -7.7033713     -6.8767359      4.5372345      50218.233      36.893836      36.893836      36.893836    
   3560000   0.54953522    -7.6990994     -6.8748083      4.5909273      50218.233      36.893836      36.893836      36.893836    
   3570000   0.54984682    -7.6986935     -6.873935       4.5826401      50218.233      36.893836      36.893836      36.893836    
   3580000   0.54996117    -7.7035604     -6.8786304      4.5466521      50218.233      36.893836      36.893836      36.893836    
   3590000   0.54969015    -7.7036179     -6.8790944      4.5596343      50218.233      36.893836      36.893836      36.893836    
   3600000   0.55036149    -7.6998171     -6.8742866      4.5829372      50218.233      36.893836      36.893836      36.893836    
   3610000   0.54355164    -7.6985775     -6.8832616      4.5754699      50218.233      36.893836      36.893836      36.893836    
   3620000   0.55095112    -7.7064251     -6.8800101      4.5358089      50218.233      36.893836      36.893836      36.893836    
   3630000   0.547289      -7.6979626     -6.8770407      4.5835454      50218.233      36.893836      36.893836      36.893836    
   3640000   0.55260901    -7.6978773     -6.8689756      4.588792       50218.233      36.893836      36.893836      36.893836    
   3650000   0.55087583    -7.699336      -6.873034       4.5832541      50218.233      36.893836      36.893836      36.893836    
   3660000   0.55056827    -7.70258       -6.8767393      4.5515672      50218.233      36.893836      36.893836      36.893836    
   3670000   0.5489831     -7.7005675     -6.8771045      4.5696595      50218.233      36.893836      36.893836      36.893836    
   3680000   0.55122511    -7.701308      -6.8744821      4.5642665      50218.233      36.893836      36.893836      36.893836    
   3690000   0.54858126    -7.7027473     -6.8798872      4.5484084      50218.233      36.893836      36.893836      36.893836    
   3700000   0.54813663    -7.7001259     -6.8779326      4.5758919      50218.233      36.893836      36.893836      36.893836    
   3710000   0.54917003    -7.6996723     -6.875929       4.5867463      50218.233      36.893836      36.893836      36.893836    
   3720000   0.54746977    -7.7061903     -6.8849973      4.5234014      50218.233      36.893836      36.893836      36.893836    
   3730000   0.54861181    -7.6999608     -6.8770548      4.5790715      50218.233      36.893836      36.893836      36.893836    
   3740000   0.54864885    -7.7008808     -6.8779192      4.5686368      50218.233      36.893836      36.893836      36.893836    
   3750000   0.55360471    -7.7041649     -6.8737696      4.5472745      50218.233      36.893836      36.893836      36.893836    
   3760000   0.55140672    -7.7007124     -6.8736141      4.5728472      50218.233      36.893836      36.893836      36.893836    
   3770000   0.54967979    -7.7068647     -6.8823568      4.5114543      50218.233      36.893836      36.893836      36.893836    
   3780000   0.55189399    -7.7053497     -6.8775205      4.5356291      50218.233      36.893836      36.893836      36.893836    
   3790000   0.54801299    -7.7023516     -6.8803438      4.554797       50218.233      36.893836      36.893836      36.893836    
   3800000   0.55087108    -7.7053099     -6.879015       4.5394943      50218.233      36.893836      36.893836      36.893836    
   3810000   0.55122524    -7.709559      -6.8827329      4.5020436      50218.233      36.893836      36.893836      36.893836    
   3820000   0.54959597    -7.7072938     -6.8829116      4.5214443      50218.233      36.893836      36.893836      36.893836    
   3830000   0.5495925     -7.7046825     -6.8803054      4.5435629      50218.233      36.893836      36.893836      36.893836    
   3840000   0.55236845    -7.7023181     -6.8737772      4.5615132      50218.233      36.893836      36.893836      36.893836    
   3850000   0.54764257    -7.6971735     -6.8757214      4.6073849      50218.233      36.893836      36.893836      36.893836    
   3860000   0.55165867    -7.7003168     -6.8728405      4.5765904      50218.233      36.893836      36.893836      36.893836    
   3870000   0.54928928    -7.7022328     -6.8783106      4.5515045      50218.233      36.893836      36.893836      36.893836    
   3880000   0.5524443     -7.7052251     -6.8765704      4.5417777      50218.233      36.893836      36.893836      36.893836    
   3890000   0.55038699    -7.7006844     -6.8751157      4.5744296      50218.233      36.893836      36.893836      36.893836    
   3900000   0.55108694    -7.7039404     -6.8773218      4.5530895      50218.233      36.893836      36.893836      36.893836    
   3910000   0.54801874    -7.7060682     -6.8840517      4.5152871      50218.233      36.893836      36.893836      36.893836    
   3920000   0.54878498    -7.7064471     -6.8832814      4.53126        50218.233      36.893836      36.893836      36.893836    
   3930000   0.54932816    -7.7009108     -6.8769302      4.5662156      50218.233      36.893836      36.893836      36.893836    
   3940000   0.54777365    -7.7033625     -6.8817137      4.537579       50218.233      36.893836      36.893836      36.893836    
   3950000   0.54990606    -7.7117715     -6.8869242      4.4830463      50218.233      36.893836      36.893836      36.893836    
   3960000   0.54964854    -7.7022288     -6.8777678      4.554767       50218.233      36.893836      36.893836      36.893836    
   3970000   0.5484478     -7.7101341     -6.8874741      4.4884163      50218.233      36.893836      36.893836      36.893836    
   3980000   0.5491681     -7.7002262     -6.8764858      4.5774791      50218.233      36.893836      36.893836      36.893836    
   3990000   0.54869845    -7.7064622     -6.8834263      4.5144167      50218.233      36.893836      36.893836      36.893836    
   4000000   0.54911604    -7.698029      -6.8743667      4.5859272      50218.233      36.893836      36.893836      36.893836    
   4010000   0.54927291    -7.7020285     -6.8781308      4.5571915      50218.233      36.893836      36.893836      36.893836    
   4020000   0.55070574    -7.706476      -6.8804292      4.5299176      50218.233      36.893836      36.893836      36.893836    
   4030000   0.55016847    -7.7040047     -6.8787638      4.5431894      50218.233      36.893836      36.893836      36.893836    
   4040000   0.553074      -7.704679      -6.8750798      4.5441686      50218.233      36.893836      36.893836      36.893836    
   4050000   0.5529252     -7.7027037     -6.8733277      4.5554555      50218.233      36.893836      36.893836      36.893836    
   4060000   0.55190648    -7.7062172     -6.8783692      4.5308986      50218.233      36.893836      36.893836      36.893836    
   4070000   0.54740062    -7.699385      -6.8782958      4.5768471      50218.233      36.893836      36.893836      36.893836    
   4080000   0.55025149    -7.7025819     -6.8772164      4.556208       50218.233      36.893836      36.893836      36.893836    
   4090000   0.5513978     -7.7000376     -6.8729527      4.5699168      50218.233      36.893836      36.893836      36.893836    
   4100000   0.55198234    -7.6989337     -6.870972       4.5787871      50218.233      36.893836      36.893836      36.893836    
   4110000   0.55262529    -7.7032343     -6.8743081      4.555379       50218.233      36.893836      36.893836      36.893836    
   4120000   0.54941388    -7.7040146     -6.8799056      4.541457       50218.233      36.893836      36.893836      36.893836    
   4130000   0.55274064    -7.704115      -6.8750158      4.5513174      50218.233      36.893836      36.893836      36.893836    
   4140000   0.54776469    -7.7066115     -6.8849762      4.5188727      50218.233      36.893836      36.893836      36.893836    
   4150000   0.55104951    -7.7065222     -6.8799597      4.5240708      50218.233      36.893836      36.893836      36.893836    
   4160000   0.54928172    -7.7046642     -6.8807533      4.5359245      50218.233      36.893836      36.893836      36.893836    
   4170000   0.54953011    -7.7056453     -6.8813618      4.5384818      50218.233      36.893836      36.893836      36.893836    
   4180000   0.54897256    -7.7028441     -6.879397       4.5504307      50218.233      36.893836      36.893836      36.893836    
   4190000   0.54684889    -7.7044149     -6.8841532      4.5306803      50218.233      36.893836      36.893836      36.893836    
   4200000   0.55095102    -7.7078976     -6.8814828      4.5212934      50218.233      36.893836      36.893836      36.893836    
   4210000   0.55099552    -7.7087116     -6.88223        4.510639       50218.233      36.893836      36.893836      36.893836    
   4220000   0.55085046    -7.7036436     -6.8773797      4.5491444      50218.233      36.893836      36.893836      36.893836    
   4230000   0.54961517    -7.70417       -6.8797589      4.5507963      50218.233      36.893836      36.893836      36.893836    
   4240000   0.55102497    -7.7069486     -6.8804229      4.5382574      50218.233      36.893836      36.893836      36.893836    
   4250000   0.54914675    -7.7041094     -6.880401       4.5454519      50218.233      36.893836      36.893836      36.893836    
   4260000   0.55113493    -7.707487      -6.8807964      4.5207974      50218.233      36.893836      36.893836      36.893836    
   4270000   0.55105282    -7.7027369     -6.8761694      4.5543319      50218.233      36.893836      36.893836      36.893836    
   4280000   0.54858624    -7.7053283     -6.8824607      4.5362863      50218.233      36.893836      36.893836      36.893836    
   4290000   0.54751466    -7.7027562     -6.8814959      4.5569055      50218.233      36.893836      36.893836      36.893836    
   4300000   0.55438154    -7.7045857     -6.8730252      4.5428376      50218.233      36.893836      36.893836      36.893836    
   4310000   0.55021626    -7.6974456     -6.872133       4.5860973      50218.233      36.893836      36.893836      36.893836    
   4320000   0.54915427    -7.7058344     -6.8821147      4.5319546      50218.233      36.893836      36.893836      36.893836    
   4330000   0.5518576     -7.7062083     -6.8784336      4.536062       50218.233      36.893836      36.893836      36.893836    
   4340000   0.55010946    -7.7034758     -6.8783234      4.5525512      50218.233      36.893836      36.893836      36.893836    
   4350000   0.54823355    -7.7078254     -6.8854867      4.5121681      50218.233      36.893836      36.893836      36.893836    
   4360000   0.55040267    -7.7067338     -6.8811415      4.5105972      50218.233      36.893836      36.893836      36.893836    
   4370000   0.55242516    -7.7049034     -6.8762775      4.5407099      50218.233      36.893836      36.893836      36.893836    
   4380000   0.54834295    -7.7040636     -6.8815608      4.5414464      50218.233      36.893836      36.893836      36.893836    
   4390000   0.54916136    -7.7020708     -6.8783405      4.5617541      50218.233      36.893836      36.893836      36.893836    
   4400000   0.54953057    -7.7072078     -6.8829237      4.5231736      50218.233      36.893836      36.893836      36.893836    
   4410000   0.54929039    -7.7027843     -6.8788605      4.5417282      50218.233      36.893836      36.893836      36.893836    
   4420000   0.5495616     -7.701429      -6.8770983      4.5676985      50218.233      36.893836      36.893836      36.893836    
   4430000   0.54940264    -7.7048936     -6.8808014      4.5485863      50218.233      36.893836      36.893836      36.893836    
   4440000   0.54603093    -7.7039302     -6.8848955      4.5413273      50218.233      36.893836      36.893836      36.893836    
   4450000   0.55126098    -7.7042846     -6.8774049      4.5350384      50218.233      36.893836      36.893836      36.893836    
   4460000   0.54698666    -7.7048016     -6.8843333      4.535884       50218.233      36.893836      36.893836      36.893836    
   4470000   0.55027259    -7.7042864     -6.8788892      4.5324585      50218.233      36.893836      36.893836      36.893836    
   4480000   0.5479717     -7.7010827     -6.8791368      4.5605792      50218.233      36.893836      36.893836      36.893836    
   4490000   0.54946405    -7.6965882     -6.8724038      4.5994427      50218.233      36.893836      36.893836      36.893836    
   4500000   0.54692093    -7.6992664     -6.8788967      4.5683485      50218.233      36.893836      36.893836      36.893836    
   4510000   0.54941689    -7.7034435     -6.8793299      4.5425704      50218.233      36.893836      36.893836      36.893836    
   4520000   0.54727376    -7.7029456     -6.8820467      4.5490303      50218.233      36.893836      36.893836      36.893836    
   4530000   0.54974718    -7.7003992     -6.8757902      4.5825418      50218.233      36.893836      36.893836      36.893836    
   4540000   0.54859384    -7.6996529     -6.8767739      4.5646427      50218.233      36.893836      36.893836      36.893836    
   4550000   0.54647541    -7.6993034     -6.8796019      4.5734603      50218.233      36.893836      36.893836      36.893836    
   4560000   0.54848645    -7.6995385     -6.8768206      4.5754622      50218.233      36.893836      36.893836      36.893836    
   4570000   0.54795323    -7.7016144     -6.8796963      4.5514363      50218.233      36.893836      36.893836      36.893836    
   4580000   0.54998691    -7.7009618     -6.8759932      4.5680711      50218.233      36.893836      36.893836      36.893836    
   4590000   0.54825263    -7.7085101     -6.8861428      4.5038318      50218.233      36.893836      36.893836      36.893836    
   4600000   0.54753631    -7.7075813     -6.8862886      4.5147565      50218.233      36.893836      36.893836      36.893836    
   4610000   0.54973629    -7.7029987     -6.878406       4.553095       50218.233      36.893836      36.893836      36.893836    
   4620000   0.54739522    -7.7056945     -6.8846134      4.5211819      50218.233      36.893836      36.893836      36.893836    
   4630000   0.55100801    -7.7076825     -6.8811822      4.5245835      50218.233      36.893836      36.893836      36.893836    
   4640000   0.54982434    -7.7049609     -6.8802361      4.5276834      50218.233      36.893836      36.893836      36.893836    
   4650000   0.55003457    -7.7049078     -6.8798677      4.5444572      50218.233      36.893836      36.893836      36.893836    
   4660000   0.55023839    -7.7056618     -6.8803159      4.5183973      50218.233      36.893836      36.893836      36.893836    
   4670000   0.5516511     -7.7028311     -6.8753663      4.551566       50218.233      36.893836      36.893836      36.893836    
   4680000   0.54824303    -7.705009      -6.8826562      4.5344107      50218.233      36.893836      36.893836      36.893836    
   4690000   0.54838778    -7.7032788     -6.8807089      4.5474797      50218.233      36.893836      36.893836      36.893836    
   4700000   0.54766498    -7.704178      -6.8826922      4.5387461      50218.233      36.893836      36.893836      36.893836    
   4710000   0.54981993    -7.7013051     -6.876587       4.5640309      50218.233      36.893836      36.893836      36.893836    
   4720000   0.55141691    -7.703955      -6.8768414      4.5503746      50218.233      36.893836      36.893836      36.893836    
   4730000   0.54837436    -7.7034939     -6.880944       4.5601586      50218.233      36.893836      36.893836      36.893836    
   4740000   0.55024697    -7.7083934     -6.8830347      4.5089024      50218.233      36.893836      36.893836      36.893836    
   4750000   0.55068808    -7.7038864     -6.8778661      4.5425862      50218.233      36.893836      36.893836      36.893836    
   4760000   0.5481779     -7.6992216     -6.8769665      4.5790372      50218.233      36.893836      36.893836      36.893836    
   4770000   0.54968703    -7.7080903     -6.8835715      4.5189941      50218.233      36.893836      36.893836      36.893836    
   4780000   0.55166882    -7.7029252     -6.8754338      4.5573785      50218.233      36.893836      36.893836      36.893836    
   4790000   0.55133786    -7.7017365     -6.8747414      4.5673268      50218.233      36.893836      36.893836      36.893836    
   4800000   0.55196799    -7.7012539     -6.8733137      4.5708316      50218.233      36.893836      36.893836      36.893836    
   4810000   0.5504652     -7.7042052     -6.8785192      4.5442225      50218.233      36.893836      36.893836      36.893836    
   4820000   0.55516909    -7.703195      -6.8704532      4.5526386      50218.233      36.893836      36.893836      36.893836    
   4830000   0.55024464    -7.697694      -6.8723388      4.5952985      50218.233      36.893836      36.893836      36.893836    
   4840000   0.55041133    -7.6976884     -6.8720832      4.5832286      50218.233      36.893836      36.893836      36.893836    
   4850000   0.55221128    -7.7009014     -6.8725962      4.5655953      50218.233      36.893836      36.893836      36.893836    
   4860000   0.54674983    -7.702681      -6.882568       4.5432468      50218.233      36.893836      36.893836      36.893836    
   4870000   0.5526476     -7.7038302     -6.8748706      4.5459023      50218.233      36.893836      36.893836      36.893836    
   4880000   0.54810547    -7.7083128     -6.8861663      4.513665       50218.233      36.893836      36.893836      36.893836    
   4890000   0.54916054    -7.7043047     -6.8805756      4.5336671      50218.233      36.893836      36.893836      36.893836    
   4900000   0.54926669    -7.699617      -6.8757287      4.5725673      50218.233      36.893836      36.893836      36.893836    
   4910000   0.55019092    -7.7012101     -6.8759355      4.5674078      50218.233      36.893836      36.893836      36.893836    
   4920000   0.55058112    -7.6992716     -6.8734117      4.5598072      50218.233      36.893836      36.893836      36.893836    
   4930000   0.54819011    -7.7050073     -6.8827338      4.5343039      50218.233      36.893836      36.893836      36.893836    
   4940000   0.55115136    -7.7050543     -6.878339       4.5407477      50218.233      36.893836      36.893836      36.893836    
   4950000   0.54890932    -7.7036895     -6.8803372      4.5648243      50218.233      36.893836      36.893836      36.893836    
   4960000   0.5483978     -7.6981919     -6.8756069      4.5958757      50218.233      36.893836      36.893836      36.893836    
   4970000   0.54842024    -7.7062997     -6.883681       4.5363234      50218.233      36.893836      36.893836      36.893836    
   4980000   0.55033783    -7.7060439     -6.8805489      4.5195164      50218.233      36.893836      36.893836      36.893836    
   4990000   0.55150533    -7.707609      -6.8803628      4.5235798      50218.233      36.893836      36.893836      36.893836    
   5000000   0.54802035    -7.707325      -6.8853062      4.5224868      50218.233      36.893836      36.893836      36.893836    
   5010000   0.55340962    -7.7087097     -6.8786071      4.5114372      50218.233      36.893836      36.893836      36.893836    
   5020000   0.55193889    -7.6997134     -6.8718168      4.5790002      50218.233      36.893836      36.893836      36.893836    
   5030000   0.55263167    -7.7064546     -6.8775189      4.525081       50218.233      36.893836      36.893836      36.893836    
   5040000   0.55001499    -7.7055271     -6.8805164      4.5355864      50218.233      36.893836      36.893836      36.893836    
   5050000   0.5505854     -7.7034396     -6.8775732      4.5527502      50218.233      36.893836      36.893836      36.893836    
   5060000   0.55059949    -7.7056807     -6.8797932      4.5324039      50218.233      36.893836      36.893836      36.893836    
   5070000   0.5519406     -7.7008583     -6.8729592      4.5711292      50218.233      36.893836      36.893836      36.893836    
   5080000   0.54975466    -7.7000974     -6.8754771      4.5642705      50218.233      36.893836      36.893836      36.893836    
   5090000   0.55016783    -7.7102345     -6.8849945      4.4949414      50218.233      36.893836      36.893836      36.893836    
   5100000   0.55113337    -7.7038915     -6.8772032      4.5451224      50218.233      36.893836      36.893836      36.893836    
   5110000   0.54634959    -7.7045579     -6.8850451      4.5347342      50218.233      36.893836      36.893836      36.893836    
   5120000   0.54946222    -7.7035022     -6.8793206      4.5669896      50218.233      36.893836      36.893836      36.893836    
   5130000   0.54907902    -7.7042474     -6.8806406      4.547655       50218.233      36.893836      36.893836      36.893836    
   5140000   0.55103435    -7.7053677     -6.8788279      4.5491289      50218.233      36.893836      36.893836      36.893836    
   5150000   0.54935514    -7.7045948     -6.8805738      4.5496004      50218.233      36.893836      36.893836      36.893836    
   5160000   0.54944816    -7.7024437     -6.8782831      4.5444866      50218.233      36.893836      36.893836      36.893836    
   5170000   0.54951527    -7.7070182     -6.882757       4.5339344      50218.233      36.893836      36.893836      36.893836    
   5180000   0.5515887     -7.7051762     -6.8778049      4.5482637      50218.233      36.893836      36.893836      36.893836    
   5190000   0.55117382    -7.7044071     -6.8776581      4.5370623      50218.233      36.893836      36.893836      36.893836    
   5200000   0.55220907    -7.7067641     -6.8784623      4.5346597      50218.233      36.893836      36.893836      36.893836    
   5210000   0.54797207    -7.7021083     -6.8801619      4.5493421      50218.233      36.893836      36.893836      36.893836    
   5220000   0.5483803     -7.7055446     -6.8829858      4.5421913      50218.233      36.893836      36.893836      36.893836    
   5230000   0.54810126    -7.7004075     -6.8782673      4.5691695      50218.233      36.893836      36.893836      36.893836    
   5240000   0.55002365    -7.7032876     -6.8782638      4.5575192      50218.233      36.893836      36.893836      36.893836    
   5250000   0.54892338    -7.7024042     -6.8790308      4.5537647      50218.233      36.893836      36.893836      36.893836    
   5260000   0.55039256    -7.6998581     -6.874281       4.5808344      50218.233      36.893836      36.893836      36.893836    
   5270000   0.55146851    -7.7030541     -6.8758631      4.5619694      50218.233      36.893836      36.893836      36.893836    
   5280000   0.55088785    -7.7029601     -6.8766401      4.5516546      50218.233      36.893836      36.893836      36.893836    
   5290000   0.55015296    -7.7017689     -6.8765512      4.5544508      50218.233      36.893836      36.893836      36.893836    
   5300000   0.55028858    -7.7041144     -6.8786933      4.5426028      50218.233      36.893836      36.893836      36.893836    
   5310000   0.5515964     -7.7031667     -6.8757839      4.5545106      50218.233      36.893836      36.893836      36.893836    
   5320000   0.54940466    -7.7058787     -6.8817834      4.5240318      50218.233      36.893836      36.893836      36.893836    
   5330000   0.55045213    -7.7034335     -6.8777671      4.5497036      50218.233      36.893836      36.893836      36.893836    
   5340000   0.55061127    -7.7049426     -6.8790374      4.5402564      50218.233      36.893836      36.893836      36.893836    
   5350000   0.55047107    -7.7022097     -6.8765148      4.5541368      50218.233      36.893836      36.893836      36.893836    
   5360000   0.54842153    -7.7021981     -6.8795775      4.5559895      50218.233      36.893836      36.893836      36.893836    
   5370000   0.54776976    -7.7031988     -6.8815558      4.5447785      50218.233      36.893836      36.893836      36.893836    
   5380000   0.54810869    -7.7030647     -6.8809134      4.5587353      50218.233      36.893836      36.893836      36.893836    
   5390000   0.54844694    -7.7006488     -6.8779901      4.5600998      50218.233      36.893836      36.893836      36.893836    
   5400000   0.54970846    -7.7043067     -6.8797557      4.5437349      50218.233      36.893836      36.893836      36.893836    
   5410000   0.55276262    -7.6971821     -6.8680499      4.5941797      50218.233      36.893836      36.893836      36.893836    
   5420000   0.55145189    -7.7033129     -6.8761469      4.5563449      50218.233      36.893836      36.893836      36.893836    
   5430000   0.54918464    -7.7060409     -6.8822757      4.5215706      50218.233      36.893836      36.893836      36.893836    
   5440000   0.55149873    -7.7040674     -6.8768311      4.5438215      50218.233      36.893836      36.893836      36.893836    
   5450000   0.54979544    -7.7024093     -6.8777279      4.5553146      50218.233      36.893836      36.893836      36.893836    
   5460000   0.55213675    -7.708157      -6.8799636      4.5218437      50218.233      36.893836      36.893836      36.893836    
   5470000   0.55022698    -7.708823      -6.8834943      4.5170429      50218.233      36.893836      36.893836      36.893836    
   5480000   0.54845294    -7.7017083     -6.8790406      4.564144       50218.233      36.893836      36.893836      36.893836    
   5490000   0.54905975    -7.702582      -6.8790041      4.5603451      50218.233      36.893836      36.893836      36.893836    
   5500000   0.54989318    -7.7028317     -6.8780037      4.5511672      50218.233      36.893836      36.893836      36.893836    
   5510000   0.54943966    -7.7033386     -6.8791909      4.5500484      50218.233      36.893836      36.893836      36.893836    
   5520000   0.54766742    -7.7023898     -6.8809004      4.5549591      50218.233      36.893836      36.893836      36.893836    
   5530000   0.54882288    -7.7006817     -6.8774591      4.5667066      50218.233      36.893836      36.893836      36.893836    
   5540000   0.5483237     -7.7061004     -6.8836265      4.5160047      50218.233      36.893836      36.893836      36.893836    
   5550000   0.55347317    -7.7074205     -6.8772225      4.5292495      50218.233      36.893836      36.893836      36.893836    
   5560000   0.5511798     -7.6985805     -6.8718226      4.5849032      50218.233      36.893836      36.893836      36.893836    
   5570000   0.54985021    -7.7018427     -6.8770791      4.5543567      50218.233      36.893836      36.893836      36.893836    
   5580000   0.54797137    -7.7025515     -6.8806062      4.5522667      50218.233      36.893836      36.893836      36.893836    
   5590000   0.54869143    -7.7050498     -6.8820244      4.5362703      50218.233      36.893836      36.893836      36.893836    
   5600000   0.55158019    -7.7055994     -6.8782409      4.5483181      50218.233      36.893836      36.893836      36.893836    
   5610000   0.54967841    -7.7048533     -6.8803474      4.5437368      50218.233      36.893836      36.893836      36.893836    
   5620000   0.54926083    -7.7034917     -6.8796122      4.558027       50218.233      36.893836      36.893836      36.893836    
   5630000   0.5498979     -7.7043263     -6.8794911      4.5506784      50218.233      36.893836      36.893836      36.893836    
   5640000   0.55094764    -7.7039798     -6.8775701      4.5383051      50218.233      36.893836      36.893836      36.893836    
   5650000   0.55161128    -7.7028478     -6.8754426      4.5536796      50218.233      36.893836      36.893836      36.893836    
   5660000   0.55106447    -7.7024585     -6.8758736      4.5512849      50218.233      36.893836      36.893836      36.893836    
   5670000   0.54918222    -7.7024508     -6.8786892      4.555867       50218.233      36.893836      36.893836      36.893836    
   5680000   0.54880604    -7.7062792     -6.8830819      4.5128381      50218.233      36.893836      36.893836      36.893836    
   5690000   0.55002407    -7.7064593     -6.8814349      4.5230493      50218.233      36.893836      36.893836      36.893836    
   5700000   0.5500495     -7.7044553     -6.8793928      4.5419913      50218.233      36.893836      36.893836      36.893836    
   5710000   0.55080016    -7.7039679     -6.8777794      4.5410671      50218.233      36.893836      36.893836      36.893836    
   5720000   0.54913817    -7.7058547     -6.8821592      4.5293631      50218.233      36.893836      36.893836      36.893836    
   5730000   0.54993864    -7.7072351     -6.8823389      4.517271       50218.233      36.893836      36.893836      36.893836    
   5740000   0.549794      -7.7009112     -6.8762319      4.5659517      50218.233      36.893836      36.893836      36.893836    
   5750000   0.5478561     -7.710328      -6.8885555      4.4949155      50218.233      36.893836      36.893836      36.893836    
   5760000   0.55333797    -7.7059553     -6.8759602      4.5323719      50218.233      36.893836      36.893836      36.893836    
   5770000   0.54601045    -7.7055498     -6.8865458      4.5220092      50218.233      36.893836      36.893836      36.893836    
   5780000   0.54721982    -7.7042399     -6.8834219      4.5367448      50218.233      36.893836      36.893836      36.893836    
   5790000   0.54907732    -7.7022435     -6.8786393      4.5611088      50218.233      36.893836      36.893836      36.893836    
   5800000   0.55011255    -7.6999762     -6.8748191      4.5757015      50218.233      36.893836      36.893836      36.893836    
   5810000   0.54872161    -7.7062071     -6.8831364      4.5141488      50218.233      36.893836      36.893836      36.893836    
   5820000   0.55198686    -7.7023979     -6.8744294      4.5660319      50218.233      36.893836      36.893836      36.893836    
   5830000   0.55035455    -7.7024962     -6.8769761      4.5571964      50218.233      36.893836      36.893836      36.893836    
   5840000   0.5494395     -7.7040624     -6.8799149      4.5401841      50218.233      36.893836      36.893836      36.893836    
   5850000   0.55214998    -7.7055066     -6.8772934      4.5320532      50218.233      36.893836      36.893836      36.893836    
   5860000   0.55104797    -7.7071959     -6.8806357      4.5320855      50218.233      36.893836      36.893836      36.893836    
   5870000   0.55442057    -7.7034092     -6.8717901      4.5509036      50218.233      36.893836      36.893836      36.893836    
   5880000   0.54706686    -7.7050531     -6.8844645      4.5379227      50218.233      36.893836      36.893836      36.893836    
   5890000   0.55186487    -7.7081923     -6.8804067      4.5197113      50218.233      36.893836      36.893836      36.893836    
   5900000   0.55038141    -7.7090983     -6.883538       4.5004309      50218.233      36.893836      36.893836      36.893836    
   5910000   0.54678307    -7.7041723     -6.8840094      4.5452975      50218.233      36.893836      36.893836      36.893836    
   5920000   0.54879552    -7.704051      -6.8808695      4.5466799      50218.233      36.893836      36.893836      36.893836    
   5930000   0.5502876     -7.7075883     -6.8821687      4.5128872      50218.233      36.893836      36.893836      36.893836    
   5940000   0.55119152    -7.7045388     -6.8777633      4.5371372      50218.233      36.893836      36.893836      36.893836    
   5950000   0.5512641     -7.7042866     -6.8774022      4.5422554      50218.233      36.893836      36.893836      36.893836    
   5960000   0.54972236    -7.705077      -6.8805052      4.5399411      50218.233      36.893836      36.893836      36.893836    
   5970000   0.54717548    -7.7063642     -6.8856127      4.5203816      50218.233      36.893836      36.893836      36.893836    
   5980000   0.55216094    -7.7016971     -6.8734675      4.5629491      50218.233      36.893836      36.893836      36.893836    
   5990000   0.54951177    -7.7048144     -6.8805585      4.5481011      50218.233      36.893836      36.893836      36.893836    
   6000000   0.55054905    -7.7062569     -6.8804451      4.5256707      50218.233      36.893836      36.893836      36.893836    
   6010000   0.54890611    -7.7030797     -6.8797322      4.5556278      50218.233      36.893836      36.893836      36.893836    
   6020000   0.55006438    -7.7027646     -6.8776798      4.5458416      50218.233      36.893836      36.893836      36.893836    
   6030000   0.55161254    -7.7074958     -6.8800888      4.5159188      50218.233      36.893836      36.893836      36.893836    
   6040000   0.54706362    -7.7006228     -6.880039       4.56237        50218.233      36.893836      36.893836      36.893836    
   6050000   0.55083689    -7.7083882     -6.8821446      4.4979949      50218.233      36.893836      36.893836      36.893836    
   6060000   0.55041191    -7.7053764     -6.8797703      4.5275367      50218.233      36.893836      36.893836      36.893836    
   6070000   0.5507315     -7.7028752     -6.8767897      4.5402839      50218.233      36.893836      36.893836      36.893836    
   6080000   0.54839579    -7.6960214     -6.8734395      4.5984574      50218.233      36.893836      36.893836      36.893836    
   6090000   0.55210787    -7.7013883     -6.8732383      4.5665921      50218.233      36.893836      36.893836      36.893836    
   6100000   0.54860604    -7.7042976     -6.8814002      4.5447879      50218.233      36.893836      36.893836      36.893836    
   6110000   0.54839581    -7.7059207     -6.8833387      4.5282383      50218.233      36.893836      36.893836      36.893836    
   6120000   0.55006283    -7.7117886     -6.8867061      4.4820672      50218.233      36.893836      36.893836      36.893836    
   6130000   0.55087716    -7.7084176     -6.8821136      4.5109421      50218.233      36.893836      36.893836      36.893836    
   6140000   0.55110063    -7.7024221     -6.8757829      4.5560555      50218.233      36.893836      36.893836      36.893836    
   6150000   0.54984309    -7.699624      -6.8748711      4.5705419      50218.233      36.893836      36.893836      36.893836    
   6160000   0.55165348    -7.7056391     -6.8781706      4.5255114      50218.233      36.893836      36.893836      36.893836    
   6170000   0.55263259    -7.7037652     -6.8748281      4.5608963      50218.233      36.893836      36.893836      36.893836    
   6180000   0.54956232    -7.7062627     -6.8819309      4.5346934      50218.233      36.893836      36.893836      36.893836    
   6190000   0.54888408    -7.706447      -6.8831326      4.5283111      50218.233      36.893836      36.893836      36.893836    
   6200000   0.55053019    -7.7052353     -6.8794518      4.5450966      50218.233      36.893836      36.893836      36.893836    
   6210000   0.55030089    -7.7063704     -6.8809308      4.5233771      50218.233      36.893836      36.893836      36.893836    
   6220000   0.54980448    -7.7068698     -6.8821748      4.5176899      50218.233      36.893836      36.893836      36.893836    
   6230000   0.55335239    -7.7043941     -6.8743774      4.5508591      50218.233      36.893836      36.893836      36.893836    
   6240000   0.5525334     -7.7057642     -6.8769759      4.5474912      50218.233      36.893836      36.893836      36.893836    
   6250000   0.55006883    -7.7065063     -6.8814148      4.5314271      50218.233      36.893836      36.893836      36.893836    
   6260000   0.54812286    -7.7009181     -6.8787455      4.5679974      50218.233      36.893836      36.893836      36.893836    
   6270000   0.54952937    -7.7012889     -6.8770066      4.5694261      50218.233      36.893836      36.893836      36.893836    
   6280000   0.54710448    -7.7087775     -6.8881325      4.5037312      50218.233      36.893836      36.893836      36.893836    
   6290000   0.5488376     -7.7097275     -6.8864828      4.5013835      50218.233      36.893836      36.893836      36.893836    
   6300000   0.55143535    -7.7022405     -6.8750992      4.5646908      50218.233      36.893836      36.893836      36.893836    
   6310000   0.54730091    -7.7076947     -6.886755       4.5100166      50218.233      36.893836      36.893836      36.893836    
   6320000   0.54933495    -7.7047013     -6.8807106      4.5342573      50218.233      36.893836      36.893836      36.893836    
   6330000   0.55133636    -7.7044137     -6.8774209      4.5402531      50218.233      36.893836      36.893836      36.893836    
   6340000   0.54983387    -7.701615      -6.8768759      4.5627769      50218.233      36.893836      36.893836      36.893836    
   6350000   0.55233929    -7.7049151     -6.8764179      4.5366897      50218.233      36.893836      36.893836      36.893836    
   6360000   0.55270195    -7.7035763     -6.8745352      4.5496445      50218.233      36.893836      36.893836      36.893836    
   6370000   0.55015005    -7.6990414     -6.873828       4.5779403      50218.233      36.893836      36.893836      36.893836    
   6380000   0.54946223    -7.7062238     -6.8820422      4.5294575      50218.233      36.893836      36.893836      36.893836    
   6390000   0.54938602    -7.7030696     -6.8790023      4.5447757      50218.233      36.893836      36.893836      36.893836    
   6400000   0.54950328    -7.7019204     -6.8776772      4.5565084      50218.233      36.893836      36.893836      36.893836    
   6410000   0.55008788    -7.7010051     -6.8758851      4.5798585      50218.233      36.893836      36.893836      36.893836    
   6420000   0.54936524    -7.7001353     -6.8760992      4.5707726      50218.233      36.893836      36.893836      36.893836    
   6430000   0.54684132    -7.7033238     -6.8830735      4.5384128      50218.233      36.893836      36.893836      36.893836    
   6440000   0.55107843    -7.7037505     -6.8771446      4.5518582      50218.233      36.893836      36.893836      36.893836    
   6450000   0.54829412    -7.7055511     -6.8831216      4.5283469      50218.233      36.893836      36.893836      36.893836    
   6460000   0.55023009    -7.7023426     -6.8770092      4.5609985      50218.233      36.893836      36.893836      36.893836    
   6470000   0.55153808    -7.69847       -6.8711747      4.586642       50218.233      36.893836      36.893836      36.893836    
   6480000   0.54869588    -7.6974874     -6.8744553      4.604374       50218.233      36.893836      36.893836      36.893836    
   6490000   0.54831651    -7.7031442     -6.8806811      4.5522765      50218.233      36.893836      36.893836      36.893836    
   6500000   0.5527939     -7.6989618     -6.8697828      4.5877005      50218.233      36.893836      36.893836      36.893836    
   6510000   0.55204778    -7.6977333     -6.8696734      4.5848626      50218.233      36.893836      36.893836      36.893836    
   6520000   0.55047482    -7.7011014     -6.8754009      4.5788783      50218.233      36.893836      36.893836      36.893836    
   6530000   0.55120586    -7.7008316     -6.8740346      4.5714331      50218.233      36.893836      36.893836      36.893836    
   6540000   0.54875493    -7.6970146     -6.8738939      4.5927716      50218.233      36.893836      36.893836      36.893836    
   6550000   0.54777438    -7.6969558     -6.8753059      4.5939743      50218.233      36.893836      36.893836      36.893836    
   6560000   0.54776823    -7.7023524     -6.8807118      4.5444326      50218.233      36.893836      36.893836      36.893836    
   6570000   0.55034919    -7.6982642     -6.8727522      4.5851583      50218.233      36.893836      36.893836      36.893836    
   6580000   0.55222455    -7.7005268     -6.8722018      4.5778863      50218.233      36.893836      36.893836      36.893836    
   6590000   0.55021624    -7.7007487     -6.8754361      4.561893       50218.233      36.893836      36.893836      36.893836    
   6600000   0.54897092    -7.7038268     -6.8803822      4.5462942      50218.233      36.893836      36.893836      36.893836    
   6610000   0.54743082    -7.7023561     -6.8812215      4.5593541      50218.233      36.893836      36.893836      36.893836    
   6620000   0.54890591    -7.7057669     -6.8824197      4.525348       50218.233      36.893836      36.893836      36.893836    
   6630000   0.55227589    -7.702386      -6.873984       4.5485133      50218.233      36.893836      36.893836      36.893836    
   6640000   0.54914894    -7.7032301     -6.8795184      4.5287149      50218.233      36.893836      36.893836      36.893836    
   6650000   0.55000109    -7.6985338     -6.8735439      4.582108       50218.233      36.893836      36.893836      36.893836    
   6660000   0.54969374    -7.7014311     -6.8769023      4.5544272      50218.233      36.893836      36.893836      36.893836    
   6670000   0.54726739    -7.6998339     -6.8789445      4.5741516      50218.233      36.893836      36.893836      36.893836    
   6680000   0.55124992    -7.7048743     -6.8780112      4.5330689      50218.233      36.893836      36.893836      36.893836    
   6690000   0.54958582    -7.6995954     -6.8752284      4.584574       50218.233      36.893836      36.893836      36.893836    
   6700000   0.54637853    -7.7010226     -6.8814665      4.5468397      50218.233      36.893836      36.893836      36.893836    
   6710000   0.55071518    -7.7040354     -6.8779744      4.5548605      50218.233      36.893836      36.893836      36.893836    
   6720000   0.550344      -7.7006355     -6.8751313      4.5674617      50218.233      36.893836      36.893836      36.893836    
   6730000   0.55108659    -7.7006438     -6.8740257      4.5695097      50218.233      36.893836      36.893836      36.893836    
   6740000   0.55179012    -7.7073878     -6.8797144      4.5164426      50218.233      36.893836      36.893836      36.893836    
   6750000   0.55076699    -7.7013736     -6.8752349      4.5648396      50218.233      36.893836      36.893836      36.893836    
   6760000   0.54886361    -7.7094698     -6.8861861      4.4961121      50218.233      36.893836      36.893836      36.893836    
   6770000   0.54858139    -7.703344      -6.8804837      4.5454746      50218.233      36.893836      36.893836      36.893836    
   6780000   0.55122781    -7.7046195     -6.8777896      4.5367231      50218.233      36.893836      36.893836      36.893836    
   6790000   0.54726097    -7.7010187     -6.8801389      4.5676885      50218.233      36.893836      36.893836      36.893836    
   6800000   0.54755032    -7.701311      -6.8799972      4.5574089      50218.233      36.893836      36.893836      36.893836    
   6810000   0.55091586    -7.7066089     -6.8802469      4.5275621      50218.233      36.893836      36.893836      36.893836    
   6820000   0.54928654    -7.7064414     -6.8825233      4.537258       50218.233      36.893836      36.893836      36.893836    
   6830000   0.54959336    -7.7047765     -6.8803982      4.5300027      50218.233      36.893836      36.893836      36.893836    
   6840000   0.55119127    -7.7025583     -6.8757831      4.5435751      50218.233      36.893836      36.893836      36.893836    
   6850000   0.54948486    -7.7093993     -6.8851837      4.4991852      50218.233      36.893836      36.893836      36.893836    
   6860000   0.55208334    -7.7007628     -6.8726496      4.5743577      50218.233      36.893836      36.893836      36.893836    
   6870000   0.54852975    -7.709181      -6.886398       4.5024201      50218.233      36.893836      36.893836      36.893836    
   6880000   0.55177402    -7.7069118     -6.8792625      4.5233866      50218.233      36.893836      36.893836      36.893836    
   6890000   0.55160537    -7.7021293     -6.874733       4.5556433      50218.233      36.893836      36.893836      36.893836    
   6900000   0.54983746    -7.7089179     -6.8841734      4.5109132      50218.233      36.893836      36.893836      36.893836    
   6910000   0.54753037    -7.69932       -6.8780361      4.5834551      50218.233      36.893836      36.893836      36.893836    
   6920000   0.5459123     -7.7081338     -6.889277       4.5092227      50218.233      36.893836      36.893836      36.893836    
   6930000   0.54859652    -7.7066513     -6.8837682      4.5244438      50218.233      36.893836      36.893836      36.893836    
   6940000   0.54780641    -7.7022929     -6.880595       4.5442879      50218.233      36.893836      36.893836      36.893836    
   6950000   0.55179473    -7.7085436     -6.8808633      4.5073441      50218.233      36.893836      36.893836      36.893836    
   6960000   0.55018097    -7.706254      -6.8809943      4.5289119      50218.233      36.893836      36.893836      36.893836    
   6970000   0.54881547    -7.6987727     -6.8755612      4.5974893      50218.233      36.893836      36.893836      36.893836    
   6980000   0.54986983    -7.7008668     -6.8760738      4.5738243      50218.233      36.893836      36.893836      36.893836    
   6990000   0.55284649    -7.7049464     -6.8756885      4.5365996      50218.233      36.893836      36.893836      36.893836    
   7000000   0.54876122    -7.7017126     -6.8785825      4.5543782      50218.233      36.893836      36.893836      36.893836    
   7010000   0.55167921    -7.7028793     -6.8753723      4.5661859      50218.233      36.893836      36.893836      36.893836    
   7020000   0.55245824    -7.7053967     -6.8767212      4.5361172      50218.233      36.893836      36.893836      36.893836    
   7030000   0.54705952    -7.701265      -6.8806874      4.5548587      50218.233      36.893836      36.893836      36.893836    
   7040000   0.54672956    -7.7015774     -6.8814947      4.5561258      50218.233      36.893836      36.893836      36.893836    
   7050000   0.54964549    -7.7051554     -6.8806989      4.5407476      50218.233      36.893836      36.893836      36.893836    
   7060000   0.54745279    -7.7021232     -6.8809556      4.5601186      50218.233      36.893836      36.893836      36.893836    
   7070000   0.54958656    -7.7079556     -6.8835875      4.5217835      50218.233      36.893836      36.893836      36.893836    
   7080000   0.5535675     -7.7055861     -6.8752467      4.542513       50218.233      36.893836      36.893836      36.893836    
   7090000   0.54792391    -7.7031925     -6.8813183      4.5696072      50218.233      36.893836      36.893836      36.893836    
   7100000   0.55019562    -7.7130337     -6.887752       4.4824404      50218.233      36.893836      36.893836      36.893836    
   7110000   0.55231361    -7.7041366     -6.8756779      4.5547647      50218.233      36.893836      36.893836      36.893836    
   7120000   0.54767212    -7.7076037     -6.8861072      4.5133728      50218.233      36.893836      36.893836      36.893836    
   7130000   0.55212137    -7.7068575     -6.8786872      4.5320657      50218.233      36.893836      36.893836      36.893836    
   7140000   0.54821936    -7.7090079     -6.8866905      4.508713       50218.233      36.893836      36.893836      36.893836    
   7150000   0.54704146    -7.7107975     -6.890247       4.4988038      50218.233      36.893836      36.893836      36.893836    
   7160000   0.55248937    -7.7024973     -6.873775       4.561526       50218.233      36.893836      36.893836      36.893836    
   7170000   0.54910306    -7.7054391     -6.8817962      4.5328578      50218.233      36.893836      36.893836      36.893836    
   7180000   0.54891164    -7.7081001     -6.8847444      4.5168204      50218.233      36.893836      36.893836      36.893836    
   7190000   0.54982889    -7.7060697     -6.8813381      4.5378646      50218.233      36.893836      36.893836      36.893836    
   7200000   0.5496716     -7.7078615     -6.8833658      4.5091052      50218.233      36.893836      36.893836      36.893836    
   7210000   0.55020868    -7.7111216     -6.8858203      4.5057026      50218.233      36.893836      36.893836      36.893836    
   7220000   0.55264938    -7.7070187     -6.8780564      4.526523       50218.233      36.893836      36.893836      36.893836    
   7230000   0.54780389    -7.7071886     -6.8854944      4.5172074      50218.233      36.893836      36.893836      36.893836    
   7240000   0.5516114     -7.7028809     -6.8754756      4.5594254      50218.233      36.893836      36.893836      36.893836    
   7250000   0.55103969    -7.7066681     -6.8801203      4.5240172      50218.233      36.893836      36.893836      36.893836    
   7260000   0.5517076     -7.7051008     -6.8775512      4.5419562      50218.233      36.893836      36.893836      36.893836    
   7270000   0.55140273    -7.7006976     -6.8736053      4.5719381      50218.233      36.893836      36.893836      36.893836    
   7280000   0.5527886     -7.7033481     -6.874177       4.5485232      50218.233      36.893836      36.893836      36.893836    
   7290000   0.55024046    -7.706907      -6.881558       4.5128138      50218.233      36.893836      36.893836      36.893836    
   7300000   0.5484203     -7.7093331     -6.8867143      4.5092974      50218.233      36.893836      36.893836      36.893836    
   7310000   0.54928191    -7.7006687     -6.8767575      4.574482       50218.233      36.893836      36.893836      36.893836    
   7320000   0.54670654    -7.7071754     -6.8871272      4.5182062      50218.233      36.893836      36.893836      36.893836    
   7330000   0.54938906    -7.7033175     -6.8792457      4.5502246      50218.233      36.893836      36.893836      36.893836    
   7340000   0.55066431    -7.7021296     -6.8761448      4.5637817      50218.233      36.893836      36.893836      36.893836    
   7350000   0.55052347    -7.7006053     -6.8748318      4.5722846      50218.233      36.893836      36.893836      36.893836    
   7360000   0.54730358    -7.7032211     -6.8822774      4.5534521      50218.233      36.893836      36.893836      36.893836    
   7370000   0.54742361    -7.7006428     -6.8795191      4.5802382      50218.233      36.893836      36.893836      36.893836    
   7380000   0.55245306    -7.6965491     -6.8678813      4.6146672      50218.233      36.893836      36.893836      36.893836    
   7390000   0.54838256    -7.70135       -6.8787878      4.5541173      50218.233      36.893836      36.893836      36.893836    
   7400000   0.54973907    -7.7028087     -6.8782118      4.5472641      50218.233      36.893836      36.893836      36.893836    
   7410000   0.55106978    -7.7040203     -6.8774274      4.5454078      50218.233      36.893836      36.893836      36.893836    
   7420000   0.54843507    -7.7015162     -6.8788753      4.5540131      50218.233      36.893836      36.893836      36.893836    
   7430000   0.54992881    -7.7019617     -6.8770803      4.5559416      50218.233      36.893836      36.893836      36.893836    
   7440000   0.54948876    -7.7011096     -6.8768882      4.5606273      50218.233      36.893836      36.893836      36.893836    
   7450000   0.54952504    -7.706707      -6.8824312      4.5095405      50218.233      36.893836      36.893836      36.893836    
   7460000   0.55139498    -7.7069597     -6.879879       4.5259439      50218.233      36.893836      36.893836      36.893836    
   7470000   0.55047104    -7.7039357     -6.8782409      4.5512651      50218.233      36.893836      36.893836      36.893836    
   7480000   0.55055582    -7.7016054     -6.8757834      4.5590122      50218.233      36.893836      36.893836      36.893836    
   7490000   0.54933227    -7.7034894     -6.8795027      4.554647       50218.233      36.893836      36.893836      36.893836    
   7500000   0.5508827     -7.6997578     -6.8734455      4.5850101      50218.233      36.893836      36.893836      36.893836    
   7510000   0.54776187    -7.7004713     -6.8788402      4.5671123      50218.233      36.893836      36.893836      36.893836    
   7520000   0.54720635    -7.7074493     -6.8866514      4.5155952      50218.233      36.893836      36.893836      36.893836    
   7530000   0.54964772    -7.6987983     -6.8743384      4.5773341      50218.233      36.893836      36.893836      36.893836    
   7540000   0.55073619    -7.70711       -6.8810175      4.5206074      50218.233      36.893836      36.893836      36.893836    
   7550000   0.55055586    -7.7020362     -6.8762141      4.5481159      50218.233      36.893836      36.893836      36.893836    
   7560000   0.5489549     -7.7037036     -6.880283       4.544887       50218.233      36.893836      36.893836      36.893836    
   7570000   0.54895954    -7.702075      -6.8786474      4.5612461      50218.233      36.893836      36.893836      36.893836    
   7580000   0.54703138    -7.6989875     -6.8784521      4.5820898      50218.233      36.893836      36.893836      36.893836    
   7590000   0.54942341    -7.6999515     -6.8758281      4.5712864      50218.233      36.893836      36.893836      36.893836    
   7600000   0.55142883    -7.7042039     -6.8770724      4.5352506      50218.233      36.893836      36.893836      36.893836    
   7610000   0.5493804     -7.6973698     -6.8733109      4.591468       50218.233      36.893836      36.893836      36.893836    
   7620000   0.54882519    -7.6978768     -6.8746508      4.583637       50218.233      36.893836      36.893836      36.893836    
   7630000   0.55148971    -7.7011046     -6.8738818      4.5710862      50218.233      36.893836      36.893836      36.893836    
   7640000   0.55126952    -7.7074621     -6.8805696      4.5192477      50218.233      36.893836      36.893836      36.893836    
   7650000   0.55011875    -7.7027544     -6.877588       4.5545068      50218.233      36.893836      36.893836      36.893836    
   7660000   0.55260032    -7.6997771     -6.8708884      4.5819214      50218.233      36.893836      36.893836      36.893836    
   7670000   0.54997239    -7.7024831     -6.8775363      4.5557549      50218.233      36.893836      36.893836      36.893836    
   7680000   0.55121665    -7.703789      -6.8769758      4.5524998      50218.233      36.893836      36.893836      36.893836    
   7690000   0.55004088    -7.7060731     -6.8810235      4.530262       50218.233      36.893836      36.893836      36.893836    
   7700000   0.54897497    -7.7086297     -6.885179       4.5080281      50218.233      36.893836      36.893836      36.893836    
   7710000   0.54823699    -7.7029929     -6.8806491      4.5565594      50218.233      36.893836      36.893836      36.893836    
   7720000   0.5514108     -7.7009761     -6.8738717      4.5688394      50218.233      36.893836      36.893836      36.893836    
   7730000   0.54864754    -7.7009584     -6.8779988      4.5644056      50218.233      36.893836      36.893836      36.893836    
   7740000   0.54987401    -7.7046361     -6.8798368      4.5478756      50218.233      36.893836      36.893836      36.893836    
   7750000   0.55006857    -7.7034538     -6.8783627      4.542678       50218.233      36.893836      36.893836      36.893836    
   7760000   0.54663533    -7.700146      -6.8802047      4.5700793      50218.233      36.893836      36.893836      36.893836    
   7770000   0.54865643    -7.7042084     -6.8812355      4.5376578      50218.233      36.893836      36.893836      36.893836    
   7780000   0.54778938    -7.707049      -6.8853766      4.5206143      50218.233      36.893836      36.893836      36.893836    
   7790000   0.54766391    -7.70289       -6.8814058      4.5503468      50218.233      36.893836      36.893836      36.893836    
   7800000   0.55023617    -7.7035982     -6.8782557      4.5426004      50218.233      36.893836      36.893836      36.893836    
   7810000   0.55159997    -7.7020484     -6.8746602      4.562164       50218.233      36.893836      36.893836      36.893836    
   7820000   0.55202587    -7.7041414     -6.8761143      4.5498795      50218.233      36.893836      36.893836      36.893836    
   7830000   0.54659679    -7.7033083     -6.8834248      4.5359863      50218.233      36.893836      36.893836      36.893836    
   7840000   0.55143258    -7.7008325     -6.8736953      4.5747064      50218.233      36.893836      36.893836      36.893836    
   7850000   0.54743599    -7.7035752     -6.8824329      4.5446271      50218.233      36.893836      36.893836      36.893836    
   7860000   0.55210003    -7.7009305     -6.8727922      4.5732897      50218.233      36.893836      36.893836      36.893836    
   7870000   0.5478897     -7.703128      -6.8813052      4.5631673      50218.233      36.893836      36.893836      36.893836    
   7880000   0.55101082    -7.7065329     -6.8800284      4.5294663      50218.233      36.893836      36.893836      36.893836    
   7890000   0.54840625    -7.7062545     -6.8836568      4.5223337      50218.233      36.893836      36.893836      36.893836    
   7900000   0.54981721    -7.7054292     -6.8807151      4.53076        50218.233      36.893836      36.893836      36.893836    
   7910000   0.55029827    -7.7046        -6.8791643      4.5490714      50218.233      36.893836      36.893836      36.893836    
   7920000   0.55184594    -7.695898      -6.8681409      4.6107314      50218.233      36.893836      36.893836      36.893836    
   7930000   0.55362703    -7.700432      -6.8700033      4.5795155      50218.233      36.893836      36.893836      36.893836    
   7940000   0.54899872    -7.707987      -6.8845006      4.518609       50218.233      36.893836      36.893836      36.893836    
   7950000   0.54868707    -7.7069209     -6.883902       4.5191693      50218.233      36.893836      36.893836      36.893836    
   7960000   0.5482121     -7.7061554     -6.883849       4.5227041      50218.233      36.893836      36.893836      36.893836    
   7970000   0.54674735    -7.7019848     -6.8818755      4.5625521      50218.233      36.893836      36.893836      36.893836    
   7980000   0.55030388    -7.7022945     -6.8768504      4.5577584      50218.233      36.893836      36.893836      36.893836    
   7990000   0.54953054    -7.7005946     -6.8763105      4.5669622      50218.233      36.893836      36.893836      36.893836    
   8000000   0.55169116    -7.706         -6.8784751      4.5379762      50218.233      36.893836      36.893836      36.893836    
Loop time of 12811.6 on 5 procs for 8000000 steps with 70304 atoms

Performance: 539512.291 tau/day, 624.436 timesteps/s, 43.900 Matom-step/s
94.4% CPU use with 5 MPI tasks x 1 OpenMP threads

MPI task timing breakdown:
Section |  min time  |  avg time  |  max time  |%varavg| %total
---------------------------------------------------------------
Pair    | 4627.1     | 4993.9     | 5556.4     | 541.8 | 38.98
Neigh   | 41.631     | 45.608     | 55.845     |  77.4 |  0.36
Comm    | 1933.1     | 1965.5     | 2011.8     |  75.4 | 15.34
Output  | 0.14431    | 0.14919    | 0.15834    |   1.3 |  0.00
Modify  | 4573.8     | 5172.9     | 5571.2     | 567.3 | 40.38
Other   |            | 633.5      |            |       |  4.95

Nlocal:        14060.8 ave       14088 max       14041 min
Histogram: 2 0 0 1 0 0 0 1 0 1
Nghost:        18737.2 ave       18771 max       18682 min
Histogram: 1 0 0 0 0 1 0 1 1 1
Neighs:              0 ave           0 max           0 min
Histogram: 5 0 0 0 0 0 0 0 0 0

Total # of neighbors = 0
Ave neighs/atom = 0
Neighbor list builds = 1720438
Dangerous builds = 0
clear
OMP_NUM_THREADS environment is not set. Defaulting to 1 thread. (src/comm.cpp:98)
  using 1 OpenMP thread(s) per MPI task
package gpu 0
jump dms530.lmp

variable T equal 530
# T = 1000* (temp in LJ unit)
variable f equal 10000
log log.${T}
log log.530
