variable TLJ equal (${T}/1000)
variable TLJ equal (415/1000)
variable NCyle equal 8
variable iStep equal (${f})
variable iStep equal (10000)
variable dumpStep equal (${f}*100)
variable dumpStep equal (10000*100)
variable runStep equal (${f}*100*${NCyle})
variable runStep equal (10000*100*${NCyle})
variable runStep equal (10000*100*8)

units       lj
atom_style  atomic
dimension 3
boundary     p p p
pair_style  lj/cut 2.5
read_data  ../data/T${T}.dat
read_data  ../data/T415.dat
Reading data file ...
  orthogonal box = (0.97250269 0.97250269 0.97250269) to (37.866338 37.866338 37.866338)
  1 by 1 by 5 MPI processor grid
  reading atoms ...
  70304 atoms
  reading velocities ...
  70304 velocities
  read_data CPU = 0.209 seconds
change_box all triclinic
Changing box ...
  triclinic box = (0.97250269 0.97250269 0.97250269) to (37.866338 37.866338 37.866338) with tilt (0 0 0)
mass 1 1
mass 2 1
pair_modify shift yes
pair_coeff  1 1 1 1
pair_coeff  1 2 1.5 0.8
pair_coeff  2 2 0.5 0.88


timestep 0.01
thermo ${iStep}
thermo 10000
reset_timestep 0
thermo_style custom step temp pe etotal press vol lx ly lz
fix             1 all nvt temp ${TLJ}  ${TLJ}  0.1
fix             1 all nvt temp 0.415  ${TLJ}  0.1
fix             1 all nvt temp 0.415  0.415  0.1
thermo_modify flush yes

fix dsf all deform 1 xy  wiggle 0.5  ${f}   units box
fix dsf all deform 1 xy  wiggle 0.5  10000   units box
fix ps1 all ave/time 1 1 ${iStep} c_thermo_press[1] c_thermo_press[2]  c_thermo_press[3] c_thermo_press[4]  c_thermo_press[5] c_thermo_press[6]  file  stress.${T}
fix ps1 all ave/time 1 1 10000 c_thermo_press[1] c_thermo_press[2]  c_thermo_press[3] c_thermo_press[4]  c_thermo_press[5] c_thermo_press[6]  file  stress.${T}
fix ps1 all ave/time 1 1 10000 c_thermo_press[1] c_thermo_press[2]  c_thermo_press[3] c_thermo_press[4]  c_thermo_press[5] c_thermo_press[6]  file  stress.415
dump            1 all custom ${dumpStep} dump.${T} id type x y z
dump            1 all custom 1000000 dump.${T} id type x y z
dump            1 all custom 1000000 dump.415 id type x y z
dump_modify 1 sort id
fix nodrift all momentum 1  linear 1 1 1
fix com_seed all recenter INIT INIT INIT shift all
run ${runStep}
run 8000000
Generated 0 of 1 mixed pair_coeff terms from geometric mixing rule
Per MPI rank memory allocation (min/avg/max) = 8.915 | 8.919 | 8.922 Mbytes
   Step          Temp          PotEng         TotEng         Press          Volume           Lx             Ly             Lz      
         0   0.41316543    -7.9705143     -7.350775       2.3752462      50218.233      36.893836      36.893836      36.893836    
     10000   0.41436365    -7.9652764     -7.3437398      2.4249051      50218.233      36.893836      36.893836      36.893836    
     20000   0.41396011    -7.968272      -7.3473406      2.3974048      50218.233      36.893836      36.893836      36.893836    
     30000   0.41410531    -7.9642567     -7.3431076      2.4363238      50218.233      36.893836      36.893836      36.893836    
     40000   0.41513064    -7.9636534     -7.3409663      2.4330311      50218.233      36.893836      36.893836      36.893836    
     50000   0.41742122    -7.9681159     -7.341993       2.4057082      50218.233      36.893836      36.893836      36.893836    
     60000   0.41495234    -7.9688708     -7.3464512      2.3899099      50218.233      36.893836      36.893836      36.893836    
     70000   0.41839878    -7.9644874     -7.3368982      2.4439794      50218.233      36.893836      36.893836      36.893836    
     80000   0.41405343    -7.9621228     -7.3410515      2.4454618      50218.233      36.893836      36.893836      36.893836    
     90000   0.4150377     -7.966695      -7.3441473      2.4116519      50218.233      36.893836      36.893836      36.893836    
    100000   0.41468774    -7.9647473     -7.3427246      2.4326021      50218.233      36.893836      36.893836      36.893836    
    110000   0.41733043    -7.9668217     -7.340835       2.4135046      50218.233      36.893836      36.893836      36.893836    
    120000   0.41385812    -7.9669838     -7.3462054      2.4196145      50218.233      36.893836      36.893836      36.893836    
    130000   0.41716034    -7.9649089     -7.3391773      2.4283812      50218.233      36.893836      36.893836      36.893836    
    140000   0.41612915    -7.9638708     -7.3396859      2.4370532      50218.233      36.893836      36.893836      36.893836    
    150000   0.41320159    -7.9637098     -7.3439162      2.4222727      50218.233      36.893836      36.893836      36.893836    
    160000   0.41337652    -7.968212      -7.348156       2.3921033      50218.233      36.893836      36.893836      36.893836    
    170000   0.41494018    -7.9624131     -7.3400117      2.4428622      50218.233      36.893836      36.893836      36.893836    
    180000   0.41694482    -7.9665455     -7.3411372      2.4152444      50218.233      36.893836      36.893836      36.893836    
    190000   0.41485883    -7.9611725     -7.3388931      2.4557737      50218.233      36.893836      36.893836      36.893836    
    200000   0.41380993    -7.9625549     -7.3418488      2.4444904      50218.233      36.893836      36.893836      36.893836    
    210000   0.41648695    -7.9651222     -7.3404007      2.4221273      50218.233      36.893836      36.893836      36.893836    
    220000   0.41370123    -7.9626592     -7.3421161      2.4444361      50218.233      36.893836      36.893836      36.893836    
    230000   0.41366292    -7.9635773     -7.3430918      2.4385857      50218.233      36.893836      36.893836      36.893836    
    240000   0.41649167    -7.9611084     -7.3363798      2.4596836      50218.233      36.893836      36.893836      36.893836    
    250000   0.41306899    -7.9675925     -7.3479978      2.4027845      50218.233      36.893836      36.893836      36.893836    
    260000   0.41457022    -7.9628596     -7.3410131      2.4388204      50218.233      36.893836      36.893836      36.893836    
    270000   0.41560976    -7.9648293     -7.3414235      2.431414       50218.233      36.893836      36.893836      36.893836    
    280000   0.41664883    -7.9653028     -7.3403385      2.430384       50218.233      36.893836      36.893836      36.893836    
    290000   0.41567424    -7.9652161     -7.3417137      2.4272915      50218.233      36.893836      36.893836      36.893836    
    300000   0.41384482    -7.9664948     -7.3457364      2.4221738      50218.233      36.893836      36.893836      36.893836    
    310000   0.41545824    -7.9642226     -7.3410441      2.4356149      50218.233      36.893836      36.893836      36.893836    
    320000   0.4158026     -7.9655976     -7.3419025      2.4190821      50218.233      36.893836      36.893836      36.893836    
    330000   0.41546326    -7.9651155     -7.3419295      2.4263407      50218.233      36.893836      36.893836      36.893836    
    340000   0.41551684    -7.9618736     -7.3386072      2.4516081      50218.233      36.893836      36.893836      36.893836    
    350000   0.41542578    -7.9673128     -7.344183       2.4088797      50218.233      36.893836      36.893836      36.893836    
    360000   0.41323897    -7.9627638     -7.3429141      2.4483795      50218.233      36.893836      36.893836      36.893836    
    370000   0.41480084    -7.9651739     -7.3429815      2.4239121      50218.233      36.893836      36.893836      36.893836    
    380000   0.41495969    -7.9645863     -7.3421556      2.4141706      50218.233      36.893836      36.893836      36.893836    
    390000   0.41625085    -7.9623823     -7.3380149      2.4449639      50218.233      36.893836      36.893836      36.893836    
    400000   0.41478247    -7.9640571     -7.3418923      2.4372708      50218.233      36.893836      36.893836      36.893836    
    410000   0.4152142     -7.9657389     -7.3429265      2.4176056      50218.233      36.893836      36.893836      36.893836    
    420000   0.41208661    -7.9633691     -7.3452479      2.4428402      50218.233      36.893836      36.893836      36.893836    
    430000   0.41341967    -7.9686105     -7.3484898      2.4081362      50218.233      36.893836      36.893836      36.893836    
    440000   0.41697082    -7.9651224     -7.339675       2.4185599      50218.233      36.893836      36.893836      36.893836    
    450000   0.41253234    -7.966177      -7.3473873      2.4102026      50218.233      36.893836      36.893836      36.893836    
    460000   0.41420352    -7.962847      -7.3415506      2.4455167      50218.233      36.893836      36.893836      36.893836    
    470000   0.41524316    -7.9654442     -7.3425883      2.4285877      50218.233      36.893836      36.893836      36.893836    
    480000   0.4122572     -7.9633998     -7.3450227      2.4387214      50218.233      36.893836      36.893836      36.893836    
    490000   0.4144925     -7.9658387     -7.3441088      2.4198679      50218.233      36.893836      36.893836      36.893836    
    500000   0.41576304    -7.9663151     -7.3426794      2.4194658      50218.233      36.893836      36.893836      36.893836    
    510000   0.41384442    -7.9614703     -7.3407125      2.4608942      50218.233      36.893836      36.893836      36.893836    
    520000   0.41545955    -7.9660775     -7.3428971      2.4160307      50218.233      36.893836      36.893836      36.893836    
    530000   0.41676138    -7.9694669     -7.3443338      2.3895628      50218.233      36.893836      36.893836      36.893836    
    540000   0.41724296    -7.9642603     -7.3384048      2.4345731      50218.233      36.893836      36.893836      36.893836    
    550000   0.41597467    -7.9622184     -7.3382653      2.4558663      50218.233      36.893836      36.893836      36.893836    
    560000   0.41335423    -7.9653553     -7.3453328      2.4172011      50218.233      36.893836      36.893836      36.893836    
    570000   0.41622206    -7.9663113     -7.3419871      2.4228922      50218.233      36.893836      36.893836      36.893836    
    580000   0.41417637    -7.9626833     -7.3414276      2.4460255      50218.233      36.893836      36.893836      36.893836    
    590000   0.41194032    -7.9651028     -7.3472011      2.4184704      50218.233      36.893836      36.893836      36.893836    
    600000   0.41471523    -7.9630999     -7.3410359      2.4436911      50218.233      36.893836      36.893836      36.893836    
    610000   0.41737585    -7.9624564     -7.3364015      2.4531222      50218.233      36.893836      36.893836      36.893836    
    620000   0.41456311    -7.9635045     -7.3416687      2.4334089      50218.233      36.893836      36.893836      36.893836    
    630000   0.41252485    -7.964423      -7.3456446      2.4292309      50218.233      36.893836      36.893836      36.893836    
    640000   0.41605387    -7.9692058     -7.3451339      2.3984491      50218.233      36.893836      36.893836      36.893836    
    650000   0.41339891    -7.9644607     -7.3443711      2.4338984      50218.233      36.893836      36.893836      36.893836    
    660000   0.4142394     -7.9617865     -7.3404362      2.4555714      50218.233      36.893836      36.893836      36.893836    
    670000   0.41405262    -7.9658979     -7.3448278      2.4164526      50218.233      36.893836      36.893836      36.893836    
    680000   0.41365795    -7.9624668     -7.3419887      2.4430126      50218.233      36.893836      36.893836      36.893836    
    690000   0.4163094     -7.9626384     -7.3381832      2.4522164      50218.233      36.893836      36.893836      36.893836    
    700000   0.4167606     -7.9630224     -7.3378904      2.4461083      50218.233      36.893836      36.893836      36.893836    
    710000   0.41422517    -7.9646361     -7.3433072      2.4275689      50218.233      36.893836      36.893836      36.893836    
    720000   0.41484142    -7.9650973     -7.342844       2.4231342      50218.233      36.893836      36.893836      36.893836    
    730000   0.41325816    -7.9636975     -7.343819       2.4303135      50218.233      36.893836      36.893836      36.893836    
    740000   0.41521142    -7.9627462     -7.339938       2.4452808      50218.233      36.893836      36.893836      36.893836    
    750000   0.41631885    -7.9662524     -7.341783       2.4084391      50218.233      36.893836      36.893836      36.893836    
    760000   0.41365657    -7.9649301     -7.3444541      2.4205035      50218.233      36.893836      36.893836      36.893836    
    770000   0.41604234    -7.9660568     -7.3420022      2.4220716      50218.233      36.893836      36.893836      36.893836    
    780000   0.41576339    -7.9663312     -7.342695       2.4167463      50218.233      36.893836      36.893836      36.893836    
    790000   0.4155308     -7.9641984     -7.3409111      2.4350903      50218.233      36.893836      36.893836      36.893836    
    800000   0.41443663    -7.9673238     -7.3456777      2.4011103      50218.233      36.893836      36.893836      36.893836    
    810000   0.41783105    -7.9658845     -7.3391469      2.4200505      50218.233      36.893836      36.893836      36.893836    
    820000   0.41658279    -7.9665034     -7.3416381      2.4262187      50218.233      36.893836      36.893836      36.893836    
    830000   0.41536082    -7.962283      -7.3392507      2.45253        50218.233      36.893836      36.893836      36.893836    
    840000   0.41590603    -7.9658264     -7.3419762      2.4200708      50218.233      36.893836      36.893836      36.893836    
    850000   0.41481599    -7.9654101     -7.343195       2.4234903      50218.233      36.893836      36.893836      36.893836    
    860000   0.41476506    -7.9653027     -7.343164       2.4290158      50218.233      36.893836      36.893836      36.893836    
    870000   0.41484482    -7.9640581     -7.3417997      2.4399966      50218.233      36.893836      36.893836      36.893836    
    880000   0.41493098    -7.9633478     -7.3409602      2.4345291      50218.233      36.893836      36.893836      36.893836    
    890000   0.41587307    -7.965369      -7.3415683      2.4387701      50218.233      36.893836      36.893836      36.893836    
    900000   0.41428315    -7.9640236     -7.3426077      2.4293625      50218.233      36.893836      36.893836      36.893836    
    910000   0.41581084    -7.9654151     -7.3417077      2.4214156      50218.233      36.893836      36.893836      36.893836    
    920000   0.41559939    -7.9666966     -7.3433064      2.4109413      50218.233      36.893836      36.893836      36.893836    
    930000   0.4147672     -7.9673924     -7.3452505      2.4155438      50218.233      36.893836      36.893836      36.893836    
    940000   0.41497169    -7.9646054     -7.3421567      2.4250146      50218.233      36.893836      36.893836      36.893836    
    950000   0.41594227    -7.9652928     -7.3413882      2.4174252      50218.233      36.893836      36.893836      36.893836    
    960000   0.41610081    -7.9672342     -7.3430919      2.4144984      50218.233      36.893836      36.893836      36.893836    
    970000   0.41425664    -7.9638119     -7.3424358      2.4390084      50218.233      36.893836      36.893836      36.893836    
    980000   0.4152525     -7.9698595     -7.3469896      2.3889916      50218.233      36.893836      36.893836      36.893836    
    990000   0.41566644    -7.9663873     -7.3428965      2.4197309      50218.233      36.893836      36.893836      36.893836    
   1000000   0.41647024    -7.9652124     -7.3405159      2.4291859      50218.233      36.893836      36.893836      36.893836    
   1010000   0.41647631    -7.9678348     -7.3431293      2.4087623      50218.233      36.893836      36.893836      36.893836    
   1020000   0.41551097    -7.9659552     -7.3426977      2.4152168      50218.233      36.893836      36.893836      36.893836    
   1030000   0.41429609    -7.9700522     -7.3486169      2.3975306      50218.233      36.893836      36.893836      36.893836    
   1040000   0.41431365    -7.9659055     -7.3444438      2.4174314      50218.233      36.893836      36.893836      36.893836    
   1050000   0.41294369    -7.9662272     -7.3468204      2.415449       50218.233      36.893836      36.893836      36.893836    
   1060000   0.41388931    -7.9651598     -7.3443347      2.4265864      50218.233      36.893836      36.893836      36.893836    
   1070000   0.4147681     -7.9645665     -7.3424232      2.431732       50218.233      36.893836      36.893836      36.893836    
   1080000   0.41234134    -7.9687476     -7.3502444      2.39788        50218.233      36.893836      36.893836      36.893836    
   1090000   0.41454794    -7.9676266     -7.3458135      2.3989272      50218.233      36.893836      36.893836      36.893836    
   1100000   0.41539214    -7.9668482     -7.3437689      2.4118363      50218.233      36.893836      36.893836      36.893836    
   1110000   0.41507416    -7.9669191     -7.3443167      2.4228966      50218.233      36.893836      36.893836      36.893836    
   1120000   0.41538819    -7.9649196     -7.3418462      2.4338841      50218.233      36.893836      36.893836      36.893836    
   1130000   0.41516282    -7.9666056     -7.3438702      2.4160237      50218.233      36.893836      36.893836      36.893836    
   1140000   0.41668374    -7.9661667     -7.34115        2.4307155      50218.233      36.893836      36.893836      36.893836    
   1150000   0.41749776    -7.9669438     -7.3407061      2.4201115      50218.233      36.893836      36.893836      36.893836    
   1160000   0.41294347    -7.9649006     -7.3454942      2.4359729      50218.233      36.893836      36.893836      36.893836    
   1170000   0.41487264    -7.9652459     -7.3429458      2.4256871      50218.233      36.893836      36.893836      36.893836    
   1180000   0.41542972    -7.9668053     -7.3436696      2.4126255      50218.233      36.893836      36.893836      36.893836    
   1190000   0.4163681     -7.9691315     -7.3445883      2.3970876      50218.233      36.893836      36.893836      36.893836    
   1200000   0.41782285    -7.9667889     -7.3400635      2.4270652      50218.233      36.893836      36.893836      36.893836    
   1210000   0.41597706    -7.9610132     -7.3370565      2.4609926      50218.233      36.893836      36.893836      36.893836    
   1220000   0.41559641    -7.9605298     -7.3371441      2.4589907      50218.233      36.893836      36.893836      36.893836    
   1230000   0.41482616    -7.9634995     -7.3412691      2.4439426      50218.233      36.893836      36.893836      36.893836    
   1240000   0.41674263    -7.9657238     -7.3406187      2.4301703      50218.233      36.893836      36.893836      36.893836    
   1250000   0.41536187    -7.9653401     -7.3423061      2.4237195      50218.233      36.893836      36.893836      36.893836    
   1260000   0.41658165    -7.9692712     -7.3444076      2.3993525      50218.233      36.893836      36.893836      36.893836    
   1270000   0.4150531     -7.9643008     -7.34173        2.4335203      50218.233      36.893836      36.893836      36.893836    
   1280000   0.41621852    -7.9624745     -7.3381556      2.4528486      50218.233      36.893836      36.893836      36.893836    
   1290000   0.41627832    -7.9682575     -7.3438489      2.4016908      50218.233      36.893836      36.893836      36.893836    
   1300000   0.41634       -7.9661386     -7.3416375      2.4201978      50218.233      36.893836      36.893836      36.893836    
   1310000   0.41458196    -7.9622454     -7.3403813      2.4472656      50218.233      36.893836      36.893836      36.893836    
   1320000   0.41305523    -7.9631814     -7.3436074      2.4414143      50218.233      36.893836      36.893836      36.893836    
   1330000   0.41621282    -7.9644057     -7.3400953      2.4317296      50218.233      36.893836      36.893836      36.893836    
   1340000   0.41493799    -7.9663805     -7.3439824      2.4096244      50218.233      36.893836      36.893836      36.893836    
   1350000   0.4156545     -7.9650923     -7.3416194      2.4301615      50218.233      36.893836      36.893836      36.893836    
   1360000   0.413183      -7.9646107     -7.344845       2.4252887      50218.233      36.893836      36.893836      36.893836    
   1370000   0.4155015     -7.9646647     -7.3414213      2.4244989      50218.233      36.893836      36.893836      36.893836    
   1380000   0.41491183    -7.9667693     -7.3444104      2.4165031      50218.233      36.893836      36.893836      36.893836    
   1390000   0.4134989     -7.9631524     -7.3429129      2.4401656      50218.233      36.893836      36.893836      36.893836    
   1400000   0.41408419    -7.9655959     -7.3444785      2.4171157      50218.233      36.893836      36.893836      36.893836    
   1410000   0.41557086    -7.9647771     -7.3414297      2.42875        50218.233      36.893836      36.893836      36.893836    
   1420000   0.41654151    -7.9660826     -7.3412792      2.4244828      50218.233      36.893836      36.893836      36.893836    
   1430000   0.41475961    -7.9611687     -7.3390381      2.4627246      50218.233      36.893836      36.893836      36.893836    
   1440000   0.41501195    -7.9663336     -7.3438246      2.4180223      50218.233      36.893836      36.893836      36.893836    
   1450000   0.4151782     -7.964994      -7.3422356      2.4263068      50218.233      36.893836      36.893836      36.893836    
   1460000   0.41408974    -7.968368      -7.3472423      2.405429       50218.233      36.893836      36.893836      36.893836    
   1470000   0.41733644    -7.9675921     -7.3415964      2.4227752      50218.233      36.893836      36.893836      36.893836    
   1480000   0.41266797    -7.966996      -7.3480028      2.4151445      50218.233      36.893836      36.893836      36.893836    
   1490000   0.4172456     -7.9619039     -7.3360444      2.4624502      50218.233      36.893836      36.893836      36.893836    
   1500000   0.41414921    -7.9665017     -7.3452868      2.4137699      50218.233      36.893836      36.893836      36.893836    
   1510000   0.4141908     -7.9684563     -7.347179       2.3914082      50218.233      36.893836      36.893836      36.893836    
   1520000   0.41304586    -7.9640569     -7.3444969      2.4289177      50218.233      36.893836      36.893836      36.893836    
   1530000   0.41432836    -7.9683542     -7.3468705      2.4054535      50218.233      36.893836      36.893836      36.893836    
   1540000   0.41384826    -7.9668478     -7.3460842      2.417952       50218.233      36.893836      36.893836      36.893836    
   1550000   0.41471546    -7.9682294     -7.3461651      2.3966187      50218.233      36.893836      36.893836      36.893836    
   1560000   0.41515538    -7.9657502     -7.343026       2.430383       50218.233      36.893836      36.893836      36.893836    
   1570000   0.41529815    -7.9643863     -7.3414479      2.4382575      50218.233      36.893836      36.893836      36.893836    
   1580000   0.4141338     -7.966874      -7.3456822      2.4228455      50218.233      36.893836      36.893836      36.893836    
   1590000   0.41702974    -7.9633675     -7.3378318      2.4506495      50218.233      36.893836      36.893836      36.893836    
   1600000   0.41569538    -7.9632365     -7.3397023      2.4392612      50218.233      36.893836      36.893836      36.893836    
   1610000   0.41354909    -7.9640131     -7.3436983      2.4331197      50218.233      36.893836      36.893836      36.893836    
   1620000   0.41769485    -7.9647306     -7.3381973      2.4286958      50218.233      36.893836      36.893836      36.893836    
   1630000   0.41711212    -7.9673961     -7.3417369      2.4086504      50218.233      36.893836      36.893836      36.893836    
   1640000   0.41588109    -7.9660035     -7.3421908      2.4208019      50218.233      36.893836      36.893836      36.893836    
   1650000   0.41360902    -7.9644586     -7.3440539      2.4364625      50218.233      36.893836      36.893836      36.893836    
   1660000   0.41558095    -7.9691792     -7.3458166      2.3964904      50218.233      36.893836      36.893836      36.893836    
   1670000   0.41298699    -7.9631521     -7.3436804      2.4392089      50218.233      36.893836      36.893836      36.893836    
   1680000   0.41517589    -7.9632511     -7.3404961      2.4427737      50218.233      36.893836      36.893836      36.893836    
   1690000   0.4159888     -7.9632519     -7.3392776      2.4493977      50218.233      36.893836      36.893836      36.893836    
   1700000   0.41324743    -7.9640255     -7.3441632      2.448082       50218.233      36.893836      36.893836      36.893836    
   1710000   0.41359421    -7.9632407     -7.3428583      2.4498889      50218.233      36.893836      36.893836      36.893836    
   1720000   0.41557658    -7.9622116     -7.3388556      2.4541098      50218.233      36.893836      36.893836      36.893836    
   1730000   0.41718684    -7.9624983     -7.336727       2.4583739      50218.233      36.893836      36.893836      36.893836    
   1740000   0.4153382     -7.965764      -7.3427656      2.4288967      50218.233      36.893836      36.893836      36.893836    
   1750000   0.41525863    -7.9642259     -7.3413468      2.4368826      50218.233      36.893836      36.893836      36.893836    
   1760000   0.41442862    -7.9650705     -7.3434365      2.4237361      50218.233      36.893836      36.893836      36.893836    
   1770000   0.41700413    -7.9654137     -7.3399164      2.435897       50218.233      36.893836      36.893836      36.893836    
   1780000   0.41541883    -7.9644942     -7.3413748      2.4282479      50218.233      36.893836      36.893836      36.893836    
   1790000   0.41527401    -7.9646355     -7.3417333      2.4330375      50218.233      36.893836      36.893836      36.893836    
   1800000   0.41464646    -7.9628992     -7.3409384      2.4438063      50218.233      36.893836      36.893836      36.893836    
   1810000   0.41433438    -7.9627488     -7.3412561      2.4366262      50218.233      36.893836      36.893836      36.893836    
   1820000   0.41512946    -7.9665166     -7.3438313      2.4272743      50218.233      36.893836      36.893836      36.893836    
   1830000   0.41542359    -7.9638076     -7.3406811      2.4383553      50218.233      36.893836      36.893836      36.893836    
   1840000   0.41739363    -7.9641953     -7.3381137      2.4302768      50218.233      36.893836      36.893836      36.893836    
   1850000   0.41628127    -7.9659692     -7.3415562      2.4227008      50218.233      36.893836      36.893836      36.893836    
   1860000   0.4157038     -7.96281       -7.3392632      2.4543231      50218.233      36.893836      36.893836      36.893836    
   1870000   0.41429122    -7.9650851     -7.3436571      2.4273576      50218.233      36.893836      36.893836      36.893836    
   1880000   0.41381192    -7.9676774     -7.3469683      2.4007522      50218.233      36.893836      36.893836      36.893836    
   1890000   0.41829721    -7.9660201     -7.3385832      2.4194621      50218.233      36.893836      36.893836      36.893836    
   1900000   0.41527822    -7.9676377     -7.3447292      2.4016168      50218.233      36.893836      36.893836      36.893836    
   1910000   0.41641171    -7.9653943     -7.3407856      2.4167742      50218.233      36.893836      36.893836      36.893836    
   1920000   0.41526259    -7.9631457     -7.3402606      2.4447007      50218.233      36.893836      36.893836      36.893836    
   1930000   0.41712993    -7.9660038     -7.3403178      2.4284411      50218.233      36.893836      36.893836      36.893836    
   1940000   0.41521357    -7.9681961     -7.3453846      2.389205       50218.233      36.893836      36.893836      36.893836    
   1950000   0.41414448    -7.9656411     -7.3444332      2.4155749      50218.233      36.893836      36.893836      36.893836    
   1960000   0.41605194    -7.9660888     -7.3420197      2.4136933      50218.233      36.893836      36.893836      36.893836    
   1970000   0.41403462    -7.9641058     -7.3430627      2.4322242      50218.233      36.893836      36.893836      36.893836    
   1980000   0.41245617    -7.967109      -7.3484336      2.4073057      50218.233      36.893836      36.893836      36.893836    
   1990000   0.41535115    -7.9669466     -7.3439287      2.4152253      50218.233      36.893836      36.893836      36.893836    
   2000000   0.41515944    -7.9678571     -7.3451268      2.4061855      50218.233      36.893836      36.893836      36.893836    
   2010000   0.41323665    -7.9643105     -7.3444643      2.4286952      50218.233      36.893836      36.893836      36.893836    
   2020000   0.41495438    -7.9725918     -7.350169       2.3666215      50218.233      36.893836      36.893836      36.893836    
   2030000   0.41535413    -7.9678493     -7.344827       2.4075325      50218.233      36.893836      36.893836      36.893836    
   2040000   0.41406314    -7.9693792     -7.3482934      2.3977469      50218.233      36.893836      36.893836      36.893836    
   2050000   0.41341172    -7.9632047     -7.3430959      2.4341497      50218.233      36.893836      36.893836      36.893836    
   2060000   0.41709364    -7.9647123     -7.3390807      2.4388015      50218.233      36.893836      36.893836      36.893836    
   2070000   0.41525171    -7.9640556     -7.3411869      2.4389234      50218.233      36.893836      36.893836      36.893836    
   2080000   0.41516168    -7.9658595     -7.3431259      2.4180522      50218.233      36.893836      36.893836      36.893836    
   2090000   0.41343593    -7.9652091     -7.345064       2.4208579      50218.233      36.893836      36.893836      36.893836    
   2100000   0.41425223    -7.9674639     -7.3460944      2.4106019      50218.233      36.893836      36.893836      36.893836    
   2110000   0.41232674    -7.9665482     -7.3480669      2.4202256      50218.233      36.893836      36.893836      36.893836    
   2120000   0.4148114     -7.9685199     -7.3463117      2.3958194      50218.233      36.893836      36.893836      36.893836    
   2130000   0.41642823    -7.9667195     -7.342086       2.4218867      50218.233      36.893836      36.893836      36.893836    
   2140000   0.4163589     -7.965912      -7.3413825      2.4173026      50218.233      36.893836      36.893836      36.893836    
   2150000   0.41650837    -7.9635344     -7.3387807      2.4320846      50218.233      36.893836      36.893836      36.893836    
   2160000   0.41616017    -7.9677759     -7.3435446      2.4139012      50218.233      36.893836      36.893836      36.893836    
   2170000   0.41722724    -7.9653677     -7.3395357      2.4252036      50218.233      36.893836      36.893836      36.893836    
   2180000   0.41434176    -7.9651542     -7.3436504      2.4123878      50218.233      36.893836      36.893836      36.893836    
   2190000   0.41266209    -7.9644653     -7.345481       2.4245558      50218.233      36.893836      36.893836      36.893836    
   2200000   0.41454837    -7.9669501     -7.3451364      2.4166949      50218.233      36.893836      36.893836      36.893836    
   2210000   0.41444922    -7.963962      -7.342297       2.4403866      50218.233      36.893836      36.893836      36.893836    
   2220000   0.41674115    -7.9678388     -7.342736       2.407203       50218.233      36.893836      36.893836      36.893836    
   2230000   0.41483406    -7.9612553     -7.339013       2.4585226      50218.233      36.893836      36.893836      36.893836    
   2240000   0.41629936    -7.9655206     -7.3410804      2.4333953      50218.233      36.893836      36.893836      36.893836    
   2250000   0.41520672    -7.964972      -7.3421708      2.4292086      50218.233      36.893836      36.893836      36.893836    
   2260000   0.41160844    -7.9663537     -7.3489499      2.4152981      50218.233      36.893836      36.893836      36.893836    
   2270000   0.41540416    -7.9664102     -7.3433128      2.4183098      50218.233      36.893836      36.893836      36.893836    
   2280000   0.41194169    -7.9634369     -7.3455332      2.4387658      50218.233      36.893836      36.893836      36.893836    
   2290000   0.41512122    -7.965291      -7.342618       2.4258062      50218.233      36.893836      36.893836      36.893836    
   2300000   0.41447839    -7.963838      -7.3421293      2.4337058      50218.233      36.893836      36.893836      36.893836    
   2310000   0.41527238    -7.9661327     -7.343233       2.4219036      50218.233      36.893836      36.893836      36.893836    
   2320000   0.41549749    -7.9677119     -7.3444745      2.4135011      50218.233      36.893836      36.893836      36.893836    
   2330000   0.41428103    -7.965733      -7.3443203      2.4277208      50218.233      36.893836      36.893836      36.893836    
   2340000   0.41500146    -7.9637742     -7.3412808      2.4347455      50218.233      36.893836      36.893836      36.893836    
   2350000   0.4125984     -7.963672      -7.3447832      2.4404155      50218.233      36.893836      36.893836      36.893836    
   2360000   0.41715321    -7.9663049     -7.340584       2.4184621      50218.233      36.893836      36.893836      36.893836    
   2370000   0.41524753    -7.9646376     -7.3417752      2.4329561      50218.233      36.893836      36.893836      36.893836    
   2380000   0.41310498    -7.9664992     -7.3468505      2.4114019      50218.233      36.893836      36.893836      36.893836    
   2390000   0.41544709    -7.9673142     -7.3441524      2.4132394      50218.233      36.893836      36.893836      36.893836    
   2400000   0.41448312    -7.9650344     -7.3433186      2.4345412      50218.233      36.893836      36.893836      36.893836    
   2410000   0.41383809    -7.9696572     -7.3489089      2.3993731      50218.233      36.893836      36.893836      36.893836    
   2420000   0.41554886    -7.9660754     -7.342761       2.4240506      50218.233      36.893836      36.893836      36.893836    
   2430000   0.41357342    -7.9673044     -7.3469531      2.4145839      50218.233      36.893836      36.893836      36.893836    
   2440000   0.41631305    -7.9633417     -7.338881       2.4419822      50218.233      36.893836      36.893836      36.893836    
   2450000   0.41442805    -7.9655959     -7.3439627      2.426192       50218.233      36.893836      36.893836      36.893836    
   2460000   0.4154774     -7.9671888     -7.3439816      2.4141595      50218.233      36.893836      36.893836      36.893836    
   2470000   0.41452058    -7.9662155     -7.3444434      2.4209684      50218.233      36.893836      36.893836      36.893836    
   2480000   0.41621796    -7.9662655     -7.3419474      2.4217395      50218.233      36.893836      36.893836      36.893836    
   2490000   0.4133014     -7.9635177     -7.3435744      2.440942       50218.233      36.893836      36.893836      36.893836    
   2500000   0.41456548    -7.9645999     -7.3427605      2.4322924      50218.233      36.893836      36.893836      36.893836    
   2510000   0.41619223    -7.9663385     -7.342059       2.4255329      50218.233      36.893836      36.893836      36.893836    
   2520000   0.41218168    -7.968685      -7.3504212      2.3961932      50218.233      36.893836      36.893836      36.893836    
   2530000   0.41604143    -7.964839      -7.3407857      2.4322617      50218.233      36.893836      36.893836      36.893836    
   2540000   0.41242126    -7.9659254     -7.3473023      2.4205163      50218.233      36.893836      36.893836      36.893836    
   2550000   0.41765466    -7.9650555     -7.3385824      2.4396077      50218.233      36.893836      36.893836      36.893836    
   2560000   0.4166592     -7.9676681     -7.3426882      2.4147298      50218.233      36.893836      36.893836      36.893836    
   2570000   0.41444983    -7.9715793     -7.3499134      2.383951       50218.233      36.893836      36.893836      36.893836    
   2580000   0.41559751    -7.9648611     -7.3414737      2.4321886      50218.233      36.893836      36.893836      36.893836    
   2590000   0.41591537    -7.9657174     -7.3418533      2.4377048      50218.233      36.893836      36.893836      36.893836    
   2600000   0.41356292    -7.9667093     -7.3463737      2.4117172      50218.233      36.893836      36.893836      36.893836    
   2610000   0.41685489    -7.9602133     -7.3349398      2.4664548      50218.233      36.893836      36.893836      36.893836    
   2620000   0.41644614    -7.9656199     -7.3409595      2.4275192      50218.233      36.893836      36.893836      36.893836    
   2630000   0.41263663    -7.9670694     -7.3481233      2.4104349      50218.233      36.893836      36.893836      36.893836    
   2640000   0.41499802    -7.9660508     -7.3435626      2.4267574      50218.233      36.893836      36.893836      36.893836    
   2650000   0.41566847    -7.9629393     -7.3394455      2.4524077      50218.233      36.893836      36.893836      36.893836    
   2660000   0.41459344    -7.9625184     -7.3406371      2.45954        50218.233      36.893836      36.893836      36.893836    
   2670000   0.41255485    -7.9644914     -7.3456679      2.4317687      50218.233      36.893836      36.893836      36.893836    
   2680000   0.41561246    -7.9638131     -7.3404032      2.4492958      50218.233      36.893836      36.893836      36.893836    
   2690000   0.41491458    -7.9644096     -7.3420466      2.4385631      50218.233      36.893836      36.893836      36.893836    
   2700000   0.41350042    -7.9603543     -7.3401125      2.4629951      50218.233      36.893836      36.893836      36.893836    
   2710000   0.4166248     -7.9636049     -7.3386766      2.4418103      50218.233      36.893836      36.893836      36.893836    
   2720000   0.41272698    -7.967935      -7.3488533      2.408801       50218.233      36.893836      36.893836      36.893836    
   2730000   0.41399178    -7.9647437     -7.3437648      2.4243153      50218.233      36.893836      36.893836      36.893836    
   2740000   0.41624335    -7.9637293     -7.3393731      2.4381879      50218.233      36.893836      36.893836      36.893836    
   2750000   0.41561952    -7.9652375     -7.3418171      2.430778       50218.233      36.893836      36.893836      36.893836    
   2760000   0.41524348    -7.9657489     -7.3428925      2.4217994      50218.233      36.893836      36.893836      36.893836    
   2770000   0.41584716    -7.9633192     -7.3395573      2.4438104      50218.233      36.893836      36.893836      36.893836    
   2780000   0.41361903    -7.9659719     -7.3455522      2.4320163      50218.233      36.893836      36.893836      36.893836    
   2790000   0.41493446    -7.9678764     -7.3454835      2.4069964      50218.233      36.893836      36.893836      36.893836    
   2800000   0.41844056    -7.963946      -7.3362941      2.4414493      50218.233      36.893836      36.893836      36.893836    
   2810000   0.41501287    -7.9659897     -7.3434792      2.4277563      50218.233      36.893836      36.893836      36.893836    
   2820000   0.41524905    -7.9629395     -7.3400747      2.4439097      50218.233      36.893836      36.893836      36.893836    
   2830000   0.41569134    -7.9645924     -7.3410642      2.43143        50218.233      36.893836      36.893836      36.893836    
   2840000   0.41547724    -7.9663415     -7.3431345      2.4281306      50218.233      36.893836      36.893836      36.893836    
   2850000   0.41154876    -7.9652224     -7.3479081      2.4252557      50218.233      36.893836      36.893836      36.893836    
   2860000   0.41429823    -7.965239      -7.3438005      2.4295229      50218.233      36.893836      36.893836      36.893836    
   2870000   0.41281742    -7.964303      -7.3450857      2.4276359      50218.233      36.893836      36.893836      36.893836    
   2880000   0.41591852    -7.9652538     -7.3413849      2.4233037      50218.233      36.893836      36.893836      36.893836    
   2890000   0.41541286    -7.9672041     -7.3440937      2.4162004      50218.233      36.893836      36.893836      36.893836    
   2900000   0.41220182    -7.9671589     -7.3488649      2.4100246      50218.233      36.893836      36.893836      36.893836    
   2910000   0.41515629    -7.9657652     -7.3430396      2.4244048      50218.233      36.893836      36.893836      36.893836    
   2920000   0.41498808    -7.9636179     -7.3411447      2.4432589      50218.233      36.893836      36.893836      36.893836    
   2930000   0.41400671    -7.9629537     -7.3419525      2.4427941      50218.233      36.893836      36.893836      36.893836    
   2940000   0.41477884    -7.9689398     -7.3467804      2.3983291      50218.233      36.893836      36.893836      36.893836    
   2950000   0.41568133    -7.9650011     -7.341488       2.4377931      50218.233      36.893836      36.893836      36.893836    
   2960000   0.41774766    -7.9644122     -7.3377996      2.4379027      50218.233      36.893836      36.893836      36.893836    
   2970000   0.4139148     -7.9662847     -7.3454213      2.4200117      50218.233      36.893836      36.893836      36.893836    
   2980000   0.41561132    -7.9638054     -7.3403973      2.4395779      50218.233      36.893836      36.893836      36.893836    
   2990000   0.41436793    -7.9641174     -7.3425743      2.444888       50218.233      36.893836      36.893836      36.893836    
   3000000   0.41396296    -7.9648493     -7.3439137      2.4333591      50218.233      36.893836      36.893836      36.893836    
   3010000   0.41635609    -7.9649871     -7.3404619      2.4348332      50218.233      36.893836      36.893836      36.893836    
   3020000   0.41754633    -7.9658877     -7.3395771      2.4245174      50218.233      36.893836      36.893836      36.893836    
   3030000   0.41543406    -7.9660148     -7.3428725      2.4231082      50218.233      36.893836      36.893836      36.893836    
   3040000   0.41615998    -7.9659908     -7.3417597      2.4247616      50218.233      36.893836      36.893836      36.893836    
   3050000   0.41660746    -7.9704704     -7.3455681      2.4008515      50218.233      36.893836      36.893836      36.893836    
   3060000   0.41292051    -7.9677812     -7.3484092      2.406143       50218.233      36.893836      36.893836      36.893836    
   3070000   0.416368      -7.9603962     -7.3358531      2.4611143      50218.233      36.893836      36.893836      36.893836    
   3080000   0.41504753    -7.9668643     -7.3443019      2.4236731      50218.233      36.893836      36.893836      36.893836    
   3090000   0.41524732    -7.9680034     -7.3451413      2.4108816      50218.233      36.893836      36.893836      36.893836    
   3100000   0.41393441    -7.9679501     -7.3470573      2.4033875      50218.233      36.893836      36.893836      36.893836    
   3110000   0.41491181    -7.9631465     -7.3407876      2.4397971      50218.233      36.893836      36.893836      36.893836    
   3120000   0.41543065    -7.9685166     -7.3453795      2.4031218      50218.233      36.893836      36.893836      36.893836    
   3130000   0.41499147    -7.965502      -7.3430236      2.4306512      50218.233      36.893836      36.893836      36.893836    
   3140000   0.41482395    -7.9623629     -7.3401358      2.4463026      50218.233      36.893836      36.893836      36.893836    
   3150000   0.41601824    -7.9672495     -7.3432311      2.4179506      50218.233      36.893836      36.893836      36.893836    
   3160000   0.41769475    -7.9678509     -7.3413177      2.412104       50218.233      36.893836      36.893836      36.893836    
   3170000   0.41205335    -7.9658647     -7.3477935      2.4164115      50218.233      36.893836      36.893836      36.893836    
   3180000   0.41454574    -7.9641334     -7.3423236      2.4211183      50218.233      36.893836      36.893836      36.893836    
   3190000   0.41625484    -7.9666766     -7.3423033      2.4203058      50218.233      36.893836      36.893836      36.893836    
   3200000   0.41553148    -7.9641019     -7.3408136      2.4305243      50218.233      36.893836      36.893836      36.893836    
   3210000   0.41321093    -7.9657857     -7.3459781      2.4222345      50218.233      36.893836      36.893836      36.893836    
   3220000   0.41416359    -7.9634938     -7.3422572      2.4377182      50218.233      36.893836      36.893836      36.893836    
   3230000   0.41624094    -7.9662694     -7.3419169      2.4226228      50218.233      36.893836      36.893836      36.893836    
   3240000   0.41371104    -7.9661952     -7.3456374      2.4067572      50218.233      36.893836      36.893836      36.893836    
   3250000   0.41266427    -7.9639287     -7.3449411      2.4278998      50218.233      36.893836      36.893836      36.893836    
   3260000   0.4146183     -7.9636339     -7.3417153      2.4446737      50218.233      36.893836      36.893836      36.893836    
   3270000   0.41554099    -7.9659133     -7.3426107      2.4234865      50218.233      36.893836      36.893836      36.893836    
   3280000   0.4151311     -7.9636114     -7.3409236      2.440255       50218.233      36.893836      36.893836      36.893836    
   3290000   0.41490814    -7.9638208     -7.3414675      2.4381383      50218.233      36.893836      36.893836      36.893836    
   3300000   0.41465895    -7.96506       -7.3430805      2.4172163      50218.233      36.893836      36.893836      36.893836    
   3310000   0.41354626    -7.964322      -7.3440115      2.4227486      50218.233      36.893836      36.893836      36.893836    
   3320000   0.41336895    -7.966469      -7.3464244      2.41649        50218.233      36.893836      36.893836      36.893836    
   3330000   0.41459828    -7.9638302     -7.3419416      2.4394462      50218.233      36.893836      36.893836      36.893836    
   3340000   0.41648039    -7.9665129     -7.3418012      2.4232264      50218.233      36.893836      36.893836      36.893836    
   3350000   0.4146483     -7.9639749     -7.3420113      2.4358469      50218.233      36.893836      36.893836      36.893836    
   3360000   0.41470311    -7.9651161     -7.3430703      2.4317175      50218.233      36.893836      36.893836      36.893836    
   3370000   0.41536732    -7.963807      -7.3407648      2.4447964      50218.233      36.893836      36.893836      36.893836    
   3380000   0.41659939    -7.9614414     -7.3365512      2.4605885      50218.233      36.893836      36.893836      36.893836    
   3390000   0.41412696    -7.9668247     -7.3456431      2.423327       50218.233      36.893836      36.893836      36.893836    
   3400000   0.41622113    -7.9652673     -7.3409445      2.4302729      50218.233      36.893836      36.893836      36.893836    
   3410000   0.41489328    -7.9652727     -7.3429416      2.4219322      50218.233      36.893836      36.893836      36.893836    
   3420000   0.4141516     -7.9663162     -7.3450977      2.4125017      50218.233      36.893836      36.893836      36.893836    
   3430000   0.41408874    -7.9648114     -7.3436871      2.418127       50218.233      36.893836      36.893836      36.893836    
   3440000   0.41581191    -7.9663374     -7.3426284      2.4264611      50218.233      36.893836      36.893836      36.893836    
   3450000   0.41463574    -7.9664876     -7.3445428      2.4095162      50218.233      36.893836      36.893836      36.893836    
   3460000   0.41665259    -7.9632176     -7.3382476      2.443681       50218.233      36.893836      36.893836      36.893836    
   3470000   0.41345225    -7.9666819     -7.3465124      2.4153005      50218.233      36.893836      36.893836      36.893836    
   3480000   0.41357373    -7.9651386     -7.3447868      2.4155169      50218.233      36.893836      36.893836      36.893836    
   3490000   0.41798136    -7.9668164     -7.3398532      2.4182686      50218.233      36.893836      36.893836      36.893836    
   3500000   0.41627413    -7.9680541     -7.3436518      2.4019267      50218.233      36.893836      36.893836      36.893836    
   3510000   0.41743411    -7.9658588     -7.3397166      2.4197928      50218.233      36.893836      36.893836      36.893836    
   3520000   0.41422882    -7.9664653     -7.3451309      2.424113       50218.233      36.893836      36.893836      36.893836    
   3530000   0.41191985    -7.9700271     -7.3521561      2.3927949      50218.233      36.893836      36.893836      36.893836    
   3540000   0.41518938    -7.966957      -7.3441818      2.4119813      50218.233      36.893836      36.893836      36.893836    
   3550000   0.415659      -7.9682437     -7.3447641      2.4061602      50218.233      36.893836      36.893836      36.893836    
   3560000   0.41619941    -7.9653525     -7.3410623      2.4199839      50218.233      36.893836      36.893836      36.893836    
   3570000   0.41306635    -7.9640967     -7.344506       2.4265775      50218.233      36.893836      36.893836      36.893836    
   3580000   0.41358704    -7.9654914     -7.3451196      2.418173       50218.233      36.893836      36.893836      36.893836    
   3590000   0.41478263    -7.9650401     -7.342875       2.4309938      50218.233      36.893836      36.893836      36.893836    
   3600000   0.41563062    -7.964148      -7.3407109      2.4371637      50218.233      36.893836      36.893836      36.893836    
   3610000   0.41546377    -7.9604039     -7.3372171      2.4655211      50218.233      36.893836      36.893836      36.893836    
   3620000   0.41594149    -7.9652448     -7.3413415      2.4254995      50218.233      36.893836      36.893836      36.893836    
   3630000   0.41473761    -7.9657716     -7.343674       2.4285672      50218.233      36.893836      36.893836      36.893836    
   3640000   0.41648628    -7.9640113     -7.3392908      2.4388446      50218.233      36.893836      36.893836      36.893836    
   3650000   0.41534068    -7.9613975     -7.3383954      2.4456132      50218.233      36.893836      36.893836      36.893836    
   3660000   0.41451979    -7.9659072     -7.3441363      2.4262432      50218.233      36.893836      36.893836      36.893836    
   3670000   0.4146364     -7.9644806     -7.3425348      2.4437168      50218.233      36.893836      36.893836      36.893836    
   3680000   0.41596311    -7.9614549     -7.3375191      2.4611875      50218.233      36.893836      36.893836      36.893836    
   3690000   0.41469953    -7.9634382     -7.3413977      2.4321171      50218.233      36.893836      36.893836      36.893836    
   3700000   0.41412619    -7.9658675     -7.3446871      2.4237198      50218.233      36.893836      36.893836      36.893836    
   3710000   0.41404338    -7.9668194     -7.3457632      2.4041785      50218.233      36.893836      36.893836      36.893836    
   3720000   0.41490867    -7.9638497     -7.3414956      2.4432825      50218.233      36.893836      36.893836      36.893836    
   3730000   0.41588296    -7.9648747     -7.3410591      2.4325515      50218.233      36.893836      36.893836      36.893836    
   3740000   0.41504293    -7.9643986     -7.3418431      2.4332735      50218.233      36.893836      36.893836      36.893836    
   3750000   0.41457116    -7.9624765     -7.3406286      2.443258       50218.233      36.893836      36.893836      36.893836    
   3760000   0.41522138    -7.9668897     -7.3440664      2.4094387      50218.233      36.893836      36.893836      36.893836    
   3770000   0.41591483    -7.9651903     -7.3413269      2.428364       50218.233      36.893836      36.893836      36.893836    
   3780000   0.41468753    -7.9659315     -7.3439091      2.4260991      50218.233      36.893836      36.893836      36.893836    
   3790000   0.41458863    -7.9645547     -7.3426806      2.423206       50218.233      36.893836      36.893836      36.893836    
   3800000   0.41600059    -7.9643488     -7.3403568      2.42994        50218.233      36.893836      36.893836      36.893836    
   3810000   0.41605965    -7.9646331     -7.3405525      2.435801       50218.233      36.893836      36.893836      36.893836    
   3820000   0.41574263    -7.9641358     -7.3405307      2.4283985      50218.233      36.893836      36.893836      36.893836    
   3830000   0.4155177     -7.9636295     -7.3403618      2.4441626      50218.233      36.893836      36.893836      36.893836    
   3840000   0.41601809    -7.9632338     -7.3392155      2.4435418      50218.233      36.893836      36.893836      36.893836    
   3850000   0.41400518    -7.9622718     -7.3412729      2.4505419      50218.233      36.893836      36.893836      36.893836    
   3860000   0.41494665    -7.968419      -7.3460078      2.4028442      50218.233      36.893836      36.893836      36.893836    
   3870000   0.41437057    -7.96303       -7.341483       2.4340105      50218.233      36.893836      36.893836      36.893836    
   3880000   0.41691229    -7.964906      -7.3395464      2.4420438      50218.233      36.893836      36.893836      36.893836    
   3890000   0.41278168    -7.9645267     -7.345363       2.4210687      50218.233      36.893836      36.893836      36.893836    
   3900000   0.41651405    -7.9626468     -7.3378846      2.447121       50218.233      36.893836      36.893836      36.893836    
   3910000   0.41351212    -7.9660305     -7.3457712      2.4276387      50218.233      36.893836      36.893836      36.893836    
   3920000   0.41313629    -7.9670451     -7.3473495      2.4208972      50218.233      36.893836      36.893836      36.893836    
   3930000   0.41534637    -7.9682812     -7.3452706      2.4076119      50218.233      36.893836      36.893836      36.893836    
   3940000   0.41534691    -7.96452       -7.3415085      2.4380095      50218.233      36.893836      36.893836      36.893836    
   3950000   0.41781842    -7.9632952     -7.3365764      2.4471266      50218.233      36.893836      36.893836      36.893836    
   3960000   0.41272518    -7.9658762     -7.3467972      2.4210186      50218.233      36.893836      36.893836      36.893836    
   3970000   0.41440067    -7.9631173     -7.3415251      2.4376846      50218.233      36.893836      36.893836      36.893836    
   3980000   0.4159116     -7.9662584     -7.3423999      2.4219346      50218.233      36.893836      36.893836      36.893836    
   3990000   0.41711255    -7.9686483     -7.3429884      2.4092564      50218.233      36.893836      36.893836      36.893836    
   4000000   0.41380737    -7.9659838     -7.3452816      2.4265885      50218.233      36.893836      36.893836      36.893836    
   4010000   0.41477876    -7.9677487     -7.3455894      2.4029497      50218.233      36.893836      36.893836      36.893836    
   4020000   0.41648471    -7.9646959     -7.3399777      2.4285305      50218.233      36.893836      36.893836      36.893836    
   4030000   0.41578345    -7.9655324     -7.3418661      2.4251963      50218.233      36.893836      36.893836      36.893836    
   4040000   0.41747381    -7.9635213     -7.3373195      2.4565064      50218.233      36.893836      36.893836      36.893836    
   4050000   0.41751939    -7.9657827     -7.3395125      2.4306366      50218.233      36.893836      36.893836      36.893836    
   4060000   0.4167283     -7.9618762     -7.3367926      2.4531502      50218.233      36.893836      36.893836      36.893836    
   4070000   0.41347583    -7.9664733     -7.3462684      2.4195883      50218.233      36.893836      36.893836      36.893836    
   4080000   0.41574923    -7.9638329     -7.3402179      2.4411492      50218.233      36.893836      36.893836      36.893836    
   4090000   0.41238365    -7.9641843     -7.3456176      2.429995       50218.233      36.893836      36.893836      36.893836    
   4100000   0.41591917    -7.966837      -7.3429672      2.4246483      50218.233      36.893836      36.893836      36.893836    
   4110000   0.41549622    -7.966268      -7.3430326      2.4245033      50218.233      36.893836      36.893836      36.893836    
   4120000   0.41377984    -7.9616511     -7.3409901      2.4610843      50218.233      36.893836      36.893836      36.893836    
   4130000   0.41682336    -7.9652349     -7.3400088      2.4341821      50218.233      36.893836      36.893836      36.893836    
   4140000   0.41414321    -7.9641504     -7.3429444      2.4335791      50218.233      36.893836      36.893836      36.893836    
   4150000   0.41574954    -7.9654951     -7.3418796      2.4225592      50218.233      36.893836      36.893836      36.893836    
   4160000   0.41275476    -7.9634596     -7.3443362      2.4356534      50218.233      36.893836      36.893836      36.893836    
   4170000   0.41238331    -7.9642559     -7.3456897      2.4321405      50218.233      36.893836      36.893836      36.893836    
   4180000   0.41407823    -7.9641604     -7.3430519      2.4323194      50218.233      36.893836      36.893836      36.893836    
   4190000   0.41666223    -7.9630493     -7.3380649      2.4598913      50218.233      36.893836      36.893836      36.893836    
   4200000   0.41491938    -7.9653668     -7.3429966      2.433826       50218.233      36.893836      36.893836      36.893836    
   4210000   0.4168259     -7.9672514     -7.3420214      2.4259076      50218.233      36.893836      36.893836      36.893836    
   4220000   0.41496549    -7.9660237     -7.3435844      2.4227806      50218.233      36.893836      36.893836      36.893836    
   4230000   0.41896718    -7.9652496     -7.3368077      2.4309003      50218.233      36.893836      36.893836      36.893836    
   4240000   0.41401028    -7.963586      -7.3425795      2.4404582      50218.233      36.893836      36.893836      36.893836    
   4250000   0.41592249    -7.9635653     -7.3396905      2.4398204      50218.233      36.893836      36.893836      36.893836    
   4260000   0.41528023    -7.9692789     -7.3463674      2.3962229      50218.233      36.893836      36.893836      36.893836    
   4270000   0.41501432    -7.9647794     -7.3422668      2.4161192      50218.233      36.893836      36.893836      36.893836    
   4280000   0.41595536    -7.9646045     -7.3406804      2.4388571      50218.233      36.893836      36.893836      36.893836    
   4290000   0.41410365    -7.9655386     -7.3443919      2.4311918      50218.233      36.893836      36.893836      36.893836    
   4300000   0.41429871    -7.9637978     -7.3423586      2.4427333      50218.233      36.893836      36.893836      36.893836    
   4310000   0.41529562    -7.9593834     -7.3364489      2.4699392      50218.233      36.893836      36.893836      36.893836    
   4320000   0.41411749    -7.9649261     -7.3437587      2.4282852      50218.233      36.893836      36.893836      36.893836    
   4330000   0.41489659    -7.9669135     -7.3445775      2.423016       50218.233      36.893836      36.893836      36.893836    
   4340000   0.41613046    -7.9650101     -7.3408233      2.431786       50218.233      36.893836      36.893836      36.893836    
   4350000   0.41585231    -7.9650152     -7.3412456      2.443575       50218.233      36.893836      36.893836      36.893836    
   4360000   0.41768289    -7.9656122     -7.3390968      2.4330281      50218.233      36.893836      36.893836      36.893836    
   4370000   0.41761358    -7.9645076     -7.3380961      2.430996       50218.233      36.893836      36.893836      36.893836    
   4380000   0.41489041    -7.9624396     -7.3401129      2.4527637      50218.233      36.893836      36.893836      36.893836    
   4390000   0.41523434    -7.9663869     -7.3435442      2.4281855      50218.233      36.893836      36.893836      36.893836    
   4400000   0.41780958    -7.9673055     -7.3406001      2.4309618      50218.233      36.893836      36.893836      36.893836    
   4410000   0.41677155    -7.9633508     -7.3382024      2.4468474      50218.233      36.893836      36.893836      36.893836    
   4420000   0.41611157    -7.9649464     -7.3407879      2.427554       50218.233      36.893836      36.893836      36.893836    
   4430000   0.41571318    -7.9659586     -7.3423977      2.4179105      50218.233      36.893836      36.893836      36.893836    
   4440000   0.41528737    -7.9646001     -7.3416779      2.432157       50218.233      36.893836      36.893836      36.893836    
   4450000   0.4128939     -7.9667606     -7.3474285      2.4163185      50218.233      36.893836      36.893836      36.893836    
   4460000   0.41456187    -7.9638599     -7.3420259      2.4314746      50218.233      36.893836      36.893836      36.893836    
   4470000   0.41626833    -7.9646583     -7.3402647      2.4344078      50218.233      36.893836      36.893836      36.893836    
   4480000   0.41714743    -7.9648079     -7.3390956      2.4359982      50218.233      36.893836      36.893836      36.893836    
   4490000   0.41595239    -7.9663573     -7.3424375      2.4295473      50218.233      36.893836      36.893836      36.893836    
   4500000   0.41568051    -7.9682905     -7.3447786      2.4048205      50218.233      36.893836      36.893836      36.893836    
   4510000   0.41277259    -7.9650495     -7.3458994      2.4244912      50218.233      36.893836      36.893836      36.893836    
   4520000   0.41331391    -7.9690951     -7.349133       2.3924032      50218.233      36.893836      36.893836      36.893836    
   4530000   0.41391036    -7.9667774     -7.3459207      2.4131519      50218.233      36.893836      36.893836      36.893836    
   4540000   0.41604747    -7.9692291     -7.3451668      2.3988144      50218.233      36.893836      36.893836      36.893836    
   4550000   0.41189786    -7.9629277     -7.3450897      2.4452757      50218.233      36.893836      36.893836      36.893836    
   4560000   0.41493143    -7.9600473     -7.337659       2.4664044      50218.233      36.893836      36.893836      36.893836    
   4570000   0.41533392    -7.9626269     -7.3396348      2.4590658      50218.233      36.893836      36.893836      36.893836    
   4580000   0.4157185     -7.9634084     -7.3398395      2.4484171      50218.233      36.893836      36.893836      36.893836    
   4590000   0.41397956    -7.9641332     -7.3431727      2.4498989      50218.233      36.893836      36.893836      36.893836    
   4600000   0.41353704    -7.9660221     -7.3457254      2.4242684      50218.233      36.893836      36.893836      36.893836    
   4610000   0.41448213    -7.9649123     -7.343198       2.433377       50218.233      36.893836      36.893836      36.893836    
   4620000   0.41510598    -7.9646944     -7.3420443      2.4290979      50218.233      36.893836      36.893836      36.893836    
   4630000   0.41515055    -7.9615932     -7.3388762      2.4582577      50218.233      36.893836      36.893836      36.893836    
   4640000   0.41534186    -7.968352      -7.3453481      2.4108952      50218.233      36.893836      36.893836      36.893836    
   4650000   0.41519447    -7.9631122     -7.3403294      2.4381549      50218.233      36.893836      36.893836      36.893836    
   4660000   0.41709027    -7.9634041     -7.3377776      2.4404335      50218.233      36.893836      36.893836      36.893836    
   4670000   0.41762669    -7.9678681     -7.341437       2.4173103      50218.233      36.893836      36.893836      36.893836    
   4680000   0.41512303    -7.9651927     -7.342517       2.4198567      50218.233      36.893836      36.893836      36.893836    
   4690000   0.41532525    -7.9686277     -7.3456487      2.409925       50218.233      36.893836      36.893836      36.893836    
   4700000   0.41512886    -7.9637043     -7.3410198      2.4439177      50218.233      36.893836      36.893836      36.893836    
   4710000   0.41574436    -7.9679788     -7.3443711      2.3984966      50218.233      36.893836      36.893836      36.893836    
   4720000   0.41576727    -7.9621731     -7.3385311      2.4521289      50218.233      36.893836      36.893836      36.893836    
   4730000   0.41736447    -7.9684138     -7.342376       2.4117816      50218.233      36.893836      36.893836      36.893836    
   4740000   0.41344029    -7.9648509     -7.3446993      2.4212523      50218.233      36.893836      36.893836      36.893836    
   4750000   0.41486745    -7.9678291     -7.3455368      2.4138494      50218.233      36.893836      36.893836      36.893836    
   4760000   0.41667126    -7.9626119     -7.3376139      2.4479158      50218.233      36.893836      36.893836      36.893836    
   4770000   0.415325      -7.9636724     -7.3406938      2.4425374      50218.233      36.893836      36.893836      36.893836    
   4780000   0.41421763    -7.9631235     -7.3418059      2.4465488      50218.233      36.893836      36.893836      36.893836    
   4790000   0.41559142    -7.9635072     -7.340129       2.4440258      50218.233      36.893836      36.893836      36.893836    
   4800000   0.41418659    -7.9652674     -7.3439963      2.4293538      50218.233      36.893836      36.893836      36.893836    
   4810000   0.41718318    -7.963825      -7.3380591      2.4515625      50218.233      36.893836      36.893836      36.893836    
   4820000   0.4134825     -7.9647019     -7.344487       2.4376274      50218.233      36.893836      36.893836      36.893836    
   4830000   0.41149998    -7.9686219     -7.3513807      2.4013195      50218.233      36.893836      36.893836      36.893836    
   4840000   0.41492421    -7.9650184     -7.342641       2.4388345      50218.233      36.893836      36.893836      36.893836    
   4850000   0.41734776    -7.9654871     -7.3394744      2.4320234      50218.233      36.893836      36.893836      36.893836    
   4860000   0.41459956    -7.9662891     -7.3443987      2.4273209      50218.233      36.893836      36.893836      36.893836    
   4870000   0.41549713    -7.9639253     -7.3406885      2.4362187      50218.233      36.893836      36.893836      36.893836    
   4880000   0.41513492    -7.964678      -7.3419845      2.4381583      50218.233      36.893836      36.893836      36.893836    
   4890000   0.41519339    -7.9633334     -7.3405521      2.4393757      50218.233      36.893836      36.893836      36.893836    
   4900000   0.41552368    -7.9655138     -7.3422372      2.4227432      50218.233      36.893836      36.893836      36.893836    
   4910000   0.41607642    -7.9652197     -7.3411139      2.4381712      50218.233      36.893836      36.893836      36.893836    
   4920000   0.41522595    -7.9669282     -7.3440982      2.4243584      50218.233      36.893836      36.893836      36.893836    
   4930000   0.41457177    -7.9672044     -7.3453556      2.4151669      50218.233      36.893836      36.893836      36.893836    
   4940000   0.41509177    -7.9664659     -7.3438371      2.4299317      50218.233      36.893836      36.893836      36.893836    
   4950000   0.41457639    -7.9648638     -7.3430081      2.4340281      50218.233      36.893836      36.893836      36.893836    
   4960000   0.41686782    -7.9675279     -7.342235       2.4081986      50218.233      36.893836      36.893836      36.893836    
   4970000   0.41501432    -7.9638352     -7.3413226      2.4331831      50218.233      36.893836      36.893836      36.893836    
   4980000   0.41699642    -7.9657618     -7.340276       2.4326824      50218.233      36.893836      36.893836      36.893836    
   4990000   0.41679241    -7.9701503     -7.3449706      2.3992497      50218.233      36.893836      36.893836      36.893836    
   5000000   0.41398486    -7.9661752     -7.3452067      2.4232346      50218.233      36.893836      36.893836      36.893836    
   5010000   0.41647292    -7.9647896     -7.3400891      2.4328602      50218.233      36.893836      36.893836      36.893836    
   5020000   0.41853649    -7.9698606     -7.3420648      2.3942631      50218.233      36.893836      36.893836      36.893836    
   5030000   0.41561995    -7.9657972     -7.3423761      2.4328143      50218.233      36.893836      36.893836      36.893836    
   5040000   0.41898299    -7.9673541     -7.3388885      2.4307741      50218.233      36.893836      36.893836      36.893836    
   5050000   0.41631328    -7.9696148     -7.3451537      2.4036929      50218.233      36.893836      36.893836      36.893836    
   5060000   0.41805728    -7.970409      -7.343332       2.39386        50218.233      36.893836      36.893836      36.893836    
   5070000   0.41613702    -7.9652145     -7.3410178      2.4280663      50218.233      36.893836      36.893836      36.893836    
   5080000   0.41542132    -7.9679054     -7.3447823      2.4086941      50218.233      36.893836      36.893836      36.893836    
   5090000   0.41620935    -7.9658974     -7.3415922      2.4240738      50218.233      36.893836      36.893836      36.893836    
   5100000   0.41616576    -7.9627145     -7.3384747      2.4470468      50218.233      36.893836      36.893836      36.893836    
   5110000   0.41542273    -7.9633723     -7.3402471      2.449039       50218.233      36.893836      36.893836      36.893836    
   5120000   0.41557608    -7.9663929     -7.3430376      2.4210238      50218.233      36.893836      36.893836      36.893836    
   5130000   0.41236337    -7.9657931     -7.3472568      2.4254194      50218.233      36.893836      36.893836      36.893836    
   5140000   0.41318684    -7.9623402     -7.3425688      2.4499525      50218.233      36.893836      36.893836      36.893836    
   5150000   0.41228877    -7.9660538     -7.3476295      2.422684       50218.233      36.893836      36.893836      36.893836    
   5160000   0.41620488    -7.9664827     -7.3421843      2.4212269      50218.233      36.893836      36.893836      36.893836    
   5170000   0.41544272    -7.965313      -7.3421578      2.4288098      50218.233      36.893836      36.893836      36.893836    
   5180000   0.4149804     -7.9627973     -7.3403356      2.4423804      50218.233      36.893836      36.893836      36.893836    
   5190000   0.41679147    -7.967192      -7.3420137      2.4154201      50218.233      36.893836      36.893836      36.893836    
   5200000   0.416209      -7.9683726     -7.344068       2.4124021      50218.233      36.893836      36.893836      36.893836    
   5210000   0.41496877    -7.9667776     -7.3443333      2.4225356      50218.233      36.893836      36.893836      36.893836    
   5220000   0.41442342    -7.9660579     -7.3444317      2.4234773      50218.233      36.893836      36.893836      36.893836    
   5230000   0.41761734    -7.9634245     -7.3370074      2.4497283      50218.233      36.893836      36.893836      36.893836    
   5240000   0.41660537    -7.9647689     -7.3398697      2.4424199      50218.233      36.893836      36.893836      36.893836    
   5250000   0.41649679    -7.9634794     -7.3387431      2.4509152      50218.233      36.893836      36.893836      36.893836    
   5260000   0.41415703    -7.9638732     -7.3426465      2.4391281      50218.233      36.893836      36.893836      36.893836    
   5270000   0.41630181    -7.9668952     -7.3424514      2.4218092      50218.233      36.893836      36.893836      36.893836    
   5280000   0.41490995    -7.9682548     -7.3458988      2.4118213      50218.233      36.893836      36.893836      36.893836    
   5290000   0.41419105    -7.9664131     -7.3451353      2.4247136      50218.233      36.893836      36.893836      36.893836    
   5300000   0.41573152    -7.9662332     -7.3426448      2.4221885      50218.233      36.893836      36.893836      36.893836    
   5310000   0.41588066    -7.9682314     -7.3444193      2.4082325      50218.233      36.893836      36.893836      36.893836    
   5320000   0.41470454    -7.9651084     -7.3430604      2.42944        50218.233      36.893836      36.893836      36.893836    
   5330000   0.41285255    -7.9640782     -7.3448081      2.4398351      50218.233      36.893836      36.893836      36.893836    
   5340000   0.41676507    -7.9665785     -7.3414398      2.4254102      50218.233      36.893836      36.893836      36.893836    
   5350000   0.41502149    -7.9681069     -7.3455835      2.4102603      50218.233      36.893836      36.893836      36.893836    
   5360000   0.41390434    -7.9643594     -7.3435118      2.4385814      50218.233      36.893836      36.893836      36.893836    
   5370000   0.41514748    -7.9647617     -7.3420493      2.4310794      50218.233      36.893836      36.893836      36.893836    
   5380000   0.41538428    -7.966667      -7.3435995      2.418969       50218.233      36.893836      36.893836      36.893836    
   5390000   0.41547094    -7.9670288     -7.3438312      2.4197186      50218.233      36.893836      36.893836      36.893836    
   5400000   0.41454246    -7.9623688     -7.340564       2.4451739      50218.233      36.893836      36.893836      36.893836    
   5410000   0.41467855    -7.9695664     -7.3475574      2.3908246      50218.233      36.893836      36.893836      36.893836    
   5420000   0.41591998    -7.966482      -7.3426109      2.4233735      50218.233      36.893836      36.893836      36.893836    
   5430000   0.41497749    -7.9672941     -7.3448367      2.4249571      50218.233      36.893836      36.893836      36.893836    
   5440000   0.41382351    -7.9678047     -7.3470782      2.410788       50218.233      36.893836      36.893836      36.893836    
   5450000   0.41499891    -7.9674354     -7.3449459      2.4088911      50218.233      36.893836      36.893836      36.893836    
   5460000   0.41433527    -7.9692894     -7.3477954      2.3987353      50218.233      36.893836      36.893836      36.893836    
   5470000   0.41390718    -7.9643137     -7.3434618      2.4329124      50218.233      36.893836      36.893836      36.893836    
   5480000   0.41454154    -7.9659234     -7.3441199      2.4224793      50218.233      36.893836      36.893836      36.893836    
   5490000   0.41320296    -7.9626897     -7.3428941      2.4500785      50218.233      36.893836      36.893836      36.893836    
   5500000   0.41338287    -7.9632008     -7.3431353      2.4480438      50218.233      36.893836      36.893836      36.893836    
   5510000   0.41611701    -7.9663815     -7.3422149      2.419311       50218.233      36.893836      36.893836      36.893836    
   5520000   0.41344657    -7.9691958     -7.3490348      2.4036057      50218.233      36.893836      36.893836      36.893836    
   5530000   0.41522057    -7.9668793     -7.3440573      2.4185632      50218.233      36.893836      36.893836      36.893836    
   5540000   0.41351274    -7.9683371     -7.3480768      2.412569       50218.233      36.893836      36.893836      36.893836    
   5550000   0.41702256    -7.9633714     -7.3378465      2.4469         50218.233      36.893836      36.893836      36.893836    
   5560000   0.41773363    -7.9656832     -7.3390916      2.4366694      50218.233      36.893836      36.893836      36.893836    
   5570000   0.41413515    -7.9686501     -7.3474562      2.3909119      50218.233      36.893836      36.893836      36.893836    
   5580000   0.41625016    -7.9674691     -7.3431027      2.4135452      50218.233      36.893836      36.893836      36.893836    
   5590000   0.41602451    -7.967238      -7.3432101      2.4209035      50218.233      36.893836      36.893836      36.893836    
   5600000   0.41413914    -7.9626416     -7.3414418      2.4481682      50218.233      36.893836      36.893836      36.893836    
   5610000   0.41441395    -7.9676647     -7.3460526      2.4056195      50218.233      36.893836      36.893836      36.893836    
   5620000   0.41513597    -7.9620623     -7.3393672      2.4456737      50218.233      36.893836      36.893836      36.893836    
   5630000   0.41650154    -7.9637718     -7.3390283      2.444599       50218.233      36.893836      36.893836      36.893836    
   5640000   0.41563391    -7.9646998     -7.3412578      2.4253924      50218.233      36.893836      36.893836      36.893836    
   5650000   0.41571387    -7.9683026     -7.3447407      2.4068751      50218.233      36.893836      36.893836      36.893836    
   5660000   0.41682047    -7.9640387     -7.3388169      2.4479203      50218.233      36.893836      36.893836      36.893836    
   5670000   0.41435172    -7.9657652     -7.3442465      2.4229584      50218.233      36.893836      36.893836      36.893836    
   5680000   0.41727117    -7.9640501     -7.3381522      2.4447588      50218.233      36.893836      36.893836      36.893836    
   5690000   0.41551269    -7.9638426     -7.3405825      2.4464727      50218.233      36.893836      36.893836      36.893836    
   5700000   0.41524871    -7.960342      -7.3374777      2.4640399      50218.233      36.893836      36.893836      36.893836    
   5710000   0.41330799    -7.9635138     -7.3435606      2.4371501      50218.233      36.893836      36.893836      36.893836    
   5720000   0.41577238    -7.9652886     -7.3416389      2.4296037      50218.233      36.893836      36.893836      36.893836    
   5730000   0.41541618    -7.9628808     -7.3397654      2.447459       50218.233      36.893836      36.893836      36.893836    
   5740000   0.4147437     -7.9656751     -7.3435684      2.4256626      50218.233      36.893836      36.893836      36.893836    
   5750000   0.41505532    -7.9634714     -7.3408973      2.4492532      50218.233      36.893836      36.893836      36.893836    
   5760000   0.41415543    -7.9625491     -7.3413248      2.4580903      50218.233      36.893836      36.893836      36.893836    
   5770000   0.41621172    -7.9622479     -7.3379393      2.4574171      50218.233      36.893836      36.893836      36.893836    
   5780000   0.41480783    -7.9659512     -7.3437483      2.4297059      50218.233      36.893836      36.893836      36.893836    
   5790000   0.41552875    -7.9678371     -7.3445529      2.4158018      50218.233      36.893836      36.893836      36.893836    
   5800000   0.41458775    -7.9689209     -7.3470482      2.4047443      50218.233      36.893836      36.893836      36.893836    
   5810000   0.41540433    -7.967295      -7.3441974      2.4229213      50218.233      36.893836      36.893836      36.893836    
   5820000   0.41421004    -7.9675091     -7.3462028      2.4197977      50218.233      36.893836      36.893836      36.893836    
   5830000   0.41449232    -7.9648684     -7.3431388      2.4323862      50218.233      36.893836      36.893836      36.893836    
   5840000   0.41522735    -7.9651749     -7.3423427      2.4333835      50218.233      36.893836      36.893836      36.893836    
   5850000   0.4143188     -7.9602852     -7.3388158      2.4605296      50218.233      36.893836      36.893836      36.893836    
   5860000   0.41425812    -7.9655834     -7.344205       2.4243169      50218.233      36.893836      36.893836      36.893836    
   5870000   0.41442554    -7.9643323     -7.3427029      2.4297404      50218.233      36.893836      36.893836      36.893836    
   5880000   0.41606195    -7.9673207     -7.3432366      2.4129301      50218.233      36.893836      36.893836      36.893836    
   5890000   0.41514427    -7.9632636     -7.340556       2.4445241      50218.233      36.893836      36.893836      36.893836    
   5900000   0.41666404    -7.9633555     -7.3383684      2.4480681      50218.233      36.893836      36.893836      36.893836    
   5910000   0.41465255    -7.9675022     -7.3455322      2.4095862      50218.233      36.893836      36.893836      36.893836    
   5920000   0.41465236    -7.9636965     -7.3417269      2.448551       50218.233      36.893836      36.893836      36.893836    
   5930000   0.41445732    -7.9675191     -7.345842       2.4192473      50218.233      36.893836      36.893836      36.893836    
   5940000   0.41542369    -7.9650951     -7.3419684      2.4328268      50218.233      36.893836      36.893836      36.893836    
   5950000   0.4135786     -7.9666227     -7.3462636      2.4192388      50218.233      36.893836      36.893836      36.893836    
   5960000   0.41414063    -7.9655479     -7.3443458      2.4253002      50218.233      36.893836      36.893836      36.893836    
   5970000   0.41622511    -7.9640192     -7.3396904      2.4403123      50218.233      36.893836      36.893836      36.893836    
   5980000   0.41616221    -7.9655539     -7.3413194      2.4319933      50218.233      36.893836      36.893836      36.893836    
   5990000   0.41593659    -7.9659327     -7.3420367      2.4221         50218.233      36.893836      36.893836      36.893836    
   6000000   0.41434681    -7.9669848     -7.3454735      2.4066551      50218.233      36.893836      36.893836      36.893836    
   6010000   0.4155938     -7.9684359     -7.3450541      2.4175406      50218.233      36.893836      36.893836      36.893836    
   6020000   0.41587131    -7.9654281     -7.34163        2.4331396      50218.233      36.893836      36.893836      36.893836    
   6030000   0.41597233    -7.9718114     -7.3478617      2.3803402      50218.233      36.893836      36.893836      36.893836    
   6040000   0.41398663    -7.9674682     -7.346497       2.4104276      50218.233      36.893836      36.893836      36.893836    
   6050000   0.4155502     -7.9695793     -7.3462628      2.3870899      50218.233      36.893836      36.893836      36.893836    
   6060000   0.41551531    -7.9685351     -7.345271       2.4027075      50218.233      36.893836      36.893836      36.893836    
   6070000   0.41371353    -7.9673466     -7.3467851      2.4102113      50218.233      36.893836      36.893836      36.893836    
   6080000   0.41368488    -7.9683799     -7.3478614      2.4050181      50218.233      36.893836      36.893836      36.893836    
   6090000   0.41675901    -7.9671118     -7.3419822      2.4215252      50218.233      36.893836      36.893836      36.893836    
   6100000   0.4156475     -7.9639658     -7.3405034      2.4337444      50218.233      36.893836      36.893836      36.893836    
   6110000   0.41556536    -7.9663669     -7.3430277      2.4262972      50218.233      36.893836      36.893836      36.893836    
   6120000   0.41574613    -7.9657075     -7.3420972      2.4297783      50218.233      36.893836      36.893836      36.893836    
   6130000   0.41310371    -7.9660452     -7.3463984      2.423446       50218.233      36.893836      36.893836      36.893836    
   6140000   0.41512775    -7.9619289     -7.3392461      2.4561627      50218.233      36.893836      36.893836      36.893836    
   6150000   0.4159236     -7.9627658     -7.3388893      2.4523554      50218.233      36.893836      36.893836      36.893836    
   6160000   0.41550376    -7.9649116     -7.3416648      2.4305278      50218.233      36.893836      36.893836      36.893836    
   6170000   0.41447834    -7.9684261     -7.3467175      2.4015082      50218.233      36.893836      36.893836      36.893836    
   6180000   0.41652714    -7.9666227     -7.3418409      2.4225884      50218.233      36.893836      36.893836      36.893836    
   6190000   0.41452039    -7.9686237     -7.346852       2.4074769      50218.233      36.893836      36.893836      36.893836    
   6200000   0.41398256    -7.96334       -7.342375       2.4460654      50218.233      36.893836      36.893836      36.893836    
   6210000   0.41478559    -7.9643319     -7.3421624      2.4413792      50218.233      36.893836      36.893836      36.893836    
   6220000   0.41413907    -7.9607457     -7.339546       2.4626821      50218.233      36.893836      36.893836      36.893836    
   6230000   0.41451691    -7.9653896     -7.343623       2.4317092      50218.233      36.893836      36.893836      36.893836    
   6240000   0.41486701    -7.9635502     -7.3412585      2.4442291      50218.233      36.893836      36.893836      36.893836    
   6250000   0.41562744    -7.9635566     -7.3401244      2.4467496      50218.233      36.893836      36.893836      36.893836    
   6260000   0.41501091    -7.9638946     -7.3413871      2.4456747      50218.233      36.893836      36.893836      36.893836    
   6270000   0.41541574    -7.9654852     -7.3423705      2.4264432      50218.233      36.893836      36.893836      36.893836    
   6280000   0.41444075    -7.9646218     -7.3429695      2.4375267      50218.233      36.893836      36.893836      36.893836    
   6290000   0.41684271    -7.9672379     -7.3419827      2.4168377      50218.233      36.893836      36.893836      36.893836    
   6300000   0.41531549    -7.9656209     -7.3426565      2.4293035      50218.233      36.893836      36.893836      36.893836    
   6310000   0.41270475    -7.963649      -7.3446006      2.4452009      50218.233      36.893836      36.893836      36.893836    
   6320000   0.41611777    -7.9644416     -7.3402738      2.4339306      50218.233      36.893836      36.893836      36.893836    
   6330000   0.41574264    -7.9653915     -7.3417864      2.4267316      50218.233      36.893836      36.893836      36.893836    
   6340000   0.41411449    -7.9673081     -7.3461451      2.4096644      50218.233      36.893836      36.893836      36.893836    
   6350000   0.41584384    -7.9701204     -7.3463635      2.4002042      50218.233      36.893836      36.893836      36.893836    
   6360000   0.41184276    -7.9643431     -7.3465878      2.4253899      50218.233      36.893836      36.893836      36.893836    
   6370000   0.41452555    -7.9676498     -7.3458703      2.4123153      50218.233      36.893836      36.893836      36.893836    
   6380000   0.41464399    -7.9671203     -7.3451631      2.4221182      50218.233      36.893836      36.893836      36.893836    
   6390000   0.41441506    -7.9681378     -7.3465241      2.4099356      50218.233      36.893836      36.893836      36.893836    
   6400000   0.41513461    -7.9627881     -7.3400951      2.4482928      50218.233      36.893836      36.893836      36.893836    
   6410000   0.41468456    -7.9638045     -7.3417866      2.432896       50218.233      36.893836      36.893836      36.893836    
   6420000   0.41646355    -7.9657176     -7.3410311      2.429012       50218.233      36.893836      36.893836      36.893836    
   6430000   0.41655084    -7.9663164     -7.341499       2.4311094      50218.233      36.893836      36.893836      36.893836    
   6440000   0.41540019    -7.966123      -7.3430316      2.4273904      50218.233      36.893836      36.893836      36.893836    
   6450000   0.41539735    -7.9644313     -7.3413441      2.4294155      50218.233      36.893836      36.893836      36.893836    
   6460000   0.41464157    -7.9664528     -7.3444993      2.414134       50218.233      36.893836      36.893836      36.893836    
   6470000   0.41681749    -7.9641227     -7.3389054      2.4447062      50218.233      36.893836      36.893836      36.893836    
   6480000   0.41782369    -7.9674144     -7.3406878      2.4056729      50218.233      36.893836      36.893836      36.893836    
   6490000   0.41339426    -7.9657966     -7.345714       2.4139012      50218.233      36.893836      36.893836      36.893836    
   6500000   0.41448829    -7.9634831     -7.3417595      2.4387087      50218.233      36.893836      36.893836      36.893836    
   6510000   0.41505853    -7.965533      -7.342954       2.4218456      50218.233      36.893836      36.893836      36.893836    
   6520000   0.41481225    -7.9670481     -7.3448386      2.4230529      50218.233      36.893836      36.893836      36.893836    
   6530000   0.41402684    -7.9655802     -7.3445488      2.424929       50218.233      36.893836      36.893836      36.893836    
   6540000   0.41592082    -7.9671891     -7.3433167      2.4108647      50218.233      36.893836      36.893836      36.893836    
   6550000   0.41555446    -7.9642111     -7.3408883      2.4338189      50218.233      36.893836      36.893836      36.893836    
   6560000   0.41601153    -7.9679718     -7.3439634      2.4173098      50218.233      36.893836      36.893836      36.893836    
   6570000   0.41565616    -7.9644135     -7.3409381      2.4368649      50218.233      36.893836      36.893836      36.893836    
   6580000   0.41512464    -7.9669292     -7.3442511      2.4017828      50218.233      36.893836      36.893836      36.893836    
   6590000   0.41491746    -7.964054      -7.3416867      2.4329575      50218.233      36.893836      36.893836      36.893836    
   6600000   0.41572201    -7.9671874     -7.3436133      2.4189887      50218.233      36.893836      36.893836      36.893836    
   6610000   0.41539909    -7.9665153     -7.3434256      2.4136863      50218.233      36.893836      36.893836      36.893836    
   6620000   0.41442289    -7.9652481     -7.3436226      2.4291459      50218.233      36.893836      36.893836      36.893836    
   6630000   0.41639002    -7.966253      -7.3416769      2.4285261      50218.233      36.893836      36.893836      36.893836    
   6640000   0.41495794    -7.9649204     -7.3424924      2.4364802      50218.233      36.893836      36.893836      36.893836    
   6650000   0.41500168    -7.964412      -7.3419183      2.4341557      50218.233      36.893836      36.893836      36.893836    
   6660000   0.41330441    -7.9627756     -7.3428278      2.4439441      50218.233      36.893836      36.893836      36.893836    
   6670000   0.41499633    -7.9639387     -7.3414531      2.4330124      50218.233      36.893836      36.893836      36.893836    
   6680000   0.41348503    -7.9647333     -7.3445146      2.4254328      50218.233      36.893836      36.893836      36.893836    
   6690000   0.41628749    -7.9621591     -7.3377368      2.4519381      50218.233      36.893836      36.893836      36.893836    
   6700000   0.41446538    -7.9637066     -7.3420174      2.4424212      50218.233      36.893836      36.893836      36.893836    
   6710000   0.41681998    -7.9656532     -7.3404322      2.4294932      50218.233      36.893836      36.893836      36.893836    
   6720000   0.41437161    -7.9627118     -7.3411633      2.4530112      50218.233      36.893836      36.893836      36.893836    
   6730000   0.41411225    -7.9630737     -7.3419142      2.4570919      50218.233      36.893836      36.893836      36.893836    
   6740000   0.41444042    -7.9648186     -7.3431668      2.4240436      50218.233      36.893836      36.893836      36.893836    
   6750000   0.4161925     -7.9647549     -7.340475       2.4329374      50218.233      36.893836      36.893836      36.893836    
   6760000   0.415833      -7.9637898     -7.3400491      2.4371705      50218.233      36.893836      36.893836      36.893836    
   6770000   0.41293193    -7.960153      -7.3407639      2.4605793      50218.233      36.893836      36.893836      36.893836    
   6780000   0.41639283    -7.9608727     -7.3362923      2.4653853      50218.233      36.893836      36.893836      36.893836    
   6790000   0.41331925    -7.9663386     -7.3463686      2.4179426      50218.233      36.893836      36.893836      36.893836    
   6800000   0.41509032    -7.9663231     -7.3436965      2.4303687      50218.233      36.893836      36.893836      36.893836    
   6810000   0.41348583    -7.966357      -7.346137       2.4215311      50218.233      36.893836      36.893836      36.893836    
   6820000   0.41383791    -7.9656501     -7.344902       2.4301367      50218.233      36.893836      36.893836      36.893836    
   6830000   0.41440351    -7.9667788     -7.3451824      2.4134723      50218.233      36.893836      36.893836      36.893836    
   6840000   0.41401612    -7.962514      -7.3414987      2.4403338      50218.233      36.893836      36.893836      36.893836    
   6850000   0.41306488    -7.9668742     -7.3472857      2.4068213      50218.233      36.893836      36.893836      36.893836    
   6860000   0.41292692    -7.9651876     -7.345806       2.43181        50218.233      36.893836      36.893836      36.893836    
   6870000   0.41558686    -7.9644349     -7.3410635      2.4450933      50218.233      36.893836      36.893836      36.893836    
   6880000   0.4143334     -7.9643522     -7.342861       2.4331299      50218.233      36.893836      36.893836      36.893836    
   6890000   0.41139334    -7.9669236     -7.3498423      2.4122497      50218.233      36.893836      36.893836      36.893836    
   6900000   0.41746801    -7.967508      -7.3413149      2.4188934      50218.233      36.893836      36.893836      36.893836    
   6910000   0.41343293    -7.9663046     -7.3461641      2.4183946      50218.233      36.893836      36.893836      36.893836    
   6920000   0.41367614    -7.9655599     -7.3450546      2.4128421      50218.233      36.893836      36.893836      36.893836    
   6930000   0.41591476    -7.9645946     -7.3407313      2.4416625      50218.233      36.893836      36.893836      36.893836    
   6940000   0.41390102    -7.9673468     -7.3465041      2.4149711      50218.233      36.893836      36.893836      36.893836    
   6950000   0.41725536    -7.966852      -7.3409778      2.4245023      50218.233      36.893836      36.893836      36.893836    
   6960000   0.41460704    -7.9630691     -7.3411674      2.4429495      50218.233      36.893836      36.893836      36.893836    
   6970000   0.4162145     -7.9679995     -7.3436866      2.4071345      50218.233      36.893836      36.893836      36.893836    
   6980000   0.41389848    -7.9673839     -7.346545       2.4119679      50218.233      36.893836      36.893836      36.893836    
   6990000   0.41328626    -7.9638813     -7.3439608      2.4404076      50218.233      36.893836      36.893836      36.893836    
   7000000   0.41790233    -7.9675255     -7.3406809      2.4045073      50218.233      36.893836      36.893836      36.893836    
   7010000   0.41862541    -7.9626851     -7.3347559      2.4545163      50218.233      36.893836      36.893836      36.893836    
   7020000   0.41339504    -7.9660592     -7.3459755      2.4161655      50218.233      36.893836      36.893836      36.893836    
   7030000   0.41443524    -7.9659204     -7.3442764      2.4218158      50218.233      36.893836      36.893836      36.893836    
   7040000   0.41411828    -7.9649558     -7.3437872      2.4362051      50218.233      36.893836      36.893836      36.893836    
   7050000   0.41455365    -7.9640395     -7.3422178      2.451194       50218.233      36.893836      36.893836      36.893836    
   7060000   0.41407976    -7.9667803     -7.3456695      2.4089119      50218.233      36.893836      36.893836      36.893836    
   7070000   0.41419592    -7.9665259     -7.3452408      2.4189961      50218.233      36.893836      36.893836      36.893836    
   7080000   0.4146831     -7.9669488     -7.344933       2.4107788      50218.233      36.893836      36.893836      36.893836    
   7090000   0.4174167     -7.9669839     -7.3408678      2.4234787      50218.233      36.893836      36.893836      36.893836    
   7100000   0.4145421     -7.9651623     -7.343358       2.4367043      50218.233      36.893836      36.893836      36.893836    
   7110000   0.41626296    -7.9679796     -7.3435941      2.410981       50218.233      36.893836      36.893836      36.893836    
   7120000   0.41418526    -7.9646161     -7.3433471      2.4371317      50218.233      36.893836      36.893836      36.893836    
   7130000   0.41347241    -7.9673321     -7.3471323      2.4069593      50218.233      36.893836      36.893836      36.893836    
   7140000   0.41468105    -7.9631706     -7.3411578      2.4449198      50218.233      36.893836      36.893836      36.893836    
   7150000   0.41432855    -7.9624328     -7.3409488      2.4580601      50218.233      36.893836      36.893836      36.893836    
   7160000   0.41255293    -7.9661123     -7.3472917      2.4242255      50218.233      36.893836      36.893836      36.893836    
   7170000   0.4158638     -7.9656888     -7.341902       2.420208       50218.233      36.893836      36.893836      36.893836    
   7180000   0.41260372    -7.9617224     -7.3428256      2.4534108      50218.233      36.893836      36.893836      36.893836    
   7190000   0.41441661    -7.9656755     -7.3440594      2.4170651      50218.233      36.893836      36.893836      36.893836    
   7200000   0.41488387    -7.964993      -7.342676       2.4249017      50218.233      36.893836      36.893836      36.893836    
   7210000   0.41322724    -7.9631121     -7.34328        2.4509536      50218.233      36.893836      36.893836      36.893836    
   7220000   0.41442264    -7.9657414     -7.3441163      2.4158458      50218.233      36.893836      36.893836      36.893836    
   7230000   0.41607154    -7.963925      -7.3398266      2.4400425      50218.233      36.893836      36.893836      36.893836    
   7240000   0.41556224    -7.9641787     -7.3408442      2.442262       50218.233      36.893836      36.893836      36.893836    
   7250000   0.41307262    -7.9634904     -7.3438903      2.4338611      50218.233      36.893836      36.893836      36.893836    
   7260000   0.41501003    -7.9650926     -7.3425865      2.4148739      50218.233      36.893836      36.893836      36.893836    
   7270000   0.41200019    -7.962782      -7.3447905      2.4417541      50218.233      36.893836      36.893836      36.893836    
   7280000   0.41577166    -7.9659122     -7.3422636      2.4284491      50218.233      36.893836      36.893836      36.893836    
   7290000   0.41505903    -7.9669991     -7.3444194      2.4184003      50218.233      36.893836      36.893836      36.893836    
   7300000   0.41585447    -7.960495      -7.3367222      2.469877       50218.233      36.893836      36.893836      36.893836    
   7310000   0.41607717    -7.9627972     -7.3386904      2.4448128      50218.233      36.893836      36.893836      36.893836    
   7320000   0.41678692    -7.9647176     -7.3395461      2.4378689      50218.233      36.893836      36.893836      36.893836    
   7330000   0.41182411    -7.966238      -7.3485106      2.4118329      50218.233      36.893836      36.893836      36.893836    
   7340000   0.41444399    -7.9636976     -7.3420405      2.4287976      50218.233      36.893836      36.893836      36.893836    
   7350000   0.41526991    -7.96635       -7.343454       2.425075       50218.233      36.893836      36.893836      36.893836    
   7360000   0.41714588    -7.9650122     -7.3393023      2.4300739      50218.233      36.893836      36.893836      36.893836    
   7370000   0.41575388    -7.9622422     -7.3386203      2.4583467      50218.233      36.893836      36.893836      36.893836    
   7380000   0.41310141    -7.9675884     -7.3479451      2.4127423      50218.233      36.893836      36.893836      36.893836    
   7390000   0.41694876    -7.967628      -7.3422138      2.4128312      50218.233      36.893836      36.893836      36.893836    
   7400000   0.41559466    -7.9671633     -7.3437801      2.411054       50218.233      36.893836      36.893836      36.893836    
   7410000   0.41603921    -7.9685592     -7.3445093      2.4114114      50218.233      36.893836      36.893836      36.893836    
   7420000   0.41373038    -7.9645786     -7.3439919      2.4304456      50218.233      36.893836      36.893836      36.893836    
   7430000   0.41506935    -7.9693308     -7.3467357      2.4025161      50218.233      36.893836      36.893836      36.893836    
   7440000   0.41468938    -7.9666988     -7.3446736      2.4125461      50218.233      36.893836      36.893836      36.893836    
   7450000   0.41597351    -7.9660201     -7.3420688      2.4212623      50218.233      36.893836      36.893836      36.893836    
   7460000   0.41318346    -7.9701979     -7.3504315      2.3911988      50218.233      36.893836      36.893836      36.893836    
   7470000   0.41416923    -7.9685083     -7.3472633      2.4045025      50218.233      36.893836      36.893836      36.893836    
   7480000   0.41342918    -7.9658028     -7.3456679      2.4153351      50218.233      36.893836      36.893836      36.893836    
   7490000   0.41428249    -7.9699938     -7.3485789      2.3911678      50218.233      36.893836      36.893836      36.893836    
   7500000   0.41341762    -7.9673706     -7.347253       2.4080281      50218.233      36.893836      36.893836      36.893836    
   7510000   0.41653085    -7.9615451     -7.3367577      2.4569335      50218.233      36.893836      36.893836      36.893836    
   7520000   0.41631771    -7.9693436     -7.344876       2.3985467      50218.233      36.893836      36.893836      36.893836    
   7530000   0.41670395    -7.9657557     -7.3407086      2.4359581      50218.233      36.893836      36.893836      36.893836    
   7540000   0.41560467    -7.9666415     -7.3432433      2.4105162      50218.233      36.893836      36.893836      36.893836    
   7550000   0.41651819    -7.9684074     -7.343639       2.4021437      50218.233      36.893836      36.893836      36.893836    
   7560000   0.41381908    -7.9688407     -7.3481209      2.400247       50218.233      36.893836      36.893836      36.893836    
   7570000   0.4129294     -7.9658662     -7.3464809      2.4218817      50218.233      36.893836      36.893836      36.893836    
   7580000   0.41542428    -7.9672815     -7.3441539      2.4118151      50218.233      36.893836      36.893836      36.893836    
   7590000   0.41560106    -7.9668833     -7.3434906      2.4227812      50218.233      36.893836      36.893836      36.893836    
   7600000   0.4144728     -7.9663048     -7.3446045      2.4199686      50218.233      36.893836      36.893836      36.893836    
   7610000   0.41341934    -7.9655303     -7.3454102      2.432621       50218.233      36.893836      36.893836      36.893836    
   7620000   0.41552833    -7.9637426     -7.340459       2.4405961      50218.233      36.893836      36.893836      36.893836    
   7630000   0.41353574    -7.9634418     -7.3431471      2.43958        50218.233      36.893836      36.893836      36.893836    
   7640000   0.41242826    -7.9686204     -7.3499868      2.4058315      50218.233      36.893836      36.893836      36.893836    
   7650000   0.41398499    -7.9672196     -7.346251       2.416235       50218.233      36.893836      36.893836      36.893836    
   7660000   0.41530667    -7.9696056     -7.3466544      2.3881787      50218.233      36.893836      36.893836      36.893836    
   7670000   0.41371031    -7.9637473     -7.3431907      2.4417421      50218.233      36.893836      36.893836      36.893836    
   7680000   0.4133387     -7.9653934     -7.3453942      2.4237824      50218.233      36.893836      36.893836      36.893836    
   7690000   0.41591374    -7.9656787     -7.341817       2.4280157      50218.233      36.893836      36.893836      36.893836    
   7700000   0.41823509    -7.9639388     -7.3365951      2.4454892      50218.233      36.893836      36.893836      36.893836    
   7710000   0.41571961    -7.9626258     -7.3390552      2.4573226      50218.233      36.893836      36.893836      36.893836    
   7720000   0.41435615    -7.9649372     -7.3434118      2.4269623      50218.233      36.893836      36.893836      36.893836    
   7730000   0.41688059    -7.9638343     -7.3385223      2.4468044      50218.233      36.893836      36.893836      36.893836    
   7740000   0.41580503    -7.9648112     -7.3411125      2.4387489      50218.233      36.893836      36.893836      36.893836    
   7750000   0.41487462    -7.9634338     -7.3411307      2.4441613      50218.233      36.893836      36.893836      36.893836    
   7760000   0.41697901    -7.962712      -7.3372523      2.4531119      50218.233      36.893836      36.893836      36.893836    
   7770000   0.41447331    -7.9635638     -7.3418627      2.4374145      50218.233      36.893836      36.893836      36.893836    
   7780000   0.4159718     -7.9660564     -7.3421076      2.4279333      50218.233      36.893836      36.893836      36.893836    
   7790000   0.41400248    -7.963103      -7.3421082      2.4497573      50218.233      36.893836      36.893836      36.893836    
   7800000   0.41482865    -7.9635858     -7.3413517      2.4386885      50218.233      36.893836      36.893836      36.893836    
   7810000   0.4159688     -7.9695932     -7.3456489      2.401728       50218.233      36.893836      36.893836      36.893836    
   7820000   0.41749732    -7.9663731     -7.340136       2.4274609      50218.233      36.893836      36.893836      36.893836    
   7830000   0.41572642    -7.9657195     -7.3421387      2.4353459      50218.233      36.893836      36.893836      36.893836    
   7840000   0.41506713    -7.9662668     -7.3436749      2.4220309      50218.233      36.893836      36.893836      36.893836    
   7850000   0.41655878    -7.9677993     -7.3429701      2.4070593      50218.233      36.893836      36.893836      36.893836    
   7860000   0.41574102    -7.96552       -7.3419173      2.4367029      50218.233      36.893836      36.893836      36.893836    
   7870000   0.41484937    -7.9675663     -7.3453011      2.4072979      50218.233      36.893836      36.893836      36.893836    
   7880000   0.41588585    -7.9643219     -7.340502       2.4422559      50218.233      36.893836      36.893836      36.893836    
   7890000   0.41443202    -7.9648161     -7.3431769      2.4267522      50218.233      36.893836      36.893836      36.893836    
   7900000   0.41302354    -7.9672413     -7.3477148      2.4176441      50218.233      36.893836      36.893836      36.893836    
   7910000   0.41588083    -7.9691029     -7.3452905      2.4019639      50218.233      36.893836      36.893836      36.893836    
   7920000   0.41586592    -7.9669616     -7.3431716      2.4229363      50218.233      36.893836      36.893836      36.893836    
   7930000   0.41398749    -7.9715089     -7.3505365      2.3823668      50218.233      36.893836      36.893836      36.893836    
   7940000   0.41610785    -7.9665719     -7.342419       2.4196404      50218.233      36.893836      36.893836      36.893836    
   7950000   0.41745306    -7.9670987     -7.340928       2.4214758      50218.233      36.893836      36.893836      36.893836    
   7960000   0.41444726    -7.9666186     -7.3449566      2.411166       50218.233      36.893836      36.893836      36.893836    
   7970000   0.41368077    -7.9683011     -7.3477888      2.406729       50218.233      36.893836      36.893836      36.893836    
   7980000   0.41558314    -7.9670987     -7.3437328      2.419309       50218.233      36.893836      36.893836      36.893836    
   7990000   0.41770403    -7.9660699     -7.3395227      2.432066       50218.233      36.893836      36.893836      36.893836    
   8000000   0.41366514    -7.9656831     -7.3451942      2.4225461      50218.233      36.893836      36.893836      36.893836    
Loop time of 12463.7 on 5 procs for 8000000 steps with 70304 atoms

Performance: 554571.340 tau/day, 641.865 timesteps/s, 45.126 Matom-step/s
94.9% CPU use with 5 MPI tasks x 1 OpenMP threads

MPI task timing breakdown:
Section |  min time  |  avg time  |  max time  |%varavg| %total
---------------------------------------------------------------
Pair    | 4102.1     | 4959.6     | 5905.1     | 873.1 | 39.79
Neigh   | 37.662     | 39.951     | 42.121     |  24.6 |  0.32
Comm    | 1856.4     | 1868.4     | 1890.6     |  29.0 | 14.99
Output  | 0.14375    | 0.14983    | 0.16239    |   1.7 |  0.00
Modify  | 4049.2     | 4976.7     | 5845.8     | 872.2 | 39.93
Other   |            | 618.8      |            |       |  4.96

Nlocal:        14060.8 ave       14105 max       14020 min
Histogram: 1 0 1 0 0 1 1 0 0 1
Nghost:          18734 ave       18779 max       18677 min
Histogram: 1 0 0 1 0 0 1 1 0 1
Neighs:              0 ave           0 max           0 min
Histogram: 5 0 0 0 0 0 0 0 0 0

Total # of neighbors = 0
Ave neighs/atom = 0
Neighbor list builds = 1565422
Dangerous builds = 0
clear
OMP_NUM_THREADS environment is not set. Defaulting to 1 thread. (src/comm.cpp:98)
  using 1 OpenMP thread(s) per MPI task
package gpu 0
jump dms430.lmp

variable T equal 430
# T = 1000* (temp in LJ unit)
variable f equal 10000
log log.${T}
log log.430
