variable TLJ equal (${T}/1000)
variable TLJ equal (500/1000)
variable NCyle equal 10
variable iStep equal (${f})
variable iStep equal (10000)
variable dumpStep equal (${f}*100)
variable dumpStep equal (10000*100)
variable runStep equal (${f}*100*${NCyle})
variable runStep equal (10000*100*${NCyle})
variable runStep equal (10000*100*10)

units       lj
atom_style  atomic
dimension 3
boundary     p p p
pair_style  lj/cut 2.5
read_data  ../data/T${T}.dat
read_data  ../data/T500.dat
Reading data file ...
  orthogonal box = (0.97250269 0.97250269 0.97250269) to (37.866338 37.866338 37.866338)
  1 by 1 by 5 MPI processor grid
  reading atoms ...
  70304 atoms
  reading velocities ...
  70304 velocities
  read_data CPU = 0.209 seconds
change_box all triclinic
Changing box ...
  triclinic box = (0.97250269 0.97250269 0.97250269) to (37.866338 37.866338 37.866338) with tilt (0 0 0)
mass 1 1
mass 2 1
pair_modify shift yes
pair_coeff  1 1 1 1
pair_coeff  1 2 1.5 0.8
pair_coeff  2 2 0.5 0.88


timestep 0.01
thermo ${iStep}
thermo 10000
reset_timestep 0
thermo_style custom step temp pe etotal press vol lx ly lz
fix             1 all nvt temp ${TLJ}  ${TLJ}  0.1
fix             1 all nvt temp 0.5  ${TLJ}  0.1
fix             1 all nvt temp 0.5  0.5  0.1
thermo_modify flush yes

fix dsf all deform 1 xy  wiggle 0.5  ${f}   units box
fix dsf all deform 1 xy  wiggle 0.5  10000   units box
fix ps1 all ave/time 1 1 ${iStep} c_thermo_press[1] c_thermo_press[2]  c_thermo_press[3] c_thermo_press[4]  c_thermo_press[5] c_thermo_press[6]  file  stress.${T}
fix ps1 all ave/time 1 1 10000 c_thermo_press[1] c_thermo_press[2]  c_thermo_press[3] c_thermo_press[4]  c_thermo_press[5] c_thermo_press[6]  file  stress.${T}
fix ps1 all ave/time 1 1 10000 c_thermo_press[1] c_thermo_press[2]  c_thermo_press[3] c_thermo_press[4]  c_thermo_press[5] c_thermo_press[6]  file  stress.500
dump            1 all custom ${dumpStep} dump.${T} id type x y z
dump            1 all custom 1000000 dump.${T} id type x y z
dump            1 all custom 1000000 dump.500 id type x y z
dump_modify 1 sort id
fix nodrift all momentum 1  linear 1 1 1
fix com_seed all recenter INIT INIT INIT shift all
run ${runStep}
run 10000000
Generated 0 of 1 mixed pair_coeff terms from geometric mixing rule
Per MPI rank memory allocation (min/avg/max) = 6.67 | 8.472 | 8.928 Mbytes
   Step          Temp          PotEng         TotEng         Press          Volume           Lx             Ly             Lz      
         0   0.50192821    -7.8229874     -7.0701058      3.605369       50218.233      36.893836      36.893836      36.893836    
     10000   0.50082466    -7.8156859     -7.0644596      3.6476616      50218.233      36.893836      36.893836      36.893836    
     20000   0.497877      -7.8152859     -7.0684811      3.6497884      50218.233      36.893836      36.893836      36.893836    
     30000   0.49674268    -7.8167946     -7.0716912      3.6322364      50218.233      36.893836      36.893836      36.893836    
     40000   0.49754311    -7.8109145     -7.0646104      3.6782919      50218.233      36.893836      36.893836      36.893836    
     50000   0.50092283    -7.8137094     -7.0623359      3.6655457      50218.233      36.893836      36.893836      36.893836    
     60000   0.50226147    -7.8155812     -7.0621997      3.6495893      50218.233      36.893836      36.893836      36.893836    
     70000   0.50210793    -7.8092145     -7.0560633      3.6894708      50218.233      36.893836      36.893836      36.893836    
     80000   0.49979911    -7.8141041     -7.0644161      3.6511975      50218.233      36.893836      36.893836      36.893836    
     90000   0.50058179    -7.8110523     -7.0601903      3.6801642      50218.233      36.893836      36.893836      36.893836    
    100000   0.49848215    -7.8132312     -7.0655186      3.6645411      50218.233      36.893836      36.893836      36.893836    
    110000   0.50135631    -7.8123902     -7.0603665      3.6620796      50218.233      36.893836      36.893836      36.893836    
    120000   0.50009536    -7.8134635     -7.0633311      3.6575706      50218.233      36.893836      36.893836      36.893836    
    130000   0.4969555     -7.8143491     -7.0689264      3.6442758      50218.233      36.893836      36.893836      36.893836    
    140000   0.49671087    -7.8121132     -7.0670575      3.6677571      50218.233      36.893836      36.893836      36.893836    
    150000   0.50133434    -7.8100859     -7.0580951      3.6961024      50218.233      36.893836      36.893836      36.893836    
    160000   0.50181803    -7.814433      -7.0617167      3.6570171      50218.233      36.893836      36.893836      36.893836    
    170000   0.50209256    -7.8173844     -7.0642563      3.6369845      50218.233      36.893836      36.893836      36.893836    
    180000   0.49871359    -7.8133431     -7.0652833      3.6631781      50218.233      36.893836      36.893836      36.893836    
    190000   0.50139599    -7.8103747     -7.0582914      3.6907019      50218.233      36.893836      36.893836      36.893836    
    200000   0.49834868    -7.8116896     -7.0641772      3.6763449      50218.233      36.893836      36.893836      36.893836    
    210000   0.49989793    -7.8149454     -7.0651092      3.6453274      50218.233      36.893836      36.893836      36.893836    
    220000   0.5029809     -7.8111046     -7.0566439      3.6975015      50218.233      36.893836      36.893836      36.893836    
    230000   0.49913966    -7.8165098     -7.0678109      3.6305362      50218.233      36.893836      36.893836      36.893836    
    240000   0.49895584    -7.8148969     -7.0664737      3.647543       50218.233      36.893836      36.893836      36.893836    
    250000   0.49770966    -7.8112117     -7.0646578      3.6790359      50218.233      36.893836      36.893836      36.893836    
    260000   0.50087655    -7.8121018     -7.0607977      3.6721437      50218.233      36.893836      36.893836      36.893836    
    270000   0.50057971    -7.8119318     -7.0610729      3.6744937      50218.233      36.893836      36.893836      36.893836    
    280000   0.49965408    -7.8150188     -7.0655483      3.6616847      50218.233      36.893836      36.893836      36.893836    
    290000   0.50058363    -7.8100135     -7.0591488      3.6998019      50218.233      36.893836      36.893836      36.893836    
    300000   0.49860236    -7.8134765     -7.0655836      3.6658281      50218.233      36.893836      36.893836      36.893836    
    310000   0.50106929    -7.8147213     -7.063128       3.6582448      50218.233      36.893836      36.893836      36.893836    
    320000   0.49920556    -7.811716      -7.0629183      3.6851941      50218.233      36.893836      36.893836      36.893836    
    330000   0.50081619    -7.815589      -7.0643754      3.648318       50218.233      36.893836      36.893836      36.893836    
    340000   0.49847803    -7.8143397     -7.0666333      3.6647978      50218.233      36.893836      36.893836      36.893836    
    350000   0.5001779     -7.8185343     -7.0682781      3.631559       50218.233      36.893836      36.893836      36.893836    
    360000   0.50131392    -7.8097274     -7.0577672      3.6869743      50218.233      36.893836      36.893836      36.893836    
    370000   0.49910824    -7.8118925     -7.0632408      3.6707801      50218.233      36.893836      36.893836      36.893836    
    380000   0.50090645    -7.8092676     -7.0579186      3.6964793      50218.233      36.893836      36.893836      36.893836    
    390000   0.49872179    -7.8095498     -7.0614778      3.6957383      50218.233      36.893836      36.893836      36.893836    
    400000   0.49998391    -7.810564      -7.0605988      3.6774028      50218.233      36.893836      36.893836      36.893836    
    410000   0.49914547    -7.8086214     -7.0599138      3.6932533      50218.233      36.893836      36.893836      36.893836    
    420000   0.5010972     -7.8105633     -7.0589282      3.6945476      50218.233      36.893836      36.893836      36.893836    
    430000   0.49873173    -7.8125082     -7.0644212      3.6659436      50218.233      36.893836      36.893836      36.893836    
    440000   0.5002387     -7.8123101     -7.0619627      3.6647911      50218.233      36.893836      36.893836      36.893836    
    450000   0.4985073     -7.8150023     -7.067252       3.6495842      50218.233      36.893836      36.893836      36.893836    
    460000   0.50137578    -7.8106222     -7.0585692      3.6866493      50218.233      36.893836      36.893836      36.893836    
    470000   0.50167584    -7.8105567     -7.0580537      3.6914414      50218.233      36.893836      36.893836      36.893836    
    480000   0.49991556    -7.8152827     -7.0654201      3.6514945      50218.233      36.893836      36.893836      36.893836    
    490000   0.50147926    -7.8136238     -7.0614156      3.6524227      50218.233      36.893836      36.893836      36.893836    
    500000   0.50013998    -7.8112161     -7.0610168      3.6824522      50218.233      36.893836      36.893836      36.893836    
    510000   0.50262147    -7.810091      -7.0561695      3.6920488      50218.233      36.893836      36.893836      36.893836    
    520000   0.50012787    -7.8129956     -7.0628145      3.6645762      50218.233      36.893836      36.893836      36.893836    
    530000   0.49992075    -7.8132632     -7.0633927      3.6605921      50218.233      36.893836      36.893836      36.893836    
    540000   0.50060658    -7.8127169     -7.0618178      3.6756335      50218.233      36.893836      36.893836      36.893836    
    550000   0.49946589    -7.8114508     -7.0622626      3.6725382      50218.233      36.893836      36.893836      36.893836    
    560000   0.4997157     -7.8093955     -7.0598327      3.6875531      50218.233      36.893836      36.893836      36.893836    
    570000   0.50118004    -7.8103404     -7.0585811      3.6756733      50218.233      36.893836      36.893836      36.893836    
    580000   0.49870407    -7.8127535     -7.064708       3.6636849      50218.233      36.893836      36.893836      36.893836    
    590000   0.49739283    -7.8154457     -7.0693671      3.6324124      50218.233      36.893836      36.893836      36.893836    
    600000   0.50084605    -7.8136903     -7.0624319      3.6676188      50218.233      36.893836      36.893836      36.893836    
    610000   0.50159759    -7.8122679     -7.0598822      3.6599892      50218.233      36.893836      36.893836      36.893836    
    620000   0.49779377    -7.8124051     -7.0657251      3.6701901      50218.233      36.893836      36.893836      36.893836    
    630000   0.50068518    -7.8099113     -7.0588942      3.6858124      50218.233      36.893836      36.893836      36.893836    
    640000   0.49975848    -7.8126722     -7.0630452      3.6656105      50218.233      36.893836      36.893836      36.893836    
    650000   0.50000575    -7.8125287     -7.0625307      3.6648927      50218.233      36.893836      36.893836      36.893836    
    660000   0.49931748    -7.8126656     -7.0637001      3.6708174      50218.233      36.893836      36.893836      36.893836    
    670000   0.50067528    -7.8101113     -7.059109       3.6887879      50218.233      36.893836      36.893836      36.893836    
    680000   0.49986477    -7.8123282     -7.0625417      3.6614584      50218.233      36.893836      36.893836      36.893836    
    690000   0.50072035    -7.8110041     -7.0599343      3.6770316      50218.233      36.893836      36.893836      36.893836    
    700000   0.5015657     -7.8091483     -7.0568105      3.6960314      50218.233      36.893836      36.893836      36.893836    
    710000   0.49695378    -7.8120256     -7.0666056      3.6695993      50218.233      36.893836      36.893836      36.893836    
    720000   0.4998706     -7.8122595     -7.0624643      3.6657858      50218.233      36.893836      36.893836      36.893836    
    730000   0.50080257    -7.8072151     -7.0560219      3.7045669      50218.233      36.893836      36.893836      36.893836    
    740000   0.49945426    -7.8120223     -7.0628516      3.6698935      50218.233      36.893836      36.893836      36.893836    
    750000   0.50272191    -7.8096589     -7.0555868      3.6956268      50218.233      36.893836      36.893836      36.893836    
    760000   0.49788156    -7.8101386     -7.0633269      3.6877935      50218.233      36.893836      36.893836      36.893836    
    770000   0.49862258    -7.8133053     -7.065382       3.6733949      50218.233      36.893836      36.893836      36.893836    
    780000   0.49872636    -7.8113514     -7.0632725      3.6806599      50218.233      36.893836      36.893836      36.893836    
    790000   0.50085845    -7.8102669     -7.0589899      3.6924496      50218.233      36.893836      36.893836      36.893836    
    800000   0.49812438    -7.8103915     -7.0632156      3.6736091      50218.233      36.893836      36.893836      36.893836    
    810000   0.49946711    -7.8078983     -7.0587083      3.7041759      50218.233      36.893836      36.893836      36.893836    
    820000   0.49705548    -7.8163084     -7.0707358      3.6344329      50218.233      36.893836      36.893836      36.893836    
    830000   0.50029419    -7.8104961     -7.0600655      3.6889823      50218.233      36.893836      36.893836      36.893836    
    840000   0.4985818     -7.8104253     -7.0625633      3.6875721      50218.233      36.893836      36.893836      36.893836    
    850000   0.49945042    -7.8143223     -7.0651574      3.6657641      50218.233      36.893836      36.893836      36.893836    
    860000   0.49889965    -7.8117973     -7.0634585      3.6759641      50218.233      36.893836      36.893836      36.893836    
    870000   0.49901989    -7.8089223     -7.0604031      3.6916269      50218.233      36.893836      36.893836      36.893836    
    880000   0.50264889    -7.8178649     -7.0639023      3.6262856      50218.233      36.893836      36.893836      36.893836    
    890000   0.50365552    -7.811289      -7.0558165      3.6897092      50218.233      36.893836      36.893836      36.893836    
    900000   0.50247519    -7.8145994     -7.0608973      3.6552357      50218.233      36.893836      36.893836      36.893836    
    910000   0.49960703    -7.8104383     -7.0610384      3.6776579      50218.233      36.893836      36.893836      36.893836    
    920000   0.49863254    -7.8123253     -7.0643872      3.6627109      50218.233      36.893836      36.893836      36.893836    
    930000   0.4985123     -7.8121402     -7.0643824      3.6669379      50218.233      36.893836      36.893836      36.893836    
    940000   0.49929473    -7.811803      -7.0628716      3.6682729      50218.233      36.893836      36.893836      36.893836    
    950000   0.5008715     -7.8129674     -7.0616709      3.6659748      50218.233      36.893836      36.893836      36.893836    
    960000   0.49974056    -7.8152864     -7.0656862      3.6451374      50218.233      36.893836      36.893836      36.893836    
    970000   0.50314344    -7.8149584     -7.060254       3.6525359      50218.233      36.893836      36.893836      36.893836    
    980000   0.50180288    -7.8131453     -7.0604517      3.6632534      50218.233      36.893836      36.893836      36.893836    
    990000   0.4990685     -7.8129828     -7.0643907      3.6674471      50218.233      36.893836      36.893836      36.893836    
   1000000   0.49923451    -7.8150375     -7.0661963      3.6394889      50218.233      36.893836      36.893836      36.893836    
   1010000   0.50099913    -7.8086484     -7.0571604      3.7001152      50218.233      36.893836      36.893836      36.893836    
   1020000   0.50025989    -7.8133201     -7.062941       3.665632       50218.233      36.893836      36.893836      36.893836    
   1030000   0.49939474    -7.8112963     -7.0622149      3.6720598      50218.233      36.893836      36.893836      36.893836    
   1040000   0.50118334    -7.8126514     -7.0608871      3.6819694      50218.233      36.893836      36.893836      36.893836    
   1050000   0.50141943    -7.8107483     -7.0586299      3.6958809      50218.233      36.893836      36.893836      36.893836    
   1060000   0.49928842    -7.8139557     -7.0650337      3.6535926      50218.233      36.893836      36.893836      36.893836    
   1070000   0.50053829    -7.8132231     -7.0624263      3.6603939      50218.233      36.893836      36.893836      36.893836    
   1080000   0.49716637    -7.8098593     -7.0641204      3.6932586      50218.233      36.893836      36.893836      36.893836    
   1090000   0.49936209    -7.8162863     -7.0672538      3.6402843      50218.233      36.893836      36.893836      36.893836    
   1100000   0.50034787    -7.8133416     -7.0628304      3.6664772      50218.233      36.893836      36.893836      36.893836    
   1110000   0.50150915    -7.8135032     -7.0612502      3.6649984      50218.233      36.893836      36.893836      36.893836    
   1120000   0.49943841    -7.8124892     -7.0633423      3.6768431      50218.233      36.893836      36.893836      36.893836    
   1130000   0.49911371    -7.817289      -7.0686291      3.6325596      50218.233      36.893836      36.893836      36.893836    
   1140000   0.49862814    -7.8160812     -7.0681497      3.6545001      50218.233      36.893836      36.893836      36.893836    
   1150000   0.49975475    -7.8167177     -7.0670962      3.6421823      50218.233      36.893836      36.893836      36.893836    
   1160000   0.49983087    -7.8121051     -7.0623695      3.6717         50218.233      36.893836      36.893836      36.893836    
   1170000   0.49903059    -7.8120403     -7.0635051      3.6652664      50218.233      36.893836      36.893836      36.893836    
   1180000   0.50131082    -7.8118978     -7.0599422      3.6676868      50218.233      36.893836      36.893836      36.893836    
   1190000   0.49855326    -7.8096579     -7.0618387      3.6926632      50218.233      36.893836      36.893836      36.893836    
   1200000   0.50311307    -7.8139889     -7.05933        3.6714738      50218.233      36.893836      36.893836      36.893836    
   1210000   0.501022      -7.8127817     -7.0612593      3.6840361      50218.233      36.893836      36.893836      36.893836    
   1220000   0.49971885    -7.8138585     -7.0642909      3.672215       50218.233      36.893836      36.893836      36.893836    
   1230000   0.49863159    -7.8139112     -7.0659745      3.6769931      50218.233      36.893836      36.893836      36.893836    
   1240000   0.50224012    -7.8125961     -7.0592466      3.6791914      50218.233      36.893836      36.893836      36.893836    
   1250000   0.50086256    -7.8108321     -7.0595489      3.6889807      50218.233      36.893836      36.893836      36.893836    
   1260000   0.5011953     -7.8125098     -7.0607276      3.6765704      50218.233      36.893836      36.893836      36.893836    
   1270000   0.49766692    -7.8099524     -7.0634626      3.6842711      50218.233      36.893836      36.893836      36.893836    
   1280000   0.50017076    -7.8162026     -7.0659571      3.6448064      50218.233      36.893836      36.893836      36.893836    
   1290000   0.49896778    -7.8125281     -7.0640871      3.6806348      50218.233      36.893836      36.893836      36.893836    
   1300000   0.49952228    -7.8097717     -7.0604989      3.6997636      50218.233      36.893836      36.893836      36.893836    
   1310000   0.5014206     -7.8177637     -7.0656435      3.6373225      50218.233      36.893836      36.893836      36.893836    
   1320000   0.50016248    -7.8134318     -7.0631988      3.6704173      50218.233      36.893836      36.893836      36.893836    
   1330000   0.49715883    -7.8115537     -7.065826       3.6724041      50218.233      36.893836      36.893836      36.893836    
   1340000   0.5010131     -7.8107936     -7.0592846      3.6994069      50218.233      36.893836      36.893836      36.893836    
   1350000   0.49808627    -7.810477      -7.0633582      3.6873918      50218.233      36.893836      36.893836      36.893836    
   1360000   0.49681296    -7.8086596     -7.0634507      3.7074068      50218.233      36.893836      36.893836      36.893836    
   1370000   0.49910273    -7.8145108     -7.0658673      3.659268       50218.233      36.893836      36.893836      36.893836    
   1380000   0.50247794    -7.8140519     -7.0603457      3.6662801      50218.233      36.893836      36.893836      36.893836    
   1390000   0.49932205    -7.8129211     -7.0639487      3.6716139      50218.233      36.893836      36.893836      36.893836    
   1400000   0.49807268    -7.8117332     -7.0646348      3.6739741      50218.233      36.893836      36.893836      36.893836    
   1410000   0.50115136    -7.8103776     -7.0586613      3.6957101      50218.233      36.893836      36.893836      36.893836    
   1420000   0.5001207     -7.8149215     -7.0647511      3.6566233      50218.233      36.893836      36.893836      36.893836    
   1430000   0.49900514    -7.8117261     -7.063229       3.6770222      50218.233      36.893836      36.893836      36.893836    
   1440000   0.5004316     -7.8130798     -7.0624431      3.6831946      50218.233      36.893836      36.893836      36.893836    
   1450000   0.50136277    -7.8108056     -7.0587721      3.6941058      50218.233      36.893836      36.893836      36.893836    
   1460000   0.50006302    -7.8080082     -7.0579244      3.7002213      50218.233      36.893836      36.893836      36.893836    
   1470000   0.50085486    -7.8099939     -7.0587223      3.6872747      50218.233      36.893836      36.893836      36.893836    
   1480000   0.50199592    -7.8121706     -7.0591874      3.6892846      50218.233      36.893836      36.893836      36.893836    
   1490000   0.50015839    -7.8085911     -7.0583642      3.7036014      50218.233      36.893836      36.893836      36.893836    
   1500000   0.50021804    -7.8107629     -7.0604465      3.6949718      50218.233      36.893836      36.893836      36.893836    
   1510000   0.49866628    -7.8122734     -7.0642847      3.6751249      50218.233      36.893836      36.893836      36.893836    
   1520000   0.50059198    -7.8100914     -7.0592141      3.6929607      50218.233      36.893836      36.893836      36.893836    
   1530000   0.49854472    -7.8089747     -7.0611682      3.6971602      50218.233      36.893836      36.893836      36.893836    
   1540000   0.49836074    -7.8094858     -7.0619553      3.7043242      50218.233      36.893836      36.893836      36.893836    
   1550000   0.50216911    -7.8091469     -7.0559039      3.7036247      50218.233      36.893836      36.893836      36.893836    
   1560000   0.50180453    -7.810663      -7.057967       3.6938376      50218.233      36.893836      36.893836      36.893836    
   1570000   0.50298639    -7.8155533     -7.0610845      3.6524136      50218.233      36.893836      36.893836      36.893836    
   1580000   0.49797534    -7.8120395     -7.0650871      3.6813339      50218.233      36.893836      36.893836      36.893836    
   1590000   0.50201485    -7.8129522     -7.0599406      3.665336       50218.233      36.893836      36.893836      36.893836    
   1600000   0.50351548    -7.8101253     -7.0548628      3.6915443      50218.233      36.893836      36.893836      36.893836    
   1610000   0.50181984    -7.8096639     -7.0569449      3.6925795      50218.233      36.893836      36.893836      36.893836    
   1620000   0.49839965    -7.8162264     -7.0686376      3.6313519      50218.233      36.893836      36.893836      36.893836    
   1630000   0.4996578     -7.8121443     -7.0626682      3.6704938      50218.233      36.893836      36.893836      36.893836    
   1640000   0.49792567    -7.816088      -7.0692101      3.64568        50218.233      36.893836      36.893836      36.893836    
   1650000   0.50045285    -7.8072474     -7.0565788      3.7161242      50218.233      36.893836      36.893836      36.893836    
   1660000   0.50023102    -7.8113278     -7.0609919      3.677739       50218.233      36.893836      36.893836      36.893836    
   1670000   0.49982312    -7.8110152     -7.0612912      3.6727164      50218.233      36.893836      36.893836      36.893836    
   1680000   0.5011898     -7.8089441     -7.0571701      3.6950046      50218.233      36.893836      36.893836      36.893836    
   1690000   0.50098278    -7.8119562     -7.0604927      3.6675761      50218.233      36.893836      36.893836      36.893836    
   1700000   0.50059432    -7.809319      -7.0584382      3.7005857      50218.233      36.893836      36.893836      36.893836    
   1710000   0.49814627    -7.810545      -7.0633362      3.6773485      50218.233      36.893836      36.893836      36.893836    
   1720000   0.49812362    -7.8117018     -7.064527       3.6717954      50218.233      36.893836      36.893836      36.893836    
   1730000   0.5041093     -7.8092429     -7.0530897      3.6961416      50218.233      36.893836      36.893836      36.893836    
   1740000   0.49847448    -7.8085582     -7.0608571      3.702843       50218.233      36.893836      36.893836      36.893836    
   1750000   0.50363143    -7.8105652     -7.0551289      3.6891011      50218.233      36.893836      36.893836      36.893836    
   1760000   0.50117336    -7.8109664     -7.0592171      3.6923727      50218.233      36.893836      36.893836      36.893836    
   1770000   0.49643582    -7.8116797     -7.0670366      3.6798782      50218.233      36.893836      36.893836      36.893836    
   1780000   0.50005207    -7.8110322     -7.0609647      3.6842078      50218.233      36.893836      36.893836      36.893836    
   1790000   0.50053094    -7.8105099     -7.0597242      3.6928341      50218.233      36.893836      36.893836      36.893836    
   1800000   0.50342062    -7.8122831     -7.0571629      3.6683769      50218.233      36.893836      36.893836      36.893836    
   1810000   0.4966195     -7.8098733     -7.0649546      3.682718       50218.233      36.893836      36.893836      36.893836    
   1820000   0.49942346    -7.8121891     -7.0630646      3.676366       50218.233      36.893836      36.893836      36.893836    
   1830000   0.50032523    -7.8110044     -7.0605272      3.6840192      50218.233      36.893836      36.893836      36.893836    
   1840000   0.50101048    -7.8116989     -7.0601939      3.6885779      50218.233      36.893836      36.893836      36.893836    
   1850000   0.49979845    -7.8102277     -7.0605407      3.691469       50218.233      36.893836      36.893836      36.893836    
   1860000   0.50225961    -7.8125812     -7.0592025      3.6833604      50218.233      36.893836      36.893836      36.893836    
   1870000   0.49913557    -7.8142454     -7.0655527      3.6594675      50218.233      36.893836      36.893836      36.893836    
   1880000   0.50122764    -7.8159958     -7.064165       3.6441713      50218.233      36.893836      36.893836      36.893836    
   1890000   0.49825157    -7.810298      -7.0629313      3.6857597      50218.233      36.893836      36.893836      36.893836    
   1900000   0.50069354    -7.8133213     -7.0622916      3.6814413      50218.233      36.893836      36.893836      36.893836    
   1910000   0.49922106    -7.8084605     -7.0596396      3.702575       50218.233      36.893836      36.893836      36.893836    
   1920000   0.49972317    -7.8111854     -7.0616113      3.681109       50218.233      36.893836      36.893836      36.893836    
   1930000   0.50122506    -7.8067154     -7.0548885      3.713553       50218.233      36.893836      36.893836      36.893836    
   1940000   0.5001791     -7.8115717     -7.0613137      3.6780197      50218.233      36.893836      36.893836      36.893836    
   1950000   0.50055262    -7.8136925     -7.0628743      3.6759725      50218.233      36.893836      36.893836      36.893836    
   1960000   0.50054998    -7.8077135     -7.0568992      3.7125377      50218.233      36.893836      36.893836      36.893836    
   1970000   0.49979844    -7.8135065     -7.0638195      3.6740288      50218.233      36.893836      36.893836      36.893836    
   1980000   0.49811658    -7.8111202     -7.063956       3.6861079      50218.233      36.893836      36.893836      36.893836    
   1990000   0.50065135    -7.8090913     -7.0581249      3.6957838      50218.233      36.893836      36.893836      36.893836    
   2000000   0.49986118    -7.8104501     -7.060669       3.6749615      50218.233      36.893836      36.893836      36.893836    
   2010000   0.4994812     -7.8102872     -7.0610761      3.6941428      50218.233      36.893836      36.893836      36.893836    
   2020000   0.50080264    -7.8121871     -7.0609938      3.6744387      50218.233      36.893836      36.893836      36.893836    
   2030000   0.50296888    -7.8123471     -7.0579045      3.6766571      50218.233      36.893836      36.893836      36.893836    
   2040000   0.49739516    -7.8128206     -7.0667384      3.6635518      50218.233      36.893836      36.893836      36.893836    
   2050000   0.50009157    -7.812324      -7.0621973      3.6728727      50218.233      36.893836      36.893836      36.893836    
   2060000   0.50126757    -7.811958      -7.0600673      3.6885222      50218.233      36.893836      36.893836      36.893836    
   2070000   0.5010099     -7.8111715     -7.0596674      3.6839664      50218.233      36.893836      36.893836      36.893836    
   2080000   0.50054929    -7.8130213     -7.062208       3.670859       50218.233      36.893836      36.893836      36.893836    
   2090000   0.49968815    -7.8127718     -7.0632502      3.6731208      50218.233      36.893836      36.893836      36.893836    
   2100000   0.5021311     -7.8111822     -7.0579963      3.6825542      50218.233      36.893836      36.893836      36.893836    
   2110000   0.4993141     -7.8130352     -7.0640747      3.6799259      50218.233      36.893836      36.893836      36.893836    
   2120000   0.4976248     -7.8138086     -7.067382       3.6720637      50218.233      36.893836      36.893836      36.893836    
   2130000   0.50128557    -7.8084263     -7.0565086      3.7064466      50218.233      36.893836      36.893836      36.893836    
   2140000   0.5002203     -7.8091879     -7.0588681      3.6865673      50218.233      36.893836      36.893836      36.893836    
   2150000   0.49998493    -7.8113362     -7.0613694      3.6840275      50218.233      36.893836      36.893836      36.893836    
   2160000   0.50199785    -7.8104351     -7.0574491      3.6915341      50218.233      36.893836      36.893836      36.893836    
   2170000   0.50023152    -7.8075535     -7.0572169      3.6938762      50218.233      36.893836      36.893836      36.893836    
   2180000   0.50086829    -7.80844       -7.0571483      3.7080237      50218.233      36.893836      36.893836      36.893836    
   2190000   0.49903865    -7.8099483     -7.061401       3.683818       50218.233      36.893836      36.893836      36.893836    
   2200000   0.4980688     -7.8090749     -7.0619823      3.7011689      50218.233      36.893836      36.893836      36.893836    
   2210000   0.49964826    -7.8094388     -7.0599771      3.6982726      50218.233      36.893836      36.893836      36.893836    
   2220000   0.49812048    -7.805654      -7.0584839      3.7266012      50218.233      36.893836      36.893836      36.893836    
   2230000   0.49763421    -7.8092043     -7.0627636      3.7003078      50218.233      36.893836      36.893836      36.893836    
   2240000   0.49895528    -7.8088347     -7.0604124      3.7082841      50218.233      36.893836      36.893836      36.893836    
   2250000   0.50046321    -7.8162047     -7.0655206      3.6452928      50218.233      36.893836      36.893836      36.893836    
   2260000   0.50243031    -7.8123577     -7.058723       3.6859729      50218.233      36.893836      36.893836      36.893836    
   2270000   0.50053798    -7.8082937     -7.0574974      3.7142713      50218.233      36.893836      36.893836      36.893836    
   2280000   0.49969969    -7.8100023     -7.0604635      3.7074412      50218.233      36.893836      36.893836      36.893836    
   2290000   0.49875704    -7.8143346     -7.0662097      3.6501802      50218.233      36.893836      36.893836      36.893836    
   2300000   0.5010056     -7.8133502     -7.0618525      3.6661552      50218.233      36.893836      36.893836      36.893836    
   2310000   0.50018239    -7.8148505     -7.0645876      3.6552114      50218.233      36.893836      36.893836      36.893836    
   2320000   0.50176143    -7.8098237     -7.0571923      3.7009909      50218.233      36.893836      36.893836      36.893836    
   2330000   0.501822      -7.8123017     -7.0595795      3.6780619      50218.233      36.893836      36.893836      36.893836    
   2340000   0.49975298    -7.8109605     -7.0613417      3.684642       50218.233      36.893836      36.893836      36.893836    
   2350000   0.49821926    -7.8131837     -7.0658654      3.6745189      50218.233      36.893836      36.893836      36.893836    
   2360000   0.49913271    -7.8076959     -7.0590075      3.7111206      50218.233      36.893836      36.893836      36.893836    
   2370000   0.49956756    -7.8077428     -7.0584021      3.7058522      50218.233      36.893836      36.893836      36.893836    
   2380000   0.4999153     -7.8134914     -7.0636292      3.6786227      50218.233      36.893836      36.893836      36.893836    
   2390000   0.49965372    -7.8147241     -7.0652542      3.6517425      50218.233      36.893836      36.893836      36.893836    
   2400000   0.49814568    -7.8119526     -7.0647447      3.6737108      50218.233      36.893836      36.893836      36.893836    
   2410000   0.49661049    -7.8038915     -7.0589864      3.7388219      50218.233      36.893836      36.893836      36.893836    
   2420000   0.49995648    -7.8114297     -7.0615057      3.6788661      50218.233      36.893836      36.893836      36.893836    
   2430000   0.50173374    -7.8106898     -7.0580999      3.6943353      50218.233      36.893836      36.893836      36.893836    
   2440000   0.50497322    -7.8107795     -7.0533304      3.69562        50218.233      36.893836      36.893836      36.893836    
   2450000   0.49996345    -7.8067747     -7.0568402      3.7095595      50218.233      36.893836      36.893836      36.893836    
   2460000   0.49834859    -7.8118052     -7.0642929      3.6747318      50218.233      36.893836      36.893836      36.893836    
   2470000   0.50041875    -7.8118451     -7.0612276      3.6809252      50218.233      36.893836      36.893836      36.893836    
   2480000   0.50041136    -7.8115283     -7.0609219      3.6855636      50218.233      36.893836      36.893836      36.893836    
   2490000   0.50193586    -7.8106291     -7.0577361      3.6859268      50218.233      36.893836      36.893836      36.893836    
   2500000   0.5003661     -7.8132837     -7.0627452      3.6591136      50218.233      36.893836      36.893836      36.893836    
   2510000   0.50342528    -7.8121266     -7.0569994      3.6923233      50218.233      36.893836      36.893836      36.893836    
   2520000   0.4988882     -7.8166262     -7.0683045      3.6532585      50218.233      36.893836      36.893836      36.893836    
   2530000   0.50092372    -7.8107365     -7.0593616      3.6928072      50218.233      36.893836      36.893836      36.893836    
   2540000   0.50053629    -7.8130114     -7.0622177      3.6695512      50218.233      36.893836      36.893836      36.893836    
   2550000   0.49915883    -7.8110569     -7.0623293      3.6759825      50218.233      36.893836      36.893836      36.893836    
   2560000   0.5009204     -7.8127579     -7.061388       3.6737677      50218.233      36.893836      36.893836      36.893836    
   2570000   0.49946159    -7.8069195     -7.0577378      3.7092197      50218.233      36.893836      36.893836      36.893836    
   2580000   0.49984315    -7.8111662     -7.0614121      3.6781822      50218.233      36.893836      36.893836      36.893836    
   2590000   0.49975759    -7.8095184     -7.0598927      3.7068265      50218.233      36.893836      36.893836      36.893836    
   2600000   0.5015936     -7.8096605     -7.0572808      3.7017855      50218.233      36.893836      36.893836      36.893836    
   2610000   0.49959921    -7.8132457     -7.0638576      3.6705855      50218.233      36.893836      36.893836      36.893836    
   2620000   0.50181784    -7.8112824     -7.0585663      3.6904875      50218.233      36.893836      36.893836      36.893836    
   2630000   0.49821706    -7.8096918     -7.0623768      3.69048        50218.233      36.893836      36.893836      36.893836    
   2640000   0.50174717    -7.8097304     -7.0571204      3.6884958      50218.233      36.893836      36.893836      36.893836    
   2650000   0.50115054    -7.8084952     -7.0567801      3.7043814      50218.233      36.893836      36.893836      36.893836    
   2660000   0.49953319    -7.808302      -7.0590129      3.7089508      50218.233      36.893836      36.893836      36.893836    
   2670000   0.50146824    -7.8112753     -7.0590837      3.677287       50218.233      36.893836      36.893836      36.893836    
   2680000   0.50152675    -7.813972      -7.0616926      3.661856       50218.233      36.893836      36.893836      36.893836    
   2690000   0.49965591    -7.8109307     -7.0614575      3.6799789      50218.233      36.893836      36.893836      36.893836    
   2700000   0.50094624    -7.8058343     -7.0544257      3.7195171      50218.233      36.893836      36.893836      36.893836    
   2710000   0.4986507     -7.8091697     -7.0612043      3.6986342      50218.233      36.893836      36.893836      36.893836    
   2720000   0.50037287    -7.8107681     -7.0602195      3.6906363      50218.233      36.893836      36.893836      36.893836    
   2730000   0.49867515    -7.8058528     -7.0578508      3.7200199      50218.233      36.893836      36.893836      36.893836    
   2740000   0.500877      -7.8069312     -7.0556263      3.7148855      50218.233      36.893836      36.893836      36.893836    
   2750000   0.5036157     -7.812336      -7.0569232      3.6726321      50218.233      36.893836      36.893836      36.893836    
   2760000   0.50218161    -7.8111358     -7.0578741      3.6772253      50218.233      36.893836      36.893836      36.893836    
   2770000   0.49726308    -7.8120049     -7.0661209      3.6685293      50218.233      36.893836      36.893836      36.893836    
   2780000   0.50215642    -7.8086325     -7.0554086      3.7053156      50218.233      36.893836      36.893836      36.893836    
   2790000   0.49850736    -7.8128039     -7.0650535      3.6687832      50218.233      36.893836      36.893836      36.893836    
   2800000   0.50257035    -7.8105984     -7.0567536      3.690887       50218.233      36.893836      36.893836      36.893836    
   2810000   0.50026894    -7.8089425     -7.0585497      3.6990668      50218.233      36.893836      36.893836      36.893836    
   2820000   0.50139457    -7.8127641     -7.0606829      3.6659029      50218.233      36.893836      36.893836      36.893836    
   2830000   0.50222355    -7.8117678     -7.0584432      3.6714714      50218.233      36.893836      36.893836      36.893836    
   2840000   0.50135791    -7.8096256     -7.0575994      3.6981023      50218.233      36.893836      36.893836      36.893836    
   2850000   0.50118721    -7.8123241     -7.060554       3.6659892      50218.233      36.893836      36.893836      36.893836    
   2860000   0.50040567    -7.8110554     -7.0604576      3.6866953      50218.233      36.893836      36.893836      36.893836    
   2870000   0.50063553    -7.8079141     -7.0569715      3.708379       50218.233      36.893836      36.893836      36.893836    
   2880000   0.49963419    -7.8113619     -7.0619212      3.6745591      50218.233      36.893836      36.893836      36.893836    
   2890000   0.50135019    -7.8149902     -7.0629756      3.654188       50218.233      36.893836      36.893836      36.893836    
   2900000   0.50024935    -7.8154786     -7.0651152      3.6436425      50218.233      36.893836      36.893836      36.893836    
   2910000   0.50022337    -7.8098526     -7.0595282      3.6785809      50218.233      36.893836      36.893836      36.893836    
   2920000   0.50077783    -7.8114071     -7.0602511      3.6733998      50218.233      36.893836      36.893836      36.893836    
   2930000   0.50098455    -7.8102817     -7.0588155      3.6848553      50218.233      36.893836      36.893836      36.893836    
   2940000   0.50000657    -7.811222      -7.0612228      3.6770994      50218.233      36.893836      36.893836      36.893836    
   2950000   0.49984124    -7.8095127     -7.0597615      3.6896724      50218.233      36.893836      36.893836      36.893836    
   2960000   0.49771113    -7.8063001     -7.059744       3.7044254      50218.233      36.893836      36.893836      36.893836    
   2970000   0.49940258    -7.810713      -7.0616198      3.6867681      50218.233      36.893836      36.893836      36.893836    
   2980000   0.49984288    -7.8102736     -7.06052        3.6903264      50218.233      36.893836      36.893836      36.893836    
   2990000   0.49907022    -7.810694      -7.0620993      3.6815764      50218.233      36.893836      36.893836      36.893836    
   3000000   0.50075711    -7.8070572     -7.0559323      3.7114632      50218.233      36.893836      36.893836      36.893836    
   3010000   0.4980509     -7.8114128     -7.0643471      3.6718715      50218.233      36.893836      36.893836      36.893836    
   3020000   0.50117923    -7.811233      -7.0594748      3.6846281      50218.233      36.893836      36.893836      36.893836    
   3030000   0.49985008    -7.803732      -7.0539675      3.7385022      50218.233      36.893836      36.893836      36.893836    
   3040000   0.50208962    -7.8107711     -7.0576473      3.6833075      50218.233      36.893836      36.893836      36.893836    
   3050000   0.50086437    -7.808677      -7.0573911      3.7076096      50218.233      36.893836      36.893836      36.893836    
   3060000   0.50149886    -7.8092203     -7.0569828      3.6984125      50218.233      36.893836      36.893836      36.893836    
   3070000   0.49979482    -7.8097875     -7.060106       3.686208       50218.233      36.893836      36.893836      36.893836    
   3080000   0.49897361    -7.8116143     -7.0631645      3.6830738      50218.233      36.893836      36.893836      36.893836    
   3090000   0.50081848    -7.8128833     -7.0616663      3.6690315      50218.233      36.893836      36.893836      36.893836    
   3100000   0.50096906    -7.8083587     -7.0569158      3.7122282      50218.233      36.893836      36.893836      36.893836    
   3110000   0.50158265    -7.8082258     -7.0558625      3.707677       50218.233      36.893836      36.893836      36.893836    
   3120000   0.50193687    -7.8102379     -7.0573433      3.7014603      50218.233      36.893836      36.893836      36.893836    
   3130000   0.50112994    -7.8108959     -7.0592117      3.6925759      50218.233      36.893836      36.893836      36.893836    
   3140000   0.50076636    -7.808943      -7.0578042      3.709739       50218.233      36.893836      36.893836      36.893836    
   3150000   0.49942791    -7.8085391     -7.0594079      3.7043333      50218.233      36.893836      36.893836      36.893836    
   3160000   0.50365027    -7.8080496     -7.0525849      3.7142209      50218.233      36.893836      36.893836      36.893836    
   3170000   0.5021014     -7.8093979     -7.0562565      3.6874742      50218.233      36.893836      36.893836      36.893836    
   3180000   0.49845385    -7.8089153     -7.0612451      3.6913623      50218.233      36.893836      36.893836      36.893836    
   3190000   0.50023101    -7.8095243     -7.0591884      3.6888607      50218.233      36.893836      36.893836      36.893836    
   3200000   0.50025315    -7.8080664     -7.0576973      3.7004376      50218.233      36.893836      36.893836      36.893836    
   3210000   0.50019595    -7.8067563     -7.0564731      3.7164744      50218.233      36.893836      36.893836      36.893836    
   3220000   0.50238403    -7.8029071     -7.0493418      3.736601       50218.233      36.893836      36.893836      36.893836    
   3230000   0.49980381    -7.8078723     -7.0581772      3.7036303      50218.233      36.893836      36.893836      36.893836    
   3240000   0.5001809     -7.8080097     -7.057749       3.70516        50218.233      36.893836      36.893836      36.893836    
   3250000   0.49837015    -7.807343      -7.0597984      3.7007518      50218.233      36.893836      36.893836      36.893836    
   3260000   0.49750154    -7.8071394     -7.0608977      3.6969036      50218.233      36.893836      36.893836      36.893836    
   3270000   0.50178431    -7.8096161     -7.0569503      3.6900981      50218.233      36.893836      36.893836      36.893836    
   3280000   0.49924131    -7.8068819     -7.0580306      3.7173915      50218.233      36.893836      36.893836      36.893836    
   3290000   0.49968938    -7.8107271     -7.0612037      3.6768183      50218.233      36.893836      36.893836      36.893836    
   3300000   0.50065896    -7.8108345     -7.0598567      3.6701668      50218.233      36.893836      36.893836      36.893836    
   3310000   0.50028941    -7.807665      -7.0572415      3.7005652      50218.233      36.893836      36.893836      36.893836    
   3320000   0.49950537    -7.8082502     -7.0590028      3.7050244      50218.233      36.893836      36.893836      36.893836    
   3330000   0.49938006    -7.80972       -7.0606605      3.6862411      50218.233      36.893836      36.893836      36.893836    
   3340000   0.49973288    -7.8061134     -7.0565247      3.7189793      50218.233      36.893836      36.893836      36.893836    
   3350000   0.50096146    -7.8100146     -7.0585831      3.6945976      50218.233      36.893836      36.893836      36.893836    
   3360000   0.5025602     -7.808609      -7.0547794      3.6961233      50218.233      36.893836      36.893836      36.893836    
   3370000   0.49907268    -7.8077415     -7.0591432      3.6985398      50218.233      36.893836      36.893836      36.893836    
   3380000   0.49850052    -7.8116464     -7.0639063      3.6654965      50218.233      36.893836      36.893836      36.893836    
   3390000   0.50007929    -7.8074048     -7.0572965      3.7077712      50218.233      36.893836      36.893836      36.893836    
   3400000   0.50060372    -7.8081029     -7.057208       3.7145177      50218.233      36.893836      36.893836      36.893836    
   3410000   0.49826647    -7.8095456     -7.0621566      3.6853642      50218.233      36.893836      36.893836      36.893836    
   3420000   0.50173007    -7.8134371     -7.0608527      3.6707068      50218.233      36.893836      36.893836      36.893836    
   3430000   0.50036114    -7.8103562     -7.0598252      3.6922865      50218.233      36.893836      36.893836      36.893836    
   3440000   0.50132374    -7.8086965     -7.0567216      3.7016858      50218.233      36.893836      36.893836      36.893836    
   3450000   0.49837295    -7.8093167     -7.0617679      3.6812763      50218.233      36.893836      36.893836      36.893836    
   3460000   0.50152851    -7.8109644     -7.0586823      3.6841263      50218.233      36.893836      36.893836      36.893836    
   3470000   0.50336467    -7.8107557     -7.0557195      3.6868102      50218.233      36.893836      36.893836      36.893836    
   3480000   0.49865873    -7.8098675     -7.06189        3.6855075      50218.233      36.893836      36.893836      36.893836    
   3490000   0.50219135    -7.8110316     -7.0577553      3.6872979      50218.233      36.893836      36.893836      36.893836    
   3500000   0.49982092    -7.81393       -7.0642093      3.6537568      50218.233      36.893836      36.893836      36.893836    
   3510000   0.500096      -7.8135511     -7.0634178      3.6660621      50218.233      36.893836      36.893836      36.893836    
   3520000   0.49842148    -7.8101512     -7.0625297      3.6863554      50218.233      36.893836      36.893836      36.893836    
   3530000   0.49767725    -7.8073003     -7.060795       3.7093655      50218.233      36.893836      36.893836      36.893836    
   3540000   0.50062814    -7.8116578     -7.0607262      3.6809612      50218.233      36.893836      36.893836      36.893836    
   3550000   0.500215      -7.8088049     -7.0584931      3.7042802      50218.233      36.893836      36.893836      36.893836    
   3560000   0.50012009    -7.8128849     -7.0627155      3.6699817      50218.233      36.893836      36.893836      36.893836    
   3570000   0.49816223    -7.8104265     -7.0631938      3.6842661      50218.233      36.893836      36.893836      36.893836    
   3580000   0.50020365    -7.8127731     -7.0624783      3.6715686      50218.233      36.893836      36.893836      36.893836    
   3590000   0.50081523    -7.8149101     -7.0636979      3.6543007      50218.233      36.893836      36.893836      36.893836    
   3600000   0.49786763    -7.8105359     -7.0637451      3.674411       50218.233      36.893836      36.893836      36.893836    
   3610000   0.50024341    -7.8128487     -7.0624942      3.6666033      50218.233      36.893836      36.893836      36.893836    
   3620000   0.49784098    -7.8145052     -7.0677543      3.6596027      50218.233      36.893836      36.893836      36.893836    
   3630000   0.50115991    -7.8096204     -7.0578912      3.6947143      50218.233      36.893836      36.893836      36.893836    
   3640000   0.50201254    -7.8065161     -7.053508       3.7199221      50218.233      36.893836      36.893836      36.893836    
   3650000   0.49988817    -7.8095676     -7.059746       3.6954831      50218.233      36.893836      36.893836      36.893836    
   3660000   0.50152843    -7.8148687     -7.0625868      3.6522317      50218.233      36.893836      36.893836      36.893836    
   3670000   0.49639074    -7.8108738     -7.0662983      3.6829298      50218.233      36.893836      36.893836      36.893836    
   3680000   0.50041289    -7.8091452     -7.0585365      3.7076861      50218.233      36.893836      36.893836      36.893836    
   3690000   0.49916979    -7.8104997     -7.0617557      3.6880102      50218.233      36.893836      36.893836      36.893836    
   3700000   0.49980679    -7.8045142     -7.0548147      3.7348663      50218.233      36.893836      36.893836      36.893836    
   3710000   0.49652978    -7.808233      -7.0634489      3.7067273      50218.233      36.893836      36.893836      36.893836    
   3720000   0.50049894    -7.8098821     -7.0591443      3.6884258      50218.233      36.893836      36.893836      36.893836    
   3730000   0.50068192    -7.8060143     -7.0550021      3.724472       50218.233      36.893836      36.893836      36.893836    
   3740000   0.4999159     -7.8060131     -7.05615        3.7135865      50218.233      36.893836      36.893836      36.893836    
   3750000   0.50267691    -7.80835       -7.0543454      3.6989325      50218.233      36.893836      36.893836      36.893836    
   3760000   0.49840165    -7.8078984     -7.0603065      3.6939747      50218.233      36.893836      36.893836      36.893836    
   3770000   0.50045276    -7.8072337     -7.0565652      3.7178786      50218.233      36.893836      36.893836      36.893836    
   3780000   0.49914091    -7.8116321     -7.0629314      3.683336       50218.233      36.893836      36.893836      36.893836    
   3790000   0.5022009     -7.8144125     -7.0611219      3.6722168      50218.233      36.893836      36.893836      36.893836    
   3800000   0.50264978    -7.8102129     -7.0562489      3.6915129      50218.233      36.893836      36.893836      36.893836    
   3810000   0.49750915    -7.8088226     -7.0625694      3.6952171      50218.233      36.893836      36.893836      36.893836    
   3820000   0.50196681    -7.8112667     -7.0583272      3.6824242      50218.233      36.893836      36.893836      36.893836    
   3830000   0.50111527    -7.8071606     -7.0554984      3.7128105      50218.233      36.893836      36.893836      36.893836    
   3840000   0.49887394    -7.8115147     -7.0632144      3.6814138      50218.233      36.893836      36.893836      36.893836    
   3850000   0.50323857    -7.8113102     -7.0564631      3.6973362      50218.233      36.893836      36.893836      36.893836    
   3860000   0.50151125    -7.8104583     -7.0582021      3.6921738      50218.233      36.893836      36.893836      36.893836    
   3870000   0.49911058    -7.8147598     -7.0661046      3.6571507      50218.233      36.893836      36.893836      36.893836    
   3880000   0.49968686    -7.8079891     -7.0584694      3.6983026      50218.233      36.893836      36.893836      36.893836    
   3890000   0.49927911    -7.8086802     -7.0597721      3.6986735      50218.233      36.893836      36.893836      36.893836    
   3900000   0.50034885    -7.8105622     -7.0600496      3.6891071      50218.233      36.893836      36.893836      36.893836    
   3910000   0.49866278    -7.8107909     -7.0628074      3.6894663      50218.233      36.893836      36.893836      36.893836    
   3920000   0.49874945    -7.8114256     -7.0633121      3.6731747      50218.233      36.893836      36.893836      36.893836    
   3930000   0.50116875    -7.8105851     -7.0588427      3.6802359      50218.233      36.893836      36.893836      36.893836    
   3940000   0.5004974     -7.8124154     -7.06168        3.6734705      50218.233      36.893836      36.893836      36.893836    
   3950000   0.49702445    -7.8105448     -7.0650187      3.6847603      50218.233      36.893836      36.893836      36.893836    
   3960000   0.50063005    -7.8084953     -7.0575609      3.7014536      50218.233      36.893836      36.893836      36.893836    
   3970000   0.50120473    -7.8076654     -7.055869       3.7142375      50218.233      36.893836      36.893836      36.893836    
   3980000   0.50227877    -7.8113024     -7.057895       3.6801069      50218.233      36.893836      36.893836      36.893836    
   3990000   0.50058148    -7.8089986     -7.0581371      3.7019973      50218.233      36.893836      36.893836      36.893836    
   4000000   0.49966165    -7.8123572     -7.0628754      3.6778779      50218.233      36.893836      36.893836      36.893836    
   4010000   0.49885711    -7.8136698     -7.0653948      3.6619924      50218.233      36.893836      36.893836      36.893836    
   4020000   0.49579454    -7.807985      -7.0643037      3.6919813      50218.233      36.893836      36.893836      36.893836    
   4030000   0.49813284    -7.8128792     -7.0656906      3.6576719      50218.233      36.893836      36.893836      36.893836    
   4040000   0.49874882    -7.8113307     -7.0632181      3.6741268      50218.233      36.893836      36.893836      36.893836    
   4050000   0.49954213    -7.8102873     -7.0609847      3.6773418      50218.233      36.893836      36.893836      36.893836    
   4060000   0.50294064    -7.8132153     -7.058815       3.6741748      50218.233      36.893836      36.893836      36.893836    
   4070000   0.49900808    -7.8112529     -7.0627514      3.6879866      50218.233      36.893836      36.893836      36.893836    
   4080000   0.50099881    -7.812099      -7.0606115      3.6808286      50218.233      36.893836      36.893836      36.893836    
   4090000   0.49915536    -7.8103322     -7.0616099      3.6903192      50218.233      36.893836      36.893836      36.893836    
   4100000   0.49987375    -7.8133159     -7.063516       3.6660387      50218.233      36.893836      36.893836      36.893836    
   4110000   0.50009829    -7.808774      -7.0586372      3.69557        50218.233      36.893836      36.893836      36.893836    
   4120000   0.50053183    -7.8105967     -7.0598096      3.6938103      50218.233      36.893836      36.893836      36.893836    
   4130000   0.50116301    -7.8128483     -7.0611145      3.6775911      50218.233      36.893836      36.893836      36.893836    
   4140000   0.49898131    -7.8113273     -7.0628659      3.6753628      50218.233      36.893836      36.893836      36.893836    
   4150000   0.49978843    -7.807121      -7.057449       3.7039246      50218.233      36.893836      36.893836      36.893836    
   4160000   0.50020786    -7.809867      -7.0595659      3.7034376      50218.233      36.893836      36.893836      36.893836    
   4170000   0.4992356     -7.8108621     -7.0620194      3.6749145      50218.233      36.893836      36.893836      36.893836    
   4180000   0.49949953    -7.8101962     -7.0609576      3.6813101      50218.233      36.893836      36.893836      36.893836    
   4190000   0.50151452    -7.8115091     -7.059248       3.6798306      50218.233      36.893836      36.893836      36.893836    
   4200000   0.49824951    -7.8094134     -7.0620498      3.6995751      50218.233      36.893836      36.893836      36.893836    
   4210000   0.50048452    -7.8131379     -7.0624218      3.6628484      50218.233      36.893836      36.893836      36.893836    
   4220000   0.49969159    -7.8086047     -7.059078       3.6896101      50218.233      36.893836      36.893836      36.893836    
   4230000   0.50137558    -7.8076034     -7.0555507      3.7103798      50218.233      36.893836      36.893836      36.893836    
   4240000   0.50113414    -7.8072857     -7.0555951      3.7094532      50218.233      36.893836      36.893836      36.893836    
   4250000   0.500162      -7.8073145     -7.0570822      3.7164423      50218.233      36.893836      36.893836      36.893836    
   4260000   0.49874631    -7.8094457     -7.0613368      3.7007943      50218.233      36.893836      36.893836      36.893836    
   4270000   0.50058702    -7.8064251     -7.0555553      3.7176527      50218.233      36.893836      36.893836      36.893836    
   4280000   0.49863718    -7.8117157     -7.0637706      3.6784289      50218.233      36.893836      36.893836      36.893836    
   4290000   0.50314726    -7.8082572     -7.053547       3.7098548      50218.233      36.893836      36.893836      36.893836    
   4300000   0.50325239    -7.8100308     -7.0551629      3.7006287      50218.233      36.893836      36.893836      36.893836    
   4310000   0.49835904    -7.808549      -7.061021       3.7045984      50218.233      36.893836      36.893836      36.893836    
   4320000   0.49943165    -7.811807      -7.0626702      3.6768179      50218.233      36.893836      36.893836      36.893836    
   4330000   0.49745497    -7.812855      -7.0666831      3.668517       50218.233      36.893836      36.893836      36.893836    
   4340000   0.49891389    -7.8127793     -7.0644191      3.6805122      50218.233      36.893836      36.893836      36.893836    
   4350000   0.49975942    -7.8132564     -7.0636279      3.6658752      50218.233      36.893836      36.893836      36.893836    
   4360000   0.50382768    -7.8081109     -7.0523801      3.7268718      50218.233      36.893836      36.893836      36.893836    
   4370000   0.50249993    -7.8081976     -7.0544584      3.6972374      50218.233      36.893836      36.893836      36.893836    
   4380000   0.4990383     -7.8127694     -7.0642226      3.6596089      50218.233      36.893836      36.893836      36.893836    
   4390000   0.49624514    -7.8086853     -7.0643282      3.7002096      50218.233      36.893836      36.893836      36.893836    
   4400000   0.49954903    -7.8139451     -7.0646322      3.6549017      50218.233      36.893836      36.893836      36.893836    
   4410000   0.50073265    -7.810501      -7.0594127      3.6904775      50218.233      36.893836      36.893836      36.893836    
   4420000   0.50189555    -7.8125568     -7.0597242      3.6801163      50218.233      36.893836      36.893836      36.893836    
   4430000   0.50127195    -7.8111809     -7.0592837      3.6917176      50218.233      36.893836      36.893836      36.893836    
   4440000   0.50050122    -7.8108676     -7.0601265      3.6916454      50218.233      36.893836      36.893836      36.893836    
   4450000   0.50068347    -7.8120851     -7.0610705      3.6815374      50218.233      36.893836      36.893836      36.893836    
   4460000   0.50259857    -7.8099636     -7.0560764      3.6886307      50218.233      36.893836      36.893836      36.893836    
   4470000   0.49786349    -7.8115319     -7.0647473      3.6731693      50218.233      36.893836      36.893836      36.893836    
   4480000   0.49974644    -7.8102303     -7.0606213      3.6972253      50218.233      36.893836      36.893836      36.893836    
   4490000   0.50003372    -7.8112372     -7.0611973      3.6944798      50218.233      36.893836      36.893836      36.893836    
   4500000   0.49673121    -7.8119756     -7.0668894      3.6659791      50218.233      36.893836      36.893836      36.893836    
   4510000   0.50028156    -7.8082669     -7.0578552      3.7129252      50218.233      36.893836      36.893836      36.893836    
   4520000   0.49842654    -7.8133144     -7.0656853      3.6520306      50218.233      36.893836      36.893836      36.893836    
   4530000   0.50091725    -7.8090762     -7.057711       3.7089782      50218.233      36.893836      36.893836      36.893836    
   4540000   0.49979237    -7.8088812     -7.0592033      3.7134544      50218.233      36.893836      36.893836      36.893836    
   4550000   0.49905596    -7.8070069     -7.0584336      3.712849       50218.233      36.893836      36.893836      36.893836    
   4560000   0.50044946    -7.8109314     -7.0602679      3.6853242      50218.233      36.893836      36.893836      36.893836    
   4570000   0.50139164    -7.8103156     -7.0582389      3.6917091      50218.233      36.893836      36.893836      36.893836    
   4580000   0.5003293     -7.8095686     -7.0590853      3.7030222      50218.233      36.893836      36.893836      36.893836    
   4590000   0.50135864    -7.8084656     -7.0564383      3.700783       50218.233      36.893836      36.893836      36.893836    
   4600000   0.49943651    -7.8097158     -7.0605717      3.6887777      50218.233      36.893836      36.893836      36.893836    
   4610000   0.4996115     -7.8071094     -7.0577028      3.7243655      50218.233      36.893836      36.893836      36.893836    
   4620000   0.49875749    -7.8073939     -7.0592683      3.7080674      50218.233      36.893836      36.893836      36.893836    
   4630000   0.50034355    -7.8140793     -7.0635746      3.6577232      50218.233      36.893836      36.893836      36.893836    
   4640000   0.50307613    -7.8097076     -7.0551041      3.7081882      50218.233      36.893836      36.893836      36.893836    
   4650000   0.49691312    -7.8152902     -7.0699311      3.6517531      50218.233      36.893836      36.893836      36.893836    
   4660000   0.50250015    -7.8161083     -7.0623688      3.6527843      50218.233      36.893836      36.893836      36.893836    
   4670000   0.49834663    -7.8114465     -7.0639372      3.6795461      50218.233      36.893836      36.893836      36.893836    
   4680000   0.50093144    -7.8116922     -7.0603057      3.6815616      50218.233      36.893836      36.893836      36.893836    
   4690000   0.49884688    -7.811039      -7.0627793      3.6915535      50218.233      36.893836      36.893836      36.893836    
   4700000   0.49943023    -7.8135451     -7.0644104      3.6520967      50218.233      36.893836      36.893836      36.893836    
   4710000   0.50017316    -7.8074197     -7.0571706      3.7162371      50218.233      36.893836      36.893836      36.893836    
   4720000   0.50220579    -7.8121584     -7.0588604      3.6773071      50218.233      36.893836      36.893836      36.893836    
   4730000   0.49973895    -7.8107001     -7.0611024      3.6772775      50218.233      36.893836      36.893836      36.893836    
   4740000   0.49987886    -7.8140445     -7.0642369      3.6476017      50218.233      36.893836      36.893836      36.893836    
   4750000   0.50160659    -7.8130506     -7.0606514      3.6855152      50218.233      36.893836      36.893836      36.893836    
   4760000   0.49663183    -7.8150864     -7.0701493      3.6577767      50218.233      36.893836      36.893836      36.893836    
   4770000   0.50054357    -7.8127726     -7.061968       3.6823186      50218.233      36.893836      36.893836      36.893836    
   4780000   0.49709011    -7.8089996     -7.0633751      3.7091196      50218.233      36.893836      36.893836      36.893836    
   4790000   0.49751529    -7.8144063     -7.068144       3.6687265      50218.233      36.893836      36.893836      36.893836    
   4800000   0.50124378    -7.8101199     -7.058265       3.6860626      50218.233      36.893836      36.893836      36.893836    
   4810000   0.50084993    -7.8098122     -7.058548       3.7038098      50218.233      36.893836      36.893836      36.893836    
   4820000   0.49949771    -7.8094366     -7.0602007      3.6974121      50218.233      36.893836      36.893836      36.893836    
   4830000   0.49926259    -7.8130787     -7.0641955      3.6675744      50218.233      36.893836      36.893836      36.893836    
   4840000   0.50273689    -7.8078768     -7.0537822      3.7124142      50218.233      36.893836      36.893836      36.893836    
   4850000   0.4989687     -7.8105177     -7.0620753      3.6927655      50218.233      36.893836      36.893836      36.893836    
   4860000   0.49882629    -7.8134233     -7.0651945      3.6592533      50218.233      36.893836      36.893836      36.893836    
   4870000   0.49814027    -7.8140142     -7.0668144      3.6589366      50218.233      36.893836      36.893836      36.893836    
   4880000   0.50130272    -7.812191      -7.0602477      3.6781407      50218.233      36.893836      36.893836      36.893836    
   4890000   0.50031479    -7.8133235     -7.062862       3.6771521      50218.233      36.893836      36.893836      36.893836    
   4900000   0.50250267    -7.8112949     -7.0575517      3.6873877      50218.233      36.893836      36.893836      36.893836    
   4910000   0.49913762    -7.813746      -7.0650502      3.667641       50218.233      36.893836      36.893836      36.893836    
   4920000   0.50107341    -7.8128863     -7.0612869      3.6688321      50218.233      36.893836      36.893836      36.893836    
   4930000   0.49871414    -7.814595      -7.0665344      3.6599908      50218.233      36.893836      36.893836      36.893836    
   4940000   0.49880222    -7.8133302     -7.0651375      3.6672008      50218.233      36.893836      36.893836      36.893836    
   4950000   0.50344196    -7.8198588     -7.0647066      3.6265174      50218.233      36.893836      36.893836      36.893836    
   4960000   0.5004037     -7.8123176     -7.0617228      3.6808036      50218.233      36.893836      36.893836      36.893836    
   4970000   0.50185991    -7.8115487     -7.0587696      3.6961832      50218.233      36.893836      36.893836      36.893836    
   4980000   0.49966628    -7.8143069     -7.0648182      3.6617782      50218.233      36.893836      36.893836      36.893836    
   4990000   0.50178792    -7.8118688     -7.0591976      3.674895       50218.233      36.893836      36.893836      36.893836    
   5000000   0.50018065    -7.8126123     -7.062352       3.6751366      50218.233      36.893836      36.893836      36.893836    
   5010000   0.50186931    -7.8092314     -7.0564382      3.7096539      50218.233      36.893836      36.893836      36.893836    
   5020000   0.49968745    -7.8121358     -7.0626153      3.6841068      50218.233      36.893836      36.893836      36.893836    
   5030000   0.49991885    -7.8085253     -7.0586577      3.7082669      50218.233      36.893836      36.893836      36.893836    
   5040000   0.49884148    -7.8112653     -7.0630137      3.6858543      50218.233      36.893836      36.893836      36.893836    
   5050000   0.50075924    -7.8110619     -7.0599338      3.6852162      50218.233      36.893836      36.893836      36.893836    
   5060000   0.50094197    -7.812098      -7.0606957      3.685349       50218.233      36.893836      36.893836      36.893836    
   5070000   0.50001573    -7.8100508     -7.0600379      3.6949844      50218.233      36.893836      36.893836      36.893836    
   5080000   0.49657283    -7.8093518     -7.0645031      3.6953401      50218.233      36.893836      36.893836      36.893836    
   5090000   0.49826986    -7.8160609     -7.0686668      3.6515446      50218.233      36.893836      36.893836      36.893836    
   5100000   0.4970237     -7.8136669     -7.0681419      3.6618152      50218.233      36.893836      36.893836      36.893836    
   5110000   0.5010837     -7.8087258     -7.0571109      3.7085379      50218.233      36.893836      36.893836      36.893836    
   5120000   0.50152803    -7.8100317     -7.0577504      3.708224       50218.233      36.893836      36.893836      36.893836    
   5130000   0.50265843    -7.8069294     -7.0529524      3.7248893      50218.233      36.893836      36.893836      36.893836    
   5140000   0.50021423    -7.8112363     -7.0609257      3.6905561      50218.233      36.893836      36.893836      36.893836    
   5150000   0.50091411    -7.8118867     -7.0605262      3.684465       50218.233      36.893836      36.893836      36.893836    
   5160000   0.50125596    -7.8112295     -7.0593563      3.6772594      50218.233      36.893836      36.893836      36.893836    
   5170000   0.50307649    -7.8094396     -7.0548356      3.6944124      50218.233      36.893836      36.893836      36.893836    
   5180000   0.50072169    -7.8101354     -7.0590635      3.6882281      50218.233      36.893836      36.893836      36.893836    
   5190000   0.50042976    -7.8039685     -7.0533345      3.7393453      50218.233      36.893836      36.893836      36.893836    
   5200000   0.50087649    -7.8085602     -7.0572561      3.7076471      50218.233      36.893836      36.893836      36.893836    
   5210000   0.5018701     -7.8113733     -7.0585788      3.688564       50218.233      36.893836      36.893836      36.893836    
   5220000   0.50073843    -7.8144965     -7.0633995      3.6725019      50218.233      36.893836      36.893836      36.893836    
   5230000   0.50077568    -7.812681      -7.0615282      3.6717716      50218.233      36.893836      36.893836      36.893836    
   5240000   0.49962691    -7.8077189     -7.0582892      3.7081155      50218.233      36.893836      36.893836      36.893836    
   5250000   0.49926997    -7.8074362     -7.0585419      3.7162861      50218.233      36.893836      36.893836      36.893836    
   5260000   0.5001615     -7.8125005     -7.0622689      3.6854528      50218.233      36.893836      36.893836      36.893836    
   5270000   0.49977217    -7.8090086     -7.059361       3.6923813      50218.233      36.893836      36.893836      36.893836    
   5280000   0.49965546    -7.8103666     -7.0608941      3.7023875      50218.233      36.893836      36.893836      36.893836    
   5290000   0.50048934    -7.8119042     -7.0611809      3.6725021      50218.233      36.893836      36.893836      36.893836    
   5300000   0.49822017    -7.8078629     -7.0605433      3.706298       50218.233      36.893836      36.893836      36.893836    
   5310000   0.50014265    -7.8131779     -7.0629746      3.6658194      50218.233      36.893836      36.893836      36.893836    
   5320000   0.50069357    -7.809146      -7.0581164      3.7089369      50218.233      36.893836      36.893836      36.893836    
   5330000   0.49609281    -7.8107089     -7.0665802      3.6818049      50218.233      36.893836      36.893836      36.893836    
   5340000   0.50008758    -7.8124452     -7.0623245      3.6743392      50218.233      36.893836      36.893836      36.893836    
   5350000   0.50027568    -7.8110559     -7.060653       3.6817148      50218.233      36.893836      36.893836      36.893836    
   5360000   0.50009843    -7.8120504     -7.0619135      3.6890316      50218.233      36.893836      36.893836      36.893836    
   5370000   0.50140679    -7.8101367     -7.0580373      3.686283       50218.233      36.893836      36.893836      36.893836    
   5380000   0.49727498    -7.8127244     -7.0668226      3.6741208      50218.233      36.893836      36.893836      36.893836    
   5390000   0.49653064    -7.8132035     -7.0684182      3.6685622      50218.233      36.893836      36.893836      36.893836    
   5400000   0.49963158    -7.8137926     -7.0643558      3.6746398      50218.233      36.893836      36.893836      36.893836    
   5410000   0.50090274    -7.8140957     -7.0627523      3.6734451      50218.233      36.893836      36.893836      36.893836    
   5420000   0.49765013    -7.809257      -7.0627924      3.689997       50218.233      36.893836      36.893836      36.893836    
   5430000   0.5005185     -7.8136568     -7.0628898      3.6669991      50218.233      36.893836      36.893836      36.893836    
   5440000   0.49861505    -7.8153137     -7.0674018      3.6615352      50218.233      36.893836      36.893836      36.893836    
   5450000   0.49880711    -7.8094853     -7.0612853      3.71526        50218.233      36.893836      36.893836      36.893836    
   5460000   0.50089504    -7.8089636     -7.0576317      3.7158951      50218.233      36.893836      36.893836      36.893836    
   5470000   0.49963426    -7.81312       -7.0636793      3.6696809      50218.233      36.893836      36.893836      36.893836    
   5480000   0.49883983    -7.8139478     -7.0656986      3.6823303      50218.233      36.893836      36.893836      36.893836    
   5490000   0.50126935    -7.8109671     -7.0590738      3.6937694      50218.233      36.893836      36.893836      36.893836    
   5500000   0.50049834    -7.8082079     -7.0574711      3.7121152      50218.233      36.893836      36.893836      36.893836    
   5510000   0.50065596    -7.8144988     -7.0635255      3.6648402      50218.233      36.893836      36.893836      36.893836    
   5520000   0.50072981    -7.8128513     -7.0617673      3.6710402      50218.233      36.893836      36.893836      36.893836    
   5530000   0.50134505    -7.8152016     -7.0631947      3.6599939      50218.233      36.893836      36.893836      36.893836    
   5540000   0.49802949    -7.8125985     -7.0655649      3.6683942      50218.233      36.893836      36.893836      36.893836    
   5550000   0.50114258    -7.8089377     -7.0572345      3.7079821      50218.233      36.893836      36.893836      36.893836    
   5560000   0.49745274    -7.8106021     -7.0644336      3.6837382      50218.233      36.893836      36.893836      36.893836    
   5570000   0.50038191    -7.8099373     -7.0593751      3.6957955      50218.233      36.893836      36.893836      36.893836    
   5580000   0.50202986    -7.8107688     -7.0577347      3.6985177      50218.233      36.893836      36.893836      36.893836    
   5590000   0.50167772    -7.8117502     -7.0592443      3.6794475      50218.233      36.893836      36.893836      36.893836    
   5600000   0.49833787    -7.811719      -7.0642228      3.6910713      50218.233      36.893836      36.893836      36.893836    
   5610000   0.49859936    -7.808857      -7.0609686      3.6929254      50218.233      36.893836      36.893836      36.893836    
   5620000   0.49905202    -7.8113367     -7.0627693      3.6887023      50218.233      36.893836      36.893836      36.893836    
   5630000   0.49865599    -7.8121595     -7.0641862      3.6717861      50218.233      36.893836      36.893836      36.893836    
   5640000   0.49875013    -7.8115991     -7.0634846      3.6749107      50218.233      36.893836      36.893836      36.893836    
   5650000   0.50007095    -7.8139924     -7.0638966      3.6650913      50218.233      36.893836      36.893836      36.893836    
   5660000   0.49982058    -7.8120273     -7.0623071      3.6849047      50218.233      36.893836      36.893836      36.893836    
   5670000   0.5014611     -7.8135121     -7.0613312      3.6624147      50218.233      36.893836      36.893836      36.893836    
   5680000   0.50109716    -7.8113677     -7.0597326      3.6818802      50218.233      36.893836      36.893836      36.893836    
   5690000   0.50125059    -7.8135822     -7.061717       3.6561962      50218.233      36.893836      36.893836      36.893836    
   5700000   0.50014436    -7.8068062     -7.0566004      3.7113796      50218.233      36.893836      36.893836      36.893836    
   5710000   0.50175065    -7.8063513     -7.0537361      3.7188964      50218.233      36.893836      36.893836      36.893836    
   5720000   0.49772509    -7.8128957     -7.0663187      3.6574761      50218.233      36.893836      36.893836      36.893836    
   5730000   0.49843999    -7.814337      -7.0666876      3.6675626      50218.233      36.893836      36.893836      36.893836    
   5740000   0.49947461    -7.81211       -7.0629087      3.6745106      50218.233      36.893836      36.893836      36.893836    
   5750000   0.49957855    -7.8126671     -7.0633099      3.6717047      50218.233      36.893836      36.893836      36.893836    
   5760000   0.49834953    -7.8147731     -7.0672594      3.6531355      50218.233      36.893836      36.893836      36.893836    
   5770000   0.49950009    -7.8119739     -7.0627345      3.6889361      50218.233      36.893836      36.893836      36.893836    
   5780000   0.49763723    -7.8120889     -7.0656436      3.6780958      50218.233      36.893836      36.893836      36.893836    
   5790000   0.49860878    -7.8129641     -7.0650616      3.6542665      50218.233      36.893836      36.893836      36.893836    
   5800000   0.50140198    -7.8144532     -7.062361       3.6580717      50218.233      36.893836      36.893836      36.893836    
   5810000   0.49803248    -7.8170697     -7.0700316      3.6445303      50218.233      36.893836      36.893836      36.893836    
   5820000   0.49943771    -7.8085963     -7.0594504      3.7086042      50218.233      36.893836      36.893836      36.893836    
   5830000   0.50146036    -7.8147337     -7.0625539      3.6655851      50218.233      36.893836      36.893836      36.893836    
   5840000   0.49872318    -7.8106387     -7.0625646      3.6814894      50218.233      36.893836      36.893836      36.893836    
   5850000   0.50284936    -7.8156866     -7.0614233      3.6365735      50218.233      36.893836      36.893836      36.893836    
   5860000   0.50256596    -7.810395      -7.0565568      3.6883036      50218.233      36.893836      36.893836      36.893836    
   5870000   0.5017409     -7.8098687     -7.057268       3.6957887      50218.233      36.893836      36.893836      36.893836    
   5880000   0.50216167    -7.8111393     -7.0579075      3.6801391      50218.233      36.893836      36.893836      36.893836    
   5890000   0.50026979    -7.8090618     -7.0586678      3.6870769      50218.233      36.893836      36.893836      36.893836    
   5900000   0.49830446    -7.8127245     -7.0652784      3.6717342      50218.233      36.893836      36.893836      36.893836    
   5910000   0.49800483    -7.8104291     -7.0634324      3.6902388      50218.233      36.893836      36.893836      36.893836    
   5920000   0.50322748    -7.8093539     -7.0545234      3.7082352      50218.233      36.893836      36.893836      36.893836    
   5930000   0.49805626    -7.8126475     -7.0655738      3.6715461      50218.233      36.893836      36.893836      36.893836    
   5940000   0.50112638    -7.8109151     -7.0592362      3.6830152      50218.233      36.893836      36.893836      36.893836    
   5950000   0.49905908    -7.814192      -7.065614       3.6463764      50218.233      36.893836      36.893836      36.893836    
   5960000   0.5010366     -7.8095009     -7.0579567      3.7047698      50218.233      36.893836      36.893836      36.893836    
   5970000   0.50045626    -7.8130764     -7.0624027      3.6674718      50218.233      36.893836      36.893836      36.893836    
   5980000   0.49703205    -7.8091754     -7.063638       3.6947811      50218.233      36.893836      36.893836      36.893836    
   5990000   0.50041922    -7.8131236     -7.0625055      3.6778171      50218.233      36.893836      36.893836      36.893836    
   6000000   0.50031944    -7.8098991     -7.0594306      3.6852921      50218.233      36.893836      36.893836      36.893836    
   6010000   0.49726169    -7.8110207     -7.0651388      3.6724131      50218.233      36.893836      36.893836      36.893836    
   6020000   0.49961976    -7.8086835     -7.0592645      3.7142194      50218.233      36.893836      36.893836      36.893836    
   6030000   0.50087198    -7.8098857     -7.0585884      3.697604       50218.233      36.893836      36.893836      36.893836    
   6040000   0.50276157    -7.8117054     -7.0575738      3.6885265      50218.233      36.893836      36.893836      36.893836    
   6050000   0.49740924    -7.8101026     -7.0639994      3.6981608      50218.233      36.893836      36.893836      36.893836    
   6060000   0.50119483    -7.8150141     -7.0632325      3.655014       50218.233      36.893836      36.893836      36.893836    
   6070000   0.49923348    -7.8135779     -7.0647384      3.6547177      50218.233      36.893836      36.893836      36.893836    
   6080000   0.5011223     -7.8089889     -7.0573161      3.7037991      50218.233      36.893836      36.893836      36.893836    
   6090000   0.499537      -7.8105132     -7.0612183      3.6924814      50218.233      36.893836      36.893836      36.893836    
   6100000   0.49964031    -7.8130413     -7.0635915      3.6699628      50218.233      36.893836      36.893836      36.893836    
   6110000   0.4994422     -7.8066437     -7.0574911      3.7133727      50218.233      36.893836      36.893836      36.893836    
   6120000   0.50051358    -7.8138555     -7.0630958      3.6785863      50218.233      36.893836      36.893836      36.893836    
   6130000   0.50079581    -7.8101408     -7.0589578      3.6916159      50218.233      36.893836      36.893836      36.893836    
   6140000   0.50076107    -7.812857      -7.061726       3.6632343      50218.233      36.893836      36.893836      36.893836    
   6150000   0.49852769    -7.8148701     -7.0670892      3.648287       50218.233      36.893836      36.893836      36.893836    
   6160000   0.49890342    -7.8107871     -7.0624426      3.6840173      50218.233      36.893836      36.893836      36.893836    
   6170000   0.49891677    -7.8106894     -7.0623248      3.6864818      50218.233      36.893836      36.893836      36.893836    
   6180000   0.50168071    -7.8137543     -7.061244       3.6693968      50218.233      36.893836      36.893836      36.893836    
   6190000   0.498659      -7.8104809     -7.0625031      3.6846954      50218.233      36.893836      36.893836      36.893836    
   6200000   0.499256      -7.8120317     -7.0631584      3.6726351      50218.233      36.893836      36.893836      36.893836    
   6210000   0.49785454    -7.8090897     -7.0623185      3.6969861      50218.233      36.893836      36.893836      36.893836    
   6220000   0.50046962    -7.8082407     -7.0575469      3.7032348      50218.233      36.893836      36.893836      36.893836    
   6230000   0.49957477    -7.8105747     -7.0612232      3.6978052      50218.233      36.893836      36.893836      36.893836    
   6240000   0.50099346    -7.8147948     -7.0633153      3.6661073      50218.233      36.893836      36.893836      36.893836    
   6250000   0.50175251    -7.8121337     -7.0595156      3.6830832      50218.233      36.893836      36.893836      36.893836    
   6260000   0.50288913    -7.8115145     -7.0571916      3.6901556      50218.233      36.893836      36.893836      36.893836    
   6270000   0.50085404    -7.8098156     -7.0585452      3.6891387      50218.233      36.893836      36.893836      36.893836    
   6280000   0.49978775    -7.8098134     -7.0601424      3.6986219      50218.233      36.893836      36.893836      36.893836    
   6290000   0.49952174    -7.8098048     -7.0605328      3.6972347      50218.233      36.893836      36.893836      36.893836    
   6300000   0.50258229    -7.8133438     -7.0594811      3.6695034      50218.233      36.893836      36.893836      36.893836    
   6310000   0.49900989    -7.8115538     -7.0630496      3.6841378      50218.233      36.893836      36.893836      36.893836    
   6320000   0.50000408    -7.8128774     -7.0628819      3.6835294      50218.233      36.893836      36.893836      36.893836    
   6330000   0.49955597    -7.8129321     -7.0636088      3.6815373      50218.233      36.893836      36.893836      36.893836    
   6340000   0.49691792    -7.8147833     -7.069417       3.6606544      50218.233      36.893836      36.893836      36.893836    
   6350000   0.49806947    -7.8105985     -7.0635049      3.6953461      50218.233      36.893836      36.893836      36.893836    
   6360000   0.49806549    -7.8064902     -7.0594026      3.7201689      50218.233      36.893836      36.893836      36.893836    
   6370000   0.49755986    -7.8120252     -7.0656961      3.6740988      50218.233      36.893836      36.893836      36.893836    
   6380000   0.50025771    -7.8152708     -7.0648949      3.6418646      50218.233      36.893836      36.893836      36.893836    
   6390000   0.499494      -7.809708      -7.0604777      3.7015653      50218.233      36.893836      36.893836      36.893836    
   6400000   0.49851434    -7.8132454     -7.0654845      3.6694754      50218.233      36.893836      36.893836      36.893836    
   6410000   0.4991576     -7.8127106     -7.0639848      3.6778443      50218.233      36.893836      36.893836      36.893836    
   6420000   0.49907789    -7.8103295     -7.0617234      3.681509       50218.233      36.893836      36.893836      36.893836    
   6430000   0.49790603    -7.8094078     -7.0625594      3.6976325      50218.233      36.893836      36.893836      36.893836    
   6440000   0.49762025    -7.815283      -7.0688633      3.6479458      50218.233      36.893836      36.893836      36.893836    
   6450000   0.50169465    -7.8122869     -7.0597556      3.6654909      50218.233      36.893836      36.893836      36.893836    
   6460000   0.49960909    -7.810864      -7.061461       3.6838959      50218.233      36.893836      36.893836      36.893836    
   6470000   0.50105838    -7.813094      -7.0615171      3.6760288      50218.233      36.893836      36.893836      36.893836    
   6480000   0.50293032    -7.8152439     -7.0608591      3.6560182      50218.233      36.893836      36.893836      36.893836    
   6490000   0.49705085    -7.8104096     -7.0648439      3.6812467      50218.233      36.893836      36.893836      36.893836    
   6500000   0.49967181    -7.8112549     -7.0617578      3.6798357      50218.233      36.893836      36.893836      36.893836    
   6510000   0.49809351    -7.8134574     -7.0663278      3.6511037      50218.233      36.893836      36.893836      36.893836    
   6520000   0.50142127    -7.8157746     -7.0636534      3.6555365      50218.233      36.893836      36.893836      36.893836    
   6530000   0.49929478    -7.8138722     -7.0649407      3.6603716      50218.233      36.893836      36.893836      36.893836    
   6540000   0.49801418    -7.810833      -7.0638224      3.69199        50218.233      36.893836      36.893836      36.893836    
   6550000   0.50194544    -7.8108129     -7.0579054      3.6894109      50218.233      36.893836      36.893836      36.893836    
   6560000   0.49771522    -7.8159935     -7.0694313      3.6448578      50218.233      36.893836      36.893836      36.893836    
   6570000   0.50238254    -7.8143355     -7.0607724      3.6603423      50218.233      36.893836      36.893836      36.893836    
   6580000   0.4987968     -7.8138762     -7.0656917      3.6716027      50218.233      36.893836      36.893836      36.893836    
   6590000   0.50043205    -7.8102546     -7.0596172      3.6858371      50218.233      36.893836      36.893836      36.893836    
   6600000   0.50028169    -7.8158933     -7.0654814      3.6480056      50218.233      36.893836      36.893836      36.893836    
   6610000   0.50027672    -7.8094462     -7.0590418      3.6924559      50218.233      36.893836      36.893836      36.893836    
   6620000   0.50002679    -7.8106785     -7.060649       3.6836966      50218.233      36.893836      36.893836      36.893836    
   6630000   0.49913678    -7.815695      -7.0670005      3.655001       50218.233      36.893836      36.893836      36.893836    
   6640000   0.50123753    -7.8102584     -7.0584128      3.6922634      50218.233      36.893836      36.893836      36.893836    
   6650000   0.49765799    -7.8123916     -7.0659152      3.6732283      50218.233      36.893836      36.893836      36.893836    
   6660000   0.50110696    -7.8106469     -7.0589972      3.7024565      50218.233      36.893836      36.893836      36.893836    
   6670000   0.49756671    -7.8114106     -7.0650711      3.6736402      50218.233      36.893836      36.893836      36.893836    
   6680000   0.49982679    -7.8093261     -7.0595966      3.7008336      50218.233      36.893836      36.893836      36.893836    
   6690000   0.4987872     -7.8134379     -7.0652677      3.6736143      50218.233      36.893836      36.893836      36.893836    
   6700000   0.50226436    -7.8099385     -7.0565527      3.7020266      50218.233      36.893836      36.893836      36.893836    
   6710000   0.49959263    -7.8091924     -7.0598141      3.7037534      50218.233      36.893836      36.893836      36.893836    
   6720000   0.4997709     -7.8065925     -7.0569468      3.7222096      50218.233      36.893836      36.893836      36.893836    
   6730000   0.49946489    -7.8132299     -7.0640432      3.6709649      50218.233      36.893836      36.893836      36.893836    
   6740000   0.50277665    -7.8145873     -7.060433       3.6625209      50218.233      36.893836      36.893836      36.893836    
   6750000   0.50202985    -7.8135446     -7.0605105      3.6711556      50218.233      36.893836      36.893836      36.893836    
   6760000   0.50322497    -7.8136396     -7.0588129      3.6704856      50218.233      36.893836      36.893836      36.893836    
   6770000   0.50044467    -7.8134375     -7.0627812      3.6711516      50218.233      36.893836      36.893836      36.893836    
   6780000   0.50157375    -7.8098784     -7.0575285      3.7083504      50218.233      36.893836      36.893836      36.893836    
   6790000   0.50174212    -7.8105746     -7.0579721      3.6981815      50218.233      36.893836      36.893836      36.893836    
   6800000   0.49887911    -7.8095539     -7.0612459      3.6950217      50218.233      36.893836      36.893836      36.893836    
   6810000   0.49986323    -7.8157216     -7.0659374      3.6581193      50218.233      36.893836      36.893836      36.893836    
   6820000   0.50111478    -7.8126242     -7.0609627      3.6802853      50218.233      36.893836      36.893836      36.893836    
   6830000   0.49741388    -7.8110504     -7.0649402      3.68275        50218.233      36.893836      36.893836      36.893836    
   6840000   0.50076802    -7.8096145     -7.0584732      3.7064812      50218.233      36.893836      36.893836      36.893836    
   6850000   0.50177148    -7.808738      -7.0560915      3.7084643      50218.233      36.893836      36.893836      36.893836    
   6860000   0.50052804    -7.8105558     -7.0597744      3.6969854      50218.233      36.893836      36.893836      36.893836    
   6870000   0.50023656    -7.8139397     -7.0635955      3.6723965      50218.233      36.893836      36.893836      36.893836    
   6880000   0.50373204    -7.8118095     -7.0562222      3.6870099      50218.233      36.893836      36.893836      36.893836    
   6890000   0.4992354     -7.812408      -7.0635655      3.6768556      50218.233      36.893836      36.893836      36.893836    
   6900000   0.49968082    -7.8141149     -7.0646044      3.660143       50218.233      36.893836      36.893836      36.893836    
   6910000   0.49973767    -7.8137559     -7.0641601      3.6738302      50218.233      36.893836      36.893836      36.893836    
   6920000   0.4999407     -7.8109428     -7.0610424      3.6767496      50218.233      36.893836      36.893836      36.893836    
   6930000   0.50012713    -7.8133835     -7.0632035      3.6745281      50218.233      36.893836      36.893836      36.893836    
   6940000   0.50048667    -7.8160363     -7.0653169      3.6615314      50218.233      36.893836      36.893836      36.893836    
   6950000   0.50156087    -7.8082901     -7.0559595      3.7103435      50218.233      36.893836      36.893836      36.893836    
   6960000   0.49879713    -7.8077137     -7.0595286      3.7134915      50218.233      36.893836      36.893836      36.893836    
   6970000   0.50129522    -7.8133836     -7.0614515      3.6724682      50218.233      36.893836      36.893836      36.893836    
   6980000   0.49874855    -7.8121973     -7.0640851      3.6740529      50218.233      36.893836      36.893836      36.893836    
   6990000   0.498581      -7.8108698     -7.0630089      3.6869156      50218.233      36.893836      36.893836      36.893836    
   7000000   0.50128246    -7.8084184     -7.0565054      3.711153       50218.233      36.893836      36.893836      36.893836    
   7010000   0.49854079    -7.8113559     -7.0635554      3.6813621      50218.233      36.893836      36.893836      36.893836    
   7020000   0.50142239    -7.8137969     -7.061674       3.6635455      50218.233      36.893836      36.893836      36.893836    
   7030000   0.49921919    -7.8081155     -7.0592973      3.7153321      50218.233      36.893836      36.893836      36.893836    
   7040000   0.50030438    -7.8153041     -7.0648582      3.6587342      50218.233      36.893836      36.893836      36.893836    
   7050000   0.49995558    -7.8104245     -7.0605018      3.6960482      50218.233      36.893836      36.893836      36.893836    
   7060000   0.49921875    -7.8093755     -7.060558       3.69996        50218.233      36.893836      36.893836      36.893836    
   7070000   0.50081126    -7.817071      -7.0658648      3.6395795      50218.233      36.893836      36.893836      36.893836    
   7080000   0.49918683    -7.8119883     -7.0632187      3.6751406      50218.233      36.893836      36.893836      36.893836    
   7090000   0.49969578    -7.8089093     -7.0593763      3.7008455      50218.233      36.893836      36.893836      36.893836    
   7100000   0.50259584    -7.8112519     -7.0573689      3.6916413      50218.233      36.893836      36.893836      36.893836    
   7110000   0.49998076    -7.8125786     -7.0626181      3.6835224      50218.233      36.893836      36.893836      36.893836    
   7120000   0.49853894    -7.8100109     -7.0622132      3.699659       50218.233      36.893836      36.893836      36.893836    
   7130000   0.49817822    -7.8091719     -7.0619152      3.7099065      50218.233      36.893836      36.893836      36.893836    
   7140000   0.50172148    -7.8112942     -7.0587227      3.6935409      50218.233      36.893836      36.893836      36.893836    
   7150000   0.49810914    -7.8118239     -7.0646709      3.6826256      50218.233      36.893836      36.893836      36.893836    
   7160000   0.50229003    -7.8130816     -7.0596573      3.6771621      50218.233      36.893836      36.893836      36.893836    
   7170000   0.50101963    -7.8071236     -7.0556048      3.7248901      50218.233      36.893836      36.893836      36.893836    
   7180000   0.49774099    -7.8122407     -7.0656398      3.677785       50218.233      36.893836      36.893836      36.893836    
   7190000   0.49642203    -7.8117282     -7.0671057      3.6897545      50218.233      36.893836      36.893836      36.893836    
   7200000   0.49941754    -7.8071846     -7.058069       3.7167395      50218.233      36.893836      36.893836      36.893836    
   7210000   0.50011441    -7.8109184     -7.0607574      3.6952988      50218.233      36.893836      36.893836      36.893836    
   7220000   0.50077858    -7.8074845     -7.0563273      3.7276565      50218.233      36.893836      36.893836      36.893836    
   7230000   0.50111275    -7.8095512     -7.0578927      3.7036197      50218.233      36.893836      36.893836      36.893836    
   7240000   0.5000459     -7.8137735     -7.0637153      3.6844121      50218.233      36.893836      36.893836      36.893836    
   7250000   0.50109706    -7.810919      -7.0592841      3.6953194      50218.233      36.893836      36.893836      36.893836    
   7260000   0.50140904    -7.8068088     -7.0547059      3.7247606      50218.233      36.893836      36.893836      36.893836    
   7270000   0.49849954    -7.8092085     -7.0614698      3.7063084      50218.233      36.893836      36.893836      36.893836    
   7280000   0.50137495    -7.8130582     -7.0610065      3.6763128      50218.233      36.893836      36.893836      36.893836    
   7290000   0.50056771    -7.8085739     -7.057733       3.718437       50218.233      36.893836      36.893836      36.893836    
   7300000   0.49675808    -7.8115491     -7.0664226      3.6740189      50218.233      36.893836      36.893836      36.893836    
   7310000   0.50439985    -7.8105484     -7.0539594      3.7116837      50218.233      36.893836      36.893836      36.893836    
   7320000   0.50132294    -7.8129709     -7.0609972      3.6791555      50218.233      36.893836      36.893836      36.893836    
   7330000   0.50105042    -7.808026      -7.056461       3.7079355      50218.233      36.893836      36.893836      36.893836    
   7340000   0.49964032    -7.811421      -7.0619712      3.6849426      50218.233      36.893836      36.893836      36.893836    
   7350000   0.49915843    -7.8099242     -7.0611972      3.6980044      50218.233      36.893836      36.893836      36.893836    
   7360000   0.4993049     -7.8093595     -7.0604128      3.6992866      50218.233      36.893836      36.893836      36.893836    
   7370000   0.49939067    -7.8107474     -7.061672       3.6880689      50218.233      36.893836      36.893836      36.893836    
   7380000   0.49703715    -7.8123566     -7.0668115      3.6728615      50218.233      36.893836      36.893836      36.893836    
   7390000   0.50018819    -7.8100211     -7.0597495      3.6898413      50218.233      36.893836      36.893836      36.893836    
   7400000   0.50098605    -7.8093421     -7.0578737      3.6902664      50218.233      36.893836      36.893836      36.893836    
   7410000   0.49712708    -7.8111408     -7.0654607      3.6713481      50218.233      36.893836      36.893836      36.893836    
   7420000   0.50148009    -7.8137132     -7.0615038      3.659189       50218.233      36.893836      36.893836      36.893836    
   7430000   0.50071872    -7.8083876     -7.0573202      3.7045789      50218.233      36.893836      36.893836      36.893836    
   7440000   0.49776314    -7.8098166     -7.0631825      3.6870679      50218.233      36.893836      36.893836      36.893836    
   7450000   0.49725678    -7.8128613     -7.0669867      3.6649855      50218.233      36.893836      36.893836      36.893836    
   7460000   0.49735069    -7.8121802     -7.0661648      3.6820361      50218.233      36.893836      36.893836      36.893836    
   7470000   0.50060573    -7.813313      -7.0624151      3.6666877      50218.233      36.893836      36.893836      36.893836    
   7480000   0.50000234    -7.8141796     -7.0641868      3.6529056      50218.233      36.893836      36.893836      36.893836    
   7490000   0.50004494    -7.8120842     -7.0620275      3.6734628      50218.233      36.893836      36.893836      36.893836    
   7500000   0.49950703    -7.8098522     -7.0606023      3.6880872      50218.233      36.893836      36.893836      36.893836    
   7510000   0.50368451    -7.8128349     -7.0573188      3.6875156      50218.233      36.893836      36.893836      36.893836    
   7520000   0.49829461    -7.810927      -7.0634957      3.6813641      50218.233      36.893836      36.893836      36.893836    
   7530000   0.49958489    -7.8070333     -7.0576666      3.7034126      50218.233      36.893836      36.893836      36.893836    
   7540000   0.49961001    -7.8111936     -7.0617892      3.6766004      50218.233      36.893836      36.893836      36.893836    
   7550000   0.50077192    -7.8110349     -7.0598878      3.6790915      50218.233      36.893836      36.893836      36.893836    
   7560000   0.49858208    -7.8117279     -7.0638654      3.6827082      50218.233      36.893836      36.893836      36.893836    
   7570000   0.49939557    -7.8079956     -7.0589129      3.707233       50218.233      36.893836      36.893836      36.893836    
   7580000   0.50100752    -7.8089347     -7.0574341      3.6944992      50218.233      36.893836      36.893836      36.893836    
   7590000   0.49972167    -7.807991      -7.0584192      3.7116478      50218.233      36.893836      36.893836      36.893836    
   7600000   0.49989889    -7.8103225     -7.0604848      3.6764776      50218.233      36.893836      36.893836      36.893836    
   7610000   0.49967069    -7.8089266     -7.0594312      3.6992358      50218.233      36.893836      36.893836      36.893836    
   7620000   0.50036159    -7.8085783     -7.0580466      3.6981974      50218.233      36.893836      36.893836      36.893836    
   7630000   0.50044153    -7.8118888     -7.0612372      3.6805347      50218.233      36.893836      36.893836      36.893836    
   7640000   0.50122944    -7.8092866     -7.0574532      3.6909894      50218.233      36.893836      36.893836      36.893836    
   7650000   0.50074001    -7.8113135     -7.0602142      3.6854543      50218.233      36.893836      36.893836      36.893836    
   7660000   0.49870829    -7.8121631     -7.0641113      3.6725912      50218.233      36.893836      36.893836      36.893836    
   7670000   0.49994353    -7.8082336     -7.058329       3.7077216      50218.233      36.893836      36.893836      36.893836    
   7680000   0.50059686    -7.8127947     -7.0619101      3.6667219      50218.233      36.893836      36.893836      36.893836    
   7690000   0.49808204    -7.8104125     -7.0633001      3.688965       50218.233      36.893836      36.893836      36.893836    
   7700000   0.50079115    -7.8125479     -7.0613719      3.684561       50218.233      36.893836      36.893836      36.893836    
   7710000   0.49921078    -7.8098219     -7.0610164      3.6963128      50218.233      36.893836      36.893836      36.893836    
   7720000   0.49982124    -7.8075616     -7.0578404      3.7238626      50218.233      36.893836      36.893836      36.893836    
   7730000   0.50058281    -7.8107681     -7.0599045      3.6833113      50218.233      36.893836      36.893836      36.893836    
   7740000   0.50209809    -7.8119383     -7.0588019      3.6762154      50218.233      36.893836      36.893836      36.893836    
   7750000   0.49726337    -7.8084703     -7.0625858      3.7083388      50218.233      36.893836      36.893836      36.893836    
   7760000   0.5017049     -7.8079468     -7.0554001      3.7094916      50218.233      36.893836      36.893836      36.893836    
   7770000   0.49999313    -7.8124102     -7.0624311      3.6689132      50218.233      36.893836      36.893836      36.893836    
   7780000   0.49974074    -7.8083421     -7.0587417      3.7123666      50218.233      36.893836      36.893836      36.893836    
   7790000   0.49945922    -7.8089518     -7.0597736      3.7026801      50218.233      36.893836      36.893836      36.893836    
   7800000   0.50058311    -7.8077758     -7.0569118      3.702525       50218.233      36.893836      36.893836      36.893836    
   7810000   0.49895836    -7.8096086     -7.0611817      3.6947907      50218.233      36.893836      36.893836      36.893836    
   7820000   0.50026775    -7.8061932     -7.0558022      3.7284143      50218.233      36.893836      36.893836      36.893836    
   7830000   0.5005717     -7.8097146     -7.0588677      3.7043194      50218.233      36.893836      36.893836      36.893836    
   7840000   0.50027182    -7.8109276     -7.0605306      3.6907868      50218.233      36.893836      36.893836      36.893836    
   7850000   0.50152095    -7.8080739     -7.0558032      3.7190949      50218.233      36.893836      36.893836      36.893836    
   7860000   0.50143405    -7.8129081     -7.0607677      3.6642158      50218.233      36.893836      36.893836      36.893836    
   7870000   0.49892064    -7.8092462     -7.0608759      3.6839549      50218.233      36.893836      36.893836      36.893836    
   7880000   0.50308639    -7.8095368     -7.0549179      3.7010275      50218.233      36.893836      36.893836      36.893836    
   7890000   0.50097341    -7.8071646     -7.0557151      3.7187283      50218.233      36.893836      36.893836      36.893836    
   7900000   0.50212212    -7.8086911     -7.0555186      3.7147305      50218.233      36.893836      36.893836      36.893836    
   7910000   0.5030528     -7.8110635     -7.0564951      3.6936051      50218.233      36.893836      36.893836      36.893836    
   7920000   0.49914643    -7.811166      -7.062457       3.6814968      50218.233      36.893836      36.893836      36.893836    
   7930000   0.5001702     -7.8087076     -7.058463       3.6980767      50218.233      36.893836      36.893836      36.893836    
   7940000   0.50286663    -7.8115975     -7.0573083      3.6963196      50218.233      36.893836      36.893836      36.893836    
   7950000   0.49738442    -7.810615      -7.064549       3.6947169      50218.233      36.893836      36.893836      36.893836    
   7960000   0.50083196    -7.8118967     -7.0606594      3.6815418      50218.233      36.893836      36.893836      36.893836    
   7970000   0.49902505    -7.812167      -7.0636401      3.6753131      50218.233      36.893836      36.893836      36.893836    
   7980000   0.50056205    -7.8123491     -7.0615167      3.676835       50218.233      36.893836      36.893836      36.893836    
   7990000   0.49996793    -7.8099414     -7.0600002      3.7151027      50218.233      36.893836      36.893836      36.893836    
   8000000   0.50006243    -7.8123576     -7.0622746      3.6716967      50218.233      36.893836      36.893836      36.893836    
   8010000   0.50088909    -7.8083281     -7.0570052      3.7064412      50218.233      36.893836      36.893836      36.893836    
   8020000   0.49904133    -7.8110919     -7.0625405      3.6862722      50218.233      36.893836      36.893836      36.893836    
   8030000   0.49747098    -7.8097438     -7.0635479      3.6896169      50218.233      36.893836      36.893836      36.893836    
   8040000   0.50135252    -7.80688       -7.0548619      3.7184062      50218.233      36.893836      36.893836      36.893836    
   8050000   0.50027634    -7.8129057     -7.0625019      3.6829902      50218.233      36.893836      36.893836      36.893836    
   8060000   0.49905534    -7.8119231     -7.0633507      3.6818336      50218.233      36.893836      36.893836      36.893836    
   8070000   0.49811493    -7.8126419     -7.0654801      3.6686175      50218.233      36.893836      36.893836      36.893836    
   8080000   0.50093559    -7.8115296     -7.0601369      3.6774935      50218.233      36.893836      36.893836      36.893836    
   8090000   0.50055075    -7.8121362     -7.0613208      3.6808151      50218.233      36.893836      36.893836      36.893836    
   8100000   0.49898872    -7.8103023     -7.0618298      3.6947549      50218.233      36.893836      36.893836      36.893836    
   8110000   0.50152694    -7.8108149     -7.0585352      3.6840036      50218.233      36.893836      36.893836      36.893836    
   8120000   0.50003832    -7.8103162     -7.0602694      3.7010202      50218.233      36.893836      36.893836      36.893836    
   8130000   0.50186306    -7.8121072     -7.0593233      3.6782546      50218.233      36.893836      36.893836      36.893836    
   8140000   0.50163154    -7.8078462     -7.0554095      3.7081609      50218.233      36.893836      36.893836      36.893836    
   8150000   0.49673032    -7.8064826     -7.0613977      3.7207787      50218.233      36.893836      36.893836      36.893836    
   8160000   0.50064824    -7.8108122     -7.0598505      3.6839633      50218.233      36.893836      36.893836      36.893836    
   8170000   0.5004754     -7.8062088     -7.0555064      3.7377506      50218.233      36.893836      36.893836      36.893836    
   8180000   0.50003883    -7.8148575     -7.06481        3.6545068      50218.233      36.893836      36.893836      36.893836    
   8190000   0.50037823    -7.8112951     -7.0607385      3.6924867      50218.233      36.893836      36.893836      36.893836    
   8200000   0.50003486    -7.8105303     -7.0604887      3.6851278      50218.233      36.893836      36.893836      36.893836    
   8210000   0.50047418    -7.8138954     -7.0631948      3.6675796      50218.233      36.893836      36.893836      36.893836    
   8220000   0.50081618    -7.8108472     -7.0596336      3.6776917      50218.233      36.893836      36.893836      36.893836    
   8230000   0.50234032    -7.8096191     -7.0561194      3.6990752      50218.233      36.893836      36.893836      36.893836    
   8240000   0.49805422    -7.8054259     -7.0583552      3.7263433      50218.233      36.893836      36.893836      36.893836    
   8250000   0.49996743    -7.8107411     -7.0608006      3.6845563      50218.233      36.893836      36.893836      36.893836    
   8260000   0.50155616    -7.8101923     -7.0578688      3.6963314      50218.233      36.893836      36.893836      36.893836    
   8270000   0.50036471    -7.8120402     -7.0615038      3.6833738      50218.233      36.893836      36.893836      36.893836    
   8280000   0.50050718    -7.8103581     -7.059608       3.6990942      50218.233      36.893836      36.893836      36.893836    
   8290000   0.50106763    -7.8130665     -7.0614758      3.688412       50218.233      36.893836      36.893836      36.893836    
   8300000   0.5000505     -7.8105442     -7.0604791      3.6923854      50218.233      36.893836      36.893836      36.893836    
   8310000   0.49782735    -7.813491      -7.0667606      3.6745705      50218.233      36.893836      36.893836      36.893836    
   8320000   0.49945856    -7.8117245     -7.0625473      3.6783933      50218.233      36.893836      36.893836      36.893836    
   8330000   0.49971627    -7.8094976     -7.0599338      3.6993891      50218.233      36.893836      36.893836      36.893836    
   8340000   0.50278361    -7.8090769     -7.0549122      3.6997982      50218.233      36.893836      36.893836      36.893836    
   8350000   0.500655      -7.8105652     -7.0595934      3.6981587      50218.233      36.893836      36.893836      36.893836    
   8360000   0.49971042    -7.8094851     -7.0599302      3.6969404      50218.233      36.893836      36.893836      36.893836    
   8370000   0.50114581    -7.8117886     -7.0600806      3.6884324      50218.233      36.893836      36.893836      36.893836    
   8380000   0.50065032    -7.8154796     -7.0645148      3.6604196      50218.233      36.893836      36.893836      36.893836    
   8390000   0.50203728    -7.8151818     -7.0621366      3.6626346      50218.233      36.893836      36.893836      36.893836    
   8400000   0.50308295    -7.8101959     -7.0555822      3.69751        50218.233      36.893836      36.893836      36.893836    
   8410000   0.49827599    -7.8145682     -7.0671649      3.6714211      50218.233      36.893836      36.893836      36.893836    
   8420000   0.50083066    -7.8156123     -7.064377       3.6606987      50218.233      36.893836      36.893836      36.893836    
   8430000   0.49809417    -7.8129659     -7.0658353      3.6847259      50218.233      36.893836      36.893836      36.893836    
   8440000   0.49837691    -7.813625      -7.0660702      3.6694814      50218.233      36.893836      36.893836      36.893836    
   8450000   0.50148346    -7.8085141     -7.0562996      3.7207069      50218.233      36.893836      36.893836      36.893836    
   8460000   0.49855416    -7.8099929     -7.0621723      3.7072682      50218.233      36.893836      36.893836      36.893836    
   8470000   0.49989116    -7.8102467     -7.0604206      3.6996447      50218.233      36.893836      36.893836      36.893836    
   8480000   0.49949278    -7.8093566     -7.060128       3.7127603      50218.233      36.893836      36.893836      36.893836    
   8490000   0.49916443    -7.8096203     -7.0608843      3.7061658      50218.233      36.893836      36.893836      36.893836    
   8500000   0.50169844    -7.8146554     -7.0621184      3.668512       50218.233      36.893836      36.893836      36.893836    
   8510000   0.49853243    -7.8164412     -7.0686532      3.6595084      50218.233      36.893836      36.893836      36.893836    
   8520000   0.4997681     -7.8101955     -7.060554       3.6894404      50218.233      36.893836      36.893836      36.893836    
   8530000   0.50186901    -7.8128351     -7.0600423      3.6872787      50218.233      36.893836      36.893836      36.893836    
   8540000   0.49829213    -7.8117432     -7.0643156      3.6902889      50218.233      36.893836      36.893836      36.893836    
   8550000   0.49819779    -7.8140432     -7.0667572      3.674528       50218.233      36.893836      36.893836      36.893836    
   8560000   0.49860715    -7.8149559     -7.0670558      3.6614411      50218.233      36.893836      36.893836      36.893836    
   8570000   0.50296283    -7.811548      -7.0571145      3.6946443      50218.233      36.893836      36.893836      36.893836    
   8580000   0.50157138    -7.8121454     -7.0597991      3.6934257      50218.233      36.893836      36.893836      36.893836    
   8590000   0.50045079    -7.813125      -7.0624595      3.6767517      50218.233      36.893836      36.893836      36.893836    
   8600000   0.5002616     -7.8101052     -7.0597235      3.7018655      50218.233      36.893836      36.893836      36.893836    
   8610000   0.50067118    -7.8091692     -7.0581731      3.7093656      50218.233      36.893836      36.893836      36.893836    
   8620000   0.49778615    -7.8123631     -7.0656945      3.6699869      50218.233      36.893836      36.893836      36.893836    
   8630000   0.50247939    -7.8103858     -7.0566774      3.6906672      50218.233      36.893836      36.893836      36.893836    
   8640000   0.50009684    -7.8107296     -7.060595       3.6931428      50218.233      36.893836      36.893836      36.893836    
   8650000   0.49893504    -7.8140481     -7.0656562      3.6773385      50218.233      36.893836      36.893836      36.893836    
   8660000   0.50345285    -7.8132494     -7.0580809      3.684967       50218.233      36.893836      36.893836      36.893836    
   8670000   0.49849686    -7.8108595     -7.0631248      3.69197        50218.233      36.893836      36.893836      36.893836    
   8680000   0.50094033    -7.8137418     -7.062342       3.6738864      50218.233      36.893836      36.893836      36.893836    
   8690000   0.50224099    -7.8122024     -7.0588516      3.6894777      50218.233      36.893836      36.893836      36.893836    
   8700000   0.49836294    -7.8089305     -7.0613968      3.7072761      50218.233      36.893836      36.893836      36.893836    
   8710000   0.49972093    -7.8075979     -7.0580271      3.7151687      50218.233      36.893836      36.893836      36.893836    
   8720000   0.50074145    -7.8110129     -7.0599114      3.7004043      50218.233      36.893836      36.893836      36.893836    
   8730000   0.50071303    -7.8091754     -7.0581165      3.7105319      50218.233      36.893836      36.893836      36.893836    
   8740000   0.50027946    -7.8096972     -7.0592886      3.7085517      50218.233      36.893836      36.893836      36.893836    
   8750000   0.50023687    -7.81163       -7.0612854      3.6848438      50218.233      36.893836      36.893836      36.893836    
   8760000   0.50125968    -7.8084083     -7.0565295      3.719035       50218.233      36.893836      36.893836      36.893836    
   8770000   0.4998314     -7.8126991     -7.0629627      3.6770497      50218.233      36.893836      36.893836      36.893836    
   8780000   0.50209231    -7.8121042     -7.0589765      3.6910626      50218.233      36.893836      36.893836      36.893836    
   8790000   0.49725509    -7.8093775     -7.0635055      3.7049599      50218.233      36.893836      36.893836      36.893836    
   8800000   0.4988833     -7.8099423     -7.061628       3.6928785      50218.233      36.893836      36.893836      36.893836    
   8810000   0.49860544    -7.8120367     -7.0641392      3.6759024      50218.233      36.893836      36.893836      36.893836    
   8820000   0.49823343    -7.8138028     -7.0664633      3.6588408      50218.233      36.893836      36.893836      36.893836    
   8830000   0.49956952    -7.8114175     -7.0620738      3.6909333      50218.233      36.893836      36.893836      36.893836    
   8840000   0.49932675    -7.8132329     -7.0642534      3.6726402      50218.233      36.893836      36.893836      36.893836    
   8850000   0.50172156    -7.8084891     -7.0559175      3.6975026      50218.233      36.893836      36.893836      36.893836    
   8860000   0.49824589    -7.8126584     -7.0653002      3.6786834      50218.233      36.893836      36.893836      36.893836    
   8870000   0.49965431    -7.8091674     -7.0596966      3.7132283      50218.233      36.893836      36.893836      36.893836    
   8880000   0.49982335    -7.8126634     -7.062939       3.6796396      50218.233      36.893836      36.893836      36.893836    
   8890000   0.5017861     -7.8134138     -7.0607454      3.6796087      50218.233      36.893836      36.893836      36.893836    
   8900000   0.49939701    -7.8142771     -7.0651923      3.6822655      50218.233      36.893836      36.893836      36.893836    
   8910000   0.50019692    -7.8100981     -7.0598134      3.6972369      50218.233      36.893836      36.893836      36.893836    
   8920000   0.49930199    -7.811774      -7.0628317      3.6818247      50218.233      36.893836      36.893836      36.893836    
   8930000   0.49920501    -7.8080884     -7.0592915      3.7173655      50218.233      36.893836      36.893836      36.893836    
   8940000   0.49830329    -7.807288      -7.0598437      3.7289551      50218.233      36.893836      36.893836      36.893836    
   8950000   0.50066789    -7.8109744     -7.0599833      3.6898734      50218.233      36.893836      36.893836      36.893836    
   8960000   0.50270481    -7.8146318     -7.0605853      3.6556104      50218.233      36.893836      36.893836      36.893836    
   8970000   0.49795204    -7.8125323     -7.0656149      3.6643179      50218.233      36.893836      36.893836      36.893836    
   8980000   0.50113145    -7.8100988     -7.0584123      3.7045955      50218.233      36.893836      36.893836      36.893836    
   8990000   0.49820247    -7.8136056     -7.0663125      3.677062       50218.233      36.893836      36.893836      36.893836    
   9000000   0.50087987    -7.8121582     -7.0608491      3.6831516      50218.233      36.893836      36.893836      36.893836    
   9010000   0.50218932    -7.813254      -7.0599807      3.6875034      50218.233      36.893836      36.893836      36.893836    
   9020000   0.4994641     -7.8123324     -7.0631469      3.6794285      50218.233      36.893836      36.893836      36.893836    
   9030000   0.50177341    -7.8127468     -7.0600974      3.6825182      50218.233      36.893836      36.893836      36.893836    
   9040000   0.50058313    -7.8111972     -7.0603331      3.689173       50218.233      36.893836      36.893836      36.893836    
   9050000   0.50126848    -7.81643       -7.064538       3.6505412      50218.233      36.893836      36.893836      36.893836    
   9060000   0.49871483    -7.8162361     -7.0681745      3.6534658      50218.233      36.893836      36.893836      36.893836    
   9070000   0.5011098     -7.8130302     -7.0613762      3.6780249      50218.233      36.893836      36.893836      36.893836    
   9080000   0.50376204    -7.8179939     -7.0623616      3.64183        50218.233      36.893836      36.893836      36.893836    
   9090000   0.50025853    -7.8136068     -7.0632296      3.6880535      50218.233      36.893836      36.893836      36.893836    
   9100000   0.49940713    -7.81289       -7.0637899      3.672285       50218.233      36.893836      36.893836      36.893836    
   9110000   0.50217613    -7.8160805     -7.0628271      3.6548285      50218.233      36.893836      36.893836      36.893836    
   9120000   0.49946117    -7.8097271     -7.060546       3.7055583      50218.233      36.893836      36.893836      36.893836    
   9130000   0.49808248    -7.81568       -7.0685669      3.6621596      50218.233      36.893836      36.893836      36.893836    
   9140000   0.50321653    -7.8165951     -7.061781       3.6468594      50218.233      36.893836      36.893836      36.893836    
   9150000   0.50037059    -7.8131929     -7.0626477      3.6790392      50218.233      36.893836      36.893836      36.893836    
   9160000   0.50009104    -7.811923      -7.0617971      3.6898288      50218.233      36.893836      36.893836      36.893836    
   9170000   0.50119902    -7.8131061     -7.0613183      3.6809644      50218.233      36.893836      36.893836      36.893836    
   9180000   0.5005512     -7.8120475     -7.0612314      3.6750807      50218.233      36.893836      36.893836      36.893836    
   9190000   0.50101894    -7.8151494     -7.0636317      3.6558018      50218.233      36.893836      36.893836      36.893836    
   9200000   0.49877255    -7.8126722     -7.064524       3.6824954      50218.233      36.893836      36.893836      36.893836    
   9210000   0.49968437    -7.8083814     -7.0588655      3.7048838      50218.233      36.893836      36.893836      36.893836    
   9220000   0.49830395    -7.8171023     -7.069657       3.6492964      50218.233      36.893836      36.893836      36.893836    
   9230000   0.49955774    -7.8113473     -7.0620214      3.6733724      50218.233      36.893836      36.893836      36.893836    
   9240000   0.50096115    -7.8107447     -7.0593136      3.6949878      50218.233      36.893836      36.893836      36.893836    
   9250000   0.50238476    -7.81178       -7.0582136      3.6893578      50218.233      36.893836      36.893836      36.893836    
   9260000   0.50038595    -7.814509      -7.0639407      3.6656314      50218.233      36.893836      36.893836      36.893836    
   9270000   0.50321926    -7.8078903     -7.0530722      3.7073606      50218.233      36.893836      36.893836      36.893836    
   9280000   0.49999352    -7.8114012     -7.0614216      3.6866996      50218.233      36.893836      36.893836      36.893836    
   9290000   0.4977501     -7.8101878     -7.0635733      3.6908034      50218.233      36.893836      36.893836      36.893836    
   9300000   0.49934792    -7.8107467     -7.0617355      3.6865308      50218.233      36.893836      36.893836      36.893836    
   9310000   0.49770042    -7.8172076     -7.0706676      3.6430141      50218.233      36.893836      36.893836      36.893836    
   9320000   0.49956639    -7.8138279     -7.064489       3.6639793      50218.233      36.893836      36.893836      36.893836    
   9330000   0.50170161    -7.8147086     -7.0621669      3.6540125      50218.233      36.893836      36.893836      36.893836    
   9340000   0.49980475    -7.8141237     -7.0644272      3.6565925      50218.233      36.893836      36.893836      36.893836    
   9350000   0.49807965    -7.8119993     -7.0648905      3.6827331      50218.233      36.893836      36.893836      36.893836    
   9360000   0.49806651    -7.8136736     -7.0665845      3.6687312      50218.233      36.893836      36.893836      36.893836    
   9370000   0.49909893    -7.81032       -7.0616823      3.6953944      50218.233      36.893836      36.893836      36.893836    
   9380000   0.49635995    -7.8122662     -7.0677369      3.6663556      50218.233      36.893836      36.893836      36.893836    
   9390000   0.49877346    -7.8131254     -7.0649759      3.6712029      50218.233      36.893836      36.893836      36.893836    
   9400000   0.50213422    -7.8057227     -7.052532       3.7351856      50218.233      36.893836      36.893836      36.893836    
   9410000   0.49660856    -7.8180949     -7.0731926      3.6407232      50218.233      36.893836      36.893836      36.893836    
   9420000   0.50204696    -7.8138667     -7.060807       3.6662859      50218.233      36.893836      36.893836      36.893836    
   9430000   0.50225803    -7.8094787     -7.0561023      3.7032214      50218.233      36.893836      36.893836      36.893836    
   9440000   0.49835619    -7.8082106     -7.060687       3.6991371      50218.233      36.893836      36.893836      36.893836    
   9450000   0.49935659    -7.8104353     -7.061411       3.6774001      50218.233      36.893836      36.893836      36.893836    
   9460000   0.50151822    -7.8124899     -7.0602233      3.6799714      50218.233      36.893836      36.893836      36.893836    
   9470000   0.4999014     -7.8168894     -7.0670479      3.6350196      50218.233      36.893836      36.893836      36.893836    
   9480000   0.50016359    -7.8160626     -7.0658279      3.6484451      50218.233      36.893836      36.893836      36.893836    
   9490000   0.50125465    -7.8148464     -7.0629751      3.6680946      50218.233      36.893836      36.893836      36.893836    
   9500000   0.49673271    -7.8100134     -7.0649249      3.6926712      50218.233      36.893836      36.893836      36.893836    
   9510000   0.50133599    -7.8149916     -7.0629983      3.6569547      50218.233      36.893836      36.893836      36.893836    
   9520000   0.49849732    -7.8129012     -7.0651659      3.6742655      50218.233      36.893836      36.893836      36.893836    
   9530000   0.49826937    -7.8128034     -7.0654099      3.681083       50218.233      36.893836      36.893836      36.893836    
   9540000   0.49973388    -7.8162694     -7.0666792      3.6561162      50218.233      36.893836      36.893836      36.893836    
   9550000   0.50417987    -7.8103195     -7.0540605      3.7066526      50218.233      36.893836      36.893836      36.893836    
   9560000   0.49870686    -7.8105633     -7.0625136      3.6987967      50218.233      36.893836      36.893836      36.893836    
   9570000   0.50049545    -7.8128504     -7.0621179      3.6796319      50218.233      36.893836      36.893836      36.893836    
   9580000   0.49931548    -7.8124936     -7.0635311      3.6855838      50218.233      36.893836      36.893836      36.893836    
   9590000   0.50180398    -7.809485      -7.0567897      3.7021699      50218.233      36.893836      36.893836      36.893836    
   9600000   0.49992204    -7.8146295     -7.0647571      3.6640789      50218.233      36.893836      36.893836      36.893836    
   9610000   0.50054301    -7.810947      -7.0601431      3.6921858      50218.233      36.893836      36.893836      36.893836    
   9620000   0.50007107    -7.814727      -7.0646311      3.6536225      50218.233      36.893836      36.893836      36.893836    
   9630000   0.49943896    -7.8118623     -7.0627145      3.6780096      50218.233      36.893836      36.893836      36.893836    
   9640000   0.49892342    -7.8085763     -7.0602018      3.7141599      50218.233      36.893836      36.893836      36.893836    
   9650000   0.50181854    -7.8119291     -7.059212       3.6718854      50218.233      36.893836      36.893836      36.893836    
   9660000   0.50002839    -7.8119322     -7.0619003      3.6808092      50218.233      36.893836      36.893836      36.893836    
   9670000   0.49703003    -7.8118141     -7.0662797      3.6740251      50218.233      36.893836      36.893836      36.893836    
   9680000   0.50006619    -7.8143867     -7.0642981      3.6620769      50218.233      36.893836      36.893836      36.893836    
   9690000   0.49967225    -7.8138418     -7.0643441      3.6641253      50218.233      36.893836      36.893836      36.893836    
   9700000   0.49993157    -7.8102333     -7.0603466      3.6917812      50218.233      36.893836      36.893836      36.893836    
   9710000   0.50244286    -7.813324      -7.0596704      3.6675726      50218.233      36.893836      36.893836      36.893836    
   9720000   0.4997216     -7.8120672     -7.0624954      3.6800115      50218.233      36.893836      36.893836      36.893836    
   9730000   0.5034999     -7.8078929     -7.0526538      3.7128765      50218.233      36.893836      36.893836      36.893836    
   9740000   0.50383288    -7.8109537     -7.0552151      3.7004014      50218.233      36.893836      36.893836      36.893836    
   9750000   0.49999735    -7.8093027     -7.0593174      3.7020506      50218.233      36.893836      36.893836      36.893836    
   9760000   0.50206324    -7.8131046     -7.0600205      3.6769469      50218.233      36.893836      36.893836      36.893836    
   9770000   0.49923176    -7.8117749     -7.062938       3.683249       50218.233      36.893836      36.893836      36.893836    
   9780000   0.50124606    -7.8141694     -7.062311       3.6584002      50218.233      36.893836      36.893836      36.893836    
   9790000   0.49929621    -7.8133186     -7.0643849      3.6649213      50218.233      36.893836      36.893836      36.893836    
   9800000   0.49959756    -7.8149314     -7.0655458      3.6550934      50218.233      36.893836      36.893836      36.893836    
   9810000   0.50167587    -7.8108825     -7.0583794      3.7014309      50218.233      36.893836      36.893836      36.893836    
   9820000   0.50108631    -7.8076779     -7.0560591      3.7126699      50218.233      36.893836      36.893836      36.893836    
   9830000   0.5015417     -7.8114476     -7.0591457      3.6913622      50218.233      36.893836      36.893836      36.893836    
   9840000   0.4961852     -7.8114013     -7.0671341      3.6748252      50218.233      36.893836      36.893836      36.893836    
   9850000   0.49991461    -7.8157376     -7.0658763      3.6505725      50218.233      36.893836      36.893836      36.893836    
   9860000   0.49979937    -7.8153708     -7.0656824      3.6606148      50218.233      36.893836      36.893836      36.893836    
   9870000   0.49915221    -7.8144637     -7.065746       3.6576224      50218.233      36.893836      36.893836      36.893836    
   9880000   0.50042321    -7.8116613     -7.0610372      3.6862275      50218.233      36.893836      36.893836      36.893836    
   9890000   0.50175008    -7.8109764     -7.058362       3.6814505      50218.233      36.893836      36.893836      36.893836    
   9900000   0.49911188    -7.8127194     -7.0640623      3.6760849      50218.233      36.893836      36.893836      36.893836    
   9910000   0.49827462    -7.8068302     -7.0594289      3.7108999      50218.233      36.893836      36.893836      36.893836    
   9920000   0.49812344    -7.8153707     -7.0681961      3.6541103      50218.233      36.893836      36.893836      36.893836    
   9930000   0.49732634    -7.8138128     -7.0678339      3.6617575      50218.233      36.893836      36.893836      36.893836    
   9940000   0.49894163    -7.8109289     -7.0625271      3.6850006      50218.233      36.893836      36.893836      36.893836    
   9950000   0.50152529    -7.8128669     -7.0605897      3.6799033      50218.233      36.893836      36.893836      36.893836    
   9960000   0.49923408    -7.8116964     -7.0628559      3.6798941      50218.233      36.893836      36.893836      36.893836    
   9970000   0.5000489     -7.8146939     -7.0646312      3.6610847      50218.233      36.893836      36.893836      36.893836    
   9980000   0.4973714     -7.8112598     -7.0652133      3.6723098      50218.233      36.893836      36.893836      36.893836    
   9990000   0.49863415    -7.8162368     -7.0682962      3.6451959      50218.233      36.893836      36.893836      36.893836    
  10000000   0.50086445    -7.8129026     -7.0616166      3.6738695      50218.233      36.893836      36.893836      36.893836    
Loop time of 15532.4 on 5 procs for 10000000 steps with 70304 atoms

Performance: 556257.150 tau/day, 643.816 timesteps/s, 45.263 Matom-step/s
94.6% CPU use with 5 MPI tasks x 1 OpenMP threads

MPI task timing breakdown:
Section |  min time  |  avg time  |  max time  |%varavg| %total
---------------------------------------------------------------
Pair    | 5578.7     | 6068.7     | 6540.9     | 425.2 | 39.07
Neigh   | 46.922     | 50.668     | 53.929     |  32.6 |  0.33
Comm    | 2333.4     | 2358.3     | 2382.7     |  35.4 | 15.18
Output  | 0.17962    | 0.18638    | 0.19953    |   1.6 |  0.00
Modify  | 5782.4     | 6268.6     | 6760.9     | 427.7 | 40.36
Other   |            | 786        |            |       |  5.06

Nlocal:        14060.8 ave       14088 max       14033 min
Histogram: 1 0 0 0 2 1 0 0 0 1
Nghost:        18754.4 ave       18850 max       18700 min
Histogram: 1 2 0 0 1 0 0 0 0 1
Neighs:              0 ave           0 max           0 min
Histogram: 5 0 0 0 0 0 0 0 0 0

Total # of neighbors = 0
Ave neighs/atom = 0
Neighbor list builds = 2046653
Dangerous builds = 0
clear
OMP_NUM_THREADS environment is not set. Defaulting to 1 thread. (src/comm.cpp:98)
  using 1 OpenMP thread(s) per MPI task
package gpu 0
jump dms480.lmp

variable T equal 480
# T = 1000* (temp in LJ unit)
variable f equal 10000
log log.${T}
log log.480
