variable TLJ equal (${T}/1000)
variable TLJ equal (495/1000)
variable NCyle equal 8
variable iStep equal (${f})
variable iStep equal (10000)
variable dumpStep equal (${f}*100)
variable dumpStep equal (10000*100)
variable runStep equal (${f}*100*${NCyle})
variable runStep equal (10000*100*${NCyle})
variable runStep equal (10000*100*8)

units       lj
atom_style  atomic
dimension 3
boundary     p p p
pair_style  lj/cut 2.5
read_data  ../data/T${T}.dat
read_data  ../data/T495.dat
Reading data file ...
  orthogonal box = (0.97250269 0.97250269 0.97250269) to (37.866338 37.866338 37.866338)
  1 by 1 by 5 MPI processor grid
  reading atoms ...
  70304 atoms
  reading velocities ...
  70304 velocities
  read_data CPU = 0.209 seconds
change_box all triclinic
Changing box ...
  triclinic box = (0.97250269 0.97250269 0.97250269) to (37.866338 37.866338 37.866338) with tilt (0 0 0)
mass 1 1
mass 2 1
pair_modify shift yes
pair_coeff  1 1 1 1
pair_coeff  1 2 1.5 0.8
pair_coeff  2 2 0.5 0.88


timestep 0.01
thermo ${iStep}
thermo 10000
reset_timestep 0
thermo_style custom step temp pe etotal press vol lx ly lz
fix             1 all nvt temp ${TLJ}  ${TLJ}  0.1
fix             1 all nvt temp 0.495  ${TLJ}  0.1
fix             1 all nvt temp 0.495  0.495  0.1
thermo_modify flush yes

fix dsf all deform 1 xy  wiggle 0.5  ${f}   units box
fix dsf all deform 1 xy  wiggle 0.5  10000   units box
fix ps1 all ave/time 1 1 ${iStep} c_thermo_press[1] c_thermo_press[2]  c_thermo_press[3] c_thermo_press[4]  c_thermo_press[5] c_thermo_press[6]  file  stress.${T}
fix ps1 all ave/time 1 1 10000 c_thermo_press[1] c_thermo_press[2]  c_thermo_press[3] c_thermo_press[4]  c_thermo_press[5] c_thermo_press[6]  file  stress.${T}
fix ps1 all ave/time 1 1 10000 c_thermo_press[1] c_thermo_press[2]  c_thermo_press[3] c_thermo_press[4]  c_thermo_press[5] c_thermo_press[6]  file  stress.495
dump            1 all custom ${dumpStep} dump.${T} id type x y z
dump            1 all custom 1000000 dump.${T} id type x y z
dump            1 all custom 1000000 dump.495 id type x y z
dump_modify 1 sort id
fix nodrift all momentum 1  linear 1 1 1
fix com_seed all recenter INIT INIT INIT shift all
run ${runStep}
run 8000000
Generated 0 of 1 mixed pair_coeff terms from geometric mixing rule
Per MPI rank memory allocation (min/avg/max) = 8.911 | 8.918 | 8.922 Mbytes
   Step          Temp          PotEng         TotEng         Press          Volume           Lx             Ly             Lz      
         0   0.49689135    -7.8369053     -7.0915789      3.4963649      50218.233      36.893836      36.893836      36.893836    
     10000   0.49545821    -7.8253514     -7.0821747      3.5691051      50218.233      36.893836      36.893836      36.893836    
     20000   0.49315287    -7.8252124     -7.0854936      3.5707402      50218.233      36.893836      36.893836      36.893836    
     30000   0.49736202    -7.8248344     -7.078802       3.5800902      50218.233      36.893836      36.893836      36.893836    
     40000   0.49539853    -7.8239277     -7.0808405      3.5913014      50218.233      36.893836      36.893836      36.893836    
     50000   0.49574671    -7.8207514     -7.0771419      3.603013       50218.233      36.893836      36.893836      36.893836    
     60000   0.49486591    -7.8248204     -7.0825321      3.5759852      50218.233      36.893836      36.893836      36.893836    
     70000   0.49417928    -7.8217286     -7.0804702      3.5863507      50218.233      36.893836      36.893836      36.893836    
     80000   0.49532614    -7.8248172     -7.0818386      3.5627061      50218.233      36.893836      36.893836      36.893836    
     90000   0.4945025     -7.8250902     -7.083347       3.5728065      50218.233      36.893836      36.893836      36.893836    
    100000   0.4960019     -7.8210982     -7.0771059      3.6065994      50218.233      36.893836      36.893836      36.893836    
    110000   0.49637263    -7.8205523     -7.0760039      3.5972806      50218.233      36.893836      36.893836      36.893836    
    120000   0.49111946    -7.8191633     -7.0824946      3.6106224      50218.233      36.893836      36.893836      36.893836    
    130000   0.49514501    -7.822593      -7.079886       3.5888441      50218.233      36.893836      36.893836      36.893836    
    140000   0.49685957    -7.8261965     -7.0809178      3.5722251      50218.233      36.893836      36.893836      36.893836    
    150000   0.49515873    -7.8194338     -7.0767063      3.6161198      50218.233      36.893836      36.893836      36.893836    
    160000   0.49676603    -7.8207915     -7.0756531      3.6097322      50218.233      36.893836      36.893836      36.893836    
    170000   0.49079317    -7.8240408     -7.0878615      3.5804835      50218.233      36.893836      36.893836      36.893836    
    180000   0.49597558    -7.8245615     -7.0806087      3.5740692      50218.233      36.893836      36.893836      36.893836    
    190000   0.49744319    -7.8227424     -7.0765883      3.5976238      50218.233      36.893836      36.893836      36.893836    
    200000   0.49409964    -7.8229618     -7.0818228      3.5834497      50218.233      36.893836      36.893836      36.893836    
    210000   0.49643643    -7.8259545     -7.0813104      3.567081       50218.233      36.893836      36.893836      36.893836    
    220000   0.49550896    -7.8253762     -7.0821234      3.5707446      50218.233      36.893836      36.893836      36.893836    
    230000   0.49120337    -7.8244031     -7.0876085      3.5641072      50218.233      36.893836      36.893836      36.893836    
    240000   0.49455703    -7.8241511     -7.0823261      3.5809488      50218.233      36.893836      36.893836      36.893836    
    250000   0.49582501    -7.8231314     -7.0794045      3.5873084      50218.233      36.893836      36.893836      36.893836    
    260000   0.4946129     -7.8230947     -7.0811859      3.5804386      50218.233      36.893836      36.893836      36.893836    
    270000   0.49310173    -7.8204199     -7.0807778      3.614535       50218.233      36.893836      36.893836      36.893836    
    280000   0.49322237    -7.8269331     -7.0871101      3.5646797      50218.233      36.893836      36.893836      36.893836    
    290000   0.49534134    -7.8214386     -7.0784371      3.6022915      50218.233      36.893836      36.893836      36.893836    
    300000   0.49581211    -7.8273236     -7.083616       3.5486166      50218.233      36.893836      36.893836      36.893836    
    310000   0.49377581    -7.8225544     -7.0819012      3.6015258      50218.233      36.893836      36.893836      36.893836    
    320000   0.49549855    -7.8220446     -7.0788074      3.5914954      50218.233      36.893836      36.893836      36.893836    
    330000   0.49787294    -7.8270294     -7.0802306      3.5568493      50218.233      36.893836      36.893836      36.893836    
    340000   0.49253646    -7.8218214     -7.0830272      3.5944649      50218.233      36.893836      36.893836      36.893836    
    350000   0.49370102    -7.8247837     -7.0842427      3.5654608      50218.233      36.893836      36.893836      36.893836    
    360000   0.4963068     -7.823212      -7.0787624      3.588078       50218.233      36.893836      36.893836      36.893836    
    370000   0.49584441    -7.8271526     -7.0833966      3.5467149      50218.233      36.893836      36.893836      36.893836    
    380000   0.49644376    -7.8245681     -7.0799131      3.5801935      50218.233      36.893836      36.893836      36.893836    
    390000   0.49603113    -7.8258211     -7.0817849      3.5709396      50218.233      36.893836      36.893836      36.893836    
    400000   0.49456413    -7.8222268     -7.0803912      3.5838533      50218.233      36.893836      36.893836      36.893836    
    410000   0.49391173    -7.8200884     -7.0792313      3.6067017      50218.233      36.893836      36.893836      36.893836    
    420000   0.49620707    -7.8228697     -7.0785697      3.5883482      50218.233      36.893836      36.893836      36.893836    
    430000   0.49284325    -7.8211673     -7.0819129      3.603597       50218.233      36.893836      36.893836      36.893836    
    440000   0.49564151    -7.8231967     -7.079745       3.5787718      50218.233      36.893836      36.893836      36.893836    
    450000   0.49593997    -7.8249645     -7.0810651      3.5706239      50218.233      36.893836      36.893836      36.893836    
    460000   0.49308912    -7.8197751     -7.080152       3.6069031      50218.233      36.893836      36.893836      36.893836    
    470000   0.49795542    -7.8253239     -7.0784014      3.5731132      50218.233      36.893836      36.893836      36.893836    
    480000   0.49748986    -7.8266033     -7.0803791      3.5654642      50218.233      36.893836      36.893836      36.893836    
    490000   0.49402894    -7.822552      -7.0815192      3.5829828      50218.233      36.893836      36.893836      36.893836    
    500000   0.49312464    -7.8228375     -7.0831611      3.5922264      50218.233      36.893836      36.893836      36.893836    
    510000   0.4935849     -7.8290047     -7.0886379      3.5394849      50218.233      36.893836      36.893836      36.893836    
    520000   0.49439901    -7.8223861     -7.0807981      3.5916999      50218.233      36.893836      36.893836      36.893836    
    530000   0.49464342    -7.8237217     -7.0817671      3.5884619      50218.233      36.893836      36.893836      36.893836    
    540000   0.49328706    -7.8226847     -7.0827646      3.5910374      50218.233      36.893836      36.893836      36.893836    
    550000   0.49586992    -7.8295242     -7.0857299      3.5422996      50218.233      36.893836      36.893836      36.893836    
    560000   0.49344152    -7.8265825     -7.0864307      3.5646195      50218.233      36.893836      36.893836      36.893836    
    570000   0.49218549    -7.8271886     -7.0889208      3.5454473      50218.233      36.893836      36.893836      36.893836    
    580000   0.50081737    -7.8231102     -7.0718948      3.6021573      50218.233      36.893836      36.893836      36.893836    
    590000   0.49444585    -7.8231873     -7.0815291      3.5798251      50218.233      36.893836      36.893836      36.893836    
    600000   0.49671428    -7.8217336     -7.0766728      3.5961164      50218.233      36.893836      36.893836      36.893836    
    610000   0.49678991    -7.8256622     -7.0804879      3.5670163      50218.233      36.893836      36.893836      36.893836    
    620000   0.49402237    -7.827384      -7.086361       3.5458298      50218.233      36.893836      36.893836      36.893836    
    630000   0.49220802    -7.8234605     -7.085159       3.5806152      50218.233      36.893836      36.893836      36.893836    
    640000   0.49343111    -7.8214735     -7.0813374      3.5860189      50218.233      36.893836      36.893836      36.893836    
    650000   0.49405102    -7.8230317     -7.0819657      3.5870415      50218.233      36.893836      36.893836      36.893836    
    660000   0.49770002    -7.826168      -7.0796286      3.5647615      50218.233      36.893836      36.893836      36.893836    
    670000   0.4937663     -7.8221977     -7.0815588      3.5820171      50218.233      36.893836      36.893836      36.893836    
    680000   0.49498717    -7.8233547     -7.0808845      3.5759699      50218.233      36.893836      36.893836      36.893836    
    690000   0.49452707    -7.8237784     -7.0819984      3.5924819      50218.233      36.893836      36.893836      36.893836    
    700000   0.49537488    -7.8239693     -7.0809176      3.5888984      50218.233      36.893836      36.893836      36.893836    
    710000   0.4940955     -7.8260933     -7.0849606      3.560935       50218.233      36.893836      36.893836      36.893836    
    720000   0.4926461     -7.8242004     -7.0852418      3.5682203      50218.233      36.893836      36.893836      36.893836    
    730000   0.49574819    -7.8266314     -7.0830197      3.5559068      50218.233      36.893836      36.893836      36.893836    
    740000   0.49583143    -7.8265227     -7.0827861      3.5638905      50218.233      36.893836      36.893836      36.893836    
    750000   0.49510781    -7.8212397     -7.0785885      3.5856511      50218.233      36.893836      36.893836      36.893836    
    760000   0.49480755    -7.8229249     -7.0807242      3.5902804      50218.233      36.893836      36.893836      36.893836    
    770000   0.49566073    -7.8275649     -7.0840844      3.5601223      50218.233      36.893836      36.893836      36.893836    
    780000   0.4973301     -7.82208       -7.0760954      3.5970055      50218.233      36.893836      36.893836      36.893836    
    790000   0.49575025    -7.8256115     -7.0819967      3.5645606      50218.233      36.893836      36.893836      36.893836    
    800000   0.49594688    -7.8256525     -7.0817428      3.5576486      50218.233      36.893836      36.893836      36.893836    
    810000   0.49429449    -7.824914      -7.0834828      3.5689843      50218.233      36.893836      36.893836      36.893836    
    820000   0.49518331    -7.8259849     -7.0832205      3.562766       50218.233      36.893836      36.893836      36.893836    
    830000   0.49239357    -7.8222668     -7.0836869      3.5977308      50218.233      36.893836      36.893836      36.893836    
    840000   0.49574925    -7.8281766     -7.0845633      3.5529809      50218.233      36.893836      36.893836      36.893836    
    850000   0.49148383    -7.8269758     -7.0897606      3.5398628      50218.233      36.893836      36.893836      36.893836    
    860000   0.49855803    -7.8236055     -7.0757791      3.5702749      50218.233      36.893836      36.893836      36.893836    
    870000   0.4962928     -7.8248395     -7.0804109      3.5759643      50218.233      36.893836      36.893836      36.893836    
    880000   0.49518737    -7.8280051     -7.0852346      3.560304       50218.233      36.893836      36.893836      36.893836    
    890000   0.49968878    -7.8276654     -7.0781429      3.5550147      50218.233      36.893836      36.893836      36.893836    
    900000   0.49291203    -7.8235337     -7.0841761      3.5860131      50218.233      36.893836      36.893836      36.893836    
    910000   0.49557884    -7.8265241     -7.0831664      3.5513948      50218.233      36.893836      36.893836      36.893836    
    920000   0.49403904    -7.8242636     -7.0832155      3.5720777      50218.233      36.893836      36.893836      36.893836    
    930000   0.49865666    -7.8284917     -7.0805174      3.5437501      50218.233      36.893836      36.893836      36.893836    
    940000   0.49387557    -7.8246259     -7.0838231      3.5708177      50218.233      36.893836      36.893836      36.893836    
    950000   0.4973719     -7.8293981     -7.0833509      3.533439       50218.233      36.893836      36.893836      36.893836    
    960000   0.49453433    -7.8247374     -7.0829465      3.5592016      50218.233      36.893836      36.893836      36.893836    
    970000   0.4958297     -7.8221525     -7.0784186      3.5865583      50218.233      36.893836      36.893836      36.893836    
    980000   0.49150152    -7.8195705     -7.0823287      3.5974388      50218.233      36.893836      36.893836      36.893836    
    990000   0.49518375    -7.8233551     -7.08059        3.5764853      50218.233      36.893836      36.893836      36.893836    
   1000000   0.49484784    -7.8282194     -7.0859582      3.5438204      50218.233      36.893836      36.893836      36.893836    
   1010000   0.49710722    -7.8260657     -7.0804154      3.5691585      50218.233      36.893836      36.893836      36.893836    
   1020000   0.49422445    -7.8242602     -7.0829341      3.5737098      50218.233      36.893836      36.893836      36.893836    
   1030000   0.49334774    -7.823621      -7.0836099      3.5858769      50218.233      36.893836      36.893836      36.893836    
   1040000   0.49701669    -7.8255912     -7.0800768      3.5650195      50218.233      36.893836      36.893836      36.893836    
   1050000   0.49574829    -7.8276846     -7.0840727      3.5502707      50218.233      36.893836      36.893836      36.893836    
   1060000   0.49585327    -7.8227045     -7.0789352      3.5891063      50218.233      36.893836      36.893836      36.893836    
   1070000   0.49549135    -7.8263793     -7.0831528      3.5653799      50218.233      36.893836      36.893836      36.893836    
   1080000   0.49504489    -7.8251476     -7.0825908      3.5632258      50218.233      36.893836      36.893836      36.893836    
   1090000   0.49132564    -7.8259863     -7.0890083      3.5498019      50218.233      36.893836      36.893836      36.893836    
   1100000   0.49603691    -7.8238708     -7.079826       3.5688523      50218.233      36.893836      36.893836      36.893836    
   1110000   0.4937435     -7.823935      -7.0833303      3.5834629      50218.233      36.893836      36.893836      36.893836    
   1120000   0.49578371    -7.8241784     -7.0805135      3.579266       50218.233      36.893836      36.893836      36.893836    
   1130000   0.49635122    -7.8273132     -7.082797       3.5615071      50218.233      36.893836      36.893836      36.893836    
   1140000   0.49502993    -7.8226161     -7.0800817      3.5970348      50218.233      36.893836      36.893836      36.893836    
   1150000   0.49647009    -7.8218265     -7.0771319      3.6094137      50218.233      36.893836      36.893836      36.893836    
   1160000   0.49441163    -7.8268833     -7.0852764      3.5642107      50218.233      36.893836      36.893836      36.893836    
   1170000   0.49209718    -7.8267395     -7.0886042      3.5593255      50218.233      36.893836      36.893836      36.893836    
   1180000   0.49337177    -7.8234117     -7.0833646      3.5733079      50218.233      36.893836      36.893836      36.893836    
   1190000   0.49493704    -7.8237185     -7.0813235      3.5854208      50218.233      36.893836      36.893836      36.893836    
   1200000   0.49775815    -7.8259046     -7.079278       3.5633317      50218.233      36.893836      36.893836      36.893836    
   1210000   0.49880879    -7.8188221     -7.0706196      3.6162003      50218.233      36.893836      36.893836      36.893836    
   1220000   0.49273627    -7.8260849     -7.086991       3.55232        50218.233      36.893836      36.893836      36.893836    
   1230000   0.49270176    -7.8279586     -7.0889164      3.5506921      50218.233      36.893836      36.893836      36.893836    
   1240000   0.49480763    -7.8228673     -7.0806664      3.5768363      50218.233      36.893836      36.893836      36.893836    
   1250000   0.49454742    -7.8214952     -7.0796846      3.6007625      50218.233      36.893836      36.893836      36.893836    
   1260000   0.49319411    -7.827851      -7.0880704      3.5402713      50218.233      36.893836      36.893836      36.893836    
   1270000   0.49383996    -7.8235958     -7.0828464      3.5716371      50218.233      36.893836      36.893836      36.893836    
   1280000   0.49236543    -7.8251565     -7.0866189      3.558335       50218.233      36.893836      36.893836      36.893836    
   1290000   0.49406716    -7.8237995     -7.0827093      3.585084       50218.233      36.893836      36.893836      36.893836    
   1300000   0.49227298    -7.823671      -7.0852721      3.5756261      50218.233      36.893836      36.893836      36.893836    
   1310000   0.4946006     -7.8278596     -7.0859692      3.5542991      50218.233      36.893836      36.893836      36.893836    
   1320000   0.49338108    -7.8280058     -7.0879447      3.5531624      50218.233      36.893836      36.893836      36.893836    
   1330000   0.49628097    -7.8277241     -7.0833132      3.552943       50218.233      36.893836      36.893836      36.893836    
   1340000   0.49307079    -7.826311      -7.0867154      3.5551284      50218.233      36.893836      36.893836      36.893836    
   1350000   0.49601117    -7.8284309     -7.0844247      3.5520722      50218.233      36.893836      36.893836      36.893836    
   1360000   0.49512828    -7.824992      -7.0823101      3.5671782      50218.233      36.893836      36.893836      36.893836    
   1370000   0.49407092    -7.8250575     -7.0839616      3.5783864      50218.233      36.893836      36.893836      36.893836    
   1380000   0.4954967     -7.8244851     -7.0812506      3.5764764      50218.233      36.893836      36.893836      36.893836    
   1390000   0.49387968    -7.8269467     -7.0861377      3.5539509      50218.233      36.893836      36.893836      36.893836    
   1400000   0.49385901    -7.824687      -7.083909       3.5803926      50218.233      36.893836      36.893836      36.893836    
   1410000   0.49554189    -7.8245204     -7.0812182      3.5662333      50218.233      36.893836      36.893836      36.893836    
   1420000   0.49414722    -7.8290133     -7.087803       3.5420645      50218.233      36.893836      36.893836      36.893836    
   1430000   0.49474519    -7.8239323     -7.0818251      3.5787673      50218.233      36.893836      36.893836      36.893836    
   1440000   0.49851495    -7.8253478     -7.077586       3.5723314      50218.233      36.893836      36.893836      36.893836    
   1450000   0.49333652    -7.8215814     -7.0815871      3.5889422      50218.233      36.893836      36.893836      36.893836    
   1460000   0.49366832    -7.8283523     -7.0878604      3.5346537      50218.233      36.893836      36.893836      36.893836    
   1470000   0.49395467    -7.8254511     -7.0845297      3.5673392      50218.233      36.893836      36.893836      36.893836    
   1480000   0.49533359    -7.8279429     -7.084953       3.543485       50218.233      36.893836      36.893836      36.893836    
   1490000   0.49482531    -7.8275677     -7.0853403      3.556582       50218.233      36.893836      36.893836      36.893836    
   1500000   0.49616491    -7.8264136     -7.0821768      3.5598747      50218.233      36.893836      36.893836      36.893836    
   1510000   0.49532496    -7.8274465     -7.0844696      3.5431667      50218.233      36.893836      36.893836      36.893836    
   1520000   0.494498      -7.8263455     -7.084609       3.5602232      50218.233      36.893836      36.893836      36.893836    
   1530000   0.4951602     -7.8265909     -7.0838611      3.5566717      50218.233      36.893836      36.893836      36.893836    
   1540000   0.49516845    -7.8288104     -7.0860682      3.5570875      50218.233      36.893836      36.893836      36.893836    
   1550000   0.49524808    -7.8292299     -7.0863683      3.534959       50218.233      36.893836      36.893836      36.893836    
   1560000   0.49632203    -7.8265788     -7.0821063      3.5628582      50218.233      36.893836      36.893836      36.893836    
   1570000   0.49855215    -7.829466      -7.0816484      3.5408055      50218.233      36.893836      36.893836      36.893836    
   1580000   0.49598058    -7.829086      -7.0851257      3.5414291      50218.233      36.893836      36.893836      36.893836    
   1590000   0.49566444    -7.8244748     -7.0809888      3.5846535      50218.233      36.893836      36.893836      36.893836    
   1600000   0.494011      -7.8257949     -7.084789       3.5607073      50218.233      36.893836      36.893836      36.893836    
   1610000   0.49414842    -7.8264295     -7.0852174      3.541448       50218.233      36.893836      36.893836      36.893836    
   1620000   0.49499427    -7.8253905     -7.0829097      3.5671526      50218.233      36.893836      36.893836      36.893836    
   1630000   0.49745664    -7.8244149     -7.0782406      3.5812008      50218.233      36.893836      36.893836      36.893836    
   1640000   0.49523235    -7.8241068     -7.0812688      3.5842525      50218.233      36.893836      36.893836      36.893836    
   1650000   0.49739779    -7.828609      -7.0825229      3.5433767      50218.233      36.893836      36.893836      36.893836    
   1660000   0.4945636     -7.8282058     -7.0863709      3.5488103      50218.233      36.893836      36.893836      36.893836    
   1670000   0.49707057    -7.8295197     -7.0839245      3.5366333      50218.233      36.893836      36.893836      36.893836    
   1680000   0.49445533    -7.825679      -7.0840066      3.5627904      50218.233      36.893836      36.893836      36.893836    
   1690000   0.49400905    -7.8257406     -7.0847376      3.5607669      50218.233      36.893836      36.893836      36.893836    
   1700000   0.49424247    -7.8265251     -7.085172       3.5730351      50218.233      36.893836      36.893836      36.893836    
   1710000   0.49851278    -7.8277305     -7.0799719      3.5637925      50218.233      36.893836      36.893836      36.893836    
   1720000   0.49457469    -7.8264477     -7.0845962      3.5577738      50218.233      36.893836      36.893836      36.893836    
   1730000   0.49379272    -7.825514      -7.0848355      3.5666081      50218.233      36.893836      36.893836      36.893836    
   1740000   0.49437974    -7.8276066     -7.0860476      3.5523359      50218.233      36.893836      36.893836      36.893836    
   1750000   0.49268535    -7.8246039     -7.0855864      3.571977       50218.233      36.893836      36.893836      36.893836    
   1760000   0.49566569    -7.8273425     -7.0838545      3.5617639      50218.233      36.893836      36.893836      36.893836    
   1770000   0.49528357    -7.8246864     -7.0817716      3.5721528      50218.233      36.893836      36.893836      36.893836    
   1780000   0.49606619    -7.8218845     -7.0777958      3.6008639      50218.233      36.893836      36.893836      36.893836    
   1790000   0.49327343    -7.8251823     -7.0852827      3.5607592      50218.233      36.893836      36.893836      36.893836    
   1800000   0.4943867     -7.8242338     -7.0826643      3.5730891      50218.233      36.893836      36.893836      36.893836    
   1810000   0.49517795    -7.8231046     -7.0803482      3.5759889      50218.233      36.893836      36.893836      36.893836    
   1820000   0.49409331    -7.8256985     -7.0845691      3.5649334      50218.233      36.893836      36.893836      36.893836    
   1830000   0.49448105    -7.8249233     -7.0832122      3.5749139      50218.233      36.893836      36.893836      36.893836    
   1840000   0.49533247    -7.8256858     -7.0826977      3.5700631      50218.233      36.893836      36.893836      36.893836    
   1850000   0.49448271    -7.8264666     -7.0847531      3.5612736      50218.233      36.893836      36.893836      36.893836    
   1860000   0.49485443    -7.8245016     -7.0822306      3.5696667      50218.233      36.893836      36.893836      36.893836    
   1870000   0.49346105    -7.8229795     -7.0827984      3.5876         50218.233      36.893836      36.893836      36.893836    
   1880000   0.49632183    -7.82703       -7.0825578      3.5618175      50218.233      36.893836      36.893836      36.893836    
   1890000   0.4943331     -7.8269308     -7.0854417      3.556404       50218.233      36.893836      36.893836      36.893836    
   1900000   0.49731137    -7.8263691     -7.0804127      3.5617997      50218.233      36.893836      36.893836      36.893836    
   1910000   0.49183388    -7.824606      -7.0868657      3.5732296      50218.233      36.893836      36.893836      36.893836    
   1920000   0.49391773    -7.8230032     -7.0821371      3.5895544      50218.233      36.893836      36.893836      36.893836    
   1930000   0.49604283    -7.825493      -7.0814394      3.5698702      50218.233      36.893836      36.893836      36.893836    
   1940000   0.49387071    -7.8275314     -7.0867359      3.5513618      50218.233      36.893836      36.893836      36.893836    
   1950000   0.49339235    -7.8277096     -7.0876316      3.5500278      50218.233      36.893836      36.893836      36.893836    
   1960000   0.4950755     -7.8236253     -7.0810226      3.5779934      50218.233      36.893836      36.893836      36.893836    
   1970000   0.49501902    -7.8265325     -7.0840146      3.5547283      50218.233      36.893836      36.893836      36.893836    
   1980000   0.4954074     -7.8283475     -7.085247       3.5498556      50218.233      36.893836      36.893836      36.893836    
   1990000   0.49365157    -7.826651      -7.0861842      3.5610739      50218.233      36.893836      36.893836      36.893836    
   2000000   0.49272981    -7.8245988     -7.0855145      3.5703091      50218.233      36.893836      36.893836      36.893836    
   2010000   0.49611123    -7.8249598     -7.0808035      3.57462        50218.233      36.893836      36.893836      36.893836    
   2020000   0.49517075    -7.8266314     -7.0838859      3.5783411      50218.233      36.893836      36.893836      36.893836    
   2030000   0.4935019     -7.8264065     -7.0861642      3.5586334      50218.233      36.893836      36.893836      36.893836    
   2040000   0.49561278    -7.8247775     -7.0813689      3.572782       50218.233      36.893836      36.893836      36.893836    
   2050000   0.49306173    -7.821467      -7.0818849      3.5886775      50218.233      36.893836      36.893836      36.893836    
   2060000   0.49442153    -7.8238668     -7.0822451      3.5818038      50218.233      36.893836      36.893836      36.893836    
   2070000   0.49597399    -7.8257379     -7.0817875      3.5705967      50218.233      36.893836      36.893836      36.893836    
   2080000   0.49658959    -7.8252321     -7.0803583      3.5806068      50218.233      36.893836      36.893836      36.893836    
   2090000   0.49592693    -7.8248406     -7.0809607      3.583626       50218.233      36.893836      36.893836      36.893836    
   2100000   0.49375377    -7.8249028     -7.0842827      3.5690044      50218.233      36.893836      36.893836      36.893836    
   2110000   0.49473343    -7.821911      -7.0798214      3.6058821      50218.233      36.893836      36.893836      36.893836    
   2120000   0.49275275    -7.8275218     -7.0884031      3.5463542      50218.233      36.893836      36.893836      36.893836    
   2130000   0.49638345    -7.8221261     -7.0775615      3.6006879      50218.233      36.893836      36.893836      36.893836    
   2140000   0.49414269    -7.8217189     -7.0805154      3.5850356      50218.233      36.893836      36.893836      36.893836    
   2150000   0.4962327     -7.8222407     -7.0779023      3.6107356      50218.233      36.893836      36.893836      36.893836    
   2160000   0.49507381    -7.8238068     -7.0812066      3.582637       50218.233      36.893836      36.893836      36.893836    
   2170000   0.49622124    -7.818854      -7.0745327      3.6119868      50218.233      36.893836      36.893836      36.893836    
   2180000   0.49664524    -7.8253288     -7.0803716      3.5736927      50218.233      36.893836      36.893836      36.893836    
   2190000   0.49608377    -7.8213099     -7.0771948      3.6124962      50218.233      36.893836      36.893836      36.893836    
   2200000   0.49598698    -7.825555      -7.0815851      3.5688488      50218.233      36.893836      36.893836      36.893836    
   2210000   0.49789135    -7.8211232     -7.0742968      3.5975382      50218.233      36.893836      36.893836      36.893836    
   2220000   0.48967654    -7.8211622     -7.0866578      3.5751452      50218.233      36.893836      36.893836      36.893836    
   2230000   0.49497369    -7.8260195     -7.0835695      3.5607062      50218.233      36.893836      36.893836      36.893836    
   2240000   0.4959252     -7.8255624     -7.0816852      3.5751353      50218.233      36.893836      36.893836      36.893836    
   2250000   0.49572926    -7.8235485     -7.0799652      3.5881007      50218.233      36.893836      36.893836      36.893836    
   2260000   0.49698004    -7.8229499     -7.0774905      3.5865222      50218.233      36.893836      36.893836      36.893836    
   2270000   0.4934704     -7.8273168     -7.0871218      3.5570961      50218.233      36.893836      36.893836      36.893836    
   2280000   0.49159484    -7.8226203     -7.0852386      3.5930412      50218.233      36.893836      36.893836      36.893836    
   2290000   0.49208541    -7.8187645     -7.0806468      3.6011743      50218.233      36.893836      36.893836      36.893836    
   2300000   0.495828      -7.8305298     -7.0867984      3.5256239      50218.233      36.893836      36.893836      36.893836    
   2310000   0.49448799    -7.819209      -7.0774876      3.6091864      50218.233      36.893836      36.893836      36.893836    
   2320000   0.49262299    -7.8262417     -7.0873177      3.5501809      50218.233      36.893836      36.893836      36.893836    
   2330000   0.49159166    -7.8229951     -7.0856181      3.5868747      50218.233      36.893836      36.893836      36.893836    
   2340000   0.49346712    -7.8241171     -7.0839269      3.5706621      50218.233      36.893836      36.893836      36.893836    
   2350000   0.4951793     -7.8279404     -7.085182       3.5525954      50218.233      36.893836      36.893836      36.893836    
   2360000   0.49446329    -7.8242866     -7.0826022      3.57706        50218.233      36.893836      36.893836      36.893836    
   2370000   0.49387463    -7.8269048     -7.0861033      3.5581991      50218.233      36.893836      36.893836      36.893836    
   2380000   0.49264065    -7.8265357     -7.0875852      3.5513796      50218.233      36.893836      36.893836      36.893836    
   2390000   0.49588066    -7.8239711     -7.0801607      3.5788743      50218.233      36.893836      36.893836      36.893836    
   2400000   0.4970694     -7.8291434     -7.0835499      3.5426083      50218.233      36.893836      36.893836      36.893836    
   2410000   0.495014      -7.8210247     -7.0785143      3.5983014      50218.233      36.893836      36.893836      36.893836    
   2420000   0.49510708    -7.8226202     -7.0799701      3.584142       50218.233      36.893836      36.893836      36.893836    
   2430000   0.49567089    -7.8249594     -7.0814636      3.5664832      50218.233      36.893836      36.893836      36.893836    
   2440000   0.49687428    -7.828136      -7.0828352      3.5526002      50218.233      36.893836      36.893836      36.893836    
   2450000   0.49659516    -7.8213342     -7.0764521      3.6052575      50218.233      36.893836      36.893836      36.893836    
   2460000   0.49298351    -7.8266172     -7.0871525      3.5562412      50218.233      36.893836      36.893836      36.893836    
   2470000   0.49765818    -7.8256338     -7.0791572      3.569527       50218.233      36.893836      36.893836      36.893836    
   2480000   0.49504598    -7.8258328     -7.0832744      3.5730152      50218.233      36.893836      36.893836      36.893836    
   2490000   0.49544443    -7.822152      -7.0789959      3.592652       50218.233      36.893836      36.893836      36.893836    
   2500000   0.49407112    -7.8239848     -7.0828886      3.5835004      50218.233      36.893836      36.893836      36.893836    
   2510000   0.49446889    -7.8223407     -7.0806479      3.5921614      50218.233      36.893836      36.893836      36.893836    
   2520000   0.49506804    -7.8205739     -7.0779824      3.6069111      50218.233      36.893836      36.893836      36.893836    
   2530000   0.4950853     -7.823048      -7.0804306      3.5990179      50218.233      36.893836      36.893836      36.893836    
   2540000   0.49367787    -7.8249319     -7.0844256      3.5681293      50218.233      36.893836      36.893836      36.893836    
   2550000   0.49631306    -7.8266431     -7.0821841      3.5733995      50218.233      36.893836      36.893836      36.893836    
   2560000   0.49365671    -7.8218588     -7.0813843      3.592482       50218.233      36.893836      36.893836      36.893836    
   2570000   0.49254252    -7.8202516     -7.0814483      3.5975077      50218.233      36.893836      36.893836      36.893836    
   2580000   0.49483984    -7.8213435     -7.0790943      3.6107102      50218.233      36.893836      36.893836      36.893836    
   2590000   0.49766151    -7.8220333     -7.0755516      3.6016481      50218.233      36.893836      36.893836      36.893836    
   2600000   0.49451684    -7.8241796     -7.0824148      3.5859238      50218.233      36.893836      36.893836      36.893836    
   2610000   0.49639756    -7.8258917     -7.0813059      3.5713554      50218.233      36.893836      36.893836      36.893836    
   2620000   0.49432788    -7.81977       -7.0782887      3.6086988      50218.233      36.893836      36.893836      36.893836    
   2630000   0.49442886    -7.8217028     -7.0800701      3.6030806      50218.233      36.893836      36.893836      36.893836    
   2640000   0.49502072    -7.8209686     -7.0784481      3.6054956      50218.233      36.893836      36.893836      36.893836    
   2650000   0.49377233    -7.8227356     -7.0820877      3.6021792      50218.233      36.893836      36.893836      36.893836    
   2660000   0.49513669    -7.8238703     -7.0811758      3.572931       50218.233      36.893836      36.893836      36.893836    
   2670000   0.49565986    -7.8262297     -7.0827504      3.5700493      50218.233      36.893836      36.893836      36.893836    
   2680000   0.49534807    -7.8263923     -7.0833807      3.5591153      50218.233      36.893836      36.893836      36.893836    
   2690000   0.49308448    -7.8239066     -7.0842904      3.5823408      50218.233      36.893836      36.893836      36.893836    
   2700000   0.49571142    -7.8239864     -7.0804298      3.589234       50218.233      36.893836      36.893836      36.893836    
   2710000   0.49696264    -7.8233685     -7.0779352      3.594428       50218.233      36.893836      36.893836      36.893836    
   2720000   0.49873625    -7.8231325     -7.0750387      3.596019       50218.233      36.893836      36.893836      36.893836    
   2730000   0.49511899    -7.8224981     -7.0798302      3.5864713      50218.233      36.893836      36.893836      36.893836    
   2740000   0.49502891    -7.8219208     -7.079388       3.5978813      50218.233      36.893836      36.893836      36.893836    
   2750000   0.49592846    -7.8198507     -7.0759685      3.6129987      50218.233      36.893836      36.893836      36.893836    
   2760000   0.49694465    -7.8210548     -7.0756484      3.6025698      50218.233      36.893836      36.893836      36.893836    
   2770000   0.4952996     -7.821753      -7.0788142      3.5995085      50218.233      36.893836      36.893836      36.893836    
   2780000   0.49265856    -7.8256042     -7.0866269      3.5531514      50218.233      36.893836      36.893836      36.893836    
   2790000   0.49331396    -7.8232552     -7.0832948      3.6071135      50218.233      36.893836      36.893836      36.893836    
   2800000   0.49478997    -7.8226431     -7.0804687      3.5904936      50218.233      36.893836      36.893836      36.893836    
   2810000   0.49529814    -7.8240409     -7.0811042      3.5826559      50218.233      36.893836      36.893836      36.893836    
   2820000   0.49537719    -7.8207003     -7.0776451      3.6051699      50218.233      36.893836      36.893836      36.893836    
   2830000   0.495166      -7.8227886     -7.0800502      3.5845711      50218.233      36.893836      36.893836      36.893836    
   2840000   0.49757062    -7.8289318     -7.0825864      3.5455056      50218.233      36.893836      36.893836      36.893836    
   2850000   0.49572039    -7.8257158     -7.0821458      3.5645547      50218.233      36.893836      36.893836      36.893836    
   2860000   0.49450695    -7.8281431     -7.0863932      3.550312       50218.233      36.893836      36.893836      36.893836    
   2870000   0.49646667    -7.8210632     -7.0763738      3.597658       50218.233      36.893836      36.893836      36.893836    
   2880000   0.49583222    -7.8216489     -7.0779112      3.6066721      50218.233      36.893836      36.893836      36.893836    
   2890000   0.49226739    -7.8214752     -7.0830847      3.594635       50218.233      36.893836      36.893836      36.893836    
   2900000   0.49592991    -7.8268067     -7.0829225      3.5642765      50218.233      36.893836      36.893836      36.893836    
   2910000   0.49501717    -7.8265385     -7.0840233      3.5609829      50218.233      36.893836      36.893836      36.893836    
   2920000   0.49378795    -7.8304476     -7.0897762      3.5307577      50218.233      36.893836      36.893836      36.893836    
   2930000   0.49408073    -7.8256857     -7.0845751      3.5669009      50218.233      36.893836      36.893836      36.893836    
   2940000   0.49366707    -7.8289488     -7.0884587      3.5545388      50218.233      36.893836      36.893836      36.893836    
   2950000   0.49661228    -7.8236768     -7.0787689      3.5804313      50218.233      36.893836      36.893836      36.893836    
   2960000   0.49557413    -7.8252763     -7.0819257      3.5841239      50218.233      36.893836      36.893836      36.893836    
   2970000   0.4969944     -7.8251742     -7.0796932      3.5793956      50218.233      36.893836      36.893836      36.893836    
   2980000   0.49322774    -7.8287237     -7.0888926      3.5374213      50218.233      36.893836      36.893836      36.893836    
   2990000   0.49465979    -7.8285775     -7.0865983      3.5480535      50218.233      36.893836      36.893836      36.893836    
   3000000   0.49558932    -7.8269506     -7.0835772      3.5697438      50218.233      36.893836      36.893836      36.893836    
   3010000   0.49488356    -7.8278467     -7.0855319      3.559879       50218.233      36.893836      36.893836      36.893836    
   3020000   0.49823471    -7.823615      -7.0762736      3.5804079      50218.233      36.893836      36.893836      36.893836    
   3030000   0.49154837    -7.8208142     -7.0835021      3.6045773      50218.233      36.893836      36.893836      36.893836    
   3040000   0.49483257    -7.8258685     -7.0836302      3.5537078      50218.233      36.893836      36.893836      36.893836    
   3050000   0.49913733    -7.8221079     -7.0734125      3.5947222      50218.233      36.893836      36.893836      36.893836    
   3060000   0.4938729     -7.8244406     -7.0836418      3.5789722      50218.233      36.893836      36.893836      36.893836    
   3070000   0.49542727    -7.8215829     -7.0784525      3.6048656      50218.233      36.893836      36.893836      36.893836    
   3080000   0.49514001    -7.8241439     -7.0814445      3.5869823      50218.233      36.893836      36.893836      36.893836    
   3090000   0.49560946    -7.8253639     -7.0819603      3.5732121      50218.233      36.893836      36.893836      36.893836    
   3100000   0.49805039    -7.8263263     -7.0792614      3.5568272      50218.233      36.893836      36.893836      36.893836    
   3110000   0.49498837    -7.8272577     -7.0847857      3.5734153      50218.233      36.893836      36.893836      36.893836    
   3120000   0.49334357    -7.8242124     -7.0842076      3.5772457      50218.233      36.893836      36.893836      36.893836    
   3130000   0.4964266     -7.8264333     -7.081804       3.560491       50218.233      36.893836      36.893836      36.893836    
   3140000   0.49521579    -7.8228077     -7.0799946      3.5870008      50218.233      36.893836      36.893836      36.893836    
   3150000   0.49363443    -7.8224696     -7.0820285      3.5890988      50218.233      36.893836      36.893836      36.893836    
   3160000   0.49428094    -7.8247968     -7.083386       3.5735871      50218.233      36.893836      36.893836      36.893836    
   3170000   0.49258869    -7.8190825     -7.08021        3.61284        50218.233      36.893836      36.893836      36.893836    
   3180000   0.49409311    -7.8202987     -7.0791696      3.6027701      50218.233      36.893836      36.893836      36.893836    
   3190000   0.49469696    -7.822023      -7.0799881      3.603035       50218.233      36.893836      36.893836      36.893836    
   3200000   0.49575353    -7.8277221     -7.0841024      3.5669893      50218.233      36.893836      36.893836      36.893836    
   3210000   0.49535854    -7.8214767     -7.0784495      3.5998482      50218.233      36.893836      36.893836      36.893836    
   3220000   0.49278223    -7.820594      -7.0814312      3.6045957      50218.233      36.893836      36.893836      36.893836    
   3230000   0.49572978    -7.8215298     -7.0779457      3.6009757      50218.233      36.893836      36.893836      36.893836    
   3240000   0.49349055    -7.8218411     -7.0816158      3.6006288      50218.233      36.893836      36.893836      36.893836    
   3250000   0.49474091    -7.8215798     -7.079479       3.6045894      50218.233      36.893836      36.893836      36.893836    
   3260000   0.4928372     -7.824447      -7.0852018      3.5783614      50218.233      36.893836      36.893836      36.893836    
   3270000   0.49536025    -7.8186925     -7.0756627      3.6211873      50218.233      36.893836      36.893836      36.893836    
   3280000   0.49527363    -7.8200405     -7.0771407      3.6050888      50218.233      36.893836      36.893836      36.893836    
   3290000   0.49358138    -7.8253946     -7.0850331      3.5793572      50218.233      36.893836      36.893836      36.893836    
   3300000   0.49679979    -7.8261583     -7.0809692      3.5726628      50218.233      36.893836      36.893836      36.893836    
   3310000   0.49225984    -7.8235384     -7.0851592      3.5844829      50218.233      36.893836      36.893836      36.893836    
   3320000   0.49564575    -7.8213131     -7.0778551      3.5961611      50218.233      36.893836      36.893836      36.893836    
   3330000   0.4951422     -7.8211414     -7.0784387      3.6055219      50218.233      36.893836      36.893836      36.893836    
   3340000   0.49230607    -7.82314       -7.0846914      3.5830532      50218.233      36.893836      36.893836      36.893836    
   3350000   0.49543156    -7.8211239     -7.0779871      3.613711       50218.233      36.893836      36.893836      36.893836    
   3360000   0.49512051    -7.8212975     -7.0786272      3.6035706      50218.233      36.893836      36.893836      36.893836    
   3370000   0.49581072    -7.8231827     -7.0794772      3.5872569      50218.233      36.893836      36.893836      36.893836    
   3380000   0.49457494    -7.8215473     -7.0796954      3.595257       50218.233      36.893836      36.893836      36.893836    
   3390000   0.4939204     -7.8215448     -7.0806747      3.6065465      50218.233      36.893836      36.893836      36.893836    
   3400000   0.49422016    -7.8213214     -7.0800017      3.5943971      50218.233      36.893836      36.893836      36.893836    
   3410000   0.49397701    -7.8267869     -7.0858319      3.5750072      50218.233      36.893836      36.893836      36.893836    
   3420000   0.49694839    -7.8244849     -7.0790729      3.5887285      50218.233      36.893836      36.893836      36.893836    
   3430000   0.49733567    -7.8254814     -7.0794885      3.5781155      50218.233      36.893836      36.893836      36.893836    
   3440000   0.49592141    -7.8282234     -7.0843519      3.5551895      50218.233      36.893836      36.893836      36.893836    
   3450000   0.49477968    -7.8245427     -7.0823837      3.5782897      50218.233      36.893836      36.893836      36.893836    
   3460000   0.4956708     -7.8256316     -7.0821359      3.5808719      50218.233      36.893836      36.893836      36.893836    
   3470000   0.49386594    -7.8263072     -7.0855188      3.5639132      50218.233      36.893836      36.893836      36.893836    
   3480000   0.49477982    -7.8237884     -7.0816292      3.5806738      50218.233      36.893836      36.893836      36.893836    
   3490000   0.49369346    -7.8262449     -7.0857153      3.5602754      50218.233      36.893836      36.893836      36.893836    
   3500000   0.49515161    -7.8222279     -7.079511       3.6062121      50218.233      36.893836      36.893836      36.893836    
   3510000   0.4970772     -7.8204348     -7.0748296      3.6223136      50218.233      36.893836      36.893836      36.893836    
   3520000   0.49728958    -7.823543      -7.0776193      3.5938986      50218.233      36.893836      36.893836      36.893836    
   3530000   0.49816124    -7.8209687     -7.0737375      3.6161692      50218.233      36.893836      36.893836      36.893836    
   3540000   0.49380585    -7.8217158     -7.0810175      3.5867015      50218.233      36.893836      36.893836      36.893836    
   3550000   0.49450449    -7.821366      -7.0796198      3.6057274      50218.233      36.893836      36.893836      36.893836    
   3560000   0.49441694    -7.8229285     -7.0813137      3.5969786      50218.233      36.893836      36.893836      36.893836    
   3570000   0.49442923    -7.8256347     -7.0840014      3.5742077      50218.233      36.893836      36.893836      36.893836    
   3580000   0.49578898    -7.8205172     -7.0768443      3.6194613      50218.233      36.893836      36.893836      36.893836    
   3590000   0.49260796    -7.827143      -7.0882415      3.5547185      50218.233      36.893836      36.893836      36.893836    
   3600000   0.4972209     -7.8235268     -7.0777061      3.5900587      50218.233      36.893836      36.893836      36.893836    
   3610000   0.49567509    -7.8276747     -7.0841727      3.5534867      50218.233      36.893836      36.893836      36.893836    
   3620000   0.49605468    -7.8209542     -7.0768827      3.6076568      50218.233      36.893836      36.893836      36.893836    
   3630000   0.49717989    -7.8274759     -7.0817167      3.5630309      50218.233      36.893836      36.893836      36.893836    
   3640000   0.49718642    -7.8230664     -7.0772974      3.6007109      50218.233      36.893836      36.893836      36.893836    
   3650000   0.49357422    -7.8184206     -7.0780698      3.6248038      50218.233      36.893836      36.893836      36.893836    
   3660000   0.4963398     -7.8216206     -7.0771215      3.5915159      50218.233      36.893836      36.893836      36.893836    
   3670000   0.49584276    -7.8274027     -7.0836491      3.5610043      50218.233      36.893836      36.893836      36.893836    
   3680000   0.49754041    -7.8230079     -7.0767079      3.5953589      50218.233      36.893836      36.893836      36.893836    
   3690000   0.49530382    -7.8207474     -7.0778023      3.6042057      50218.233      36.893836      36.893836      36.893836    
   3700000   0.49701517    -7.8226574     -7.0771453      3.5896562      50218.233      36.893836      36.893836      36.893836    
   3710000   0.49808566    -7.8219264     -7.0748085      3.5871054      50218.233      36.893836      36.893836      36.893836    
   3720000   0.49575508    -7.8185997     -7.0749776      3.6185589      50218.233      36.893836      36.893836      36.893836    
   3730000   0.49698956    -7.8243989     -7.0789251      3.5810291      50218.233      36.893836      36.893836      36.893836    
   3740000   0.49673047    -7.8237822     -7.0786971      3.5887937      50218.233      36.893836      36.893836      36.893836    
   3750000   0.49501427    -7.8225279     -7.0800171      3.5839629      50218.233      36.893836      36.893836      36.893836    
   3760000   0.49658135    -7.818185      -7.0733236      3.630969       50218.233      36.893836      36.893836      36.893836    
   3770000   0.49815504    -7.8211603     -7.0739384      3.6107135      50218.233      36.893836      36.893836      36.893836    
   3780000   0.49598513    -7.8241945     -7.0802274      3.5743383      50218.233      36.893836      36.893836      36.893836    
   3790000   0.4949929     -7.8218661     -7.0793873      3.6087248      50218.233      36.893836      36.893836      36.893836    
   3800000   0.49343622    -7.8219101     -7.0817663      3.606388       50218.233      36.893836      36.893836      36.893836    
   3810000   0.49411823    -7.8244432     -7.0832764      3.5922706      50218.233      36.893836      36.893836      36.893836    
   3820000   0.49294282    -7.8228587     -7.0834549      3.592152       50218.233      36.893836      36.893836      36.893836    
   3830000   0.49403193    -7.8251092     -7.0840718      3.5805551      50218.233      36.893836      36.893836      36.893836    
   3840000   0.49479133    -7.8227618     -7.0805853      3.5957758      50218.233      36.893836      36.893836      36.893836    
   3850000   0.49440987    -7.8204488     -7.0788446      3.6127521      50218.233      36.893836      36.893836      36.893836    
   3860000   0.49148192    -7.8252018     -7.0879894      3.5772156      50218.233      36.893836      36.893836      36.893836    
   3870000   0.49512175    -7.82244       -7.079768       3.5956484      50218.233      36.893836      36.893836      36.893836    
   3880000   0.49220441    -7.8286867     -7.0903906      3.5515333      50218.233      36.893836      36.893836      36.893836    
   3890000   0.49544777    -7.8219179     -7.0787568      3.6056149      50218.233      36.893836      36.893836      36.893836    
   3900000   0.49243538    -7.8224647     -7.0838222      3.5926779      50218.233      36.893836      36.893836      36.893836    
   3910000   0.49482073    -7.8260855     -7.083865       3.5762566      50218.233      36.893836      36.893836      36.893836    
   3920000   0.49609883    -7.8276797     -7.083542       3.5596098      50218.233      36.893836      36.893836      36.893836    
   3930000   0.49610723    -7.8248626     -7.0807123      3.585369       50218.233      36.893836      36.893836      36.893836    
   3940000   0.49504002    -7.824328      -7.0817786      3.5887143      50218.233      36.893836      36.893836      36.893836    
   3950000   0.49364115    -7.8243513     -7.0839002      3.5838787      50218.233      36.893836      36.893836      36.893836    
   3960000   0.49520384    -7.8241733     -7.0813781      3.5865263      50218.233      36.893836      36.893836      36.893836    
   3970000   0.49607616    -7.828196      -7.0840923      3.5629067      50218.233      36.893836      36.893836      36.893836    
   3980000   0.49629008    -7.8238873     -7.0794627      3.603489       50218.233      36.893836      36.893836      36.893836    
   3990000   0.49610601    -7.8233268     -7.0791783      3.6037928      50218.233      36.893836      36.893836      36.893836    
   4000000   0.49595575    -7.8254367     -7.0815136      3.5899332      50218.233      36.893836      36.893836      36.893836    
   4010000   0.49348784    -7.8262449     -7.0860236      3.5658356      50218.233      36.893836      36.893836      36.893836    
   4020000   0.49468641    -7.8292402     -7.0872211      3.5546709      50218.233      36.893836      36.893836      36.893836    
   4030000   0.49692325    -7.8276722     -7.0822979      3.5662045      50218.233      36.893836      36.893836      36.893836    
   4040000   0.4925622     -7.8264657     -7.0876329      3.5713314      50218.233      36.893836      36.893836      36.893836    
   4050000   0.49302542    -7.8221213     -7.0825937      3.6041964      50218.233      36.893836      36.893836      36.893836    
   4060000   0.49359274    -7.8270921     -7.0867135      3.5666348      50218.233      36.893836      36.893836      36.893836    
   4070000   0.4962657     -7.8198063     -7.0754183      3.6182485      50218.233      36.893836      36.893836      36.893836    
   4080000   0.49754158    -7.8244869     -7.0781852      3.5854267      50218.233      36.893836      36.893836      36.893836    
   4090000   0.49440681    -7.8246669     -7.0830673      3.5900195      50218.233      36.893836      36.893836      36.893836    
   4100000   0.49358313    -7.8222655     -7.0819013      3.5869435      50218.233      36.893836      36.893836      36.893836    
   4110000   0.49595544    -7.8228753     -7.0789527      3.6174995      50218.233      36.893836      36.893836      36.893836    
   4120000   0.49661868    -7.823738      -7.0788205      3.6089399      50218.233      36.893836      36.893836      36.893836    
   4130000   0.49795924    -7.8243194     -7.0773912      3.5945867      50218.233      36.893836      36.893836      36.893836    
   4140000   0.49333229    -7.817488      -7.0775001      3.6251172      50218.233      36.893836      36.893836      36.893836    
   4150000   0.49610793    -7.8209479     -7.0767966      3.6155296      50218.233      36.893836      36.893836      36.893836    
   4160000   0.49228626    -7.8249725     -7.0865536      3.5817704      50218.233      36.893836      36.893836      36.893836    
   4170000   0.49386725    -7.8228553     -7.082065       3.6121161      50218.233      36.893836      36.893836      36.893836    
   4180000   0.49575457    -7.8233898     -7.0797685      3.5973361      50218.233      36.893836      36.893836      36.893836    
   4190000   0.49103107    -7.8246527     -7.0881166      3.5895381      50218.233      36.893836      36.893836      36.893836    
   4200000   0.49831468    -7.8239322     -7.0764708      3.5972416      50218.233      36.893836      36.893836      36.893836    
   4210000   0.49455691    -7.8282163     -7.0863915      3.5626535      50218.233      36.893836      36.893836      36.893836    
   4220000   0.49652659    -7.8228128     -7.0780335      3.5975655      50218.233      36.893836      36.893836      36.893836    
   4230000   0.49404065    -7.8213181     -7.0802677      3.6037952      50218.233      36.893836      36.893836      36.893836    
   4240000   0.49613321    -7.8235678     -7.0793785      3.6044267      50218.233      36.893836      36.893836      36.893836    
   4250000   0.4949156     -7.8208554     -7.0784926      3.6329311      50218.233      36.893836      36.893836      36.893836    
   4260000   0.4931179     -7.8212678     -7.0816015      3.6016136      50218.233      36.893836      36.893836      36.893836    
   4270000   0.49664055    -7.8177029     -7.0727526      3.6451218      50218.233      36.893836      36.893836      36.893836    
   4280000   0.49465071    -7.8195385     -7.077573       3.6282755      50218.233      36.893836      36.893836      36.893836    
   4290000   0.49423492    -7.8221845     -7.0808427      3.6016998      50218.233      36.893836      36.893836      36.893836    
   4300000   0.49473699    -7.8284856     -7.0863906      3.5476864      50218.233      36.893836      36.893836      36.893836    
   4310000   0.49357204    -7.8248061     -7.0844586      3.5837871      50218.233      36.893836      36.893836      36.893836    
   4320000   0.49378422    -7.8219843     -7.0813185      3.6045129      50218.233      36.893836      36.893836      36.893836    
   4330000   0.49395345    -7.8246959     -7.0837763      3.5816758      50218.233      36.893836      36.893836      36.893836    
   4340000   0.49110986    -7.8280692     -7.0914149      3.557386       50218.233      36.893836      36.893836      36.893836    
   4350000   0.49603858    -7.8237398     -7.0796926      3.587018       50218.233      36.893836      36.893836      36.893836    
   4360000   0.49336409    -7.8251459     -7.0851103      3.5877661      50218.233      36.893836      36.893836      36.893836    
   4370000   0.49341501    -7.824199      -7.084087       3.5872125      50218.233      36.893836      36.893836      36.893836    
   4380000   0.49578505    -7.8241942     -7.0805272      3.5898254      50218.233      36.893836      36.893836      36.893836    
   4390000   0.49292356    -7.8219843     -7.0826095      3.5982302      50218.233      36.893836      36.893836      36.893836    
   4400000   0.49600565    -7.8211764     -7.0771785      3.609341       50218.233      36.893836      36.893836      36.893836    
   4410000   0.49788111    -7.8212088     -7.0743978      3.6033335      50218.233      36.893836      36.893836      36.893836    
   4420000   0.49483649    -7.8251396     -7.0828954      3.5744228      50218.233      36.893836      36.893836      36.893836    
   4430000   0.49499241    -7.8244803     -7.0820023      3.5806895      50218.233      36.893836      36.893836      36.893836    
   4440000   0.49601876    -7.825833      -7.0818154      3.5702812      50218.233      36.893836      36.893836      36.893836    
   4450000   0.49553319    -7.8196396     -7.0763504      3.6186927      50218.233      36.893836      36.893836      36.893836    
   4460000   0.49502538    -7.82849       -7.0859625      3.5645584      50218.233      36.893836      36.893836      36.893836    
   4470000   0.49777214    -7.823855      -7.0772074      3.5820816      50218.233      36.893836      36.893836      36.893836    
   4480000   0.49861939    -7.8198085     -7.07189        3.6256697      50218.233      36.893836      36.893836      36.893836    
   4490000   0.4932094     -7.8184052     -7.0786017      3.6241821      50218.233      36.893836      36.893836      36.893836    
   4500000   0.49467895    -7.8268867     -7.0848789      3.5570021      50218.233      36.893836      36.893836      36.893836    
   4510000   0.49605548    -7.8249435     -7.0808709      3.5877176      50218.233      36.893836      36.893836      36.893836    
   4520000   0.49515736    -7.8258586     -7.0831331      3.575119       50218.233      36.893836      36.893836      36.893836    
   4530000   0.49597574    -7.8261158     -7.0821627      3.5727469      50218.233      36.893836      36.893836      36.893836    
   4540000   0.49591694    -7.8274535     -7.0835887      3.5602937      50218.233      36.893836      36.893836      36.893836    
   4550000   0.49222235    -7.824026      -7.085703       3.5767279      50218.233      36.893836      36.893836      36.893836    
   4560000   0.49670171    -7.8248807     -7.0798387      3.579357       50218.233      36.893836      36.893836      36.893836    
   4570000   0.49465131    -7.8252029     -7.0832365      3.5939812      50218.233      36.893836      36.893836      36.893836    
   4580000   0.49496724    -7.8258327     -7.0833924      3.5811405      50218.233      36.893836      36.893836      36.893836    
   4590000   0.49468523    -7.8196196     -7.0776023      3.6203878      50218.233      36.893836      36.893836      36.893836    
   4600000   0.49559527    -7.8267086     -7.0833263      3.5559218      50218.233      36.893836      36.893836      36.893836    
   4610000   0.49593709    -7.8260971     -7.082202       3.5729846      50218.233      36.893836      36.893836      36.893836    
   4620000   0.49466107    -7.8233087     -7.0813277      3.5848152      50218.233      36.893836      36.893836      36.893836    
   4630000   0.49497608    -7.8217032     -7.0792497      3.602651       50218.233      36.893836      36.893836      36.893836    
   4640000   0.49651344    -7.8203673     -7.0756078      3.6115756      50218.233      36.893836      36.893836      36.893836    
   4650000   0.49548133    -7.8258819     -7.0826705      3.5745377      50218.233      36.893836      36.893836      36.893836    
   4660000   0.49339755    -7.8283982     -7.0883124      3.5466016      50218.233      36.893836      36.893836      36.893836    
   4670000   0.49669782    -7.8203209     -7.0752848      3.6141065      50218.233      36.893836      36.893836      36.893836    
   4680000   0.49392522    -7.8239739     -7.0830966      3.5900112      50218.233      36.893836      36.893836      36.893836    
   4690000   0.49436165    -7.825987      -7.0844551      3.5629073      50218.233      36.893836      36.893836      36.893836    
   4700000   0.49587546    -7.824249      -7.0804464      3.5776095      50218.233      36.893836      36.893836      36.893836    
   4710000   0.49230285    -7.8246415     -7.0861977      3.5914595      50218.233      36.893836      36.893836      36.893836    
   4720000   0.4937684     -7.8218693     -7.0812272      3.5873774      50218.233      36.893836      36.893836      36.893836    
   4730000   0.49557161    -7.8272748     -7.0839279      3.5603155      50218.233      36.893836      36.893836      36.893836    
   4740000   0.49290477    -7.8278154     -7.0884687      3.5432018      50218.233      36.893836      36.893836      36.893836    
   4750000   0.49636532    -7.8261263     -7.0815889      3.5715059      50218.233      36.893836      36.893836      36.893836    
   4760000   0.49334954    -7.8291972     -7.0891834      3.5356942      50218.233      36.893836      36.893836      36.893836    
   4770000   0.49519957    -7.8230962     -7.0803074      3.5958322      50218.233      36.893836      36.893836      36.893836    
   4780000   0.49296781    -7.8244089     -7.0849677      3.5773771      50218.233      36.893836      36.893836      36.893836    
   4790000   0.49575406    -7.8262488     -7.0826282      3.564414       50218.233      36.893836      36.893836      36.893836    
   4800000   0.49302472    -7.8258592     -7.0863327      3.5675649      50218.233      36.893836      36.893836      36.893836    
   4810000   0.49638284    -7.826519      -7.0819553      3.5656674      50218.233      36.893836      36.893836      36.893836    
   4820000   0.49537896    -7.8284266     -7.0853687      3.5520104      50218.233      36.893836      36.893836      36.893836    
   4830000   0.49475163    -7.826204      -7.0840871      3.5615143      50218.233      36.893836      36.893836      36.893836    
   4840000   0.49538374    -7.8231553     -7.0800903      3.5916743      50218.233      36.893836      36.893836      36.893836    
   4850000   0.49445826    -7.8244319     -7.0827551      3.5801825      50218.233      36.893836      36.893836      36.893836    
   4860000   0.49438974    -7.8219865     -7.0804124      3.5950686      50218.233      36.893836      36.893836      36.893836    
   4870000   0.49393793    -7.8276756     -7.0867793      3.5499923      50218.233      36.893836      36.893836      36.893836    
   4880000   0.49626145    -7.8235283     -7.0791467      3.5934902      50218.233      36.893836      36.893836      36.893836    
   4890000   0.49500445    -7.8269489     -7.0844528      3.5650583      50218.233      36.893836      36.893836      36.893836    
   4900000   0.49590629    -7.8264896     -7.0826408      3.568991       50218.233      36.893836      36.893836      36.893836    
   4910000   0.49574653    -7.8223124     -7.0787031      3.5984081      50218.233      36.893836      36.893836      36.893836    
   4920000   0.49355336    -7.8280311     -7.0877116      3.5466599      50218.233      36.893836      36.893836      36.893836    
   4930000   0.4921146     -7.822857      -7.0846956      3.5880079      50218.233      36.893836      36.893836      36.893836    
   4940000   0.49554968    -7.8228458     -7.0795319      3.5879424      50218.233      36.893836      36.893836      36.893836    
   4950000   0.49297476    -7.8258766     -7.086425       3.5681364      50218.233      36.893836      36.893836      36.893836    
   4960000   0.49491934    -7.8257865     -7.0834181      3.5589377      50218.233      36.893836      36.893836      36.893836    
   4970000   0.49396337    -7.8226927     -7.0817582      3.5808028      50218.233      36.893836      36.893836      36.893836    
   4980000   0.49501155    -7.8232778     -7.080771       3.575134       50218.233      36.893836      36.893836      36.893836    
   4990000   0.49418325    -7.8242943     -7.08303        3.5688125      50218.233      36.893836      36.893836      36.893836    
   5000000   0.49271869    -7.8207854     -7.0817179      3.6051852      50218.233      36.893836      36.893836      36.893836    
   5010000   0.4974875     -7.8260205     -7.0797999      3.5697278      50218.233      36.893836      36.893836      36.893836    
   5020000   0.49618563    -7.8273304     -7.0830625      3.5549546      50218.233      36.893836      36.893836      36.893836    
   5030000   0.49559369    -7.8246668     -7.0812869      3.5727308      50218.233      36.893836      36.893836      36.893836    
   5040000   0.49491058    -7.824856      -7.0825007      3.572805       50218.233      36.893836      36.893836      36.893836    
   5050000   0.49643955    -7.8184244     -7.0737757      3.6314493      50218.233      36.893836      36.893836      36.893836    
   5060000   0.4936306     -7.8243527     -7.0839173      3.5771641      50218.233      36.893836      36.893836      36.893836    
   5070000   0.49473419    -7.8264568     -7.0843661      3.5629094      50218.233      36.893836      36.893836      36.893836    
   5080000   0.49171785    -7.8201323     -7.082566       3.6069468      50218.233      36.893836      36.893836      36.893836    
   5090000   0.49414093    -7.8261676     -7.0849667      3.5619731      50218.233      36.893836      36.893836      36.893836    
   5100000   0.49748589    -7.8253806     -7.0791624      3.5769387      50218.233      36.893836      36.893836      36.893836    
   5110000   0.49350719    -7.8262155     -7.0859652      3.5590463      50218.233      36.893836      36.893836      36.893836    
   5120000   0.49511647    -7.825115      -7.0824509      3.5635775      50218.233      36.893836      36.893836      36.893836    
   5130000   0.49328233    -7.8243225     -7.0844095      3.5740637      50218.233      36.893836      36.893836      36.893836    
   5140000   0.49473094    -7.8232055     -7.0811196      3.5838499      50218.233      36.893836      36.893836      36.893836    
   5150000   0.49764652    -7.8231654     -7.0767062      3.5846884      50218.233      36.893836      36.893836      36.893836    
   5160000   0.49555824    -7.822714      -7.0793872      3.580924       50218.233      36.893836      36.893836      36.893836    
   5170000   0.4953184     -7.8210338     -7.0780668      3.6025741      50218.233      36.893836      36.893836      36.893836    
   5180000   0.49615316    -7.8225302     -7.0783111      3.5806567      50218.233      36.893836      36.893836      36.893836    
   5190000   0.49427035    -7.8252363     -7.0838413      3.5718643      50218.233      36.893836      36.893836      36.893836    
   5200000   0.49617483    -7.823723      -7.0794714      3.5796438      50218.233      36.893836      36.893836      36.893836    
   5210000   0.49416278    -7.8230295     -7.0817959      3.5824113      50218.233      36.893836      36.893836      36.893836    
   5220000   0.49330374    -7.8222753     -7.0823302      3.5862698      50218.233      36.893836      36.893836      36.893836    
   5230000   0.49602372    -7.8222039     -7.0781789      3.5954363      50218.233      36.893836      36.893836      36.893836    
   5240000   0.49559564    -7.822795      -7.0794122      3.5862075      50218.233      36.893836      36.893836      36.893836    
   5250000   0.49503044    -7.8207856     -7.0782505      3.5962015      50218.233      36.893836      36.893836      36.893836    
   5260000   0.49662196    -7.8193221     -7.0743998      3.6151904      50218.233      36.893836      36.893836      36.893836    
   5270000   0.49520352    -7.8246418     -7.081847       3.5667687      50218.233      36.893836      36.893836      36.893836    
   5280000   0.49364172    -7.8228869     -7.0824349      3.5897708      50218.233      36.893836      36.893836      36.893836    
   5290000   0.49529695    -7.8246103     -7.0816755      3.5661352      50218.233      36.893836      36.893836      36.893836    
   5300000   0.49467513    -7.8261839     -7.0841818      3.5605448      50218.233      36.893836      36.893836      36.893836    
   5310000   0.49372828    -7.8275691     -7.0869872      3.543131       50218.233      36.893836      36.893836      36.893836    
   5320000   0.49803764    -7.8248214     -7.0777756      3.5721748      50218.233      36.893836      36.893836      36.893836    
   5330000   0.49304533    -7.8229916     -7.0834341      3.5780064      50218.233      36.893836      36.893836      36.893836    
   5340000   0.492034      -7.8274019     -7.0893614      3.5395979      50218.233      36.893836      36.893836      36.893836    
   5350000   0.49654007    -7.8285163     -7.0837167      3.5402514      50218.233      36.893836      36.893836      36.893836    
   5360000   0.49654972    -7.8268174     -7.0820034      3.5681875      50218.233      36.893836      36.893836      36.893836    
   5370000   0.49395948    -7.8196003     -7.0786716      3.6128998      50218.233      36.893836      36.893836      36.893836    
   5380000   0.49255957    -7.8249951     -7.0861663      3.5792897      50218.233      36.893836      36.893836      36.893836    
   5390000   0.49779051    -7.8248773     -7.0782022      3.5722965      50218.233      36.893836      36.893836      36.893836    
   5400000   0.49430443    -7.8224603     -7.0810142      3.5858176      50218.233      36.893836      36.893836      36.893836    
   5410000   0.49386547    -7.8222372     -7.0814496      3.5871123      50218.233      36.893836      36.893836      36.893836    
   5420000   0.49383878    -7.8241279     -7.0833802      3.5853561      50218.233      36.893836      36.893836      36.893836    
   5430000   0.49153095    -7.8247153     -7.0874294      3.5801543      50218.233      36.893836      36.893836      36.893836    
   5440000   0.49537926    -7.8246456     -7.0815873      3.5716127      50218.233      36.893836      36.893836      36.893836    
   5450000   0.49056241    -7.8234251     -7.087592       3.5862461      50218.233      36.893836      36.893836      36.893836    
   5460000   0.49685368    -7.8227295     -7.0774595      3.5916251      50218.233      36.893836      36.893836      36.893836    
   5470000   0.49445138    -7.8269424     -7.0852758      3.559111       50218.233      36.893836      36.893836      36.893836    
   5480000   0.49577634    -7.8274934     -7.0838395      3.5532108      50218.233      36.893836      36.893836      36.893836    
   5490000   0.49623307    -7.8235862     -7.0792472      3.5909867      50218.233      36.893836      36.893836      36.893836    
   5500000   0.49278623    -7.828312      -7.0891432      3.5461633      50218.233      36.893836      36.893836      36.893836    
   5510000   0.49861835    -7.8238564     -7.0759396      3.5868795      50218.233      36.893836      36.893836      36.893836    
   5520000   0.49373769    -7.8273917     -7.0867957      3.5588904      50218.233      36.893836      36.893836      36.893836    
   5530000   0.49729566    -7.8202448     -7.0743119      3.6076324      50218.233      36.893836      36.893836      36.893836    
   5540000   0.49691728    -7.8216281     -7.0762627      3.5898252      50218.233      36.893836      36.893836      36.893836    
   5550000   0.49390649    -7.8236946     -7.0828454      3.5668733      50218.233      36.893836      36.893836      36.893836    
   5560000   0.49710729    -7.8242585     -7.0786082      3.5924011      50218.233      36.893836      36.893836      36.893836    
   5570000   0.49212985    -7.8208729     -7.0826886      3.601653       50218.233      36.893836      36.893836      36.893836    
   5580000   0.49580322    -7.824524      -7.0808297      3.5726264      50218.233      36.893836      36.893836      36.893836    
   5590000   0.4956156     -7.8236676     -7.0802548      3.5788168      50218.233      36.893836      36.893836      36.893836    
   5600000   0.49573143    -7.8250885     -7.0815019      3.5813112      50218.233      36.893836      36.893836      36.893836    
   5610000   0.49500221    -7.8283451     -7.0858523      3.5474126      50218.233      36.893836      36.893836      36.893836    
   5620000   0.4950143     -7.8222629     -7.079752       3.5918032      50218.233      36.893836      36.893836      36.893836    
   5630000   0.49699153    -7.8256874     -7.0802107      3.5691957      50218.233      36.893836      36.893836      36.893836    
   5640000   0.49617099    -7.8249743     -7.0807284      3.5814764      50218.233      36.893836      36.893836      36.893836    
   5650000   0.49333312    -7.8182237     -7.0782346      3.623656       50218.233      36.893836      36.893836      36.893836    
   5660000   0.49562134    -7.8233627     -7.0799413      3.5776809      50218.233      36.893836      36.893836      36.893836    
   5670000   0.49566579    -7.8240674     -7.0805792      3.5843851      50218.233      36.893836      36.893836      36.893836    
   5680000   0.49634051    -7.8230133     -7.0785132      3.5835961      50218.233      36.893836      36.893836      36.893836    
   5690000   0.49586883    -7.8209603     -7.0771676      3.6013186      50218.233      36.893836      36.893836      36.893836    
   5700000   0.49391115    -7.8271997     -7.0863435      3.5589885      50218.233      36.893836      36.893836      36.893836    
   5710000   0.4967267     -7.8181349     -7.0730554      3.6292743      50218.233      36.893836      36.893836      36.893836    
   5720000   0.49261526    -7.8269844     -7.0880721      3.5472073      50218.233      36.893836      36.893836      36.893836    
   5730000   0.49447505    -7.8257992     -7.0840972      3.5730848      50218.233      36.893836      36.893836      36.893836    
   5740000   0.49502019    -7.8224724     -7.0799526      3.5889484      50218.233      36.893836      36.893836      36.893836    
   5750000   0.49404676    -7.8228189     -7.0817593      3.5884547      50218.233      36.893836      36.893836      36.893836    
   5760000   0.49448636    -7.8236639     -7.0819449      3.5844361      50218.233      36.893836      36.893836      36.893836    
   5770000   0.4926899     -7.8231269     -7.0841025      3.5913931      50218.233      36.893836      36.893836      36.893836    
   5780000   0.49366625    -7.8244954     -7.0840066      3.5671008      50218.233      36.893836      36.893836      36.893836    
   5790000   0.49538224    -7.8240315     -7.0809687      3.5851618      50218.233      36.893836      36.893836      36.893836    
   5800000   0.49256307    -7.8262768     -7.0874427      3.5761651      50218.233      36.893836      36.893836      36.893836    
   5810000   0.49654448    -7.8280539     -7.0832478      3.5507621      50218.233      36.893836      36.893836      36.893836    
   5820000   0.49606425    -7.8248679     -7.0807821      3.5668161      50218.233      36.893836      36.893836      36.893836    
   5830000   0.49392735    -7.8263365     -7.085456       3.5581208      50218.233      36.893836      36.893836      36.893836    
   5840000   0.49764337    -7.8218897     -7.0754353      3.6083471      50218.233      36.893836      36.893836      36.893836    
   5850000   0.4956349     -7.8302833     -7.0868416      3.5378263      50218.233      36.893836      36.893836      36.893836    
   5860000   0.49765786    -7.8255224     -7.0790462      3.5787146      50218.233      36.893836      36.893836      36.893836    
   5870000   0.49413955    -7.8276565     -7.0864578      3.5550344      50218.233      36.893836      36.893836      36.893836    
   5880000   0.49485307    -7.8220849     -7.0798158      3.5956975      50218.233      36.893836      36.893836      36.893836    
   5890000   0.49418526    -7.8233197     -7.0820524      3.5908369      50218.233      36.893836      36.893836      36.893836    
   5900000   0.4965783     -7.82066       -7.0758032      3.613591       50218.233      36.893836      36.893836      36.893836    
   5910000   0.48975417    -7.8250566     -7.0904358      3.568422       50218.233      36.893836      36.893836      36.893836    
   5920000   0.49541786    -7.8226351     -7.0795189      3.6017879      50218.233      36.893836      36.893836      36.893836    
   5930000   0.49251998    -7.8226095     -7.08384        3.5877614      50218.233      36.893836      36.893836      36.893836    
   5940000   0.49538296    -7.8230504     -7.0799866      3.5849408      50218.233      36.893836      36.893836      36.893836    
   5950000   0.49233959    -7.8260639     -7.087565       3.5580892      50218.233      36.893836      36.893836      36.893836    
   5960000   0.49483122    -7.8233826     -7.0811464      3.5854879      50218.233      36.893836      36.893836      36.893836    
   5970000   0.4950245     -7.8276436     -7.0851174      3.5460666      50218.233      36.893836      36.893836      36.893836    
   5980000   0.4960534     -7.8284473     -7.0843778      3.5561197      50218.233      36.893836      36.893836      36.893836    
   5990000   0.49008211    -7.8283772     -7.0932645      3.5365993      50218.233      36.893836      36.893836      36.893836    
   6000000   0.49466969    -7.8275098     -7.0855158      3.5565923      50218.233      36.893836      36.893836      36.893836    
   6010000   0.49268302    -7.8292591     -7.0902451      3.5400607      50218.233      36.893836      36.893836      36.893836    
   6020000   0.49619474    -7.8315621     -7.0872805      3.5355379      50218.233      36.893836      36.893836      36.893836    
   6030000   0.49298921    -7.8286891     -7.0892158      3.5491863      50218.233      36.893836      36.893836      36.893836    
   6040000   0.49125165    -7.8270697     -7.0902027      3.5540872      50218.233      36.893836      36.893836      36.893836    
   6050000   0.49725249    -7.8277595     -7.0818914      3.5549636      50218.233      36.893836      36.893836      36.893836    
   6060000   0.49480641    -7.8251529     -7.0829538      3.5685003      50218.233      36.893836      36.893836      36.893836    
   6070000   0.49320141    -7.8255046     -7.085713       3.5630934      50218.233      36.893836      36.893836      36.893836    
   6080000   0.49646161    -7.8266482     -7.0819663      3.5636494      50218.233      36.893836      36.893836      36.893836    
   6090000   0.495488      -7.8216976     -7.0784761      3.5928987      50218.233      36.893836      36.893836      36.893836    
   6100000   0.49296652    -7.8274043     -7.087965       3.5446044      50218.233      36.893836      36.893836      36.893836    
   6110000   0.4947603     -7.822829      -7.0806991      3.5839833      50218.233      36.893836      36.893836      36.893836    
   6120000   0.49450331    -7.8223921     -7.0806477      3.5957044      50218.233      36.893836      36.893836      36.893836    
   6130000   0.49515042    -7.8224056     -7.0796905      3.5976062      50218.233      36.893836      36.893836      36.893836    
   6140000   0.49574181    -7.8245105     -7.0809084      3.5734176      50218.233      36.893836      36.893836      36.893836    
   6150000   0.49390195    -7.8205548     -7.0797124      3.5965924      50218.233      36.893836      36.893836      36.893836    
   6160000   0.49637861    -7.8222826     -7.0777253      3.592253       50218.233      36.893836      36.893836      36.893836    
   6170000   0.49307736    -7.8230746     -7.083469       3.5952369      50218.233      36.893836      36.893836      36.893836    
   6180000   0.49332818    -7.8215398     -7.0815581      3.5987741      50218.233      36.893836      36.893836      36.893836    
   6190000   0.49355535    -7.8223949     -7.0820724      3.5985676      50218.233      36.893836      36.893836      36.893836    
   6200000   0.49335015    -7.8228224     -7.0828077      3.591595       50218.233      36.893836      36.893836      36.893836    
   6210000   0.4942801     -7.8208419     -7.0794323      3.5989432      50218.233      36.893836      36.893836      36.893836    
   6220000   0.49413407    -7.8182761     -7.0770855      3.6300282      50218.233      36.893836      36.893836      36.893836    
   6230000   0.49516147    -7.8246425     -7.0819109      3.5789275      50218.233      36.893836      36.893836      36.893836    
   6240000   0.49274648    -7.8237593     -7.0846501      3.5800778      50218.233      36.893836      36.893836      36.893836    
   6250000   0.49391072    -7.8233355     -7.08248        3.5793888      50218.233      36.893836      36.893836      36.893836    
   6260000   0.49155644    -7.8241641     -7.0868399      3.5766682      50218.233      36.893836      36.893836      36.893836    
   6270000   0.49575332    -7.828817      -7.0851976      3.5457263      50218.233      36.893836      36.893836      36.893836    
   6280000   0.49406434    -7.8278597     -7.0867737      3.5417966      50218.233      36.893836      36.893836      36.893836    
   6290000   0.49528847    -7.8228591     -7.079937       3.5851538      50218.233      36.893836      36.893836      36.893836    
   6300000   0.49459377    -7.8252027     -7.0833226      3.5725631      50218.233      36.893836      36.893836      36.893836    
   6310000   0.49514175    -7.8227723     -7.0800702      3.5847568      50218.233      36.893836      36.893836      36.893836    
   6320000   0.49627578    -7.8236814     -7.0792783      3.590763       50218.233      36.893836      36.893836      36.893836    
   6330000   0.49401764    -7.8283729     -7.087357       3.5417208      50218.233      36.893836      36.893836      36.893836    
   6340000   0.49505379    -7.8298523     -7.0872822      3.535572       50218.233      36.893836      36.893836      36.893836    
   6350000   0.49558162    -7.8272487     -7.0838869      3.5591927      50218.233      36.893836      36.893836      36.893836    
   6360000   0.49533667    -7.8234106     -7.0804162      3.5797782      50218.233      36.893836      36.893836      36.893836    
   6370000   0.49426013    -7.8250041     -7.0836244      3.5678337      50218.233      36.893836      36.893836      36.893836    
   6380000   0.49245524    -7.8253502     -7.0866778      3.5692801      50218.233      36.893836      36.893836      36.893836    
   6390000   0.49606712    -7.8241419     -7.0800518      3.5829887      50218.233      36.893836      36.893836      36.893836    
   6400000   0.49538848    -7.8262246     -7.0831524      3.5763595      50218.233      36.893836      36.893836      36.893836    
   6410000   0.49422338    -7.8226637     -7.0813391      3.5960772      50218.233      36.893836      36.893836      36.893836    
   6420000   0.49473602    -7.8241526     -7.0820591      3.5843044      50218.233      36.893836      36.893836      36.893836    
   6430000   0.49561241    -7.8242233     -7.0808153      3.5803655      50218.233      36.893836      36.893836      36.893836    
   6440000   0.49501596    -7.8235757     -7.0810623      3.5864107      50218.233      36.893836      36.893836      36.893836    
   6450000   0.49532342    -7.8259        -7.0829255      3.5618364      50218.233      36.893836      36.893836      36.893836    
   6460000   0.49573631    -7.8273518     -7.083758       3.549073       50218.233      36.893836      36.893836      36.893836    
   6470000   0.49715688    -7.8249301     -7.0792054      3.5828241      50218.233      36.893836      36.893836      36.893836    
   6480000   0.49500888    -7.825786      -7.0832832      3.5716706      50218.233      36.893836      36.893836      36.893836    
   6490000   0.49564027    -7.8226535     -7.0792036      3.5954561      50218.233      36.893836      36.893836      36.893836    
   6500000   0.49351339    -7.821264      -7.0810044      3.6031638      50218.233      36.893836      36.893836      36.893836    
   6510000   0.49335728    -7.8244713     -7.084446       3.5800473      50218.233      36.893836      36.893836      36.893836    
   6520000   0.49358361    -7.8252513     -7.0848864      3.5786831      50218.233      36.893836      36.893836      36.893836    
   6530000   0.49720234    -7.824322      -7.0785291      3.591821       50218.233      36.893836      36.893836      36.893836    
   6540000   0.49591306    -7.8305859     -7.0867269      3.5301784      50218.233      36.893836      36.893836      36.893836    
   6550000   0.49740567    -7.8236519     -7.077554       3.5928894      50218.233      36.893836      36.893836      36.893836    
   6560000   0.49580338    -7.8264954     -7.0828009      3.5616467      50218.233      36.893836      36.893836      36.893836    
   6570000   0.49337427    -7.8251057     -7.0850548      3.5652511      50218.233      36.893836      36.893836      36.893836    
   6580000   0.49442144    -7.8237696     -7.082148       3.5851295      50218.233      36.893836      36.893836      36.893836    
   6590000   0.49577615    -7.82817       -7.0845164      3.5521442      50218.233      36.893836      36.893836      36.893836    
   6600000   0.49722322    -7.8231624     -7.0773382      3.5833031      50218.233      36.893836      36.893836      36.893836    
   6610000   0.49596643    -7.8221811     -7.078242       3.5968776      50218.233      36.893836      36.893836      36.893836    
   6620000   0.49145313    -7.8225668     -7.0853976      3.5872337      50218.233      36.893836      36.893836      36.893836    
   6630000   0.49462967    -7.8197561     -7.0778222      3.6247355      50218.233      36.893836      36.893836      36.893836    
   6640000   0.49728067    -7.8209869     -7.0750765      3.6132479      50218.233      36.893836      36.893836      36.893836    
   6650000   0.49595241    -7.8180087     -7.0740906      3.6330141      50218.233      36.893836      36.893836      36.893836    
   6660000   0.49534436    -7.8236913     -7.0806853      3.5900231      50218.233      36.893836      36.893836      36.893836    
   6670000   0.49669426    -7.8232503     -7.0782196      3.5893258      50218.233      36.893836      36.893836      36.893836    
   6680000   0.49331646    -7.8224452     -7.082481       3.5893239      50218.233      36.893836      36.893836      36.893836    
   6690000   0.49497034    -7.8204731     -7.0780282      3.6147371      50218.233      36.893836      36.893836      36.893836    
   6700000   0.49743878    -7.8231144     -7.0769669      3.5809026      50218.233      36.893836      36.893836      36.893836    
   6710000   0.49530826    -7.8210414     -7.0780895      3.6050573      50218.233      36.893836      36.893836      36.893836    
   6720000   0.49524135    -7.8246838     -7.0818323      3.5849899      50218.233      36.893836      36.893836      36.893836    
   6730000   0.4949158     -7.8238243     -7.0814612      3.5774828      50218.233      36.893836      36.893836      36.893836    
   6740000   0.49408203    -7.8194157     -7.0783032      3.6140932      50218.233      36.893836      36.893836      36.893836    
   6750000   0.49382981    -7.8231197     -7.0823855      3.5808438      50218.233      36.893836      36.893836      36.893836    
   6760000   0.49514984    -7.8232934     -7.0805792      3.5886094      50218.233      36.893836      36.893836      36.893836    
   6770000   0.49589445    -7.8240793     -7.0802482      3.5856489      50218.233      36.893836      36.893836      36.893836    
   6780000   0.49601477    -7.8216143     -7.0776027      3.5925455      50218.233      36.893836      36.893836      36.893836    
   6790000   0.49270806    -7.8250456     -7.085994       3.5657654      50218.233      36.893836      36.893836      36.893836    
   6800000   0.49281748    -7.8227027     -7.083487       3.5955311      50218.233      36.893836      36.893836      36.893836    
   6810000   0.49511945    -7.8216258     -7.0789572      3.5963122      50218.233      36.893836      36.893836      36.893836    
   6820000   0.49655234    -7.8246184     -7.0798005      3.5740325      50218.233      36.893836      36.893836      36.893836    
   6830000   0.49327833    -7.8210929     -7.0811859      3.6058136      50218.233      36.893836      36.893836      36.893836    
   6840000   0.4959284     -7.8200252     -7.0761432      3.615182       50218.233      36.893836      36.893836      36.893836    
   6850000   0.49457435    -7.8166629     -7.0748119      3.6313008      50218.233      36.893836      36.893836      36.893836    
   6860000   0.49261325    -7.8259219     -7.0870125      3.554198       50218.233      36.893836      36.893836      36.893836    
   6870000   0.4973509     -7.8223519     -7.0763362      3.5932504      50218.233      36.893836      36.893836      36.893836    
   6880000   0.49696409    -7.8225951     -7.0771596      3.5926611      50218.233      36.893836      36.893836      36.893836    
   6890000   0.49393379    -7.8239535     -7.0830634      3.5802695      50218.233      36.893836      36.893836      36.893836    
   6900000   0.49314057    -7.826007      -7.0863067      3.5683126      50218.233      36.893836      36.893836      36.893836    
   6910000   0.49469274    -7.8232329     -7.0812044      3.5808505      50218.233      36.893836      36.893836      36.893836    
   6920000   0.49402886    -7.8226543     -7.0816215      3.5961884      50218.233      36.893836      36.893836      36.893836    
   6930000   0.49596196    -7.8228412     -7.0789088      3.6005247      50218.233      36.893836      36.893836      36.893836    
   6940000   0.49577468    -7.8220366     -7.0783851      3.5879615      50218.233      36.893836      36.893836      36.893836    
   6950000   0.49528528    -7.8277334     -7.084816       3.5566233      50218.233      36.893836      36.893836      36.893836    
   6960000   0.49571754    -7.8229112     -7.0793455      3.6011422      50218.233      36.893836      36.893836      36.893836    
   6970000   0.49546859    -7.8276265     -7.0844342      3.5607699      50218.233      36.893836      36.893836      36.893836    
   6980000   0.49455266    -7.8244948     -7.0826764      3.588191       50218.233      36.893836      36.893836      36.893836    
   6990000   0.49597715    -7.8244616     -7.0805064      3.5806509      50218.233      36.893836      36.893836      36.893836    
   7000000   0.49375405    -7.8250827     -7.0844622      3.5647227      50218.233      36.893836      36.893836      36.893836    
   7010000   0.49647905    -7.8240553     -7.0793473      3.5896082      50218.233      36.893836      36.893836      36.893836    
   7020000   0.4971223     -7.8236366     -7.0779637      3.5873779      50218.233      36.893836      36.893836      36.893836    
   7030000   0.49548171    -7.8254495     -7.0822375      3.578079       50218.233      36.893836      36.893836      36.893836    
   7040000   0.49480631    -7.8246257     -7.0824268      3.5838773      50218.233      36.893836      36.893836      36.893836    
   7050000   0.49472441    -7.8247032     -7.0826271      3.5770677      50218.233      36.893836      36.893836      36.893836    
   7060000   0.49508262    -7.8233308     -7.0807174      3.5960416      50218.233      36.893836      36.893836      36.893836    
   7070000   0.49453996    -7.8249234     -7.083124       3.5711368      50218.233      36.893836      36.893836      36.893836    
   7080000   0.49598435    -7.8223389     -7.078373       3.5977015      50218.233      36.893836      36.893836      36.893836    
   7090000   0.49799706    -7.827012      -7.0800271      3.5644286      50218.233      36.893836      36.893836      36.893836    
   7100000   0.49824747    -7.8256254     -7.0782648      3.5848302      50218.233      36.893836      36.893836      36.893836    
   7110000   0.49538915    -7.8186311     -7.0755579      3.6192825      50218.233      36.893836      36.893836      36.893836    
   7120000   0.49584651    -7.8209234     -7.0771642      3.5990385      50218.233      36.893836      36.893836      36.893836    
   7130000   0.49692452    -7.8235214     -7.0781452      3.5933856      50218.233      36.893836      36.893836      36.893836    
   7140000   0.49381683    -7.8232609     -7.0825462      3.5851838      50218.233      36.893836      36.893836      36.893836    
   7150000   0.49722137    -7.8248327     -7.0790112      3.5797082      50218.233      36.893836      36.893836      36.893836    
   7160000   0.49494206    -7.8248404     -7.0824379      3.57997        50218.233      36.893836      36.893836      36.893836    
   7170000   0.49366021    -7.8209931     -7.0805133      3.6015979      50218.233      36.893836      36.893836      36.893836    
   7180000   0.49669124    -7.8219369     -7.0769106      3.5944084      50218.233      36.893836      36.893836      36.893836    
   7190000   0.49469852    -7.8221055     -7.0800683      3.6078592      50218.233      36.893836      36.893836      36.893836    
   7200000   0.49405025    -7.8240753     -7.0830105      3.5729291      50218.233      36.893836      36.893836      36.893836    
   7210000   0.49546016    -7.8238886     -7.0807089      3.5765606      50218.233      36.893836      36.893836      36.893836    
   7220000   0.4971243     -7.8236871     -7.0780112      3.5933217      50218.233      36.893836      36.893836      36.893836    
   7230000   0.49350554    -7.8248614     -7.0846137      3.5704226      50218.233      36.893836      36.893836      36.893836    
   7240000   0.4936134     -7.8201578     -7.0797482      3.6099378      50218.233      36.893836      36.893836      36.893836    
   7250000   0.49704022    -7.8247671     -7.0792174      3.5844213      50218.233      36.893836      36.893836      36.893836    
   7260000   0.49643624    -7.8223374     -7.0776936      3.5975914      50218.233      36.893836      36.893836      36.893836    
   7270000   0.49588548    -7.8263539     -7.0825362      3.5623248      50218.233      36.893836      36.893836      36.893836    
   7280000   0.49605636    -7.8264725     -7.0823986      3.5703005      50218.233      36.893836      36.893836      36.893836    
   7290000   0.49342043    -7.8245652     -7.0844451      3.5798408      50218.233      36.893836      36.893836      36.893836    
   7300000   0.49568501    -7.8246348     -7.0811179      3.5821541      50218.233      36.893836      36.893836      36.893836    
   7310000   0.49517276    -7.8242092     -7.0814607      3.5765175      50218.233      36.893836      36.893836      36.893836    
   7320000   0.49638809    -7.8230613     -7.0784897      3.5825179      50218.233      36.893836      36.893836      36.893836    
   7330000   0.49482784    -7.8294818     -7.0872506      3.5410609      50218.233      36.893836      36.893836      36.893836    
   7340000   0.49516295    -7.8275832     -7.0848494      3.5526611      50218.233      36.893836      36.893836      36.893836    
   7350000   0.49282058    -7.8264797     -7.0872593      3.5482097      50218.233      36.893836      36.893836      36.893836    
   7360000   0.49522674    -7.8256546     -7.082825       3.5654432      50218.233      36.893836      36.893836      36.893836    
   7370000   0.49717753    -7.8245112     -7.0787555      3.5824189      50218.233      36.893836      36.893836      36.893836    
   7380000   0.49423217    -7.8256932     -7.0843555      3.5554316      50218.233      36.893836      36.893836      36.893836    
   7390000   0.49708837    -7.8252358     -7.0796139      3.5714352      50218.233      36.893836      36.893836      36.893836    
   7400000   0.49327559    -7.8264659     -7.0865631      3.5603822      50218.233      36.893836      36.893836      36.893836    
   7410000   0.49120932    -7.8202519     -7.0834484      3.6014721      50218.233      36.893836      36.893836      36.893836    
   7420000   0.49210789    -7.8194989     -7.0813476      3.6091543      50218.233      36.893836      36.893836      36.893836    
   7430000   0.49452856    -7.8254188     -7.0836365      3.5603608      50218.233      36.893836      36.893836      36.893836    
   7440000   0.49523141    -7.8232003     -7.0803638      3.5904276      50218.233      36.893836      36.893836      36.893836    
   7450000   0.49728475    -7.8253474     -7.0794309      3.5762101      50218.233      36.893836      36.893836      36.893836    
   7460000   0.49635919    -7.8251949     -7.0806667      3.5828783      50218.233      36.893836      36.893836      36.893836    
   7470000   0.49617087    -7.8214677     -7.077222       3.5929728      50218.233      36.893836      36.893836      36.893836    
   7480000   0.49478155    -7.8212546     -7.0790928      3.5985703      50218.233      36.893836      36.893836      36.893836    
   7490000   0.4940108     -7.8203945     -7.0793888      3.6003383      50218.233      36.893836      36.893836      36.893836    
   7500000   0.49546539    -7.8210171     -7.0778296      3.6003001      50218.233      36.893836      36.893836      36.893836    
   7510000   0.49208946    -7.8261073     -7.0879836      3.5620593      50218.233      36.893836      36.893836      36.893836    
   7520000   0.49473062    -7.8192752     -7.0771899      3.6253979      50218.233      36.893836      36.893836      36.893836    
   7530000   0.49704183    -7.827036      -7.0814839      3.5689372      50218.233      36.893836      36.893836      36.893836    
   7540000   0.49543283    -7.8273462     -7.0842076      3.5560533      50218.233      36.893836      36.893836      36.893836    
   7550000   0.49374688    -7.8267034     -7.0860936      3.5675656      50218.233      36.893836      36.893836      36.893836    
   7560000   0.49683506    -7.820202      -7.0749601      3.6015507      50218.233      36.893836      36.893836      36.893836    
   7570000   0.49643946    -7.8218167     -7.0771681      3.6011465      50218.233      36.893836      36.893836      36.893836    
   7580000   0.49575328    -7.8186699     -7.0750506      3.6218491      50218.233      36.893836      36.893836      36.893836    
   7590000   0.49512897    -7.8227493     -7.0800664      3.592701       50218.233      36.893836      36.893836      36.893836    
   7600000   0.49324393    -7.8204484     -7.080593       3.6107859      50218.233      36.893836      36.893836      36.893836    
   7610000   0.49675266    -7.8182291     -7.0731107      3.6302441      50218.233      36.893836      36.893836      36.893836    
   7620000   0.49703268    -7.8255533     -7.0800149      3.5736874      50218.233      36.893836      36.893836      36.893836    
   7630000   0.49432844    -7.8231734     -7.0816913      3.5982295      50218.233      36.893836      36.893836      36.893836    
   7640000   0.49543525    -7.820953      -7.0778107      3.6133865      50218.233      36.893836      36.893836      36.893836    
   7650000   0.49601094    -7.8262163     -7.0822104      3.5696473      50218.233      36.893836      36.893836      36.893836    
   7660000   0.49567028    -7.8217518     -7.078257       3.5871025      50218.233      36.893836      36.893836      36.893836    
   7670000   0.49469503    -7.8254354     -7.0834034      3.5737776      50218.233      36.893836      36.893836      36.893836    
   7680000   0.49822566    -7.8218582     -7.0745303      3.5983481      50218.233      36.893836      36.893836      36.893836    
   7690000   0.49569641    -7.8168503     -7.0733162      3.6332246      50218.233      36.893836      36.893836      36.893836    
   7700000   0.494542      -7.8236128     -7.0818103      3.5790241      50218.233      36.893836      36.893836      36.893836    
   7710000   0.49511367    -7.8272112     -7.0845513      3.556676       50218.233      36.893836      36.893836      36.893836    
   7720000   0.49583977    -7.8204864     -7.0767373      3.6172755      50218.233      36.893836      36.893836      36.893836    
   7730000   0.49469014    -7.8216107     -7.0795861      3.6016095      50218.233      36.893836      36.893836      36.893836    
   7740000   0.49511799    -7.8217791     -7.0791127      3.594164       50218.233      36.893836      36.893836      36.893836    
   7750000   0.49143225    -7.8218176     -7.0846797      3.5804307      50218.233      36.893836      36.893836      36.893836    
   7760000   0.49267661    -7.8226892     -7.0836848      3.5852559      50218.233      36.893836      36.893836      36.893836    
   7770000   0.49291637    -7.8208325     -7.0814685      3.5974458      50218.233      36.893836      36.893836      36.893836    
   7780000   0.49673435    -7.8189086     -7.0738177      3.6272231      50218.233      36.893836      36.893836      36.893836    
   7790000   0.49551869    -7.8225362     -7.0792687      3.5878712      50218.233      36.893836      36.893836      36.893836    
   7800000   0.49471411    -7.8202565     -7.0781959      3.614713       50218.233      36.893836      36.893836      36.893836    
   7810000   0.49562863    -7.8230678     -7.0796354      3.5809054      50218.233      36.893836      36.893836      36.893836    
   7820000   0.49569933    -7.8181792     -7.0746408      3.6246454      50218.233      36.893836      36.893836      36.893836    
   7830000   0.49489905    -7.8198407     -7.0775027      3.6133007      50218.233      36.893836      36.893836      36.893836    
   7840000   0.49598334    -7.8205076     -7.0765432      3.6139439      50218.233      36.893836      36.893836      36.893836    
   7850000   0.49460828    -7.8262968     -7.0843949      3.5715198      50218.233      36.893836      36.893836      36.893836    
   7860000   0.49693402    -7.8214938     -7.0761034      3.6029575      50218.233      36.893836      36.893836      36.893836    
   7870000   0.49463531    -7.8257619     -7.0838195      3.5730449      50218.233      36.893836      36.893836      36.893836    
   7880000   0.49760598    -7.8229355     -7.0765371      3.5970472      50218.233      36.893836      36.893836      36.893836    
   7890000   0.49753499    -7.825926      -7.0796341      3.5758183      50218.233      36.893836      36.893836      36.893836    
   7900000   0.49503753    -7.8218118     -7.079266       3.59119        50218.233      36.893836      36.893836      36.893836    
   7910000   0.49734421    -7.8238043     -7.0777986      3.5933287      50218.233      36.893836      36.893836      36.893836    
   7920000   0.49654803    -7.8206728     -7.0758613      3.6037553      50218.233      36.893836      36.893836      36.893836    
   7930000   0.49816283    -7.8226883     -7.0754547      3.5959723      50218.233      36.893836      36.893836      36.893836    
   7940000   0.49679001    -7.824871      -7.0796965      3.5849479      50218.233      36.893836      36.893836      36.893836    
   7950000   0.49832892    -7.8253856     -7.0779029      3.5844737      50218.233      36.893836      36.893836      36.893836    
   7960000   0.49226586    -7.8231718     -7.0847835      3.587225       50218.233      36.893836      36.893836      36.893836    
   7970000   0.49479407    -7.8265629     -7.0843823      3.5737005      50218.233      36.893836      36.893836      36.893836    
   7980000   0.49543741    -7.8257438     -7.0825982      3.5702782      50218.233      36.893836      36.893836      36.893836    
   7990000   0.49620749    -7.8259769     -7.0816763      3.5730039      50218.233      36.893836      36.893836      36.893836    
   8000000   0.49538254    -7.8257043     -7.082641       3.5762031      50218.233      36.893836      36.893836      36.893836    
Loop time of 12712.5 on 5 procs for 8000000 steps with 70304 atoms

Performance: 543715.741 tau/day, 629.301 timesteps/s, 44.242 Matom-step/s
94.6% CPU use with 5 MPI tasks x 1 OpenMP threads

MPI task timing breakdown:
Section |  min time  |  avg time  |  max time  |%varavg| %total
---------------------------------------------------------------
Pair    | 4490.7     | 4924.2     | 5308       | 438.5 | 38.74
Neigh   | 42.092     | 45.163     | 50.515     |  44.6 |  0.36
Comm    | 1899.5     | 1929.9     | 1951.5     |  45.9 | 15.18
Output  | 0.14584    | 0.15122    | 0.1611     |   1.4 |  0.00
Modify  | 4741.8     | 5148.9     | 5548.8     | 428.4 | 40.50
Other   |            | 664.2      |            |       |  5.23

Nlocal:        14060.8 ave       14078 max       14028 min
Histogram: 1 0 0 0 0 1 0 0 2 1
Nghost:        18744.6 ave       18790 max       18707 min
Histogram: 1 0 0 1 2 0 0 0 0 1
Neighs:              0 ave           0 max           0 min
Histogram: 5 0 0 0 0 0 0 0 0 0

Total # of neighbors = 0
Ave neighs/atom = 0
Neighbor list builds = 1632554
Dangerous builds = 0
clear
OMP_NUM_THREADS environment is not set. Defaulting to 1 thread. (src/comm.cpp:98)
  using 1 OpenMP thread(s) per MPI task
package gpu 0
jump dms475.lmp

variable T equal 475
# T = 1000* (temp in LJ unit)
variable f equal 10000
log log.${T}
log log.475
