variable TLJ equal (${T}/1000)
variable TLJ equal (440/1000)
variable NCyle equal 10
variable iStep equal (${f})
variable iStep equal (10000)
variable dumpStep equal (${f}*100)
variable dumpStep equal (10000*100)
variable runStep equal (${f}*100*${NCyle})
variable runStep equal (10000*100*${NCyle})
variable runStep equal (10000*100*10)

units       lj
atom_style  atomic
dimension 3
boundary     p p p
pair_style  lj/cut 2.5
read_data  ../data/T${T}.dat
read_data  ../data/T440.dat
Reading data file ...
  orthogonal box = (0.97250269 0.97250269 0.97250269) to (37.866338 37.866338 37.866338)
  1 by 1 by 5 MPI processor grid
  reading atoms ...
  70304 atoms
  reading velocities ...
  70304 velocities
  read_data CPU = 0.209 seconds
change_box all triclinic
Changing box ...
  triclinic box = (0.97250269 0.97250269 0.97250269) to (37.866338 37.866338 37.866338) with tilt (0 0 0)
mass 1 1
mass 2 1
pair_modify shift yes
pair_coeff  1 1 1 1
pair_coeff  1 2 1.5 0.8
pair_coeff  2 2 0.5 0.88


timestep 0.01
thermo ${iStep}
thermo 10000
reset_timestep 0
thermo_style custom step temp pe etotal press vol lx ly lz
fix             1 all nvt temp ${TLJ}  ${TLJ}  0.1
fix             1 all nvt temp 0.44  ${TLJ}  0.1
fix             1 all nvt temp 0.44  0.44  0.1
thermo_modify flush yes

fix dsf all deform 1 xy  wiggle 0.5  ${f}   units box
fix dsf all deform 1 xy  wiggle 0.5  10000   units box
fix ps1 all ave/time 1 1 ${iStep} c_thermo_press[1] c_thermo_press[2]  c_thermo_press[3] c_thermo_press[4]  c_thermo_press[5] c_thermo_press[6]  file  stress.${T}
fix ps1 all ave/time 1 1 10000 c_thermo_press[1] c_thermo_press[2]  c_thermo_press[3] c_thermo_press[4]  c_thermo_press[5] c_thermo_press[6]  file  stress.${T}
fix ps1 all ave/time 1 1 10000 c_thermo_press[1] c_thermo_press[2]  c_thermo_press[3] c_thermo_press[4]  c_thermo_press[5] c_thermo_press[6]  file  stress.440
dump            1 all custom ${dumpStep} dump.${T} id type x y z
dump            1 all custom 1000000 dump.${T} id type x y z
dump            1 all custom 1000000 dump.440 id type x y z
dump_modify 1 sort id
fix nodrift all momentum 1  linear 1 1 1
fix com_seed all recenter INIT INIT INIT shift all
run ${runStep}
run 10000000
Generated 0 of 1 mixed pair_coeff terms from geometric mixing rule
Per MPI rank memory allocation (min/avg/max) = 6.668 | 8.471 | 8.925 Mbytes
   Step          Temp          PotEng         TotEng         Press          Volume           Lx             Ly             Lz      
         0   0.44063242    -7.9306102     -7.269671       2.7216203      50218.233      36.893836      36.893836      36.893836    
     10000   0.44017598    -7.9257255     -7.2654709      2.7439576      50218.233      36.893836      36.893836      36.893836    
     20000   0.43976782    -7.9259527     -7.2663103      2.7619709      50218.233      36.893836      36.893836      36.893836    
     30000   0.43882272    -7.9297568     -7.2715321      2.7317191      50218.233      36.893836      36.893836      36.893836    
     40000   0.43994633    -7.9280616     -7.2681515      2.7278005      50218.233      36.893836      36.893836      36.893836    
     50000   0.44203623    -7.9288769     -7.265832       2.7254067      50218.233      36.893836      36.893836      36.893836    
     60000   0.44058444    -7.9298551     -7.2689879      2.7234594      50218.233      36.893836      36.893836      36.893836    
     70000   0.43854678    -7.9277235     -7.2699127      2.7396391      50218.233      36.893836      36.893836      36.893836    
     80000   0.44158038    -7.9303685     -7.2680074      2.7223498      50218.233      36.893836      36.893836      36.893836    
     90000   0.44018964    -7.9250441     -7.264769       2.7561584      50218.233      36.893836      36.893836      36.893836    
    100000   0.43907499    -7.9245938     -7.2659907      2.7587878      50218.233      36.893836      36.893836      36.893836    
    110000   0.4393597     -7.925236      -7.2662059      2.7612525      50218.233      36.893836      36.893836      36.893836    
    120000   0.43981837    -7.9249919     -7.2652737      2.766028       50218.233      36.893836      36.893836      36.893836    
    130000   0.43993246    -7.9259988     -7.2661095      2.7441662      50218.233      36.893836      36.893836      36.893836    
    140000   0.43964541    -7.9226201     -7.2631613      2.77534        50218.233      36.893836      36.893836      36.893836    
    150000   0.43977423    -7.925231      -7.2655791      2.7630141      50218.233      36.893836      36.893836      36.893836    
    160000   0.43892152    -7.9264761     -7.2681032      2.7457806      50218.233      36.893836      36.893836      36.893836    
    170000   0.4398032     -7.9276319     -7.2679365      2.7426822      50218.233      36.893836      36.893836      36.893836    
    180000   0.43892295    -7.9249047     -7.2665297      2.7551001      50218.233      36.893836      36.893836      36.893836    
    190000   0.44101522    -7.9288181     -7.2673047      2.7254394      50218.233      36.893836      36.893836      36.893836    
    200000   0.43796578    -7.9231746     -7.2662353      2.773259       50218.233      36.893836      36.893836      36.893836    
    210000   0.43934546    -7.9251727     -7.2661639      2.7603495      50218.233      36.893836      36.893836      36.893836    
    220000   0.43901538    -7.9252467     -7.266733       2.754318       50218.233      36.893836      36.893836      36.893836    
    230000   0.4392871     -7.9315194     -7.2725981      2.7112455      50218.233      36.893836      36.893836      36.893836    
    240000   0.4378432     -7.9266439     -7.2698884      2.7505815      50218.233      36.893836      36.893836      36.893836    
    250000   0.4377121     -7.9273108     -7.270752       2.7376404      50218.233      36.893836      36.893836      36.893836    
    260000   0.44228753    -7.9247524     -7.2613306      2.7687661      50218.233      36.893836      36.893836      36.893836    
    270000   0.44175628    -7.930708      -7.268083       2.7226999      50218.233      36.893836      36.893836      36.893836    
    280000   0.44118225    -7.9260925     -7.2643286      2.7385721      50218.233      36.893836      36.893836      36.893836    
    290000   0.4401061     -7.9284937     -7.268344       2.73705        50218.233      36.893836      36.893836      36.893836    
    300000   0.44178128    -7.9276538     -7.2649913      2.7422944      50218.233      36.893836      36.893836      36.893836    
    310000   0.44004937    -7.9275809     -7.2675162      2.742923       50218.233      36.893836      36.893836      36.893836    
    320000   0.44027755    -7.9232431     -7.2628361      2.765506       50218.233      36.893836      36.893836      36.893836    
    330000   0.43731603    -7.9268179     -7.2708532      2.7402374      50218.233      36.893836      36.893836      36.893836    
    340000   0.43957058    -7.9236337     -7.2642872      2.759659       50218.233      36.893836      36.893836      36.893836    
    350000   0.44160579    -7.9295505     -7.2671512      2.7362579      50218.233      36.893836      36.893836      36.893836    
    360000   0.44052937    -7.9274536     -7.2666689      2.7262522      50218.233      36.893836      36.893836      36.893836    
    370000   0.44166804    -7.9235915     -7.2610989      2.7710594      50218.233      36.893836      36.893836      36.893836    
    380000   0.43750462    -7.9280263     -7.2717787      2.7320417      50218.233      36.893836      36.893836      36.893836    
    390000   0.43897582    -7.9261107     -7.2676563      2.7533499      50218.233      36.893836      36.893836      36.893836    
    400000   0.43928731    -7.9292491     -7.2703275      2.7251768      50218.233      36.893836      36.893836      36.893836    
    410000   0.43970721    -7.9251907     -7.2656392      2.7584647      50218.233      36.893836      36.893836      36.893836    
    420000   0.43916728    -7.9294564     -7.2707149      2.7204031      50218.233      36.893836      36.893836      36.893836    
    430000   0.44110115    -7.9257472     -7.2641048      2.7569238      50218.233      36.893836      36.893836      36.893836    
    440000   0.43819214    -7.9266092     -7.2693303      2.7448453      50218.233      36.893836      36.893836      36.893836    
    450000   0.43990691    -7.9254285     -7.2655775      2.7534056      50218.233      36.893836      36.893836      36.893836    
    460000   0.44020426    -7.9312612     -7.2709642      2.7094638      50218.233      36.893836      36.893836      36.893836    
    470000   0.43895356    -7.9290791     -7.2706581      2.7175317      50218.233      36.893836      36.893836      36.893836    
    480000   0.44042044    -7.922939      -7.2623177      2.7776255      50218.233      36.893836      36.893836      36.893836    
    490000   0.43941711    -7.9265545     -7.2674382      2.7500482      50218.233      36.893836      36.893836      36.893836    
    500000   0.4393694     -7.9272804     -7.2682357      2.7331533      50218.233      36.893836      36.893836      36.893836    
    510000   0.438895      -7.9263194     -7.2679862      2.7422391      50218.233      36.893836      36.893836      36.893836    
    520000   0.43988173    -7.9281575     -7.2683443      2.7335951      50218.233      36.893836      36.893836      36.893836    
    530000   0.44145058    -7.9291288     -7.2669623      2.7283617      50218.233      36.893836      36.893836      36.893836    
    540000   0.43901711    -7.9248611     -7.2663448      2.7533397      50218.233      36.893836      36.893836      36.893836    
    550000   0.44026876    -7.9272571     -7.2668634      2.7397389      50218.233      36.893836      36.893836      36.893836    
    560000   0.44026885    -7.9318534     -7.2714595      2.7148667      50218.233      36.893836      36.893836      36.893836    
    570000   0.44108352    -7.9284553     -7.2668395      2.7393774      50218.233      36.893836      36.893836      36.893836    
    580000   0.44179206    -7.9258932     -7.2632145      2.7604039      50218.233      36.893836      36.893836      36.893836    
    590000   0.43863512    -7.9227937     -7.2648504      2.7746852      50218.233      36.893836      36.893836      36.893836    
    600000   0.44073755    -7.9278999     -7.2668029      2.7474802      50218.233      36.893836      36.893836      36.893836    
    610000   0.44035997    -7.9239867     -7.2634561      2.7762713      50218.233      36.893836      36.893836      36.893836    
    620000   0.43826565    -7.9287812     -7.2713921      2.734795       50218.233      36.893836      36.893836      36.893836    
    630000   0.4409926     -7.9288472     -7.2673677      2.7341235      50218.233      36.893836      36.893836      36.893836    
    640000   0.43913921    -7.9260673     -7.2673678      2.7586869      50218.233      36.893836      36.893836      36.893836    
    650000   0.44065533    -7.9265883     -7.2656147      2.746751       50218.233      36.893836      36.893836      36.893836    
    660000   0.4396527     -7.9244976     -7.265028       2.765408       50218.233      36.893836      36.893836      36.893836    
    670000   0.44109627    -7.9241541     -7.2625191      2.7719718      50218.233      36.893836      36.893836      36.893836    
    680000   0.4404467     -7.925199      -7.2645383      2.758319       50218.233      36.893836      36.893836      36.893836    
    690000   0.43791098    -7.9272212     -7.270364       2.7472607      50218.233      36.893836      36.893836      36.893836    
    700000   0.43958417    -7.930066      -7.2706992      2.7179368      50218.233      36.893836      36.893836      36.893836    
    710000   0.44172249    -7.9302462     -7.2676719      2.7211803      50218.233      36.893836      36.893836      36.893836    
    720000   0.43796918    -7.9264544     -7.26951        2.7403794      50218.233      36.893836      36.893836      36.893836    
    730000   0.44062432    -7.9253039     -7.2643768      2.7594772      50218.233      36.893836      36.893836      36.893836    
    740000   0.44059466    -7.9304841     -7.2696016      2.7231369      50218.233      36.893836      36.893836      36.893836    
    750000   0.44040392    -7.9301378     -7.2695413      2.72443        50218.233      36.893836      36.893836      36.893836    
    760000   0.43896147    -7.9258688     -7.2674359      2.7476438      50218.233      36.893836      36.893836      36.893836    
    770000   0.43916586    -7.9260715     -7.2673321      2.7445869      50218.233      36.893836      36.893836      36.893836    
    780000   0.4391628     -7.9254529     -7.266718       2.7576956      50218.233      36.893836      36.893836      36.893836    
    790000   0.44287365    -7.9242345     -7.2599335      2.7738215      50218.233      36.893836      36.893836      36.893836    
    800000   0.443721      -7.925059      -7.2594869      2.7540529      50218.233      36.893836      36.893836      36.893836    
    810000   0.44018118    -7.9253673     -7.265105       2.7613253      50218.233      36.893836      36.893836      36.893836    
    820000   0.43834224    -7.9300656     -7.2725616      2.7233781      50218.233      36.893836      36.893836      36.893836    
    830000   0.43902423    -7.9282674     -7.2697404      2.7394251      50218.233      36.893836      36.893836      36.893836    
    840000   0.44079637    -7.9264362     -7.2652511      2.7565254      50218.233      36.893836      36.893836      36.893836    
    850000   0.43964764    -7.9307857     -7.2713237      2.7131385      50218.233      36.893836      36.893836      36.893836    
    860000   0.4398007     -7.9259444     -7.2662527      2.7602822      50218.233      36.893836      36.893836      36.893836    
    870000   0.43971883    -7.9250793     -7.2655104      2.7564206      50218.233      36.893836      36.893836      36.893836    
    880000   0.43898184    -7.9262006     -7.2677372      2.7434031      50218.233      36.893836      36.893836      36.893836    
    890000   0.44082626    -7.9285765     -7.2673465      2.7411644      50218.233      36.893836      36.893836      36.893836    
    900000   0.44029299    -7.9269534     -7.2665233      2.7452506      50218.233      36.893836      36.893836      36.893836    
    910000   0.44111634    -7.9260665     -7.2644014      2.7491328      50218.233      36.893836      36.893836      36.893836    
    920000   0.44016052    -7.9300444     -7.269813       2.7230616      50218.233      36.893836      36.893836      36.893836    
    930000   0.44001824    -7.9250279     -7.2650099      2.7595555      50218.233      36.893836      36.893836      36.893836    
    940000   0.4390118     -7.9275282     -7.2690198      2.7451249      50218.233      36.893836      36.893836      36.893836    
    950000   0.44054117    -7.926854      -7.2660517      2.7528372      50218.233      36.893836      36.893836      36.893836    
    960000   0.43790836    -7.927997      -7.2711438      2.7331088      50218.233      36.893836      36.893836      36.893836    
    970000   0.44004276    -7.9297945     -7.2697398      2.7403248      50218.233      36.893836      36.893836      36.893836    
    980000   0.43761818    -7.9309091     -7.2744912      2.7155495      50218.233      36.893836      36.893836      36.893836    
    990000   0.43913925    -7.927817      -7.2691175      2.7384016      50218.233      36.893836      36.893836      36.893836    
   1000000   0.43936747    -7.9220731     -7.2630313      2.7767754      50218.233      36.893836      36.893836      36.893836    
   1010000   0.4395948     -7.9273703     -7.2679874      2.7473753      50218.233      36.893836      36.893836      36.893836    
   1020000   0.44123028    -7.9291297     -7.2672937      2.7367247      50218.233      36.893836      36.893836      36.893836    
   1030000   0.44251288    -7.9253719     -7.261612       2.7563351      50218.233      36.893836      36.893836      36.893836    
   1040000   0.43903417    -7.9246102     -7.2660683      2.7727221      50218.233      36.893836      36.893836      36.893836    
   1050000   0.43888339    -7.9264821     -7.2681664      2.7463155      50218.233      36.893836      36.893836      36.893836    
   1060000   0.43948236    -7.9290956     -7.2698814      2.7219358      50218.233      36.893836      36.893836      36.893836    
   1070000   0.44151955    -7.9272583     -7.2649884      2.7464025      50218.233      36.893836      36.893836      36.893836    
   1080000   0.43817836    -7.9280221     -7.2707639      2.727796       50218.233      36.893836      36.893836      36.893836    
   1090000   0.43896693    -7.9282555     -7.2698145      2.7329659      50218.233      36.893836      36.893836      36.893836    
   1100000   0.44033099    -7.9259623     -7.2654753      2.757644       50218.233      36.893836      36.893836      36.893836    
   1110000   0.44085162    -7.9266329     -7.2653648      2.7447685      50218.233      36.893836      36.893836      36.893836    
   1120000   0.43844814    -7.9238326     -7.2661697      2.7735029      50218.233      36.893836      36.893836      36.893836    
   1130000   0.44303963    -7.9271915     -7.2626415      2.7516301      50218.233      36.893836      36.893836      36.893836    
   1140000   0.44117587    -7.926476      -7.2647216      2.7503569      50218.233      36.893836      36.893836      36.893836    
   1150000   0.4405935     -7.9306874     -7.2698065      2.7196677      50218.233      36.893836      36.893836      36.893836    
   1160000   0.43831145    -7.9243897     -7.2669318      2.7584091      50218.233      36.893836      36.893836      36.893836    
   1170000   0.43950075    -7.9233748     -7.2641331      2.7653236      50218.233      36.893836      36.893836      36.893836    
   1180000   0.43958756    -7.9235687     -7.2641967      2.7646683      50218.233      36.893836      36.893836      36.893836    
   1190000   0.43964453    -7.9257129     -7.2662554      2.7423642      50218.233      36.893836      36.893836      36.893836    
   1200000   0.43991749    -7.9219249     -7.2620581      2.7879105      50218.233      36.893836      36.893836      36.893836    
   1210000   0.44114483    -7.9230727     -7.2613648      2.76505        50218.233      36.893836      36.893836      36.893836    
   1220000   0.43870098    -7.9237916     -7.2657495      2.7755579      50218.233      36.893836      36.893836      36.893836    
   1230000   0.43926683    -7.927359      -7.2684681      2.7415026      50218.233      36.893836      36.893836      36.893836    
   1240000   0.44118219    -7.9259899     -7.264226       2.7582199      50218.233      36.893836      36.893836      36.893836    
   1250000   0.43936338    -7.9275172     -7.2684815      2.731483       50218.233      36.893836      36.893836      36.893836    
   1260000   0.44193983    -7.9264941     -7.2635938      2.7515519      50218.233      36.893836      36.893836      36.893836    
   1270000   0.43977556    -7.9252255     -7.2655715      2.7578359      50218.233      36.893836      36.893836      36.893836    
   1280000   0.44197568    -7.9268081     -7.263854       2.7460332      50218.233      36.893836      36.893836      36.893836    
   1290000   0.44123766    -7.9246292     -7.2627821      2.7732577      50218.233      36.893836      36.893836      36.893836    
   1300000   0.44074724    -7.9224212     -7.2613097      2.783848       50218.233      36.893836      36.893836      36.893836    
   1310000   0.43935075    -7.9239776     -7.2649609      2.7663917      50218.233      36.893836      36.893836      36.893836    
   1320000   0.43939971    -7.9249123     -7.2658221      2.7691557      50218.233      36.893836      36.893836      36.893836    
   1330000   0.44185217    -7.9274064     -7.2646375      2.7522009      50218.233      36.893836      36.893836      36.893836    
   1340000   0.43982884    -7.929236      -7.2695022      2.7216369      50218.233      36.893836      36.893836      36.893836    
   1350000   0.44017398    -7.9246491     -7.2643975      2.7496215      50218.233      36.893836      36.893836      36.893836    
   1360000   0.44003448    -7.9267911     -7.2667488      2.7359064      50218.233      36.893836      36.893836      36.893836    
   1370000   0.44225265    -7.9252796     -7.2619101      2.762536       50218.233      36.893836      36.893836      36.893836    
   1380000   0.44142784    -7.9242936     -7.2621612      2.7595732      50218.233      36.893836      36.893836      36.893836    
   1390000   0.4407758     -7.923417      -7.2622627      2.769316       50218.233      36.893836      36.893836      36.893836    
   1400000   0.43831991    -7.9262609     -7.2687904      2.7448685      50218.233      36.893836      36.893836      36.893836    
   1410000   0.44071789    -7.9255802     -7.2645128      2.7546507      50218.233      36.893836      36.893836      36.893836    
   1420000   0.44056646    -7.9276226     -7.2667823      2.743949       50218.233      36.893836      36.893836      36.893836    
   1430000   0.44008082    -7.924783      -7.2646712      2.7609357      50218.233      36.893836      36.893836      36.893836    
   1440000   0.43916133    -7.9300738     -7.2713412      2.7210644      50218.233      36.893836      36.893836      36.893836    
   1450000   0.44026307    -7.9265088     -7.2661236      2.7496173      50218.233      36.893836      36.893836      36.893836    
   1460000   0.44006369    -7.927846      -7.2677599      2.7414075      50218.233      36.893836      36.893836      36.893836    
   1470000   0.43978422    -7.9287072     -7.2690402      2.7249386      50218.233      36.893836      36.893836      36.893836    
   1480000   0.44320556    -7.9258972     -7.2610983      2.7608308      50218.233      36.893836      36.893836      36.893836    
   1490000   0.43936831    -7.9257488     -7.2667057      2.7519177      50218.233      36.893836      36.893836      36.893836    
   1500000   0.44113612    -7.9279983     -7.2663036      2.738685       50218.233      36.893836      36.893836      36.893836    
   1510000   0.4415042     -7.9297349     -7.267488       2.72611        50218.233      36.893836      36.893836      36.893836    
   1520000   0.43742643    -7.9307483     -7.274618       2.7120461      50218.233      36.893836      36.893836      36.893836    
   1530000   0.43959236    -7.9283361     -7.268957       2.7420318      50218.233      36.893836      36.893836      36.893836    
   1540000   0.43976349    -7.9265675     -7.2669316      2.7502819      50218.233      36.893836      36.893836      36.893836    
   1550000   0.44027202    -7.9251471     -7.2647485      2.7609133      50218.233      36.893836      36.893836      36.893836    
   1560000   0.43909014    -7.9271478     -7.268522       2.7472718      50218.233      36.893836      36.893836      36.893836    
   1570000   0.43872158    -7.928653      -7.27058        2.7362833      50218.233      36.893836      36.893836      36.893836    
   1580000   0.44080667    -7.9281575     -7.2669569      2.7373478      50218.233      36.893836      36.893836      36.893836    
   1590000   0.43897876    -7.9287918     -7.2703331      2.7322526      50218.233      36.893836      36.893836      36.893836    
   1600000   0.43884225    -7.9292216     -7.2709676      2.7227801      50218.233      36.893836      36.893836      36.893836    
   1610000   0.44020635    -7.9279417     -7.2676416      2.7415207      50218.233      36.893836      36.893836      36.893836    
   1620000   0.44175608    -7.9257834     -7.2631587      2.7634945      50218.233      36.893836      36.893836      36.893836    
   1630000   0.43844438    -7.9277527     -7.2700955      2.7436034      50218.233      36.893836      36.893836      36.893836    
   1640000   0.43838128    -7.9223925     -7.26483        2.7794036      50218.233      36.893836      36.893836      36.893836    
   1650000   0.43895086    -7.9273649     -7.268948       2.7455381      50218.233      36.893836      36.893836      36.893836    
   1660000   0.4403782     -7.9300373     -7.2694794      2.7245441      50218.233      36.893836      36.893836      36.893836    
   1670000   0.44095076    -7.9250638     -7.2636471      2.7633802      50218.233      36.893836      36.893836      36.893836    
   1680000   0.44011022    -7.921529      -7.261373       2.7897746      50218.233      36.893836      36.893836      36.893836    
   1690000   0.44046702    -7.9269029     -7.2662118      2.7517126      50218.233      36.893836      36.893836      36.893836    
   1700000   0.43927323    -7.9283635     -7.269463       2.7337471      50218.233      36.893836      36.893836      36.893836    
   1710000   0.44094488    -7.9259212     -7.2645133      2.7576312      50218.233      36.893836      36.893836      36.893836    
   1720000   0.43740506    -7.9218992     -7.265801       2.7667277      50218.233      36.893836      36.893836      36.893836    
   1730000   0.44194788    -7.9268455     -7.2639331      2.745884       50218.233      36.893836      36.893836      36.893836    
   1740000   0.44099401    -7.9252722     -7.2637906      2.7677943      50218.233      36.893836      36.893836      36.893836    
   1750000   0.4397706     -7.9266401     -7.2669936      2.7561941      50218.233      36.893836      36.893836      36.893836    
   1760000   0.44084984    -7.9260966     -7.2648312      2.7589754      50218.233      36.893836      36.893836      36.893836    
   1770000   0.43927003    -7.9267336     -7.2678379      2.7453603      50218.233      36.893836      36.893836      36.893836    
   1780000   0.43849852    -7.9295601     -7.2718217      2.7154396      50218.233      36.893836      36.893836      36.893836    
   1790000   0.44011986    -7.9246651     -7.2644947      2.7597909      50218.233      36.893836      36.893836      36.893836    
   1800000   0.43994327    -7.9264241     -7.2665186      2.7574315      50218.233      36.893836      36.893836      36.893836    
   1810000   0.44242056    -7.9262149     -7.2625935      2.7636539      50218.233      36.893836      36.893836      36.893836    
   1820000   0.43997742    -7.926531      -7.2665743      2.7463762      50218.233      36.893836      36.893836      36.893836    
   1830000   0.43876083    -7.923441      -7.2653091      2.7787307      50218.233      36.893836      36.893836      36.893836    
   1840000   0.44080426    -7.9237137     -7.2625167      2.7739333      50218.233      36.893836      36.893836      36.893836    
   1850000   0.44056594    -7.923586      -7.2627465      2.7782881      50218.233      36.893836      36.893836      36.893836    
   1860000   0.43817479    -7.9248498     -7.267597       2.7504785      50218.233      36.893836      36.893836      36.893836    
   1870000   0.44038886    -7.9287283     -7.2681544      2.7399044      50218.233      36.893836      36.893836      36.893836    
   1880000   0.43868213    -7.9249481     -7.2669342      2.7493231      50218.233      36.893836      36.893836      36.893836    
   1890000   0.44090206    -7.9283699     -7.2670263      2.735524       50218.233      36.893836      36.893836      36.893836    
   1900000   0.43886124    -7.9234979     -7.2652154      2.7722892      50218.233      36.893836      36.893836      36.893836    
   1910000   0.44179571    -7.9270695     -7.2643854      2.7666361      50218.233      36.893836      36.893836      36.893836    
   1920000   0.43811016    -7.929394      -7.2722382      2.7191817      50218.233      36.893836      36.893836      36.893836    
   1930000   0.43987897    -7.9257059     -7.2658968      2.7633914      50218.233      36.893836      36.893836      36.893836    
   1940000   0.43949241    -7.9254876     -7.2662584      2.7594551      50218.233      36.893836      36.893836      36.893836    
   1950000   0.44063173    -7.9267899     -7.2658517      2.7436884      50218.233      36.893836      36.893836      36.893836    
   1960000   0.43799079    -7.9261299     -7.269153       2.7439906      50218.233      36.893836      36.893836      36.893836    
   1970000   0.43885362    -7.9283274     -7.2700564      2.7360814      50218.233      36.893836      36.893836      36.893836    
   1980000   0.43920256    -7.9289204     -7.2701259      2.7341376      50218.233      36.893836      36.893836      36.893836    
   1990000   0.43948151    -7.9251401     -7.2659272      2.7612813      50218.233      36.893836      36.893836      36.893836    
   2000000   0.44104422    -7.9226645     -7.2611076      2.7794397      50218.233      36.893836      36.893836      36.893836    
   2010000   0.44282589    -7.9272515     -7.2630221      2.7509833      50218.233      36.893836      36.893836      36.893836    
   2020000   0.44160943    -7.9266407     -7.264236       2.7607376      50218.233      36.893836      36.893836      36.893836    
   2030000   0.44166874    -7.9251911     -7.2626974      2.7534533      50218.233      36.893836      36.893836      36.893836    
   2040000   0.43767327    -7.9258078     -7.2693072      2.7475053      50218.233      36.893836      36.893836      36.893836    
   2050000   0.43990242    -7.9284451     -7.2686008      2.7416048      50218.233      36.893836      36.893836      36.893836    
   2060000   0.43877591    -7.9316173     -7.2734628      2.7126317      50218.233      36.893836      36.893836      36.893836    
   2070000   0.43875102    -7.9250202     -7.266903       2.7624781      50218.233      36.893836      36.893836      36.893836    
   2080000   0.43995111    -7.9275345     -7.2676172      2.754359       50218.233      36.893836      36.893836      36.893836    
   2090000   0.44209381    -7.9289324     -7.2658011      2.7339352      50218.233      36.893836      36.893836      36.893836    
   2100000   0.4425381     -7.9271202     -7.2633225      2.7428807      50218.233      36.893836      36.893836      36.893836    
   2110000   0.43930548    -7.9297438     -7.270795       2.7321101      50218.233      36.893836      36.893836      36.893836    
   2120000   0.44140857    -7.9253722     -7.2632688      2.7613864      50218.233      36.893836      36.893836      36.893836    
   2130000   0.43799805    -7.9253665     -7.2683788      2.7532372      50218.233      36.893836      36.893836      36.893836    
   2140000   0.43907283    -7.9263088     -7.2677089      2.7463656      50218.233      36.893836      36.893836      36.893836    
   2150000   0.44060728    -7.9240546     -7.2631531      2.7680374      50218.233      36.893836      36.893836      36.893836    
   2160000   0.43803492    -7.9251519     -7.2681088      2.7535522      50218.233      36.893836      36.893836      36.893836    
   2170000   0.43878499    -7.9246899     -7.2665217      2.7615222      50218.233      36.893836      36.893836      36.893836    
   2180000   0.4394116     -7.9257685     -7.2666605      2.7527701      50218.233      36.893836      36.893836      36.893836    
   2190000   0.44209945    -7.9265395     -7.2633998      2.755386       50218.233      36.893836      36.893836      36.893836    
   2200000   0.44062588    -7.924744      -7.2638146      2.7727359      50218.233      36.893836      36.893836      36.893836    
   2210000   0.4412169     -7.926492      -7.2646761      2.7464657      50218.233      36.893836      36.893836      36.893836    
   2220000   0.44010279    -7.9238651     -7.2637203      2.7596207      50218.233      36.893836      36.893836      36.893836    
   2230000   0.43999873    -7.924998      -7.2650093      2.7654454      50218.233      36.893836      36.893836      36.893836    
   2240000   0.44083645    -7.924634      -7.2633888      2.7598926      50218.233      36.893836      36.893836      36.893836    
   2250000   0.43952601    -7.9286327     -7.2693531      2.7214622      50218.233      36.893836      36.893836      36.893836    
   2260000   0.43861372    -7.9221862     -7.2642749      2.7747585      50218.233      36.893836      36.893836      36.893836    
   2270000   0.43924033    -7.9264528     -7.2676017      2.7562931      50218.233      36.893836      36.893836      36.893836    
   2280000   0.43836788    -7.9275925     -7.27005        2.7370012      50218.233      36.893836      36.893836      36.893836    
   2290000   0.44043012    -7.9270887     -7.2664529      2.7433987      50218.233      36.893836      36.893836      36.893836    
   2300000   0.44028612    -7.9249435     -7.2645237      2.7644975      50218.233      36.893836      36.893836      36.893836    
   2310000   0.44016613    -7.9257426     -7.2655028      2.7538817      50218.233      36.893836      36.893836      36.893836    
   2320000   0.4399565     -7.925981      -7.2660557      2.7605381      50218.233      36.893836      36.893836      36.893836    
   2330000   0.43957275    -7.9251513     -7.2658016      2.7549536      50218.233      36.893836      36.893836      36.893836    
   2340000   0.44246674    -7.9289975     -7.2653068      2.7358176      50218.233      36.893836      36.893836      36.893836    
   2350000   0.43992542    -7.924876      -7.2649972      2.7593532      50218.233      36.893836      36.893836      36.893836    
   2360000   0.44094264    -7.9276649     -7.2662603      2.7361482      50218.233      36.893836      36.893836      36.893836    
   2370000   0.44126534    -7.9267162     -7.2648276      2.7454854      50218.233      36.893836      36.893836      36.893836    
   2380000   0.4404754     -7.9258453     -7.2651416      2.7513439      50218.233      36.893836      36.893836      36.893836    
   2390000   0.43892201    -7.9253093     -7.2669356      2.7519767      50218.233      36.893836      36.893836      36.893836    
   2400000   0.43986506    -7.9259712     -7.266183       2.7495448      50218.233      36.893836      36.893836      36.893836    
   2410000   0.43898181    -7.9235115     -7.2650482      2.7758298      50218.233      36.893836      36.893836      36.893836    
   2420000   0.43941337    -7.9229799     -7.2638692      2.7818453      50218.233      36.893836      36.893836      36.893836    
   2430000   0.44105185    -7.9263195     -7.2647511      2.7441858      50218.233      36.893836      36.893836      36.893836    
   2440000   0.43973429    -7.9268206     -7.2672285      2.7425741      50218.233      36.893836      36.893836      36.893836    
   2450000   0.44171575    -7.9277654     -7.2652012      2.736336       50218.233      36.893836      36.893836      36.893836    
   2460000   0.44019375    -7.9252901     -7.2650088      2.76646        50218.233      36.893836      36.893836      36.893836    
   2470000   0.43895107    -7.9278444     -7.2694272      2.7455382      50218.233      36.893836      36.893836      36.893836    
   2480000   0.43963385    -7.9268108     -7.2673694      2.7541809      50218.233      36.893836      36.893836      36.893836    
   2490000   0.43849307    -7.9293609     -7.2716307      2.7216923      50218.233      36.893836      36.893836      36.893836    
   2500000   0.43968337    -7.9265272     -7.2670116      2.7425807      50218.233      36.893836      36.893836      36.893836    
   2510000   0.44038195    -7.9257306     -7.2651671      2.755334       50218.233      36.893836      36.893836      36.893836    
   2520000   0.4407005     -7.9261229     -7.2650815      2.7524062      50218.233      36.893836      36.893836      36.893836    
   2530000   0.43899449    -7.9256996     -7.2672172      2.7496249      50218.233      36.893836      36.893836      36.893836    
   2540000   0.44162313    -7.9270998     -7.2646745      2.7474307      50218.233      36.893836      36.893836      36.893836    
   2550000   0.44053055    -7.9266799     -7.2658935      2.7482685      50218.233      36.893836      36.893836      36.893836    
   2560000   0.44024406    -7.930406      -7.2700493      2.7218653      50218.233      36.893836      36.893836      36.893836    
   2570000   0.44121821    -7.9245462     -7.2627283      2.7597497      50218.233      36.893836      36.893836      36.893836    
   2580000   0.43997099    -7.9286534     -7.2687063      2.7419701      50218.233      36.893836      36.893836      36.893836    
   2590000   0.43697583    -7.9266597     -7.2712052      2.7394778      50218.233      36.893836      36.893836      36.893836    
   2600000   0.43981727    -7.9262859     -7.2665694      2.7542632      50218.233      36.893836      36.893836      36.893836    
   2610000   0.44020557    -7.9267622     -7.2664632      2.7520136      50218.233      36.893836      36.893836      36.893836    
   2620000   0.4398722     -7.926685      -7.2668861      2.7387356      50218.233      36.893836      36.893836      36.893836    
   2630000   0.43881973    -7.9257403     -7.2675201      2.7474543      50218.233      36.893836      36.893836      36.893836    
   2640000   0.43940746    -7.9257903     -7.2666885      2.7526609      50218.233      36.893836      36.893836      36.893836    
   2650000   0.43889816    -7.9257139     -7.2673761      2.7543231      50218.233      36.893836      36.893836      36.893836    
   2660000   0.44071014    -7.9247344     -7.2636786      2.7677491      50218.233      36.893836      36.893836      36.893836    
   2670000   0.44262015    -7.9272922     -7.2633715      2.7458254      50218.233      36.893836      36.893836      36.893836    
   2680000   0.44051754    -7.9285283     -7.2677614      2.7311001      50218.233      36.893836      36.893836      36.893836    
   2690000   0.44113083    -7.9265825     -7.2648956      2.7529123      50218.233      36.893836      36.893836      36.893836    
   2700000   0.43873838    -7.9245558     -7.2664576      2.7654776      50218.233      36.893836      36.893836      36.893836    
   2710000   0.43977462    -7.9265834     -7.2669309      2.750587       50218.233      36.893836      36.893836      36.893836    
   2720000   0.44117079    -7.9257893     -7.2640425      2.7653331      50218.233      36.893836      36.893836      36.893836    
   2730000   0.43935961    -7.9244127     -7.2653826      2.764188       50218.233      36.893836      36.893836      36.893836    
   2740000   0.43868074    -7.9276067     -7.2695949      2.7465001      50218.233      36.893836      36.893836      36.893836    
   2750000   0.44115953    -7.9257559     -7.264026       2.7584191      50218.233      36.893836      36.893836      36.893836    
   2760000   0.44030144    -7.9251337     -7.2646909      2.7606407      50218.233      36.893836      36.893836      36.893836    
   2770000   0.43957972    -7.9280897     -7.2687295      2.7440868      50218.233      36.893836      36.893836      36.893836    
   2780000   0.43956539    -7.9213758     -7.2620371      2.7808931      50218.233      36.893836      36.893836      36.893836    
   2790000   0.4384804     -7.9244254     -7.2667142      2.7561226      50218.233      36.893836      36.893836      36.893836    
   2800000   0.44000119    -7.9256906     -7.2656982      2.7566836      50218.233      36.893836      36.893836      36.893836    
   2810000   0.44130089    -7.9259477     -7.2640058      2.7663022      50218.233      36.893836      36.893836      36.893836    
   2820000   0.43782631    -7.9277941     -7.2710639      2.7442471      50218.233      36.893836      36.893836      36.893836    
   2830000   0.44177463    -7.9254241     -7.2627716      2.7606725      50218.233      36.893836      36.893836      36.893836    
   2840000   0.44038786    -7.9282292     -7.2676568      2.7434648      50218.233      36.893836      36.893836      36.893836    
   2850000   0.44159918    -7.9253948     -7.2630055      2.7676744      50218.233      36.893836      36.893836      36.893836    
   2860000   0.438226      -7.9272311     -7.2699014      2.7405588      50218.233      36.893836      36.893836      36.893836    
   2870000   0.4416045     -7.9262694     -7.263872       2.7531485      50218.233      36.893836      36.893836      36.893836    
   2880000   0.44049352    -7.9252529     -7.264522       2.7649752      50218.233      36.893836      36.893836      36.893836    
   2890000   0.44035563    -7.9269628     -7.2664387      2.7501212      50218.233      36.893836      36.893836      36.893836    
   2900000   0.4397436     -7.9255178     -7.2659118      2.7647461      50218.233      36.893836      36.893836      36.893836    
   2910000   0.43918369    -7.9290344     -7.2702682      2.7394117      50218.233      36.893836      36.893836      36.893836    
   2920000   0.44105775    -7.9239643     -7.2623871      2.7734925      50218.233      36.893836      36.893836      36.893836    
   2930000   0.44147491    -7.9262295     -7.2640265      2.7588833      50218.233      36.893836      36.893836      36.893836    
   2940000   0.43870131    -7.9278224     -7.2697798      2.7363816      50218.233      36.893836      36.893836      36.893836    
   2950000   0.44049487    -7.924691      -7.2639581      2.7587083      50218.233      36.893836      36.893836      36.893836    
   2960000   0.4386927     -7.925647      -7.2676173      2.7437177      50218.233      36.893836      36.893836      36.893836    
   2970000   0.43789208    -7.9297305     -7.2729017      2.7144525      50218.233      36.893836      36.893836      36.893836    
   2980000   0.44074788    -7.930108      -7.2689956      2.7208201      50218.233      36.893836      36.893836      36.893836    
   2990000   0.43903468    -7.9246146     -7.266072       2.7673085      50218.233      36.893836      36.893836      36.893836    
   3000000   0.43973014    -7.9289992     -7.2694134      2.7249329      50218.233      36.893836      36.893836      36.893836    
   3010000   0.43932795    -7.9264182     -7.2674357      2.7486259      50218.233      36.893836      36.893836      36.893836    
   3020000   0.43976239    -7.9283059     -7.2686717      2.73972        50218.233      36.893836      36.893836      36.893836    
   3030000   0.43856594    -7.9298056     -7.2719661      2.7176519      50218.233      36.893836      36.893836      36.893836    
   3040000   0.43959622    -7.9257506     -7.2663656      2.7556506      50218.233      36.893836      36.893836      36.893836    
   3050000   0.4379696     -7.9256446     -7.2686996      2.7519233      50218.233      36.893836      36.893836      36.893836    
   3060000   0.43916246    -7.9256091     -7.2668748      2.748984       50218.233      36.893836      36.893836      36.893836    
   3070000   0.43791563    -7.9277519     -7.2708878      2.7366017      50218.233      36.893836      36.893836      36.893836    
   3080000   0.44174873    -7.92398       -7.2613663      2.7646918      50218.233      36.893836      36.893836      36.893836    
   3090000   0.43996852    -7.9288635     -7.2689201      2.7316293      50218.233      36.893836      36.893836      36.893836    
   3100000   0.44149681    -7.9231038     -7.260868       2.7796211      50218.233      36.893836      36.893836      36.893836    
   3110000   0.43942443    -7.9254602     -7.2663329      2.7563544      50218.233      36.893836      36.893836      36.893836    
   3120000   0.44055441    -7.9274553     -7.2666331      2.742219       50218.233      36.893836      36.893836      36.893836    
   3130000   0.44046884    -7.9257467     -7.2650528      2.7573697      50218.233      36.893836      36.893836      36.893836    
   3140000   0.43928952    -7.925024      -7.2660991      2.7520275      50218.233      36.893836      36.893836      36.893836    
   3150000   0.43953784    -7.9263675     -7.2670701      2.7438747      50218.233      36.893836      36.893836      36.893836    
   3160000   0.44088404    -7.9281261     -7.2668095      2.7394967      50218.233      36.893836      36.893836      36.893836    
   3170000   0.43925314    -7.9267523     -7.267882       2.7492153      50218.233      36.893836      36.893836      36.893836    
   3180000   0.43888801    -7.9296508     -7.2713281      2.7235425      50218.233      36.893836      36.893836      36.893836    
   3190000   0.43892269    -7.9233772     -7.2650026      2.7734368      50218.233      36.893836      36.893836      36.893836    
   3200000   0.44118384    -7.9265662     -7.2647998      2.7491377      50218.233      36.893836      36.893836      36.893836    
   3210000   0.4390961     -7.9254844     -7.2668497      2.7542824      50218.233      36.893836      36.893836      36.893836    
   3220000   0.43814163    -7.9269653     -7.2697622      2.7362052      50218.233      36.893836      36.893836      36.893836    
   3230000   0.43858596    -7.9243208     -7.2664513      2.7627296      50218.233      36.893836      36.893836      36.893836    
   3240000   0.44014704    -7.9264946     -7.2662834      2.7513024      50218.233      36.893836      36.893836      36.893836    
   3250000   0.43899921    -7.9259816     -7.2674921      2.752538       50218.233      36.893836      36.893836      36.893836    
   3260000   0.44172498    -7.9244046     -7.2618265      2.7718867      50218.233      36.893836      36.893836      36.893836    
   3270000   0.44035561    -7.9259027     -7.2653787      2.7522438      50218.233      36.893836      36.893836      36.893836    
   3280000   0.44085094    -7.9240843     -7.2628173      2.7698457      50218.233      36.893836      36.893836      36.893836    
   3290000   0.44112201    -7.9268877     -7.2652141      2.7347268      50218.233      36.893836      36.893836      36.893836    
   3300000   0.44035812    -7.9274243     -7.2668965      2.7452963      50218.233      36.893836      36.893836      36.893836    
   3310000   0.44018017    -7.926865      -7.2666042      2.7537013      50218.233      36.893836      36.893836      36.893836    
   3320000   0.43925046    -7.9261869     -7.2673206      2.7495213      50218.233      36.893836      36.893836      36.893836    
   3330000   0.43762639    -7.9263016     -7.2698713      2.745267       50218.233      36.893836      36.893836      36.893836    
   3340000   0.43794825    -7.9255097     -7.2685966      2.7557569      50218.233      36.893836      36.893836      36.893836    
   3350000   0.44001232    -7.9229173     -7.2629082      2.778074       50218.233      36.893836      36.893836      36.893836    
   3360000   0.43962761    -7.9276332     -7.2682011      2.7375075      50218.233      36.893836      36.893836      36.893836    
   3370000   0.44011091    -7.9269854     -7.2668285      2.7482983      50218.233      36.893836      36.893836      36.893836    
   3380000   0.44087097    -7.9266253     -7.2653283      2.7489588      50218.233      36.893836      36.893836      36.893836    
   3390000   0.44127232    -7.9260293     -7.2641302      2.7524537      50218.233      36.893836      36.893836      36.893836    
   3400000   0.44066071    -7.9286432     -7.2676616      2.7251825      50218.233      36.893836      36.893836      36.893836    
   3410000   0.43738784    -7.9256978     -7.2696254      2.7520492      50218.233      36.893836      36.893836      36.893836    
   3420000   0.43887906    -7.9269111     -7.2686019      2.7519746      50218.233      36.893836      36.893836      36.893836    
   3430000   0.43858892    -7.9288298     -7.2709558      2.7248397      50218.233      36.893836      36.893836      36.893836    
   3440000   0.43821381    -7.9286318     -7.2713204      2.729565       50218.233      36.893836      36.893836      36.893836    
   3450000   0.44173336    -7.9305332     -7.2679425      2.7188905      50218.233      36.893836      36.893836      36.893836    
   3460000   0.43877366    -7.9240038     -7.2658527      2.7696486      50218.233      36.893836      36.893836      36.893836    
   3470000   0.43995661    -7.9260169     -7.2660914      2.7561656      50218.233      36.893836      36.893836      36.893836    
   3480000   0.43901725    -7.9305284     -7.2720119      2.7196045      50218.233      36.893836      36.893836      36.893836    
   3490000   0.44254163    -7.9271159     -7.2633129      2.7487449      50218.233      36.893836      36.893836      36.893836    
   3500000   0.43749286    -7.9318333     -7.2756034      2.7040296      50218.233      36.893836      36.893836      36.893836    
   3510000   0.4409522     -7.9277257     -7.2663069      2.7469593      50218.233      36.893836      36.893836      36.893836    
   3520000   0.43919793    -7.9248904     -7.2661029      2.7610593      50218.233      36.893836      36.893836      36.893836    
   3530000   0.44066376    -7.9246101     -7.2636239      2.7604106      50218.233      36.893836      36.893836      36.893836    
   3540000   0.43783907    -7.9300347     -7.2732854      2.7197457      50218.233      36.893836      36.893836      36.893836    
   3550000   0.44127105    -7.9278242     -7.2659271      2.7372175      50218.233      36.893836      36.893836      36.893836    
   3560000   0.43866186    -7.9263496     -7.2683662      2.7521872      50218.233      36.893836      36.893836      36.893836    
   3570000   0.43982079    -7.9256792     -7.2659574      2.7575795      50218.233      36.893836      36.893836      36.893836    
   3580000   0.43869631    -7.9276811     -7.269646       2.7389315      50218.233      36.893836      36.893836      36.893836    
   3590000   0.44086193    -7.9266097     -7.2653262      2.7588931      50218.233      36.893836      36.893836      36.893836    
   3600000   0.43822357    -7.9259348     -7.2686088      2.7589782      50218.233      36.893836      36.893836      36.893836    
   3610000   0.44026538    -7.9263081     -7.2659194      2.7518476      50218.233      36.893836      36.893836      36.893836    
   3620000   0.43710408    -7.9262681     -7.2706213      2.7548615      50218.233      36.893836      36.893836      36.893836    
   3630000   0.44162973    -7.9272058     -7.2647706      2.7423593      50218.233      36.893836      36.893836      36.893836    
   3640000   0.43982417    -7.9236034     -7.2638766      2.7634694      50218.233      36.893836      36.893836      36.893836    
   3650000   0.4404379     -7.9271861     -7.2665386      2.7468075      50218.233      36.893836      36.893836      36.893836    
   3660000   0.43786984    -7.9256916     -7.2688962      2.7438271      50218.233      36.893836      36.893836      36.893836    
   3670000   0.44178053    -7.9300298     -7.2673684      2.7278967      50218.233      36.893836      36.893836      36.893836    
   3680000   0.4402091     -7.9278486     -7.2675444      2.731859       50218.233      36.893836      36.893836      36.893836    
   3690000   0.43903339    -7.9238318     -7.2652911      2.7769586      50218.233      36.893836      36.893836      36.893836    
   3700000   0.44157279    -7.9274226     -7.2650728      2.7400547      50218.233      36.893836      36.893836      36.893836    
   3710000   0.44138782    -7.9260363     -7.263964       2.7583898      50218.233      36.893836      36.893836      36.893836    
   3720000   0.43850063    -7.9261056     -7.268364       2.7572614      50218.233      36.893836      36.893836      36.893836    
   3730000   0.43788429    -7.922796      -7.2659789      2.7775656      50218.233      36.893836      36.893836      36.893836    
   3740000   0.44152103    -7.9282914     -7.2660192      2.7371679      50218.233      36.893836      36.893836      36.893836    
   3750000   0.43915696    -7.925323      -7.2665969      2.7560252      50218.233      36.893836      36.893836      36.893836    
   3760000   0.44174077    -7.9257752     -7.2631735      2.7525729      50218.233      36.893836      36.893836      36.893836    
   3770000   0.43997658    -7.9264403     -7.2664848      2.740078       50218.233      36.893836      36.893836      36.893836    
   3780000   0.44194668    -7.9272352     -7.2643246      2.7478279      50218.233      36.893836      36.893836      36.893836    
   3790000   0.44177761    -7.9237616     -7.2611047      2.7679599      50218.233      36.893836      36.893836      36.893836    
   3800000   0.44008207    -7.9253575     -7.2652437      2.7568986      50218.233      36.893836      36.893836      36.893836    
   3810000   0.43948718    -7.9260312     -7.2668098      2.7449087      50218.233      36.893836      36.893836      36.893836    
   3820000   0.43997857    -7.9295273     -7.2695689      2.7205214      50218.233      36.893836      36.893836      36.893836    
   3830000   0.43915574    -7.9276503     -7.2689261      2.74349        50218.233      36.893836      36.893836      36.893836    
   3840000   0.44098262    -7.9232469     -7.2617824      2.7747373      50218.233      36.893836      36.893836      36.893836    
   3850000   0.44029336    -7.9288044     -7.2683737      2.7388099      50218.233      36.893836      36.893836      36.893836    
   3860000   0.44132857    -7.9265294     -7.264546       2.746201       50218.233      36.893836      36.893836      36.893836    
   3870000   0.4399462     -7.9270904     -7.2671805      2.7495124      50218.233      36.893836      36.893836      36.893836    
   3880000   0.43724993    -7.9287623     -7.2728967      2.7238389      50218.233      36.893836      36.893836      36.893836    
   3890000   0.43751422    -7.9289681     -7.2727061      2.7231433      50218.233      36.893836      36.893836      36.893836    
   3900000   0.44098952    -7.9267292     -7.2652543      2.7476483      50218.233      36.893836      36.893836      36.893836    
   3910000   0.43931179    -7.9244921     -7.2655338      2.7627412      50218.233      36.893836      36.893836      36.893836    
   3920000   0.44038073    -7.9283312     -7.2677695      2.7400212      50218.233      36.893836      36.893836      36.893836    
   3930000   0.43876881    -7.9265854     -7.2684415      2.7567543      50218.233      36.893836      36.893836      36.893836    
   3940000   0.44048894    -7.9281854     -7.2674613      2.7419296      50218.233      36.893836      36.893836      36.893836    
   3950000   0.44064003    -7.9285755     -7.2676249      2.7331061      50218.233      36.893836      36.893836      36.893836    
   3960000   0.43990332    -7.9271457     -7.2673001      2.7526955      50218.233      36.893836      36.893836      36.893836    
   3970000   0.44053042    -7.9278531     -7.2670668      2.7329347      50218.233      36.893836      36.893836      36.893836    
   3980000   0.4394479     -7.9328035     -7.273641       2.7130803      50218.233      36.893836      36.893836      36.893836    
   3990000   0.43948751    -7.9274313     -7.2682094      2.7504623      50218.233      36.893836      36.893836      36.893836    
   4000000   0.44227472    -7.9283969     -7.2649943      2.74568        50218.233      36.893836      36.893836      36.893836    
   4010000   0.43832135    -7.9308883     -7.2734157      2.7099415      50218.233      36.893836      36.893836      36.893836    
   4020000   0.44128793    -7.9278046     -7.2658822      2.744548       50218.233      36.893836      36.893836      36.893836    
   4030000   0.44084749    -7.9273596     -7.2660978      2.744571       50218.233      36.893836      36.893836      36.893836    
   4040000   0.44194693    -7.9255        -7.262589       2.7618635      50218.233      36.893836      36.893836      36.893836    
   4050000   0.44072263    -7.926094      -7.2650195      2.7654361      50218.233      36.893836      36.893836      36.893836    
   4060000   0.43805888    -7.9218365     -7.2647576      2.7795679      50218.233      36.893836      36.893836      36.893836    
   4070000   0.44030905    -7.9236559     -7.2632017      2.7666969      50218.233      36.893836      36.893836      36.893836    
   4080000   0.43699945    -7.9248708     -7.269381       2.7576579      50218.233      36.893836      36.893836      36.893836    
   4090000   0.44032051    -7.9272289     -7.2667575      2.7393647      50218.233      36.893836      36.893836      36.893836    
   4100000   0.44044233    -7.9255858     -7.2649317      2.7715896      50218.233      36.893836      36.893836      36.893836    
   4110000   0.43988674    -7.9230328     -7.2632121      2.7823752      50218.233      36.893836      36.893836      36.893836    
   4120000   0.43900613    -7.9278524     -7.2693526      2.7429202      50218.233      36.893836      36.893836      36.893836    
   4130000   0.442623      -7.9244327     -7.2605076      2.7749464      50218.233      36.893836      36.893836      36.893836    
   4140000   0.43924277    -7.9251035     -7.2662488      2.765774       50218.233      36.893836      36.893836      36.893836    
   4150000   0.43904175    -7.926747      -7.2681937      2.7418637      50218.233      36.893836      36.893836      36.893836    
   4160000   0.44156539    -7.9214938     -7.2591551      2.7882514      50218.233      36.893836      36.893836      36.893836    
   4170000   0.439965      -7.9251831     -7.265245       2.7629136      50218.233      36.893836      36.893836      36.893836    
   4180000   0.44006528    -7.9218758     -7.2617872      2.7850914      50218.233      36.893836      36.893836      36.893836    
   4190000   0.43817403    -7.924832      -7.2675803      2.7606746      50218.233      36.893836      36.893836      36.893836    
   4200000   0.44041097    -7.9235074     -7.2629004      2.7795946      50218.233      36.893836      36.893836      36.893836    
   4210000   0.4401764     -7.9262093     -7.2659541      2.7499618      50218.233      36.893836      36.893836      36.893836    
   4220000   0.44168732    -7.9256655     -7.2631439      2.7615622      50218.233      36.893836      36.893836      36.893836    
   4230000   0.44062368    -7.9264465     -7.2655204      2.7447085      50218.233      36.893836      36.893836      36.893836    
   4240000   0.44012458    -7.9292682     -7.2690907      2.7261683      50218.233      36.893836      36.893836      36.893836    
   4250000   0.44232024    -7.9224204     -7.2589495      2.7859617      50218.233      36.893836      36.893836      36.893836    
   4260000   0.43855889    -7.9242763     -7.2664473      2.7650725      50218.233      36.893836      36.893836      36.893836    
   4270000   0.44016439    -7.9279563     -7.2677191      2.7417208      50218.233      36.893836      36.893836      36.893836    
   4280000   0.43963405    -7.9220357     -7.262594       2.7774495      50218.233      36.893836      36.893836      36.893836    
   4290000   0.43986619    -7.9257562     -7.2659663      2.7640717      50218.233      36.893836      36.893836      36.893836    
   4300000   0.44242376    -7.9306652     -7.267039       2.7191982      50218.233      36.893836      36.893836      36.893836    
   4310000   0.43827031    -7.9311546     -7.2737585      2.7139086      50218.233      36.893836      36.893836      36.893836    
   4320000   0.43995022    -7.9251942     -7.2652783      2.749481       50218.233      36.893836      36.893836      36.893836    
   4330000   0.43976443    -7.9225375     -7.2629002      2.7744809      50218.233      36.893836      36.893836      36.893836    
   4340000   0.44079223    -7.9235169     -7.262338       2.7781668      50218.233      36.893836      36.893836      36.893836    
   4350000   0.44057271    -7.9249606     -7.2641109      2.7629421      50218.233      36.893836      36.893836      36.893836    
   4360000   0.44048631    -7.9266227     -7.2659026      2.7554911      50218.233      36.893836      36.893836      36.893836    
   4370000   0.44099647    -7.9252816     -7.2637963      2.7583594      50218.233      36.893836      36.893836      36.893836    
   4380000   0.43910526    -7.9254759     -7.2668274      2.7639833      50218.233      36.893836      36.893836      36.893836    
   4390000   0.43996961    -7.9288588     -7.2689137      2.7467748      50218.233      36.893836      36.893836      36.893836    
   4400000   0.43911688    -7.9286479     -7.2699819      2.7331355      50218.233      36.893836      36.893836      36.893836    
   4410000   0.44163576    -7.9287464     -7.2663022      2.7469384      50218.233      36.893836      36.893836      36.893836    
   4420000   0.43973895    -7.9228989     -7.2632998      2.7614404      50218.233      36.893836      36.893836      36.893836    
   4430000   0.43930308    -7.9262944     -7.2673492      2.7509303      50218.233      36.893836      36.893836      36.893836    
   4440000   0.43910779    -7.926618      -7.2679657      2.7497606      50218.233      36.893836      36.893836      36.893836    
   4450000   0.43946306    -7.9272542     -7.268069       2.7472421      50218.233      36.893836      36.893836      36.893836    
   4460000   0.4399588     -7.9261171     -7.2661883      2.7543528      50218.233      36.893836      36.893836      36.893836    
   4470000   0.44025731    -7.9280725     -7.267696       2.741442       50218.233      36.893836      36.893836      36.893836    
   4480000   0.43933908    -7.9256192     -7.26662        2.7545129      50218.233      36.893836      36.893836      36.893836    
   4490000   0.44142645    -7.9275113     -7.2653811      2.735766       50218.233      36.893836      36.893836      36.893836    
   4500000   0.43858142    -7.9237286     -7.2658658      2.7634329      50218.233      36.893836      36.893836      36.893836    
   4510000   0.43872685    -7.9214188     -7.2633379      2.7848524      50218.233      36.893836      36.893836      36.893836    
   4520000   0.43796499    -7.9238432     -7.2669051      2.7652883      50218.233      36.893836      36.893836      36.893836    
   4530000   0.44157008    -7.9284956     -7.2661499      2.7358228      50218.233      36.893836      36.893836      36.893836    
   4540000   0.44021944    -7.9271312     -7.2668115      2.7520098      50218.233      36.893836      36.893836      36.893836    
   4550000   0.44035281    -7.9267023     -7.2661825      2.7471978      50218.233      36.893836      36.893836      36.893836    
   4560000   0.44009512    -7.9275063     -7.267373       2.747189       50218.233      36.893836      36.893836      36.893836    
   4570000   0.43961662    -7.9268991     -7.2674836      2.743812       50218.233      36.893836      36.893836      36.893836    
   4580000   0.44132634    -7.9246127     -7.2626326      2.7647251      50218.233      36.893836      36.893836      36.893836    
   4590000   0.43723193    -7.9247905     -7.2689519      2.751836       50218.233      36.893836      36.893836      36.893836    
   4600000   0.43852679    -7.9284352     -7.2706544      2.7290689      50218.233      36.893836      36.893836      36.893836    
   4610000   0.43927503    -7.9266256     -7.2677224      2.743094       50218.233      36.893836      36.893836      36.893836    
   4620000   0.44111056    -7.9263581     -7.2647017      2.759221       50218.233      36.893836      36.893836      36.893836    
   4630000   0.44309739    -7.924351      -7.2597144      2.7673693      50218.233      36.893836      36.893836      36.893836    
   4640000   0.44227098    -7.9261742     -7.2627772      2.7503529      50218.233      36.893836      36.893836      36.893836    
   4650000   0.44078858    -7.9245157     -7.2633422      2.7707621      50218.233      36.893836      36.893836      36.893836    
   4660000   0.44037635    -7.9235076     -7.2629524      2.7805375      50218.233      36.893836      36.893836      36.893836    
   4670000   0.43905421    -7.9232839     -7.264712       2.7728224      50218.233      36.893836      36.893836      36.893836    
   4680000   0.44137464    -7.9229381     -7.2608856      2.7782464      50218.233      36.893836      36.893836      36.893836    
   4690000   0.43730119    -7.9258523     -7.2699099      2.7485731      50218.233      36.893836      36.893836      36.893836    
   4700000   0.43971019    -7.9247514     -7.2651955      2.7606223      50218.233      36.893836      36.893836      36.893836    
   4710000   0.44107111    -7.9254283     -7.263831       2.7546396      50218.233      36.893836      36.893836      36.893836    
   4720000   0.43907656    -7.9225904     -7.263985       2.7711         50218.233      36.893836      36.893836      36.893836    
   4730000   0.44119951    -7.9259766     -7.2641867      2.7509238      50218.233      36.893836      36.893836      36.893836    
   4740000   0.43899017    -7.9245858     -7.2661099      2.7692095      50218.233      36.893836      36.893836      36.893836    
   4750000   0.43912924    -7.9263505     -7.267666       2.7554262      50218.233      36.893836      36.893836      36.893836    
   4760000   0.44038015    -7.9237399     -7.263179       2.7704601      50218.233      36.893836      36.893836      36.893836    
   4770000   0.44147667    -7.9290752     -7.2668696      2.7313083      50218.233      36.893836      36.893836      36.893836    
   4780000   0.43757926    -7.9246766     -7.2683171      2.753989       50218.233      36.893836      36.893836      36.893836    
   4790000   0.44037358    -7.9271685     -7.2666176      2.7485775      50218.233      36.893836      36.893836      36.893836    
   4800000   0.43940727    -7.9226993     -7.2635978      2.7859897      50218.233      36.893836      36.893836      36.893836    
   4810000   0.43866935    -7.9219469     -7.2639522      2.778848       50218.233      36.893836      36.893836      36.893836    
   4820000   0.43782934    -7.9244898     -7.2677551      2.7636501      50218.233      36.893836      36.893836      36.893836    
   4830000   0.44143309    -7.9256885     -7.2635482      2.7499636      50218.233      36.893836      36.893836      36.893836    
   4840000   0.43972833    -7.9265957     -7.2670126      2.7443642      50218.233      36.893836      36.893836      36.893836    
   4850000   0.43959119    -7.9243008     -7.2649234      2.7650466      50218.233      36.893836      36.893836      36.893836    
   4860000   0.44027475    -7.9264458     -7.266043       2.7372294      50218.233      36.893836      36.893836      36.893836    
   4870000   0.4391546     -7.9238087     -7.2650862      2.7620227      50218.233      36.893836      36.893836      36.893836    
   4880000   0.43923768    -7.926226      -7.2673789      2.7476326      50218.233      36.893836      36.893836      36.893836    
   4890000   0.44171706    -7.9249121     -7.262346       2.766247       50218.233      36.893836      36.893836      36.893836    
   4900000   0.43936016    -7.9237267     -7.2646958      2.7696819      50218.233      36.893836      36.893836      36.893836    
   4910000   0.43825658    -7.925844      -7.2684684      2.7646585      50218.233      36.893836      36.893836      36.893836    
   4920000   0.44099967    -7.9244683     -7.2629782      2.764914       50218.233      36.893836      36.893836      36.893836    
   4930000   0.43755526    -7.9252112     -7.2688877      2.7568291      50218.233      36.893836      36.893836      36.893836    
   4940000   0.44065503    -7.9285148     -7.2675417      2.7329375      50218.233      36.893836      36.893836      36.893836    
   4950000   0.44027064    -7.9281241     -7.2677276      2.7395116      50218.233      36.893836      36.893836      36.893836    
   4960000   0.43921754    -7.9235115     -7.2646946      2.7688824      50218.233      36.893836      36.893836      36.893836    
   4970000   0.44081309    -7.9262427     -7.2650325      2.7550459      50218.233      36.893836      36.893836      36.893836    
   4980000   0.442713      -7.9264924     -7.2624323      2.7501505      50218.233      36.893836      36.893836      36.893836    
   4990000   0.43960521    -7.9235757     -7.2641773      2.7645051      50218.233      36.893836      36.893836      36.893836    
   5000000   0.43949531    -7.9286591     -7.2694255      2.7423216      50218.233      36.893836      36.893836      36.893836    
   5010000   0.4417662     -7.9273393     -7.2646995      2.7525705      50218.233      36.893836      36.893836      36.893836    
   5020000   0.43994625    -7.9270536     -7.2671436      2.7368313      50218.233      36.893836      36.893836      36.893836    
   5030000   0.4390685     -7.925367      -7.2667736      2.7582149      50218.233      36.893836      36.893836      36.893836    
   5040000   0.43831252    -7.9275378     -7.2700784      2.7388359      50218.233      36.893836      36.893836      36.893836    
   5050000   0.44022295    -7.9237427     -7.2634177      2.7696407      50218.233      36.893836      36.893836      36.893836    
   5060000   0.44048549    -7.9276914     -7.2669725      2.7376476      50218.233      36.893836      36.893836      36.893836    
   5070000   0.43984568    -7.927025      -7.2672658      2.7422387      50218.233      36.893836      36.893836      36.893836    
   5080000   0.43877339    -7.9242555     -7.2661048      2.7581117      50218.233      36.893836      36.893836      36.893836    
   5090000   0.44124705    -7.9276728     -7.2658116      2.745529       50218.233      36.893836      36.893836      36.893836    
   5100000   0.44168094    -7.9268302     -7.2643182      2.7453438      50218.233      36.893836      36.893836      36.893836    
   5110000   0.43927681    -7.9253067     -7.2664009      2.7570315      50218.233      36.893836      36.893836      36.893836    
   5120000   0.43807219    -7.9268281     -7.2697291      2.7359194      50218.233      36.893836      36.893836      36.893836    
   5130000   0.43725264    -7.9252136     -7.269344       2.7566331      50218.233      36.893836      36.893836      36.893836    
   5140000   0.43984865    -7.9238183     -7.2640547      2.7733708      50218.233      36.893836      36.893836      36.893836    
   5150000   0.44084601    -7.922128      -7.2608684      2.7832957      50218.233      36.893836      36.893836      36.893836    
   5160000   0.44041188    -7.928932      -7.2683236      2.7257806      50218.233      36.893836      36.893836      36.893836    
   5170000   0.43880322    -7.9264        -7.2682045      2.7499065      50218.233      36.893836      36.893836      36.893836    
   5180000   0.43699447    -7.9284099     -7.2729275      2.7369477      50218.233      36.893836      36.893836      36.893836    
   5190000   0.44020238    -7.9262047     -7.2659106      2.7539461      50218.233      36.893836      36.893836      36.893836    
   5200000   0.44080001    -7.9252373     -7.2640467      2.7575594      50218.233      36.893836      36.893836      36.893836    
   5210000   0.43978591    -7.9276457     -7.2679762      2.7343541      50218.233      36.893836      36.893836      36.893836    
   5220000   0.43906675    -7.9250515     -7.2664608      2.7589796      50218.233      36.893836      36.893836      36.893836    
   5230000   0.43960019    -7.9226636     -7.2632727      2.7689351      50218.233      36.893836      36.893836      36.893836    
   5240000   0.44146784    -7.9270449     -7.2648526      2.7362807      50218.233      36.893836      36.893836      36.893836    
   5250000   0.44105962    -7.9264082     -7.2648281      2.7516204      50218.233      36.893836      36.893836      36.893836    
   5260000   0.43940241    -7.9259025     -7.2668082      2.7561712      50218.233      36.893836      36.893836      36.893836    
   5270000   0.43992848    -7.9228732     -7.2629899      2.7782115      50218.233      36.893836      36.893836      36.893836    
   5280000   0.43945093    -7.9301109     -7.2709439      2.7135085      50218.233      36.893836      36.893836      36.893836    
   5290000   0.43858287    -7.9233933     -7.2655283      2.7706895      50218.233      36.893836      36.893836      36.893836    
   5300000   0.43776385    -7.9205496     -7.2639131      2.7883355      50218.233      36.893836      36.893836      36.893836    
   5310000   0.44094838    -7.9249762     -7.263563       2.766216       50218.233      36.893836      36.893836      36.893836    
   5320000   0.4403328     -7.9203275     -7.2598377      2.7956889      50218.233      36.893836      36.893836      36.893836    
   5330000   0.43705704    -7.9259879     -7.2704117      2.7474019      50218.233      36.893836      36.893836      36.893836    
   5340000   0.43907999    -7.9252059     -7.2665953      2.7543556      50218.233      36.893836      36.893836      36.893836    
   5350000   0.44021693    -7.9271521     -7.2668361      2.737396       50218.233      36.893836      36.893836      36.893836    
   5360000   0.43966075    -7.9290378     -7.2695561      2.7254353      50218.233      36.893836      36.893836      36.893836    
   5370000   0.43840871    -7.9261796     -7.2685759      2.7542812      50218.233      36.893836      36.893836      36.893836    
   5380000   0.43817085    -7.9252589     -7.268012       2.7522508      50218.233      36.893836      36.893836      36.893836    
   5390000   0.43885785    -7.9252651     -7.2669877      2.745361       50218.233      36.893836      36.893836      36.893836    
   5400000   0.44139694    -7.9264586     -7.2643726      2.7483226      50218.233      36.893836      36.893836      36.893836    
   5410000   0.44102448    -7.9246567     -7.2631294      2.7641856      50218.233      36.893836      36.893836      36.893836    
   5420000   0.43863852    -7.9245907     -7.2666422      2.7589753      50218.233      36.893836      36.893836      36.893836    
   5430000   0.44314135    -7.928         -7.2632974      2.7394081      50218.233      36.893836      36.893836      36.893836    
   5440000   0.43937967    -7.9258466     -7.2667865      2.7483394      50218.233      36.893836      36.893836      36.893836    
   5450000   0.43935898    -7.9284803     -7.2694512      2.724863       50218.233      36.893836      36.893836      36.893836    
   5460000   0.44062511    -7.9253575     -7.2644292      2.752979       50218.233      36.893836      36.893836      36.893836    
   5470000   0.43840777    -7.9241254     -7.2665231      2.7549447      50218.233      36.893836      36.893836      36.893836    
   5480000   0.439696      -7.9295452     -7.2700106      2.724529       50218.233      36.893836      36.893836      36.893836    
   5490000   0.43931989    -7.9273301     -7.2683596      2.731721       50218.233      36.893836      36.893836      36.893836    
   5500000   0.44158875    -7.926551      -7.2641773      2.7505709      50218.233      36.893836      36.893836      36.893836    
   5510000   0.43728345    -7.9254412     -7.2695254      2.7594374      50218.233      36.893836      36.893836      36.893836    
   5520000   0.43921492    -7.9265286     -7.2677156      2.7426578      50218.233      36.893836      36.893836      36.893836    
   5530000   0.43897425    -7.9274383     -7.2689863      2.7348438      50218.233      36.893836      36.893836      36.893836    
   5540000   0.44149646    -7.9263396     -7.2641043      2.7468314      50218.233      36.893836      36.893836      36.893836    
   5550000   0.43765187    -7.9230018     -7.2665334      2.7768006      50218.233      36.893836      36.893836      36.893836    
   5560000   0.43939723    -7.9275974     -7.2685109      2.7392338      50218.233      36.893836      36.893836      36.893836    
   5570000   0.43978857    -7.9256248     -7.2659513      2.7506644      50218.233      36.893836      36.893836      36.893836    
   5580000   0.43965082    -7.9258825     -7.2664156      2.7538921      50218.233      36.893836      36.893836      36.893836    
   5590000   0.44118086    -7.9261444     -7.2643825      2.7519967      50218.233      36.893836      36.893836      36.893836    
   5600000   0.4390164     -7.9297512     -7.271236       2.7262612      50218.233      36.893836      36.893836      36.893836    
   5610000   0.44174101    -7.926468      -7.2638659      2.7369963      50218.233      36.893836      36.893836      36.893836    
   5620000   0.43827136    -7.9239065     -7.2665089      2.7734413      50218.233      36.893836      36.893836      36.893836    
   5630000   0.43832344    -7.9268272     -7.2693514      2.7476842      50218.233      36.893836      36.893836      36.893836    
   5640000   0.44165085    -7.9274762     -7.2650093      2.7463733      50218.233      36.893836      36.893836      36.893836    
   5650000   0.44125836    -7.9252668     -7.2633887      2.7511553      50218.233      36.893836      36.893836      36.893836    
   5660000   0.44004247    -7.925846      -7.2657917      2.7520486      50218.233      36.893836      36.893836      36.893836    
   5670000   0.4376024     -7.9283392     -7.271945       2.7255377      50218.233      36.893836      36.893836      36.893836    
   5680000   0.43869052    -7.927367      -7.2693406      2.7395402      50218.233      36.893836      36.893836      36.893836    
   5690000   0.43959286    -7.9266831     -7.2673032      2.7470424      50218.233      36.893836      36.893836      36.893836    
   5700000   0.43937767    -7.929054      -7.2699969      2.7313569      50218.233      36.893836      36.893836      36.893836    
   5710000   0.43994576    -7.9265507     -7.2666415      2.7492359      50218.233      36.893836      36.893836      36.893836    
   5720000   0.43932415    -7.9273204     -7.2683436      2.7442953      50218.233      36.893836      36.893836      36.893836    
   5730000   0.44004585    -7.925834      -7.2657746      2.7475672      50218.233      36.893836      36.893836      36.893836    
   5740000   0.43787856    -7.9244421     -7.2676336      2.758717       50218.233      36.893836      36.893836      36.893836    
   5750000   0.43897695    -7.9234167     -7.2649607      2.7694809      50218.233      36.893836      36.893836      36.893836    
   5760000   0.44097963    -7.9244348     -7.2629747      2.7642644      50218.233      36.893836      36.893836      36.893836    
   5770000   0.44073045    -7.9246959     -7.2636096      2.7617059      50218.233      36.893836      36.893836      36.893836    
   5780000   0.43955167    -7.9244497     -7.2651316      2.7605598      50218.233      36.893836      36.893836      36.893836    
   5790000   0.4408889     -7.9242479     -7.262924       2.769697       50218.233      36.893836      36.893836      36.893836    
   5800000   0.43903706    -7.9263375     -7.2677912      2.7392956      50218.233      36.893836      36.893836      36.893836    
   5810000   0.43775932    -7.9268003     -7.2701706      2.7489702      50218.233      36.893836      36.893836      36.893836    
   5820000   0.43923252    -7.9278515     -7.2690121      2.7500644      50218.233      36.893836      36.893836      36.893836    
   5830000   0.44030223    -7.9267739     -7.2663299      2.7569424      50218.233      36.893836      36.893836      36.893836    
   5840000   0.44234751    -7.9248181     -7.2613062      2.7566665      50218.233      36.893836      36.893836      36.893836    
   5850000   0.43982856    -7.927223      -7.2674896      2.7438255      50218.233      36.893836      36.893836      36.893836    
   5860000   0.43734397    -7.9265898     -7.2705832      2.7280668      50218.233      36.893836      36.893836      36.893836    
   5870000   0.44103695    -7.9287051     -7.2671591      2.7317457      50218.233      36.893836      36.893836      36.893836    
   5880000   0.4406723     -7.9277398     -7.2667407      2.7361879      50218.233      36.893836      36.893836      36.893836    
   5890000   0.44215285    -7.927326      -7.2641062      2.7461319      50218.233      36.893836      36.893836      36.893836    
   5900000   0.44076417    -7.9246927     -7.2635559      2.763062       50218.233      36.893836      36.893836      36.893836    
   5910000   0.43898727    -7.9266893     -7.2682178      2.7461284      50218.233      36.893836      36.893836      36.893836    
   5920000   0.43895246    -7.9258951     -7.2674758      2.7462189      50218.233      36.893836      36.893836      36.893836    
   5930000   0.43911678    -7.9244299     -7.2657641      2.7602179      50218.233      36.893836      36.893836      36.893836    
   5940000   0.43956736    -7.9255336     -7.2661919      2.7556942      50218.233      36.893836      36.893836      36.893836    
   5950000   0.43667131    -7.9215164     -7.2665188      2.781789       50218.233      36.893836      36.893836      36.893836    
   5960000   0.44043536    -7.9271518     -7.2665081      2.7379778      50218.233      36.893836      36.893836      36.893836    
   5970000   0.43842922    -7.924944      -7.2673095      2.7558727      50218.233      36.893836      36.893836      36.893836    
   5980000   0.44243157    -7.9257309     -7.262093       2.7510352      50218.233      36.893836      36.893836      36.893836    
   5990000   0.44037663    -7.9237228     -7.2631672      2.7684395      50218.233      36.893836      36.893836      36.893836    
   6000000   0.44093148    -7.9256324     -7.2642446      2.7620851      50218.233      36.893836      36.893836      36.893836    
   6010000   0.43931111    -7.9267442     -7.2677869      2.7460451      50218.233      36.893836      36.893836      36.893836    
   6020000   0.44128454    -7.9271087     -7.2651913      2.7529561      50218.233      36.893836      36.893836      36.893836    
   6030000   0.43894117    -7.9285515     -7.2701491      2.7375531      50218.233      36.893836      36.893836      36.893836    
   6040000   0.441145      -7.9259665     -7.2642585      2.7592021      50218.233      36.893836      36.893836      36.893836    
   6050000   0.44039884    -7.9288113     -7.2682224      2.7271527      50218.233      36.893836      36.893836      36.893836    
   6060000   0.44014784    -7.9283591     -7.2681467      2.7378535      50218.233      36.893836      36.893836      36.893836    
   6070000   0.43867696    -7.9288949     -7.2708888      2.733355       50218.233      36.893836      36.893836      36.893836    
   6080000   0.44047331    -7.9238317     -7.2631311      2.7603137      50218.233      36.893836      36.893836      36.893836    
   6090000   0.43982523    -7.9225619     -7.2628334      2.7729035      50218.233      36.893836      36.893836      36.893836    
   6100000   0.43941265    -7.9260837     -7.2669741      2.7543764      50218.233      36.893836      36.893836      36.893836    
   6110000   0.43832656    -7.9285892     -7.2711087      2.7355144      50218.233      36.893836      36.893836      36.893836    
   6120000   0.43819618    -7.9240656     -7.2667807      2.7695185      50218.233      36.893836      36.893836      36.893836    
   6130000   0.44115606    -7.9276925     -7.2659678      2.7406057      50218.233      36.893836      36.893836      36.893836    
   6140000   0.43824165    -7.9289613     -7.2716082      2.7294903      50218.233      36.893836      36.893836      36.893836    
   6150000   0.44072066    -7.9228046     -7.261733       2.7768808      50218.233      36.893836      36.893836      36.893836    
   6160000   0.44182848    -7.9282714     -7.2655381      2.7359028      50218.233      36.893836      36.893836      36.893836    
   6170000   0.44104876    -7.9298976     -7.2683338      2.7222114      50218.233      36.893836      36.893836      36.893836    
   6180000   0.44153272    -7.9217728     -7.2594831      2.7863288      50218.233      36.893836      36.893836      36.893836    
   6190000   0.43926743    -7.9280384     -7.2691466      2.7303617      50218.233      36.893836      36.893836      36.893836    
   6200000   0.43793333    -7.9273836     -7.2704929      2.7409436      50218.233      36.893836      36.893836      36.893836    
   6210000   0.44000043    -7.9248645     -7.2648733      2.7606123      50218.233      36.893836      36.893836      36.893836    
   6220000   0.43815874    -7.9272482     -7.2700194      2.7377598      50218.233      36.893836      36.893836      36.893836    
   6230000   0.44235271    -7.9260488     -7.2625292      2.7508747      50218.233      36.893836      36.893836      36.893836    
   6240000   0.44124686    -7.9232302     -7.2613693      2.774832       50218.233      36.893836      36.893836      36.893836    
   6250000   0.44204387    -7.9227078     -7.2596514      2.7771968      50218.233      36.893836      36.893836      36.893836    
   6260000   0.44070595    -7.9251718     -7.2641223      2.7609627      50218.233      36.893836      36.893836      36.893836    
   6270000   0.44073985    -7.9208659     -7.2597655      2.7947191      50218.233      36.893836      36.893836      36.893836    
   6280000   0.43814644    -7.9227367     -7.2655264      2.7733658      50218.233      36.893836      36.893836      36.893836    
   6290000   0.44044952    -7.9283719     -7.267707       2.7283757      50218.233      36.893836      36.893836      36.893836    
   6300000   0.44066243    -7.9242327     -7.2632485      2.7662113      50218.233      36.893836      36.893836      36.893836    
   6310000   0.44012229    -7.924518      -7.264344       2.7685505      50218.233      36.893836      36.893836      36.893836    
   6320000   0.43746295    -7.9264287     -7.2702436      2.7393078      50218.233      36.893836      36.893836      36.893836    
   6330000   0.43841191    -7.9263052     -7.2686967      2.7503639      50218.233      36.893836      36.893836      36.893836    
   6340000   0.43984198    -7.9265662     -7.2668126      2.7390216      50218.233      36.893836      36.893836      36.893836    
   6350000   0.4411745     -7.9263759     -7.2646236      2.7523932      50218.233      36.893836      36.893836      36.893836    
   6360000   0.44063991    -7.9245238     -7.2635734      2.767762       50218.233      36.893836      36.893836      36.893836    
   6370000   0.44042929    -7.9230471     -7.2624125      2.7772439      50218.233      36.893836      36.893836      36.893836    
   6380000   0.44260602    -7.9267947     -7.2628951      2.744254       50218.233      36.893836      36.893836      36.893836    
   6390000   0.44172526    -7.9268041     -7.2642256      2.7552762      50218.233      36.893836      36.893836      36.893836    
   6400000   0.44156805    -7.926424      -7.2640813      2.7510519      50218.233      36.893836      36.893836      36.893836    
   6410000   0.44226992    -7.92566       -7.2622645      2.7536094      50218.233      36.893836      36.893836      36.893836    
   6420000   0.44020736    -7.9268208     -7.2665192      2.7437124      50218.233      36.893836      36.893836      36.893836    
   6430000   0.43967769    -7.9278475     -7.2683403      2.7400619      50218.233      36.893836      36.893836      36.893836    
   6440000   0.44029037    -7.9262093     -7.2657831      2.7521522      50218.233      36.893836      36.893836      36.893836    
   6450000   0.44087086    -7.9283676     -7.2670707      2.7350899      50218.233      36.893836      36.893836      36.893836    
   6460000   0.44096884    -7.9259931     -7.2645493      2.7430348      50218.233      36.893836      36.893836      36.893836    
   6470000   0.44003697    -7.9253229     -7.2652768      2.7585116      50218.233      36.893836      36.893836      36.893836    
   6480000   0.44089356    -7.9272441     -7.2659132      2.7343951      50218.233      36.893836      36.893836      36.893836    
   6490000   0.43936704    -7.9307144     -7.2716732      2.7207897      50218.233      36.893836      36.893836      36.893836    
   6500000   0.44099275    -7.9267562     -7.2652765      2.7488099      50218.233      36.893836      36.893836      36.893836    
   6510000   0.44211911    -7.9259478     -7.2627786      2.7553629      50218.233      36.893836      36.893836      36.893836    
   6520000   0.44044339    -7.9271738     -7.2665181      2.7413899      50218.233      36.893836      36.893836      36.893836    
   6530000   0.43889357    -7.9292628     -7.2709318      2.7304892      50218.233      36.893836      36.893836      36.893836    
   6540000   0.44010845    -7.9276721     -7.2675188      2.7303679      50218.233      36.893836      36.893836      36.893836    
   6550000   0.44148017    -7.9276059     -7.2653951      2.7323069      50218.233      36.893836      36.893836      36.893836    
   6560000   0.44135355    -7.9258654     -7.2638445      2.7540786      50218.233      36.893836      36.893836      36.893836    
   6570000   0.44110851    -7.9248643     -7.263211       2.7664138      50218.233      36.893836      36.893836      36.893836    
   6580000   0.43928599    -7.9245342     -7.2656146      2.764721       50218.233      36.893836      36.893836      36.893836    
   6590000   0.44186672    -7.9261186     -7.2633279      2.7623572      50218.233      36.893836      36.893836      36.893836    
   6600000   0.44120628    -7.9251325     -7.2633325      2.7581319      50218.233      36.893836      36.893836      36.893836    
   6610000   0.44238278    -7.9272442     -7.2636795      2.748748       50218.233      36.893836      36.893836      36.893836    
   6620000   0.4388016     -7.9249671     -7.2667741      2.7591679      50218.233      36.893836      36.893836      36.893836    
   6630000   0.43815347    -7.9266706     -7.2694498      2.7518667      50218.233      36.893836      36.893836      36.893836    
   6640000   0.43951181    -7.9284229     -7.2691645      2.7276533      50218.233      36.893836      36.893836      36.893836    
   6650000   0.44018796    -7.9231734     -7.2629009      2.7804307      50218.233      36.893836      36.893836      36.893836    
   6660000   0.44024241    -7.925792      -7.2654378      2.7571941      50218.233      36.893836      36.893836      36.893836    
   6670000   0.44125318    -7.925258      -7.2633877      2.7576058      50218.233      36.893836      36.893836      36.893836    
   6680000   0.44153542    -7.9250439     -7.2627502      2.7698531      50218.233      36.893836      36.893836      36.893836    
   6690000   0.43915993    -7.9241537     -7.2654231      2.7652263      50218.233      36.893836      36.893836      36.893836    
   6700000   0.43980109    -7.9248407     -7.2651484      2.7634142      50218.233      36.893836      36.893836      36.893836    
   6710000   0.44023102    -7.9276783     -7.2673412      2.7403672      50218.233      36.893836      36.893836      36.893836    
   6720000   0.43889867    -7.9265288     -7.2681901      2.7465685      50218.233      36.893836      36.893836      36.893836    
   6730000   0.43945929    -7.9256848     -7.2665053      2.7496593      50218.233      36.893836      36.893836      36.893836    
   6740000   0.44061409    -7.9225871     -7.2616753      2.7798478      50218.233      36.893836      36.893836      36.893836    
   6750000   0.44085139    -7.925998      -7.2647303      2.7567602      50218.233      36.893836      36.893836      36.893836    
   6760000   0.43971678    -7.924793      -7.2652272      2.7652185      50218.233      36.893836      36.893836      36.893836    
   6770000   0.44117608    -7.9257013     -7.2639466      2.7512534      50218.233      36.893836      36.893836      36.893836    
   6780000   0.43733526    -7.9278246     -7.2718311      2.7443107      50218.233      36.893836      36.893836      36.893836    
   6790000   0.43909609    -7.9261611     -7.2675264      2.7468676      50218.233      36.893836      36.893836      36.893836    
   6800000   0.44213331    -7.92761       -7.2644195      2.7420918      50218.233      36.893836      36.893836      36.893836    
   6810000   0.4419268     -7.9275658     -7.2646851      2.7438782      50218.233      36.893836      36.893836      36.893836    
   6820000   0.44071589    -7.9255401     -7.2644757      2.759013       50218.233      36.893836      36.893836      36.893836    
   6830000   0.44026316    -7.9251328     -7.2647475      2.7587723      50218.233      36.893836      36.893836      36.893836    
   6840000   0.43976051    -7.9226971     -7.2630657      2.7727163      50218.233      36.893836      36.893836      36.893836    
   6850000   0.43924344    -7.928434      -7.2695782      2.7385701      50218.233      36.893836      36.893836      36.893836    
   6860000   0.43909017    -7.9225143     -7.2638884      2.7804516      50218.233      36.893836      36.893836      36.893836    
   6870000   0.4403879     -7.9288623     -7.2682899      2.7271679      50218.233      36.893836      36.893836      36.893836    
   6880000   0.44155204    -7.9218518     -7.2595331      2.7866375      50218.233      36.893836      36.893836      36.893836    
   6890000   0.43798636    -7.9266509     -7.2696807      2.7395675      50218.233      36.893836      36.893836      36.893836    
   6900000   0.43940242    -7.9254112     -7.2663169      2.7465144      50218.233      36.893836      36.893836      36.893836    
   6910000   0.44032026    -7.9267766     -7.2663056      2.738509       50218.233      36.893836      36.893836      36.893836    
   6920000   0.4405889     -7.9258643     -7.2649904      2.7518226      50218.233      36.893836      36.893836      36.893836    
   6930000   0.43944785    -7.9272549     -7.2680925      2.7451251      50218.233      36.893836      36.893836      36.893836    
   6940000   0.44050177    -7.9292527     -7.2685094      2.7316725      50218.233      36.893836      36.893836      36.893836    
   6950000   0.43816517    -7.9294099     -7.2721715      2.7245938      50218.233      36.893836      36.893836      36.893836    
   6960000   0.44184767    -7.9248085     -7.2620464      2.7564432      50218.233      36.893836      36.893836      36.893836    
   6970000   0.43910878    -7.9278056     -7.2691518      2.7429196      50218.233      36.893836      36.893836      36.893836    
   6980000   0.43970269    -7.9254998     -7.2659551      2.7630529      50218.233      36.893836      36.893836      36.893836    
   6990000   0.43917247    -7.9266017     -7.2678523      2.7620655      50218.233      36.893836      36.893836      36.893836    
   7000000   0.4402547     -7.9287791     -7.2684065      2.7400205      50218.233      36.893836      36.893836      36.893836    
   7010000   0.43973094    -7.9260589     -7.2664719      2.7484101      50218.233      36.893836      36.893836      36.893836    
   7020000   0.43944168    -7.9280979     -7.2689448      2.7378212      50218.233      36.893836      36.893836      36.893836    
   7030000   0.43841238    -7.9290467     -7.2714375      2.7357176      50218.233      36.893836      36.893836      36.893836    
   7040000   0.43925117    -7.9291216     -7.2702542      2.7303654      50218.233      36.893836      36.893836      36.893836    
   7050000   0.44055854    -7.9263686     -7.2655402      2.7547264      50218.233      36.893836      36.893836      36.893836    
   7060000   0.44097455    -7.9252872     -7.2638348      2.7558813      50218.233      36.893836      36.893836      36.893836    
   7070000   0.440963      -7.9274373     -7.2660022      2.7424939      50218.233      36.893836      36.893836      36.893836    
   7080000   0.43952384    -7.9285771     -7.2693008      2.7282538      50218.233      36.893836      36.893836      36.893836    
   7090000   0.43893045    -7.9281429     -7.2697566      2.737924       50218.233      36.893836      36.893836      36.893836    
   7100000   0.43945737    -7.9274396     -7.268263       2.740845       50218.233      36.893836      36.893836      36.893836    
   7110000   0.44195104    -7.9259335     -7.2630164      2.7629485      50218.233      36.893836      36.893836      36.893836    
   7120000   0.439814      -7.9276965     -7.2679849      2.751208       50218.233      36.893836      36.893836      36.893836    
   7130000   0.43686971    -7.9286443     -7.2733491      2.7294682      50218.233      36.893836      36.893836      36.893836    
   7140000   0.44075352    -7.9286607     -7.2675398      2.7421397      50218.233      36.893836      36.893836      36.893836    
   7150000   0.44009685    -7.9275274     -7.2673915      2.744174       50218.233      36.893836      36.893836      36.893836    
   7160000   0.44026612    -7.9289907     -7.2686009      2.7219513      50218.233      36.893836      36.893836      36.893836    
   7170000   0.43961664    -7.9253297     -7.2659142      2.758184       50218.233      36.893836      36.893836      36.893836    
   7180000   0.441348      -7.927683      -7.2656705      2.7451179      50218.233      36.893836      36.893836      36.893836    
   7190000   0.44070732    -7.9250193     -7.2639677      2.7600945      50218.233      36.893836      36.893836      36.893836    
   7200000   0.43755207    -7.9241204     -7.2678016      2.7674983      50218.233      36.893836      36.893836      36.893836    
   7210000   0.44040184    -7.9251854     -7.264592       2.7545428      50218.233      36.893836      36.893836      36.893836    
   7220000   0.43913949    -7.924374      -7.2656741      2.7649773      50218.233      36.893836      36.893836      36.893836    
   7230000   0.44021249    -7.9249659     -7.2646566      2.7615199      50218.233      36.893836      36.893836      36.893836    
   7240000   0.44087209    -7.9291633     -7.2678646      2.7338958      50218.233      36.893836      36.893836      36.893836    
   7250000   0.44068084    -7.9259903     -7.2649785      2.7525421      50218.233      36.893836      36.893836      36.893836    
   7260000   0.44139446    -7.9276309     -7.2655487      2.7420624      50218.233      36.893836      36.893836      36.893836    
   7270000   0.44032362    -7.925491      -7.265015       2.7483429      50218.233      36.893836      36.893836      36.893836    
   7280000   0.44004369    -7.9284724     -7.2684162      2.7289967      50218.233      36.893836      36.893836      36.893836    
   7290000   0.43925773    -7.9247137     -7.2658365      2.7665376      50218.233      36.893836      36.893836      36.893836    
   7300000   0.4400321     -7.9272259     -7.2671871      2.7365706      50218.233      36.893836      36.893836      36.893836    
   7310000   0.44186867    -7.9274022     -7.2646086      2.7431179      50218.233      36.893836      36.893836      36.893836    
   7320000   0.4387667     -7.9255081     -7.2673674      2.7647409      50218.233      36.893836      36.893836      36.893836    
   7330000   0.43947138    -7.9240716     -7.2648739      2.7693713      50218.233      36.893836      36.893836      36.893836    
   7340000   0.43796466    -7.9269949     -7.2700572      2.7414689      50218.233      36.893836      36.893836      36.893836    
   7350000   0.44008481    -7.9278454     -7.2677276      2.7409274      50218.233      36.893836      36.893836      36.893836    
   7360000   0.43819133    -7.9289495     -7.2716719      2.7304035      50218.233      36.893836      36.893836      36.893836    
   7370000   0.43983721    -7.9273054     -7.267559       2.7402764      50218.233      36.893836      36.893836      36.893836    
   7380000   0.44064815    -7.9266334     -7.2656706      2.7572933      50218.233      36.893836      36.893836      36.893836    
   7390000   0.44259489    -7.926637      -7.2627541      2.7547049      50218.233      36.893836      36.893836      36.893836    
   7400000   0.43997738    -7.9247261     -7.2647694      2.7586723      50218.233      36.893836      36.893836      36.893836    
   7410000   0.44030591    -7.9228222     -7.2623727      2.7768463      50218.233      36.893836      36.893836      36.893836    
   7420000   0.43973295    -7.9238428     -7.2642528      2.7730885      50218.233      36.893836      36.893836      36.893836    
   7430000   0.43804632    -7.9262591     -7.2691989      2.7546246      50218.233      36.893836      36.893836      36.893836    
   7440000   0.44057207    -7.9282216     -7.2673729      2.728611       50218.233      36.893836      36.893836      36.893836    
   7450000   0.44009746    -7.9305123     -7.2703755      2.7246836      50218.233      36.893836      36.893836      36.893836    
   7460000   0.43786196    -7.926348      -7.2695644      2.748478       50218.233      36.893836      36.893836      36.893836    
   7470000   0.43910427    -7.9257048     -7.2670577      2.7635321      50218.233      36.893836      36.893836      36.893836    
   7480000   0.4383576     -7.9320431     -7.274516       2.7039591      50218.233      36.893836      36.893836      36.893836    
   7490000   0.44170298    -7.9270016     -7.2644565      2.747602       50218.233      36.893836      36.893836      36.893836    
   7500000   0.43873052    -7.9286032     -7.2705168      2.7306602      50218.233      36.893836      36.893836      36.893836    
   7510000   0.44034456    -7.9312999     -7.2707924      2.7086645      50218.233      36.893836      36.893836      36.893836    
   7520000   0.44183731    -7.929837      -7.2670904      2.7290366      50218.233      36.893836      36.893836      36.893836    
   7530000   0.43829773    -7.9283341     -7.2708969      2.7317509      50218.233      36.893836      36.893836      36.893836    
   7540000   0.43933093    -7.928406      -7.269419       2.7357496      50218.233      36.893836      36.893836      36.893836    
   7550000   0.44093963    -7.9276742     -7.2662742      2.7451845      50218.233      36.893836      36.893836      36.893836    
   7560000   0.43753821    -7.9246245     -7.2683265      2.767719       50218.233      36.893836      36.893836      36.893836    
   7570000   0.43720797    -7.929905      -7.2741023      2.7190313      50218.233      36.893836      36.893836      36.893836    
   7580000   0.43883881    -7.927854      -7.2696052      2.739456       50218.233      36.893836      36.893836      36.893836    
   7590000   0.43886344    -7.928438      -7.2701522      2.7273036      50218.233      36.893836      36.893836      36.893836    
   7600000   0.44039544    -7.9234205     -7.2628367      2.7768944      50218.233      36.893836      36.893836      36.893836    
   7610000   0.44172917    -7.9231463     -7.260562       2.7834856      50218.233      36.893836      36.893836      36.893836    
   7620000   0.43972766    -7.9251515     -7.2655694      2.7559559      50218.233      36.893836      36.893836      36.893836    
   7630000   0.43913819    -7.9264118     -7.2677139      2.7571828      50218.233      36.893836      36.893836      36.893836    
   7640000   0.44036703    -7.9286647     -7.2681236      2.7337317      50218.233      36.893836      36.893836      36.893836    
   7650000   0.43965187    -7.926701      -7.2672326      2.7551949      50218.233      36.893836      36.893836      36.893836    
   7660000   0.43982079    -7.9290466     -7.2693248      2.737463       50218.233      36.893836      36.893836      36.893836    
   7670000   0.43757745    -7.9294554     -7.2730986      2.729148       50218.233      36.893836      36.893836      36.893836    
   7680000   0.43772613    -7.925919      -7.2693391      2.7513042      50218.233      36.893836      36.893836      36.893836    
   7690000   0.43897903    -7.9269481     -7.2684889      2.7491106      50218.233      36.893836      36.893836      36.893836    
   7700000   0.44144662    -7.928857      -7.2666965      2.7378821      50218.233      36.893836      36.893836      36.893836    
   7710000   0.44001692    -7.9263178     -7.2663018      2.754282       50218.233      36.893836      36.893836      36.893836    
   7720000   0.43985863    -7.9253965     -7.265618       2.762189       50218.233      36.893836      36.893836      36.893836    
   7730000   0.44244497    -7.9266306     -7.2629726      2.7522236      50218.233      36.893836      36.893836      36.893836    
   7740000   0.43933008    -7.923332      -7.2643462      2.7807417      50218.233      36.893836      36.893836      36.893836    
   7750000   0.44244353    -7.9222962     -7.2586403      2.7861121      50218.233      36.893836      36.893836      36.893836    
   7760000   0.44131187    -7.9285527     -7.2665943      2.7334324      50218.233      36.893836      36.893836      36.893836    
   7770000   0.43923491    -7.92806       -7.269217       2.7440305      50218.233      36.893836      36.893836      36.893836    
   7780000   0.43889957    -7.9279037     -7.2695637      2.7403772      50218.233      36.893836      36.893836      36.893836    
   7790000   0.43982759    -7.9275863     -7.2678543      2.7380299      50218.233      36.893836      36.893836      36.893836    
   7800000   0.43970061    -7.9254759     -7.2659344      2.7545488      50218.233      36.893836      36.893836      36.893836    
   7810000   0.43921247    -7.9280931     -7.2692838      2.7386412      50218.233      36.893836      36.893836      36.893836    
   7820000   0.4390805     -7.9243209     -7.2657096      2.7670682      50218.233      36.893836      36.893836      36.893836    
   7830000   0.44113036    -7.9246538     -7.2629677      2.7698395      50218.233      36.893836      36.893836      36.893836    
   7840000   0.44156892    -7.9251315     -7.2627875      2.7709199      50218.233      36.893836      36.893836      36.893836    
   7850000   0.44006316    -7.9244063     -7.264321       2.7715287      50218.233      36.893836      36.893836      36.893836    
   7860000   0.43974801    -7.9262034     -7.2665908      2.7520172      50218.233      36.893836      36.893836      36.893836    
   7870000   0.43862733    -7.930365      -7.2724334      2.7219792      50218.233      36.893836      36.893836      36.893836    
   7880000   0.44043712    -7.9268467     -7.2662004      2.7469266      50218.233      36.893836      36.893836      36.893836    
   7890000   0.43970492    -7.9282454     -7.2686974      2.7345247      50218.233      36.893836      36.893836      36.893836    
   7900000   0.439014      -7.9288869     -7.2703752      2.727137       50218.233      36.893836      36.893836      36.893836    
   7910000   0.44245105    -7.9274204     -7.2637533      2.7465353      50218.233      36.893836      36.893836      36.893836    
   7920000   0.44058039    -7.9266199     -7.2657588      2.7498006      50218.233      36.893836      36.893836      36.893836    
   7930000   0.44181316    -7.9267593     -7.264049       2.7592883      50218.233      36.893836      36.893836      36.893836    
   7940000   0.44099704    -7.9280754     -7.2665893      2.7459061      50218.233      36.893836      36.893836      36.893836    
   7950000   0.44133519    -7.9286613     -7.2666679      2.7363296      50218.233      36.893836      36.893836      36.893836    
   7960000   0.44155179    -7.9286405     -7.2663222      2.7374567      50218.233      36.893836      36.893836      36.893836    
   7970000   0.44017318    -7.9274076     -7.2671572      2.7450268      50218.233      36.893836      36.893836      36.893836    
   7980000   0.44075909    -7.9258785     -7.2647493      2.7452073      50218.233      36.893836      36.893836      36.893836    
   7990000   0.44290345    -7.9235808     -7.259235       2.7749411      50218.233      36.893836      36.893836      36.893836    
   8000000   0.43803742    -7.9275993     -7.2705526      2.7364975      50218.233      36.893836      36.893836      36.893836    
   8010000   0.4405198     -7.9285885     -7.2678182      2.7425582      50218.233      36.893836      36.893836      36.893836    
   8020000   0.44053086    -7.9270154     -7.2662285      2.7451251      50218.233      36.893836      36.893836      36.893836    
   8030000   0.44052873    -7.9303956     -7.2696119      2.7195624      50218.233      36.893836      36.893836      36.893836    
   8040000   0.44116338    -7.9268875     -7.2651518      2.7555197      50218.233      36.893836      36.893836      36.893836    
   8050000   0.43854483    -7.9283021     -7.2704942      2.7332709      50218.233      36.893836      36.893836      36.893836    
   8060000   0.44092539    -7.9277313     -7.2663526      2.7480886      50218.233      36.893836      36.893836      36.893836    
   8070000   0.43939336    -7.9255542     -7.2664735      2.754661       50218.233      36.893836      36.893836      36.893836    
   8080000   0.43981073    -7.9268691     -7.2671624      2.7491858      50218.233      36.893836      36.893836      36.893836    
   8090000   0.43860626    -7.9273101     -7.2694101      2.7549608      50218.233      36.893836      36.893836      36.893836    
   8100000   0.44070751    -7.9291026     -7.2680507      2.7377882      50218.233      36.893836      36.893836      36.893836    
   8110000   0.43744574    -7.9267643     -7.270605       2.7487666      50218.233      36.893836      36.893836      36.893836    
   8120000   0.43889958    -7.9283531     -7.270013       2.7378378      50218.233      36.893836      36.893836      36.893836    
   8130000   0.4399696     -7.9264452     -7.2665002      2.7554988      50218.233      36.893836      36.893836      36.893836    
   8140000   0.44105691    -7.9235736     -7.2619976      2.7790367      50218.233      36.893836      36.893836      36.893836    
   8150000   0.44136837    -7.9263925     -7.2643493      2.7603614      50218.233      36.893836      36.893836      36.893836    
   8160000   0.44080133    -7.9278211     -7.2666286      2.7424094      50218.233      36.893836      36.893836      36.893836    
   8170000   0.44015731    -7.9282249     -7.2679984      2.7442096      50218.233      36.893836      36.893836      36.893836    
   8180000   0.43720947    -7.9273672     -7.2715623      2.7501181      50218.233      36.893836      36.893836      36.893836    
   8190000   0.44177634    -7.9291997     -7.2665446      2.734175       50218.233      36.893836      36.893836      36.893836    
   8200000   0.4397904     -7.9233023     -7.2636261      2.7686885      50218.233      36.893836      36.893836      36.893836    
   8210000   0.44022819    -7.9279672     -7.2676343      2.7355164      50218.233      36.893836      36.893836      36.893836    
   8220000   0.4404516     -7.9263161     -7.2656481      2.7612331      50218.233      36.893836      36.893836      36.893836    
   8230000   0.44187826    -7.928333      -7.265525       2.7440183      50218.233      36.893836      36.893836      36.893836    
   8240000   0.44050742    -7.9270993     -7.2663476      2.7613675      50218.233      36.893836      36.893836      36.893836    
   8250000   0.43853766    -7.9260887     -7.2682916      2.7510082      50218.233      36.893836      36.893836      36.893836    
   8260000   0.43938451    -7.9277496     -7.2686822      2.7427629      50218.233      36.893836      36.893836      36.893836    
   8270000   0.4384458     -7.9278688     -7.2702095      2.7371459      50218.233      36.893836      36.893836      36.893836    
   8280000   0.43848357    -7.9255807     -7.2678647      2.7606693      50218.233      36.893836      36.893836      36.893836    
   8290000   0.44076505    -7.9258965     -7.2647583      2.7556835      50218.233      36.893836      36.893836      36.893836    
   8300000   0.43972172    -7.9278184     -7.2682452      2.741352       50218.233      36.893836      36.893836      36.893836    
   8310000   0.4402737     -7.927627      -7.2672259      2.7405399      50218.233      36.893836      36.893836      36.893836    
   8320000   0.43978734    -7.9266298     -7.2669582      2.7519219      50218.233      36.893836      36.893836      36.893836    
   8330000   0.43874852    -7.928138      -7.2700245      2.7286465      50218.233      36.893836      36.893836      36.893836    
   8340000   0.43980331    -7.9273847     -7.2676891      2.7431283      50218.233      36.893836      36.893836      36.893836    
   8350000   0.44049344    -7.9266636     -7.2659329      2.7533536      50218.233      36.893836      36.893836      36.893836    
   8360000   0.43821259    -7.9249465     -7.267637       2.759967       50218.233      36.893836      36.893836      36.893836    
   8370000   0.44258717    -7.9270055     -7.2631342      2.7518926      50218.233      36.893836      36.893836      36.893836    
   8380000   0.44231683    -7.9292806     -7.2658148      2.7442012      50218.233      36.893836      36.893836      36.893836    
   8390000   0.44149205    -7.9280182     -7.2657896      2.7460877      50218.233      36.893836      36.893836      36.893836    
   8400000   0.44027639    -7.9294256     -7.2690204      2.7324903      50218.233      36.893836      36.893836      36.893836    
   8410000   0.44076169    -7.9277437     -7.2666106      2.749993       50218.233      36.893836      36.893836      36.893836    
   8420000   0.43991854    -7.9274012     -7.2675328      2.747722       50218.233      36.893836      36.893836      36.893836    
   8430000   0.43742586    -7.9274299     -7.2713004      2.7408765      50218.233      36.893836      36.893836      36.893836    
   8440000   0.44063992    -7.9277795     -7.266829       2.7371456      50218.233      36.893836      36.893836      36.893836    
   8450000   0.44046981    -7.9262323     -7.2655369      2.7616947      50218.233      36.893836      36.893836      36.893836    
   8460000   0.44007641    -7.9283781     -7.2682728      2.7364817      50218.233      36.893836      36.893836      36.893836    
   8470000   0.44184144    -7.9304516     -7.2676989      2.7263001      50218.233      36.893836      36.893836      36.893836    
   8480000   0.43754292    -7.9300932     -7.2737881      2.7181985      50218.233      36.893836      36.893836      36.893836    
   8490000   0.44018587    -7.9292972     -7.2690277      2.7296505      50218.233      36.893836      36.893836      36.893836    
   8500000   0.43990485    -7.9291695     -7.2693216      2.7357585      50218.233      36.893836      36.893836      36.893836    
   8510000   0.43841231    -7.9258959     -7.2682868      2.7476934      50218.233      36.893836      36.893836      36.893836    
   8520000   0.44027925    -7.9269        -7.2664905      2.7537678      50218.233      36.893836      36.893836      36.893836    
   8530000   0.44228209    -7.9281612     -7.2647475      2.7472257      50218.233      36.893836      36.893836      36.893836    
   8540000   0.44172377    -7.9272148     -7.2646386      2.7437518      50218.233      36.893836      36.893836      36.893836    
   8550000   0.43989577    -7.9279927     -7.2681585      2.7375687      50218.233      36.893836      36.893836      36.893836    
   8560000   0.44063631    -7.9246516     -7.2637065      2.761299       50218.233      36.893836      36.893836      36.893836    
   8570000   0.43948564    -7.9269211     -7.267702       2.744994       50218.233      36.893836      36.893836      36.893836    
   8580000   0.44168574    -7.9256965     -7.2631773      2.7415977      50218.233      36.893836      36.893836      36.893836    
   8590000   0.44151708    -7.9281871     -7.2659209      2.7357338      50218.233      36.893836      36.893836      36.893836    
   8600000   0.44060253    -7.9282308     -7.2673364      2.7376675      50218.233      36.893836      36.893836      36.893836    
   8610000   0.4406452     -7.9214715     -7.2605131      2.7928099      50218.233      36.893836      36.893836      36.893836    
   8620000   0.4389518     -7.9297772     -7.2713589      2.7340162      50218.233      36.893836      36.893836      36.893836    
   8630000   0.44016397    -7.9250086     -7.264772       2.756662       50218.233      36.893836      36.893836      36.893836    
   8640000   0.4390651     -7.924444      -7.2658557      2.7688006      50218.233      36.893836      36.893836      36.893836    
   8650000   0.4374275     -7.9291239     -7.272992       2.7303671      50218.233      36.893836      36.893836      36.893836    
   8660000   0.44066405    -7.9267075     -7.2657208      2.7442191      50218.233      36.893836      36.893836      36.893836    
   8670000   0.4373188     -7.9263905     -7.2704216      2.746995       50218.233      36.893836      36.893836      36.893836    
   8680000   0.43844998    -7.9236235     -7.2659579      2.7721552      50218.233      36.893836      36.893836      36.893836    
   8690000   0.44073689    -7.9282444     -7.2671484      2.7349209      50218.233      36.893836      36.893836      36.893836    
   8700000   0.44266583    -7.9248846     -7.2608953      2.7615771      50218.233      36.893836      36.893836      36.893836    
   8710000   0.43870145    -7.9231768     -7.2651339      2.7727224      50218.233      36.893836      36.893836      36.893836    
   8720000   0.44210807    -7.9254955     -7.2623429      2.7604818      50218.233      36.893836      36.893836      36.893836    
   8730000   0.44102512    -7.9259735     -7.2644452      2.7559468      50218.233      36.893836      36.893836      36.893836    
   8740000   0.44125877    -7.9275708     -7.2656921      2.7423736      50218.233      36.893836      36.893836      36.893836    
   8750000   0.43801814    -7.9285161     -7.2714982      2.7378841      50218.233      36.893836      36.893836      36.893836    
   8760000   0.43785193    -7.9306454     -7.2738769      2.7310398      50218.233      36.893836      36.893836      36.893836    
   8770000   0.43896198    -7.9317753     -7.2733417      2.7121921      50218.233      36.893836      36.893836      36.893836    
   8780000   0.43948656    -7.9238442     -7.2646237      2.7672638      50218.233      36.893836      36.893836      36.893836    
   8790000   0.44088038    -7.9301864     -7.2688752      2.7187093      50218.233      36.893836      36.893836      36.893836    
   8800000   0.43802272    -7.9274069     -7.2703821      2.7381539      50218.233      36.893836      36.893836      36.893836    
   8810000   0.44120208    -7.9237904     -7.2619967      2.7758644      50218.233      36.893836      36.893836      36.893836    
   8820000   0.43739899    -7.9260726     -7.2699834      2.7552893      50218.233      36.893836      36.893836      36.893836    
   8830000   0.44021046    -7.923553      -7.2632467      2.772625       50218.233      36.893836      36.893836      36.893836    
   8840000   0.43906905    -7.9217942     -7.2632         2.7847575      50218.233      36.893836      36.893836      36.893836    
   8850000   0.43788587    -7.9245235     -7.267704       2.762801       50218.233      36.893836      36.893836      36.893836    
   8860000   0.43882892    -7.9273431     -7.2691091      2.7553693      50218.233      36.893836      36.893836      36.893836    
   8870000   0.4378515     -7.9265771     -7.2698092      2.749155       50218.233      36.893836      36.893836      36.893836    
   8880000   0.44125221    -7.9253885     -7.2635196      2.7508621      50218.233      36.893836      36.893836      36.893836    
   8890000   0.44028103    -7.9276955     -7.2672833      2.756771       50218.233      36.893836      36.893836      36.893836    
   8900000   0.43942218    -7.9246166     -7.2654927      2.7565531      50218.233      36.893836      36.893836      36.893836    
   8910000   0.43890523    -7.9293981     -7.2710496      2.72498        50218.233      36.893836      36.893836      36.893836    
   8920000   0.43952916    -7.9255965     -7.2663122      2.7540861      50218.233      36.893836      36.893836      36.893836    
   8930000   0.43992157    -7.9266695     -7.2667966      2.7450989      50218.233      36.893836      36.893836      36.893836    
   8940000   0.4390884     -7.9255256     -7.2669023      2.7554662      50218.233      36.893836      36.893836      36.893836    
   8950000   0.43933508    -7.9256617     -7.2666685      2.755514       50218.233      36.893836      36.893836      36.893836    
   8960000   0.43967813    -7.9247457     -7.2652379      2.7590639      50218.233      36.893836      36.893836      36.893836    
   8970000   0.4394923     -7.9266826     -7.2674535      2.750525       50218.233      36.893836      36.893836      36.893836    
   8980000   0.44147776    -7.9260282     -7.2638209      2.7526594      50218.233      36.893836      36.893836      36.893836    
   8990000   0.43810135    -7.9294519     -7.2723092      2.7327781      50218.233      36.893836      36.893836      36.893836    
   9000000   0.43957607    -7.9242976     -7.2649428      2.7583349      50218.233      36.893836      36.893836      36.893836    
   9010000   0.44061123    -7.9270526     -7.2661451      2.7538277      50218.233      36.893836      36.893836      36.893836    
   9020000   0.43882593    -7.9253697     -7.2671402      2.7591271      50218.233      36.893836      36.893836      36.893836    
   9030000   0.44163263    -7.9268806     -7.264441       2.751961       50218.233      36.893836      36.893836      36.893836    
   9040000   0.43856167    -7.9265916     -7.2687585      2.7420417      50218.233      36.893836      36.893836      36.893836    
   9050000   0.43957298    -7.9237537     -7.2644036      2.7766948      50218.233      36.893836      36.893836      36.893836    
   9060000   0.44009215    -7.9283724     -7.2682436      2.7426348      50218.233      36.893836      36.893836      36.893836    
   9070000   0.43969221    -7.9253945     -7.2658655      2.7593405      50218.233      36.893836      36.893836      36.893836    
   9080000   0.44037315    -7.9297249     -7.2691745      2.723508       50218.233      36.893836      36.893836      36.893836    
   9090000   0.4384588     -7.9315766     -7.2738978      2.7120849      50218.233      36.893836      36.893836      36.893836    
   9100000   0.4414673     -7.9249259     -7.2627344      2.7655948      50218.233      36.893836      36.893836      36.893836    
   9110000   0.43964914    -7.9267536     -7.2672893      2.7466406      50218.233      36.893836      36.893836      36.893836    
   9120000   0.44212052    -7.9254361     -7.2622648      2.7593672      50218.233      36.893836      36.893836      36.893836    
   9130000   0.43921479    -7.9251832     -7.2663704      2.7629017      50218.233      36.893836      36.893836      36.893836    
   9140000   0.43958568    -7.9231435     -7.2637743      2.7741638      50218.233      36.893836      36.893836      36.893836    
   9150000   0.43879772    -7.9250827     -7.2668955      2.7499475      50218.233      36.893836      36.893836      36.893836    
   9160000   0.44081729    -7.9245779     -7.2633614      2.7669341      50218.233      36.893836      36.893836      36.893836    
   9170000   0.44011194    -7.9271671     -7.2670086      2.7552399      50218.233      36.893836      36.893836      36.893836    
   9180000   0.43909438    -7.9299721     -7.2713399      2.7288031      50218.233      36.893836      36.893836      36.893836    
   9190000   0.44030506    -7.9262194     -7.2657712      2.7502568      50218.233      36.893836      36.893836      36.893836    
   9200000   0.44233635    -7.9225503     -7.2590553      2.774966       50218.233      36.893836      36.893836      36.893836    
   9210000   0.43881675    -7.9264301     -7.2682143      2.759482       50218.233      36.893836      36.893836      36.893836    
   9220000   0.43959308    -7.929578      -7.2701978      2.7205069      50218.233      36.893836      36.893836      36.893836    
   9230000   0.44037391    -7.9256104     -7.265059       2.7618495      50218.233      36.893836      36.893836      36.893836    
   9240000   0.43760603    -7.9270062     -7.2706065      2.7396914      50218.233      36.893836      36.893836      36.893836    
   9250000   0.43746331    -7.9302856     -7.2741         2.7225334      50218.233      36.893836      36.893836      36.893836    
   9260000   0.43820275    -7.9326058     -7.275311       2.702573       50218.233      36.893836      36.893836      36.893836    
   9270000   0.43570187    -7.9270138     -7.2734703      2.7382685      50218.233      36.893836      36.893836      36.893836    
   9280000   0.43985625    -7.9255757     -7.2658007      2.7546673      50218.233      36.893836      36.893836      36.893836    
   9290000   0.43859637    -7.9236204     -7.2657352      2.7701459      50218.233      36.893836      36.893836      36.893836    
   9300000   0.4414357     -7.9298932     -7.2677491      2.7297562      50218.233      36.893836      36.893836      36.893836    
   9310000   0.44066092    -7.9259371     -7.2649551      2.7628047      50218.233      36.893836      36.893836      36.893836    
   9320000   0.4405132     -7.9280562     -7.2672958      2.743578       50218.233      36.893836      36.893836      36.893836    
   9330000   0.43933624    -7.928453      -7.269458       2.7314599      50218.233      36.893836      36.893836      36.893836    
   9340000   0.43858946    -7.9251496     -7.2672748      2.7527367      50218.233      36.893836      36.893836      36.893836    
   9350000   0.44016972    -7.9244623     -7.2642171      2.7742461      50218.233      36.893836      36.893836      36.893836    
   9360000   0.43843155    -7.9240328     -7.2663948      2.7713113      50218.233      36.893836      36.893836      36.893836    
   9370000   0.44028034    -7.9266111     -7.2662         2.753814       50218.233      36.893836      36.893836      36.893836    
   9380000   0.43988318    -7.9275806     -7.2677652      2.7474135      50218.233      36.893836      36.893836      36.893836    
   9390000   0.44015346    -7.9256935     -7.2654727      2.7501692      50218.233      36.893836      36.893836      36.893836    
   9400000   0.44169356    -7.9282676     -7.2657367      2.7379936      50218.233      36.893836      36.893836      36.893836    
   9410000   0.43772844    -7.9247982     -7.2682149      2.7727583      50218.233      36.893836      36.893836      36.893836    
   9420000   0.44082512    -7.926118      -7.2648897      2.7518782      50218.233      36.893836      36.893836      36.893836    
   9430000   0.44126823    -7.9282036     -7.2663107      2.7388343      50218.233      36.893836      36.893836      36.893836    
   9440000   0.44037795    -7.9293168     -7.2687593      2.7211035      50218.233      36.893836      36.893836      36.893836    
   9450000   0.44333062    -7.9275552     -7.2625688      2.7455481      50218.233      36.893836      36.893836      36.893836    
   9460000   0.43897959    -7.9275184     -7.2690584      2.7455497      50218.233      36.893836      36.893836      36.893836    
   9470000   0.440375      -7.930662      -7.2701089      2.7191558      50218.233      36.893836      36.893836      36.893836    
   9480000   0.43991169    -7.9280002     -7.268142       2.7359546      50218.233      36.893836      36.893836      36.893836    
   9490000   0.43874714    -7.9256755     -7.2675642      2.7547151      50218.233      36.893836      36.893836      36.893836    
   9500000   0.4397345     -7.9278306     -7.2682382      2.7326488      50218.233      36.893836      36.893836      36.893836    
   9510000   0.44100195    -7.9232296     -7.2617361      2.7777462      50218.233      36.893836      36.893836      36.893836    
   9520000   0.44009075    -7.9263164     -7.2661897      2.7647825      50218.233      36.893836      36.893836      36.893836    
   9530000   0.4386998     -7.9254757     -7.2674354      2.7515659      50218.233      36.893836      36.893836      36.893836    
   9540000   0.44221635    -7.9307012     -7.2673862      2.7221502      50218.233      36.893836      36.893836      36.893836    
   9550000   0.44179443    -7.9266532     -7.2639709      2.7495292      50218.233      36.893836      36.893836      36.893836    
   9560000   0.44096375    -7.9277855     -7.2663493      2.7452452      50218.233      36.893836      36.893836      36.893836    
   9570000   0.44003166    -7.9264922     -7.2664541      2.7501311      50218.233      36.893836      36.893836      36.893836    
   9580000   0.4393187     -7.9286339     -7.2696653      2.7352216      50218.233      36.893836      36.893836      36.893836    
   9590000   0.44013384    -7.9273842     -7.2671928      2.7378713      50218.233      36.893836      36.893836      36.893836    
   9600000   0.44015667    -7.9256282     -7.2654025      2.7541092      50218.233      36.893836      36.893836      36.893836    
   9610000   0.43828336    -7.9273655     -7.2699498      2.7492749      50218.233      36.893836      36.893836      36.893836    
   9620000   0.43844444    -7.9283666     -7.2707093      2.7438329      50218.233      36.893836      36.893836      36.893836    
   9630000   0.43982489    -7.9239791     -7.2642511      2.7720548      50218.233      36.893836      36.893836      36.893836    
   9640000   0.43997114    -7.931767      -7.2718197      2.7125465      50218.233      36.893836      36.893836      36.893836    
   9650000   0.4386298     -7.9291486     -7.2712133      2.7271053      50218.233      36.893836      36.893836      36.893836    
   9660000   0.44081762    -7.9251404     -7.2639234      2.7571153      50218.233      36.893836      36.893836      36.893836    
   9670000   0.43864595    -7.9226655     -7.2647059      2.7850503      50218.233      36.893836      36.893836      36.893836    
   9680000   0.44040554    -7.9243117     -7.2637128      2.7573467      50218.233      36.893836      36.893836      36.893836    
   9690000   0.43944935    -7.9249321     -7.2657674      2.7632427      50218.233      36.893836      36.893836      36.893836    
   9700000   0.44020672    -7.9275607     -7.26726        2.7405558      50218.233      36.893836      36.893836      36.893836    
   9710000   0.4412516     -7.9231747     -7.2613067      2.7839326      50218.233      36.893836      36.893836      36.893836    
   9720000   0.43811761    -7.9287441     -7.271577       2.738942       50218.233      36.893836      36.893836      36.893836    
   9730000   0.44039199    -7.9246746     -7.264096       2.764685       50218.233      36.893836      36.893836      36.893836    
   9740000   0.44027612    -7.9262085     -7.2658037      2.7487832      50218.233      36.893836      36.893836      36.893836    
   9750000   0.43960541    -7.9257698     -7.2663711      2.7613613      50218.233      36.893836      36.893836      36.893836    
   9760000   0.44229603    -7.9224763     -7.2590417      2.7924864      50218.233      36.893836      36.893836      36.893836    
   9770000   0.43877387    -7.9244217     -7.2662703      2.7710795      50218.233      36.893836      36.893836      36.893836    
   9780000   0.44048133    -7.928553      -7.2678404      2.7374996      50218.233      36.893836      36.893836      36.893836    
   9790000   0.4401167     -7.925376      -7.2652103      2.7554558      50218.233      36.893836      36.893836      36.893836    
   9800000   0.43767001    -7.9239438     -7.2674481      2.7704114      50218.233      36.893836      36.893836      36.893836    
   9810000   0.44100234    -7.9277255     -7.2662314      2.7420506      50218.233      36.893836      36.893836      36.893836    
   9820000   0.43671113    -7.9249954     -7.269938       2.7626748      50218.233      36.893836      36.893836      36.893836    
   9830000   0.43865512    -7.9282323     -7.270259       2.7331136      50218.233      36.893836      36.893836      36.893836    
   9840000   0.43720044    -7.9269765     -7.2711852      2.7487692      50218.233      36.893836      36.893836      36.893836    
   9850000   0.43899084    -7.9265231     -7.2680463      2.7437323      50218.233      36.893836      36.893836      36.893836    
   9860000   0.44003634    -7.9265337     -7.2664886      2.7609288      50218.233      36.893836      36.893836      36.893836    
   9870000   0.43942739    -7.9271927     -7.268061       2.7548756      50218.233      36.893836      36.893836      36.893836    
   9880000   0.44100138    -7.9301649     -7.2686722      2.7174347      50218.233      36.893836      36.893836      36.893836    
   9890000   0.43988209    -7.9278706     -7.2680568      2.7483777      50218.233      36.893836      36.893836      36.893836    
   9900000   0.43953133    -7.9278719     -7.2685843      2.7366393      50218.233      36.893836      36.893836      36.893836    
   9910000   0.43880437    -7.9294373     -7.2712401      2.7327183      50218.233      36.893836      36.893836      36.893836    
   9920000   0.44024405    -7.9286685     -7.2683118      2.7356614      50218.233      36.893836      36.893836      36.893836    
   9930000   0.44009776    -7.9296884     -7.2695511      2.7231959      50218.233      36.893836      36.893836      36.893836    
   9940000   0.44005465    -7.926558      -7.2664854      2.7439282      50218.233      36.893836      36.893836      36.893836    
   9950000   0.43944979    -7.9325651     -7.2733998      2.7080524      50218.233      36.893836      36.893836      36.893836    
   9960000   0.4405554     -7.9265812     -7.2657575      2.752471       50218.233      36.893836      36.893836      36.893836    
   9970000   0.43864252    -7.9293906     -7.2714362      2.7311436      50218.233      36.893836      36.893836      36.893836    
   9980000   0.43960822    -7.9283505     -7.2689476      2.7347521      50218.233      36.893836      36.893836      36.893836    
   9990000   0.43968353    -7.9281605     -7.2686446      2.7372529      50218.233      36.893836      36.893836      36.893836    
  10000000   0.44208125    -7.9269557     -7.2638432      2.7547251      50218.233      36.893836      36.893836      36.893836    
Loop time of 15798.3 on 5 procs for 10000000 steps with 70304 atoms

Performance: 546893.816 tau/day, 632.979 timesteps/s, 44.501 Matom-step/s
94.5% CPU use with 5 MPI tasks x 1 OpenMP threads

MPI task timing breakdown:
Section |  min time  |  avg time  |  max time  |%varavg| %total
---------------------------------------------------------------
Pair    | 5907.6     | 6173.8     | 6369.6     | 226.6 | 39.08
Neigh   | 51.216     | 52.732     | 55.434     |  20.3 |  0.33
Comm    | 2338.2     | 2348.3     | 2355.5     |  12.8 | 14.86
Output  | 0.17986    | 0.18584    | 0.19613    |   1.3 |  0.00
Modify  | 6219.9     | 6418.1     | 6692       | 226.4 | 40.63
Other   |            | 805.2      |            |       |  5.10

Nlocal:        14060.8 ave       14147 max       14021 min
Histogram: 2 1 0 1 0 0 0 0 0 1
Nghost:        18752.6 ave       18794 max       18711 min
Histogram: 1 0 1 1 0 0 0 0 0 2
Neighs:              0 ave           0 max           0 min
Histogram: 5 0 0 0 0 0 0 0 0 0

Total # of neighbors = 0
Ave neighs/atom = 0
Neighbor list builds = 1999790
Dangerous builds = 0
clear
OMP_NUM_THREADS environment is not set. Defaulting to 1 thread. (src/comm.cpp:98)
  using 1 OpenMP thread(s) per MPI task
package gpu 0
jump dms420.lmp

variable T equal 420
# T = 1000* (temp in LJ unit)
variable f equal 10000
log log.${T}
log log.420
