variable TLJ equal (${T}/1000)
variable TLJ equal (445/1000)
variable NCyle equal 8
variable iStep equal (${f})
variable iStep equal (10000)
variable dumpStep equal (${f}*100)
variable dumpStep equal (10000*100)
variable runStep equal (${f}*100*${NCyle})
variable runStep equal (10000*100*${NCyle})
variable runStep equal (10000*100*8)

units       lj
atom_style  atomic
dimension 3
boundary     p p p
pair_style  lj/cut 2.5
read_data  ../data/T${T}.dat
read_data  ../data/T445.dat
Reading data file ...
  orthogonal box = (0.97250269 0.97250269 0.97250269) to (37.866338 37.866338 37.866338)
  1 by 1 by 5 MPI processor grid
  reading atoms ...
  70304 atoms
  reading velocities ...
  70304 velocities
  read_data CPU = 0.210 seconds
change_box all triclinic
Changing box ...
  triclinic box = (0.97250269 0.97250269 0.97250269) to (37.866338 37.866338 37.866338) with tilt (0 0 0)
mass 1 1
mass 2 1
pair_modify shift yes
pair_coeff  1 1 1 1
pair_coeff  1 2 1.5 0.8
pair_coeff  2 2 0.5 0.88


timestep 0.01
thermo ${iStep}
thermo 10000
reset_timestep 0
thermo_style custom step temp pe etotal press vol lx ly lz
fix             1 all nvt temp ${TLJ}  ${TLJ}  0.1
fix             1 all nvt temp 0.445  ${TLJ}  0.1
fix             1 all nvt temp 0.445  0.445  0.1
thermo_modify flush yes

fix dsf all deform 1 xy  wiggle 0.5  ${f}   units box
fix dsf all deform 1 xy  wiggle 0.5  10000   units box
fix ps1 all ave/time 1 1 ${iStep} c_thermo_press[1] c_thermo_press[2]  c_thermo_press[3] c_thermo_press[4]  c_thermo_press[5] c_thermo_press[6]  file  stress.${T}
fix ps1 all ave/time 1 1 10000 c_thermo_press[1] c_thermo_press[2]  c_thermo_press[3] c_thermo_press[4]  c_thermo_press[5] c_thermo_press[6]  file  stress.${T}
fix ps1 all ave/time 1 1 10000 c_thermo_press[1] c_thermo_press[2]  c_thermo_press[3] c_thermo_press[4]  c_thermo_press[5] c_thermo_press[6]  file  stress.445
dump            1 all custom ${dumpStep} dump.${T} id type x y z
dump            1 all custom 1000000 dump.${T} id type x y z
dump            1 all custom 1000000 dump.445 id type x y z
dump_modify 1 sort id
fix nodrift all momentum 1  linear 1 1 1
fix com_seed all recenter INIT INIT INIT shift all
run ${runStep}
run 8000000
Generated 0 of 1 mixed pair_coeff terms from geometric mixing rule
Per MPI rank memory allocation (min/avg/max) = 6.668 | 8.47 | 8.925 Mbytes
   Step          Temp          PotEng         TotEng         Press          Volume           Lx             Ly             Lz      
         0   0.4449141     -7.9278668     -7.2605051      2.741237       50218.233      36.893836      36.893836      36.893836    
     10000   0.44501588    -7.9217909     -7.2542766      2.7840199      50218.233      36.893836      36.893836      36.893836    
     20000   0.44421437    -7.9163205     -7.2500084      2.8387228      50218.233      36.893836      36.893836      36.893836    
     30000   0.44557015    -7.9224543     -7.2541086      2.788085       50218.233      36.893836      36.893836      36.893836    
     40000   0.4460427     -7.9171306     -7.2480761      2.8139699      50218.233      36.893836      36.893836      36.893836    
     50000   0.44357311    -7.916111      -7.2507608      2.8434299      50218.233      36.893836      36.893836      36.893836    
     60000   0.44532556    -7.9170303     -7.2490515      2.8272003      50218.233      36.893836      36.893836      36.893836    
     70000   0.44250821    -7.9224883     -7.2587354      2.7807852      50218.233      36.893836      36.893836      36.893836    
     80000   0.44180453    -7.9167163     -7.254019       2.8201167      50218.233      36.893836      36.893836      36.893836    
     90000   0.44572465    -7.9162666     -7.2476892      2.8323759      50218.233      36.893836      36.893836      36.893836    
    100000   0.44334603    -7.9205612     -7.2555516      2.7911828      50218.233      36.893836      36.893836      36.893836    
    110000   0.44325369    -7.9194459     -7.2545748      2.796651       50218.233      36.893836      36.893836      36.893836    
    120000   0.44536189    -7.9171828     -7.2491495      2.8331616      50218.233      36.893836      36.893836      36.893836    
    130000   0.44394989    -7.9139499     -7.2480345      2.8504592      50218.233      36.893836      36.893836      36.893836    
    140000   0.4431727     -7.9180491     -7.2532995      2.8240877      50218.233      36.893836      36.893836      36.893836    
    150000   0.44669079    -7.9211269     -7.2511003      2.7997078      50218.233      36.893836      36.893836      36.893836    
    160000   0.44731121    -7.9178112     -7.2468539      2.8144198      50218.233      36.893836      36.893836      36.893836    
    170000   0.44411329    -7.9150833     -7.2489229      2.8306747      50218.233      36.893836      36.893836      36.893836    
    180000   0.44460762    -7.9139503     -7.2470483      2.8465473      50218.233      36.893836      36.893836      36.893836    
    190000   0.44440082    -7.9209829     -7.2543911      2.7977831      50218.233      36.893836      36.893836      36.893836    
    200000   0.44553982    -7.9191024     -7.2508022      2.8035134      50218.233      36.893836      36.893836      36.893836    
    210000   0.44635696    -7.9159003     -7.2463744      2.8352755      50218.233      36.893836      36.893836      36.893836    
    220000   0.44500381    -7.9172659     -7.2497697      2.8209544      50218.233      36.893836      36.893836      36.893836    
    230000   0.44396065    -7.9152957     -7.2493642      2.8373656      50218.233      36.893836      36.893836      36.893836    
    240000   0.4451228     -7.9202307     -7.252556       2.807328       50218.233      36.893836      36.893836      36.893836    
    250000   0.44537054    -7.9177961     -7.2497498      2.8245134      50218.233      36.893836      36.893836      36.893836    
    260000   0.44665679    -7.9183562     -7.2483805      2.8183508      50218.233      36.893836      36.893836      36.893836    
    270000   0.444144      -7.9177191     -7.2515126      2.8227402      50218.233      36.893836      36.893836      36.893836    
    280000   0.44465236    -7.9179052     -7.2509361      2.8127129      50218.233      36.893836      36.893836      36.893836    
    290000   0.44483674    -7.9188023     -7.2515567      2.81088        50218.233      36.893836      36.893836      36.893836    
    300000   0.44767648    -7.9173638     -7.2458586      2.8239374      50218.233      36.893836      36.893836      36.893836    
    310000   0.44355021    -7.919215      -7.2538992      2.80144        50218.233      36.893836      36.893836      36.893836    
    320000   0.44539403    -7.9170867     -7.2490051      2.8157307      50218.233      36.893836      36.893836      36.893836    
    330000   0.44413826    -7.919009      -7.2528111      2.8135976      50218.233      36.893836      36.893836      36.893836    
    340000   0.44746585    -7.9184571     -7.2472679      2.8146285      50218.233      36.893836      36.893836      36.893836    
    350000   0.44512396    -7.9184731     -7.2507966      2.8088411      50218.233      36.893836      36.893836      36.893836    
    360000   0.44546788    -7.915711      -7.2475187      2.8311483      50218.233      36.893836      36.893836      36.893836    
    370000   0.44728158    -7.9151062     -7.2441934      2.8408548      50218.233      36.893836      36.893836      36.893836    
    380000   0.44355936    -7.9192982     -7.2539687      2.8160357      50218.233      36.893836      36.893836      36.893836    
    390000   0.44555804    -7.9144172     -7.2460897      2.83448        50218.233      36.893836      36.893836      36.893836    
    400000   0.44221431    -7.9193315     -7.2560195      2.7986784      50218.233      36.893836      36.893836      36.893836    
    410000   0.44688812    -7.9201661     -7.2498435      2.8026137      50218.233      36.893836      36.893836      36.893836    
    420000   0.44522674    -7.9184604     -7.2506298      2.8120795      50218.233      36.893836      36.893836      36.893836    
    430000   0.44778841    -7.9149488     -7.2432757      2.8433597      50218.233      36.893836      36.893836      36.893836    
    440000   0.44359475    -7.9183476     -7.252965       2.8163006      50218.233      36.893836      36.893836      36.893836    
    450000   0.44245065    -7.9199435     -7.2562769      2.8032478      50218.233      36.893836      36.893836      36.893836    
    460000   0.44603211    -7.9140577     -7.245019       2.84395        50218.233      36.893836      36.893836      36.893836    
    470000   0.44550408    -7.9166312     -7.2483846      2.8360742      50218.233      36.893836      36.893836      36.893836    
    480000   0.44309012    -7.918585      -7.2539593      2.8026171      50218.233      36.893836      36.893836      36.893836    
    490000   0.44588749    -7.9166419     -7.2478202      2.8359971      50218.233      36.893836      36.893836      36.893836    
    500000   0.44833483    -7.9178917     -7.245399       2.8267011      50218.233      36.893836      36.893836      36.893836    
    510000   0.44362836    -7.9216431     -7.25621        2.785224       50218.233      36.893836      36.893836      36.893836    
    520000   0.44583209    -7.921238      -7.2524994      2.7824015      50218.233      36.893836      36.893836      36.893836    
    530000   0.44669725    -7.9187707     -7.2487344      2.8156282      50218.233      36.893836      36.893836      36.893836    
    540000   0.44464334    -7.9162977     -7.2493422      2.8241245      50218.233      36.893836      36.893836      36.893836    
    550000   0.44407445    -7.920704      -7.2546018      2.7949865      50218.233      36.893836      36.893836      36.893836    
    560000   0.44374043    -7.9209087     -7.2553076      2.8032281      50218.233      36.893836      36.893836      36.893836    
    570000   0.44520405    -7.9188464     -7.2510499      2.8104506      50218.233      36.893836      36.893836      36.893836    
    580000   0.44675553    -7.9199495     -7.2498257      2.8141452      50218.233      36.893836      36.893836      36.893836    
    590000   0.44273147    -7.9167442     -7.2526564      2.8228491      50218.233      36.893836      36.893836      36.893836    
    600000   0.44629898    -7.9177725     -7.2483336      2.8278172      50218.233      36.893836      36.893836      36.893836    
    610000   0.4419603     -7.9195799     -7.2566489      2.8022017      50218.233      36.893836      36.893836      36.893836    
    620000   0.44614771    -7.912641      -7.243429       2.8577655      50218.233      36.893836      36.893836      36.893836    
    630000   0.44485679    -7.9210442     -7.2537685      2.7937238      50218.233      36.893836      36.893836      36.893836    
    640000   0.44423871    -7.9180996     -7.251751       2.8165429      50218.233      36.893836      36.893836      36.893836    
    650000   0.44593094    -7.9159225     -7.2470356      2.8261692      50218.233      36.893836      36.893836      36.893836    
    660000   0.44415313    -7.9162876     -7.2500674      2.8373471      50218.233      36.893836      36.893836      36.893836    
    670000   0.44742518    -7.9187526     -7.2476243      2.8166107      50218.233      36.893836      36.893836      36.893836    
    680000   0.44446169    -7.9192467     -7.2525636      2.8144121      50218.233      36.893836      36.893836      36.893836    
    690000   0.44392331    -7.9165644     -7.2506889      2.8244633      50218.233      36.893836      36.893836      36.893836    
    700000   0.4451979     -7.9145236     -7.2467362      2.839114       50218.233      36.893836      36.893836      36.893836    
    710000   0.44429863    -7.9170678     -7.2506293      2.8251203      50218.233      36.893836      36.893836      36.893836    
    720000   0.44410329    -7.9168016     -7.2506561      2.8397928      50218.233      36.893836      36.893836      36.893836    
    730000   0.44616056    -7.9205304     -7.2512991      2.7991809      50218.233      36.893836      36.893836      36.893836    
    740000   0.44670455    -7.9153542     -7.2453069      2.8425858      50218.233      36.893836      36.893836      36.893836    
    750000   0.44401282    -7.9167065     -7.2506968      2.815717       50218.233      36.893836      36.893836      36.893836    
    760000   0.44419098    -7.9171367     -7.2508597      2.8307146      50218.233      36.893836      36.893836      36.893836    
    770000   0.44499301    -7.9190831     -7.2516031      2.8060731      50218.233      36.893836      36.893836      36.893836    
    780000   0.44302587    -7.9151301     -7.2506008      2.8323499      50218.233      36.893836      36.893836      36.893836    
    790000   0.44600081    -7.9172291     -7.2482374      2.819588       50218.233      36.893836      36.893836      36.893836    
    800000   0.44403827    -7.9232907     -7.2572428      2.781756       50218.233      36.893836      36.893836      36.893836    
    810000   0.44504678    -7.9128624     -7.2453017      2.8585347      50218.233      36.893836      36.893836      36.893836    
    820000   0.44690365    -7.9152175     -7.2448715      2.8329662      50218.233      36.893836      36.893836      36.893836    
    830000   0.44681157    -7.9148991     -7.2446913      2.8461443      50218.233      36.893836      36.893836      36.893836    
    840000   0.4447795     -7.9198698     -7.2527101      2.8015333      50218.233      36.893836      36.893836      36.893836    
    850000   0.44614084    -7.91787       -7.2486683      2.8121895      50218.233      36.893836      36.893836      36.893836    
    860000   0.446844      -7.9167432     -7.2464867      2.8249927      50218.233      36.893836      36.893836      36.893836    
    870000   0.44365788    -7.9161821     -7.2507048      2.8270617      50218.233      36.893836      36.893836      36.893836    
    880000   0.44443539    -7.9179265     -7.2512829      2.8181313      50218.233      36.893836      36.893836      36.893836    
    890000   0.44634223    -7.9179432     -7.2484394      2.8139099      50218.233      36.893836      36.893836      36.893836    
    900000   0.44680168    -7.9130625     -7.2428696      2.8545586      50218.233      36.893836      36.893836      36.893836    
    910000   0.44647158    -7.9189788     -7.2492809      2.8133334      50218.233      36.893836      36.893836      36.893836    
    920000   0.44636824    -7.9168972     -7.2473544      2.8274715      50218.233      36.893836      36.893836      36.893836    
    930000   0.44412708    -7.9141346     -7.2479535      2.8422381      50218.233      36.893836      36.893836      36.893836    
    940000   0.44610126    -7.9221043     -7.2529619      2.7935034      50218.233      36.893836      36.893836      36.893836    
    950000   0.44488489    -7.9209186     -7.2536007      2.7941826      50218.233      36.893836      36.893836      36.893836    
    960000   0.44113634    -7.9179829     -7.2562878      2.8104686      50218.233      36.893836      36.893836      36.893836    
    970000   0.44529953    -7.9195491     -7.2516093      2.8100886      50218.233      36.893836      36.893836      36.893836    
    980000   0.44399511    -7.9206547     -7.2546715      2.7863431      50218.233      36.893836      36.893836      36.893836    
    990000   0.44441996    -7.9180094     -7.2513889      2.807923       50218.233      36.893836      36.893836      36.893836    
   1000000   0.44728659    -7.9206316     -7.2497112      2.8004692      50218.233      36.893836      36.893836      36.893836    
   1010000   0.44686676    -7.9141615     -7.2438709      2.8454839      50218.233      36.893836      36.893836      36.893836    
   1020000   0.44691331    -7.9163332     -7.2459727      2.8268127      50218.233      36.893836      36.893836      36.893836    
   1030000   0.44383678    -7.9165267     -7.250781       2.811206       50218.233      36.893836      36.893836      36.893836    
   1040000   0.44619547    -7.9160594     -7.2467757      2.83622        50218.233      36.893836      36.893836      36.893836    
   1050000   0.44233003    -7.9215423     -7.2580566      2.7795243      50218.233      36.893836      36.893836      36.893836    
   1060000   0.44389751    -7.9171445     -7.2513077      2.8161405      50218.233      36.893836      36.893836      36.893836    
   1070000   0.4460297     -7.9203096     -7.2512745      2.7993753      50218.233      36.893836      36.893836      36.893836    
   1080000   0.44623527    -7.9170766     -7.2477332      2.8245008      50218.233      36.893836      36.893836      36.893836    
   1090000   0.44570717    -7.9192147     -7.2506635      2.8077736      50218.233      36.893836      36.893836      36.893836    
   1100000   0.44451767    -7.9169726     -7.2502055      2.823917       50218.233      36.893836      36.893836      36.893836    
   1110000   0.44264582    -7.9162638     -7.2523045      2.8227577      50218.233      36.893836      36.893836      36.893836    
   1120000   0.44705076    -7.9219847     -7.2514181      2.7994868      50218.233      36.893836      36.893836      36.893836    
   1130000   0.44312596    -7.9168185     -7.252139       2.8323946      50218.233      36.893836      36.893836      36.893836    
   1140000   0.44689304    -7.914743      -7.244413       2.8529735      50218.233      36.893836      36.893836      36.893836    
   1150000   0.44652515    -7.9152487     -7.2454705      2.8357012      50218.233      36.893836      36.893836      36.893836    
   1160000   0.44354834    -7.9152483     -7.2499353      2.8407651      50218.233      36.893836      36.893836      36.893836    
   1170000   0.4448921     -7.9170099     -7.2496812      2.8290531      50218.233      36.893836      36.893836      36.893836    
   1180000   0.44343076    -7.9186058     -7.2534691      2.8129428      50218.233      36.893836      36.893836      36.893836    
   1190000   0.44383989    -7.9142069     -7.2484566      2.8502985      50218.233      36.893836      36.893836      36.893836    
   1200000   0.44431011    -7.9169263     -7.2504706      2.8215129      50218.233      36.893836      36.893836      36.893836    
   1210000   0.44244194    -7.9143499     -7.2506964      2.8434961      50218.233      36.893836      36.893836      36.893836    
   1220000   0.44436274    -7.9152012     -7.2486666      2.8386427      50218.233      36.893836      36.893836      36.893836    
   1230000   0.44684745    -7.9171084     -7.2468468      2.8266018      50218.233      36.893836      36.893836      36.893836    
   1240000   0.44435355    -7.9206134     -7.2540926      2.7869244      50218.233      36.893836      36.893836      36.893836    
   1250000   0.44521065    -7.9170158     -7.2492093      2.8333421      50218.233      36.893836      36.893836      36.893836    
   1260000   0.44444846    -7.9179243     -7.2512611      2.8186855      50218.233      36.893836      36.893836      36.893836    
   1270000   0.44351459    -7.9166739     -7.2514115      2.8357114      50218.233      36.893836      36.893836      36.893836    
   1280000   0.44451437    -7.9142419     -7.2474799      2.8398748      50218.233      36.893836      36.893836      36.893836    
   1290000   0.44507433    -7.9142429     -7.2466409      2.8431163      50218.233      36.893836      36.893836      36.893836    
   1300000   0.44690736    -7.9145165     -7.244165       2.8553151      50218.233      36.893836      36.893836      36.893836    
   1310000   0.44210377    -7.9171943     -7.254048       2.8148279      50218.233      36.893836      36.893836      36.893836    
   1320000   0.44310625    -7.9147803     -7.2501304      2.8407199      50218.233      36.893836      36.893836      36.893836    
   1330000   0.44549018    -7.9149496     -7.2467239      2.8424936      50218.233      36.893836      36.893836      36.893836    
   1340000   0.44404314    -7.9134061     -7.2473508      2.8524731      50218.233      36.893836      36.893836      36.893836    
   1350000   0.44522274    -7.9142075     -7.2463829      2.8491029      50218.233      36.893836      36.893836      36.893836    
   1360000   0.44459216    -7.9149683     -7.2480896      2.8347715      50218.233      36.893836      36.893836      36.893836    
   1370000   0.44405546    -7.9171579     -7.2510842      2.8222933      50218.233      36.893836      36.893836      36.893836    
   1380000   0.44177515    -7.9135914     -7.2509381      2.8529424      50218.233      36.893836      36.893836      36.893836    
   1390000   0.44769931    -7.9137166     -7.2421772      2.8579635      50218.233      36.893836      36.893836      36.893836    
   1400000   0.44904846    -7.9144542     -7.2408911      2.8435891      50218.233      36.893836      36.893836      36.893836    
   1410000   0.4443794     -7.9159448     -7.2493852      2.8336421      50218.233      36.893836      36.893836      36.893836    
   1420000   0.44589229    -7.9164315     -7.2476026      2.8341502      50218.233      36.893836      36.893836      36.893836    
   1430000   0.44464265    -7.9180427     -7.2510882      2.8157874      50218.233      36.893836      36.893836      36.893836    
   1440000   0.44463534    -7.9148811     -7.2479375      2.8422039      50218.233      36.893836      36.893836      36.893836    
   1450000   0.44708681    -7.9173404     -7.2467197      2.8250171      50218.233      36.893836      36.893836      36.893836    
   1460000   0.44659198    -7.9167603     -7.2468819      2.8245241      50218.233      36.893836      36.893836      36.893836    
   1470000   0.44543925    -7.9192261     -7.2510767      2.8081477      50218.233      36.893836      36.893836      36.893836    
   1480000   0.44409304    -7.913474      -7.2473439      2.8596615      50218.233      36.893836      36.893836      36.893836    
   1490000   0.44427291    -7.9196548     -7.2532549      2.8026151      50218.233      36.893836      36.893836      36.893836    
   1500000   0.44239758    -7.9153155     -7.2517285      2.8312669      50218.233      36.893836      36.893836      36.893836    
   1510000   0.44620092    -7.9181281     -7.2488363      2.8229372      50218.233      36.893836      36.893836      36.893836    
   1520000   0.44618002    -7.9161904     -7.2469299      2.8349313      50218.233      36.893836      36.893836      36.893836    
   1530000   0.4436077     -7.9177141     -7.2523121      2.8107137      50218.233      36.893836      36.893836      36.893836    
   1540000   0.44622219    -7.9156623     -7.2463385      2.8213979      50218.233      36.893836      36.893836      36.893836    
   1550000   0.443223      -7.9152632     -7.2504381      2.831091       50218.233      36.893836      36.893836      36.893836    
   1560000   0.44529241    -7.9145854     -7.2466563      2.8390128      50218.233      36.893836      36.893836      36.893836    
   1570000   0.44659118    -7.917808      -7.2479308      2.8215696      50218.233      36.893836      36.893836      36.893836    
   1580000   0.44589205    -7.9148991     -7.2460706      2.8434038      50218.233      36.893836      36.893836      36.893836    
   1590000   0.44491841    -7.9152268     -7.2478587      2.8307553      50218.233      36.893836      36.893836      36.893836    
   1600000   0.44556123    -7.9147474     -7.2464151      2.8448902      50218.233      36.893836      36.893836      36.893836    
   1610000   0.44422808    -7.9169271     -7.2505945      2.8160668      50218.233      36.893836      36.893836      36.893836    
   1620000   0.44450131    -7.9176952     -7.2509528      2.8150013      50218.233      36.893836      36.893836      36.893836    
   1630000   0.44557407    -7.9162287     -7.2478771      2.8381218      50218.233      36.893836      36.893836      36.893836    
   1640000   0.44426032    -7.9153451     -7.2489641      2.838741       50218.233      36.893836      36.893836      36.893836    
   1650000   0.44355388    -7.9202419     -7.2549206      2.8065448      50218.233      36.893836      36.893836      36.893836    
   1660000   0.44443737    -7.9151122     -7.2484657      2.8435729      50218.233      36.893836      36.893836      36.893836    
   1670000   0.44387323    -7.9170005     -7.2512001      2.8268497      50218.233      36.893836      36.893836      36.893836    
   1680000   0.44610772    -7.9160011     -7.2468491      2.8287358      50218.233      36.893836      36.893836      36.893836    
   1690000   0.44460919    -7.915671      -7.2487667      2.8275167      50218.233      36.893836      36.893836      36.893836    
   1700000   0.44500248    -7.9118505     -7.2443563      2.8661443      50218.233      36.893836      36.893836      36.893836    
   1710000   0.44504948    -7.9161075     -7.2485428      2.8372912      50218.233      36.893836      36.893836      36.893836    
   1720000   0.44508711    -7.9193761     -7.2517549      2.8053838      50218.233      36.893836      36.893836      36.893836    
   1730000   0.44491778    -7.9137515     -7.2463843      2.8446495      50218.233      36.893836      36.893836      36.893836    
   1740000   0.44312671    -7.9141061     -7.2494255      2.841351       50218.233      36.893836      36.893836      36.893836    
   1750000   0.44677854    -7.9174747     -7.2473164      2.8304086      50218.233      36.893836      36.893836      36.893836    
   1760000   0.44404374    -7.918275      -7.2522188      2.8074626      50218.233      36.893836      36.893836      36.893836    
   1770000   0.44581088    -7.9154929     -7.2467861      2.8454446      50218.233      36.893836      36.893836      36.893836    
   1780000   0.44279201    -7.9170788     -7.2529003      2.8124042      50218.233      36.893836      36.893836      36.893836    
   1790000   0.44657048    -7.915784      -7.2459379      2.8301152      50218.233      36.893836      36.893836      36.893836    
   1800000   0.44225647    -7.9184175     -7.2550422      2.8152351      50218.233      36.893836      36.893836      36.893836    
   1810000   0.44271743    -7.9163475     -7.2522808      2.8254837      50218.233      36.893836      36.893836      36.893836    
   1820000   0.44393755    -7.917532      -7.2516351      2.8126686      50218.233      36.893836      36.893836      36.893836    
   1830000   0.44404214    -7.918739      -7.2526852      2.8120426      50218.233      36.893836      36.893836      36.893836    
   1840000   0.4441837     -7.915691      -7.2494249      2.8268874      50218.233      36.893836      36.893836      36.893836    
   1850000   0.4443318     -7.915976      -7.2494878      2.8460655      50218.233      36.893836      36.893836      36.893836    
   1860000   0.44455755    -7.91503       -7.2482031      2.8409513      50218.233      36.893836      36.893836      36.893836    
   1870000   0.4447089     -7.914948      -7.2478942      2.8312913      50218.233      36.893836      36.893836      36.893836    
   1880000   0.44580507    -7.9136861     -7.244988       2.8419667      50218.233      36.893836      36.893836      36.893836    
   1890000   0.44431309    -7.9208081     -7.2543479      2.796467       50218.233      36.893836      36.893836      36.893836    
   1900000   0.44328623    -7.9187063     -7.2537864      2.8024549      50218.233      36.893836      36.893836      36.893836    
   1910000   0.44452758    -7.916431      -7.2496491      2.833019       50218.233      36.893836      36.893836      36.893836    
   1920000   0.44372228    -7.9165206     -7.2509467      2.8304338      50218.233      36.893836      36.893836      36.893836    
   1930000   0.44187931    -7.9208465     -7.2580369      2.7924457      50218.233      36.893836      36.893836      36.893836    
   1940000   0.44535515    -7.912559      -7.2445358      2.850197       50218.233      36.893836      36.893836      36.893836    
   1950000   0.445407      -7.9163327     -7.2482317      2.8338624      50218.233      36.893836      36.893836      36.893836    
   1960000   0.44514503    -7.9163024     -7.2485944      2.8266841      50218.233      36.893836      36.893836      36.893836    
   1970000   0.44615665    -7.9197152     -7.2504897      2.8104945      50218.233      36.893836      36.893836      36.893836    
   1980000   0.4465987     -7.9173589     -7.2474704      2.8204558      50218.233      36.893836      36.893836      36.893836    
   1990000   0.44470486    -7.9181315     -7.2510837      2.8137476      50218.233      36.893836      36.893836      36.893836    
   2000000   0.44518943    -7.9164038     -7.2486292      2.8308566      50218.233      36.893836      36.893836      36.893836    
   2010000   0.44636084    -7.9205373     -7.2510055      2.7947802      50218.233      36.893836      36.893836      36.893836    
   2020000   0.44385128    -7.915492      -7.2497246      2.8379704      50218.233      36.893836      36.893836      36.893836    
   2030000   0.44368985    -7.9140676     -7.2485423      2.843968       50218.233      36.893836      36.893836      36.893836    
   2040000   0.44486197    -7.9156788     -7.2483953      2.8423176      50218.233      36.893836      36.893836      36.893836    
   2050000   0.44668069    -7.9150249     -7.2450134      2.8541188      50218.233      36.893836      36.893836      36.893836    
   2060000   0.44398291    -7.9174412     -7.2514763      2.8185632      50218.233      36.893836      36.893836      36.893836    
   2070000   0.44450259    -7.9191012     -7.2523568      2.8098206      50218.233      36.893836      36.893836      36.893836    
   2080000   0.44428267    -7.9187251     -7.2523105      2.821411       50218.233      36.893836      36.893836      36.893836    
   2090000   0.44334116    -7.9176602     -7.2526579      2.8189959      50218.233      36.893836      36.893836      36.893836    
   2100000   0.44536187    -7.9170726     -7.2490393      2.825275       50218.233      36.893836      36.893836      36.893836    
   2110000   0.44567084    -7.9152942     -7.2467974      2.8492245      50218.233      36.893836      36.893836      36.893836    
   2120000   0.44261574    -7.9159123     -7.2519981      2.8285644      50218.233      36.893836      36.893836      36.893836    
   2130000   0.44461085    -7.9146293     -7.2477226      2.8431061      50218.233      36.893836      36.893836      36.893836    
   2140000   0.4452222     -7.9143162     -7.2464924      2.8555426      50218.233      36.893836      36.893836      36.893836    
   2150000   0.44510551    -7.9170054     -7.2493566      2.8241033      50218.233      36.893836      36.893836      36.893836    
   2160000   0.44174969    -7.9158909     -7.2532758      2.8267761      50218.233      36.893836      36.893836      36.893836    
   2170000   0.44617563    -7.917161      -7.2479071      2.8290757      50218.233      36.893836      36.893836      36.893836    
   2180000   0.4447134     -7.9169907     -7.2499301      2.8264032      50218.233      36.893836      36.893836      36.893836    
   2190000   0.44592049    -7.915067      -7.2461958      2.8468019      50218.233      36.893836      36.893836      36.893836    
   2200000   0.44603758    -7.9190942     -7.2500474      2.8132285      50218.233      36.893836      36.893836      36.893836    
   2210000   0.44515058    -7.9168406     -7.2491242      2.826432       50218.233      36.893836      36.893836      36.893836    
   2220000   0.44189991    -7.9164554     -7.253615       2.8305984      50218.233      36.893836      36.893836      36.893836    
   2230000   0.44497815    -7.917404      -7.2499462      2.8250083      50218.233      36.893836      36.893836      36.893836    
   2240000   0.44698435    -7.9173792     -7.2469122      2.8245914      50218.233      36.893836      36.893836      36.893836    
   2250000   0.44356017    -7.9187228     -7.253392       2.8120021      50218.233      36.893836      36.893836      36.893836    
   2260000   0.44301729    -7.918278      -7.2537615      2.8041724      50218.233      36.893836      36.893836      36.893836    
   2270000   0.44366101    -7.9166338     -7.2511518      2.8260849      50218.233      36.893836      36.893836      36.893836    
   2280000   0.44546158    -7.912585      -7.2444021      2.8563958      50218.233      36.893836      36.893836      36.893836    
   2290000   0.44540042    -7.9198761     -7.2517849      2.807575       50218.233      36.893836      36.893836      36.893836    
   2300000   0.44270135    -7.9196196     -7.255577       2.8045778      50218.233      36.893836      36.893836      36.893836    
   2310000   0.44402951    -7.9183458     -7.252311       2.8133227      50218.233      36.893836      36.893836      36.893836    
   2320000   0.44479989    -7.9203        -7.2531097      2.8017121      50218.233      36.893836      36.893836      36.893836    
   2330000   0.44660558    -7.9161242     -7.2462254      2.8379943      50218.233      36.893836      36.893836      36.893836    
   2340000   0.44445507    -7.9204921     -7.253819       2.792562       50218.233      36.893836      36.893836      36.893836    
   2350000   0.44581951    -7.918914      -7.2501942      2.8160336      50218.233      36.893836      36.893836      36.893836    
   2360000   0.44690756    -7.9188678     -7.248516       2.8115166      50218.233      36.893836      36.893836      36.893836    
   2370000   0.44690713    -7.9188114     -7.2484603      2.8122753      50218.233      36.893836      36.893836      36.893836    
   2380000   0.44560863    -7.9195346     -7.2511312      2.8056706      50218.233      36.893836      36.893836      36.893836    
   2390000   0.44641917    -7.9185034     -7.2488842      2.8150053      50218.233      36.893836      36.893836      36.893836    
   2400000   0.44488356    -7.9189304     -7.2516145      2.8067431      50218.233      36.893836      36.893836      36.893836    
   2410000   0.44577664    -7.9217018     -7.2530463      2.7929982      50218.233      36.893836      36.893836      36.893836    
   2420000   0.44510216    -7.9185404     -7.2508966      2.8131957      50218.233      36.893836      36.893836      36.893836    
   2430000   0.4436609     -7.9219547     -7.2564729      2.7842943      50218.233      36.893836      36.893836      36.893836    
   2440000   0.44593511    -7.9150085     -7.2461154      2.8346243      50218.233      36.893836      36.893836      36.893836    
   2450000   0.44221777    -7.9180688     -7.2547515      2.8129976      50218.233      36.893836      36.893836      36.893836    
   2460000   0.44635342    -7.9195577     -7.2500371      2.8040404      50218.233      36.893836      36.893836      36.893836    
   2470000   0.44790145    -7.9170281     -7.2451855      2.8325269      50218.233      36.893836      36.893836      36.893836    
   2480000   0.4452657     -7.9199591     -7.25207        2.8098395      50218.233      36.893836      36.893836      36.893836    
   2490000   0.44619409    -7.9224359     -7.2531542      2.7887939      50218.233      36.893836      36.893836      36.893836    
   2500000   0.44567382    -7.922985      -7.2544838      2.7834313      50218.233      36.893836      36.893836      36.893836    
   2510000   0.44566916    -7.9185872     -7.250093       2.8133114      50218.233      36.893836      36.893836      36.893836    
   2520000   0.44452343    -7.9191935     -7.2524178      2.8014418      50218.233      36.893836      36.893836      36.893836    
   2530000   0.44539015    -7.9163719     -7.2482962      2.8326587      50218.233      36.893836      36.893836      36.893836    
   2540000   0.44461887    -7.920192      -7.2532732      2.8053089      50218.233      36.893836      36.893836      36.893836    
   2550000   0.44459746    -7.9213849     -7.2544982      2.7890119      50218.233      36.893836      36.893836      36.893836    
   2560000   0.4473715     -7.9158049     -7.2447572      2.8348119      50218.233      36.893836      36.893836      36.893836    
   2570000   0.44440974    -7.9155063     -7.2489012      2.8328561      50218.233      36.893836      36.893836      36.893836    
   2580000   0.44456494    -7.9187484     -7.2519105      2.7974384      50218.233      36.893836      36.893836      36.893836    
   2590000   0.44500746    -7.9184346     -7.2509329      2.8044474      50218.233      36.893836      36.893836      36.893836    
   2600000   0.44445245    -7.9159912     -7.2493221      2.8190733      50218.233      36.893836      36.893836      36.893836    
   2610000   0.4460124     -7.9218005     -7.2527914      2.7864622      50218.233      36.893836      36.893836      36.893836    
   2620000   0.44330782    -7.9192025     -7.2542502      2.7964945      50218.233      36.893836      36.893836      36.893836    
   2630000   0.44463411    -7.9146846     -7.2477429      2.8511728      50218.233      36.893836      36.893836      36.893836    
   2640000   0.44542065    -7.9192063     -7.2510848      2.8008077      50218.233      36.893836      36.893836      36.893836    
   2650000   0.44271848    -7.9173187     -7.2532504      2.8112347      50218.233      36.893836      36.893836      36.893836    
   2660000   0.44311777    -7.9170394     -7.2523721      2.820987       50218.233      36.893836      36.893836      36.893836    
   2670000   0.44307861    -7.9153611     -7.2507527      2.8307582      50218.233      36.893836      36.893836      36.893836    
   2680000   0.44522226    -7.9183236     -7.2504997      2.8172684      50218.233      36.893836      36.893836      36.893836    
   2690000   0.44658527    -7.9193433     -7.2494749      2.816609       50218.233      36.893836      36.893836      36.893836    
   2700000   0.44546943    -7.9179491     -7.2497545      2.823978       50218.233      36.893836      36.893836      36.893836    
   2710000   0.44579801    -7.9151376     -7.2464501      2.8400657      50218.233      36.893836      36.893836      36.893836    
   2720000   0.44719117    -7.912619      -7.2418418      2.8583536      50218.233      36.893836      36.893836      36.893836    
   2730000   0.44433811    -7.9138022     -7.2473045      2.8476243      50218.233      36.893836      36.893836      36.893836    
   2740000   0.44446399    -7.9139572     -7.2472707      2.8502345      50218.233      36.893836      36.893836      36.893836    
   2750000   0.44298161    -7.9157458     -7.2512829      2.8263015      50218.233      36.893836      36.893836      36.893836    
   2760000   0.44712967    -7.9142714     -7.2435865      2.8416733      50218.233      36.893836      36.893836      36.893836    
   2770000   0.44727218    -7.9147606     -7.2438619      2.8449151      50218.233      36.893836      36.893836      36.893836    
   2780000   0.44408645    -7.9163393     -7.2502191      2.8264046      50218.233      36.893836      36.893836      36.893836    
   2790000   0.44339245    -7.9176522     -7.2525729      2.8121717      50218.233      36.893836      36.893836      36.893836    
   2800000   0.44373393    -7.9164041     -7.2508126      2.825742       50218.233      36.893836      36.893836      36.893836    
   2810000   0.44504141    -7.9187068     -7.2511542      2.8136746      50218.233      36.893836      36.893836      36.893836    
   2820000   0.44476532    -7.9173731     -7.2502346      2.8145468      50218.233      36.893836      36.893836      36.893836    
   2830000   0.44470257    -7.9109587     -7.2439143      2.868132       50218.233      36.893836      36.893836      36.893836    
   2840000   0.44622654    -7.914713      -7.2453827      2.8457585      50218.233      36.893836      36.893836      36.893836    
   2850000   0.44261822    -7.9160365     -7.2521186      2.8278596      50218.233      36.893836      36.893836      36.893836    
   2860000   0.44484934    -7.9159575     -7.248693       2.8237565      50218.233      36.893836      36.893836      36.893836    
   2870000   0.44531048    -7.9173294     -7.2493732      2.8197785      50218.233      36.893836      36.893836      36.893836    
   2880000   0.44405818    -7.9168829     -7.2508051      2.8264605      50218.233      36.893836      36.893836      36.893836    
   2890000   0.44582061    -7.9170114     -7.24829        2.8207808      50218.233      36.893836      36.893836      36.893836    
   2900000   0.44640834    -7.9138089     -7.2442059      2.8438652      50218.233      36.893836      36.893836      36.893836    
   2910000   0.44639984    -7.9187011     -7.2491108      2.8157149      50218.233      36.893836      36.893836      36.893836    
   2920000   0.44533031    -7.9181406     -7.2501546      2.8164966      50218.233      36.893836      36.893836      36.893836    
   2930000   0.44676044    -7.919148      -7.2490169      2.804104       50218.233      36.893836      36.893836      36.893836    
   2940000   0.44540848    -7.9195954     -7.2514922      2.808222       50218.233      36.893836      36.893836      36.893836    
   2950000   0.44517602    -7.9180534     -7.2502989      2.8077654      50218.233      36.893836      36.893836      36.893836    
   2960000   0.44432182    -7.9157493     -7.249276       2.8366883      50218.233      36.893836      36.893836      36.893836    
   2970000   0.44451261    -7.9157879     -7.2490285      2.8305584      50218.233      36.893836      36.893836      36.893836    
   2980000   0.44590733    -7.9172218     -7.2483703      2.817878       50218.233      36.893836      36.893836      36.893836    
   2990000   0.44599262    -7.9166976     -7.2477181      2.8205397      50218.233      36.893836      36.893836      36.893836    
   3000000   0.44778372    -7.9186316     -7.2469655      2.8121038      50218.233      36.893836      36.893836      36.893836    
   3010000   0.44630418    -7.9166419     -7.2471951      2.8161435      50218.233      36.893836      36.893836      36.893836    
   3020000   0.44588268    -7.9184196     -7.2496051      2.8181456      50218.233      36.893836      36.893836      36.893836    
   3030000   0.44524312    -7.9154153     -7.2475601      2.8246295      50218.233      36.893836      36.893836      36.893836    
   3040000   0.44426618    -7.9165466     -7.2501569      2.8239536      50218.233      36.893836      36.893836      36.893836    
   3050000   0.44384056    -7.9168123     -7.251061       2.8215324      50218.233      36.893836      36.893836      36.893836    
   3060000   0.4459939     -7.91558       -7.2465987      2.8333336      50218.233      36.893836      36.893836      36.893836    
   3070000   0.44521242    -7.91703       -7.2492208      2.8246141      50218.233      36.893836      36.893836      36.893836    
   3080000   0.44444034    -7.9132866     -7.2466356      2.843119       50218.233      36.893836      36.893836      36.893836    
   3090000   0.44489699    -7.9195267     -7.2521907      2.8025207      50218.233      36.893836      36.893836      36.893836    
   3100000   0.44538503    -7.9138236     -7.2457555      2.8447643      50218.233      36.893836      36.893836      36.893836    
   3110000   0.44178752    -7.9151579     -7.252486       2.8238211      50218.233      36.893836      36.893836      36.893836    
   3120000   0.44420283    -7.9173587     -7.2510639      2.8139062      50218.233      36.893836      36.893836      36.893836    
   3130000   0.44468796    -7.9163707     -7.2493482      2.8322163      50218.233      36.893836      36.893836      36.893836    
   3140000   0.44488994    -7.912696      -7.2453706      2.8554895      50218.233      36.893836      36.893836      36.893836    
   3150000   0.44458065    -7.9200557     -7.2531942      2.8022126      50218.233      36.893836      36.893836      36.893836    
   3160000   0.44554393    -7.9183612     -7.2500548      2.8102733      50218.233      36.893836      36.893836      36.893836    
   3170000   0.44440453    -7.9166263     -7.2500289      2.8136799      50218.233      36.893836      36.893836      36.893836    
   3180000   0.44556674    -7.9201749     -7.2518343      2.7963217      50218.233      36.893836      36.893836      36.893836    
   3190000   0.44690306    -7.9130325     -7.2426875      2.8567462      50218.233      36.893836      36.893836      36.893836    
   3200000   0.44372429    -7.9216371     -7.2560601      2.7860277      50218.233      36.893836      36.893836      36.893836    
   3210000   0.44517803    -7.9160111     -7.2482535      2.8191811      50218.233      36.893836      36.893836      36.893836    
   3220000   0.44314671    -7.916841      -7.2521304      2.8128299      50218.233      36.893836      36.893836      36.893836    
   3230000   0.44560159    -7.9159186     -7.2475257      2.8271567      50218.233      36.893836      36.893836      36.893836    
   3240000   0.44329707    -7.9171348     -7.2521987      2.8138783      50218.233      36.893836      36.893836      36.893836    
   3250000   0.44497191    -7.9154056     -7.2479572      2.8410919      50218.233      36.893836      36.893836      36.893836    
   3260000   0.44498628    -7.9213217     -7.2538518      2.7742653      50218.233      36.893836      36.893836      36.893836    
   3270000   0.44679379    -7.9138647     -7.2436836      2.8407468      50218.233      36.893836      36.893836      36.893836    
   3280000   0.44672387    -7.919327      -7.2492507      2.8098256      50218.233      36.893836      36.893836      36.893836    
   3290000   0.44380922    -7.9166719     -7.2509675      2.8236919      50218.233      36.893836      36.893836      36.893836    
   3300000   0.44616912    -7.9178606     -7.2486165      2.8186809      50218.233      36.893836      36.893836      36.893836    
   3310000   0.44407224    -7.9169426     -7.2508437      2.8327944      50218.233      36.893836      36.893836      36.893836    
   3320000   0.4452702     -7.9154695     -7.2475737      2.8372298      50218.233      36.893836      36.893836      36.893836    
   3330000   0.44234418    -7.9167234     -7.2532166      2.8279595      50218.233      36.893836      36.893836      36.893836    
   3340000   0.44574562    -7.920458      -7.2518491      2.805265       50218.233      36.893836      36.893836      36.893836    
   3350000   0.44195711    -7.9167642     -7.253838       2.8300854      50218.233      36.893836      36.893836      36.893836    
   3360000   0.44528104    -7.9186785     -7.2507665      2.8189215      50218.233      36.893836      36.893836      36.893836    
   3370000   0.44542166    -7.9173829     -7.2492599      2.8213608      50218.233      36.893836      36.893836      36.893836    
   3380000   0.44524266    -7.9172835     -7.249429       2.8166301      50218.233      36.893836      36.893836      36.893836    
   3390000   0.445601      -7.9171791     -7.2487871      2.8184595      50218.233      36.893836      36.893836      36.893836    
   3400000   0.44606522    -7.9166505     -7.2475622      2.8274806      50218.233      36.893836      36.893836      36.893836    
   3410000   0.44717124    -7.9200632     -7.2493159      2.8003401      50218.233      36.893836      36.893836      36.893836    
   3420000   0.44505763    -7.9141057     -7.2465288      2.8431601      50218.233      36.893836      36.893836      36.893836    
   3430000   0.44576161    -7.9168278     -7.2481949      2.8232041      50218.233      36.893836      36.893836      36.893836    
   3440000   0.4450038     -7.9155967     -7.2481005      2.8248452      50218.233      36.893836      36.893836      36.893836    
   3450000   0.4455364     -7.9160895     -7.2477944      2.8399213      50218.233      36.893836      36.893836      36.893836    
   3460000   0.4456298     -7.9166259     -7.2481907      2.8294731      50218.233      36.893836      36.893836      36.893836    
   3470000   0.44295475    -7.9181658     -7.2537431      2.8102619      50218.233      36.893836      36.893836      36.893836    
   3480000   0.4455275     -7.9159489     -7.2476672      2.8300972      50218.233      36.893836      36.893836      36.893836    
   3490000   0.44648936    -7.9202794     -7.2505549      2.7961378      50218.233      36.893836      36.893836      36.893836    
   3500000   0.44505004    -7.9150793     -7.2475138      2.8427735      50218.233      36.893836      36.893836      36.893836    
   3510000   0.44530392    -7.9134748     -7.2455284      2.8474431      50218.233      36.893836      36.893836      36.893836    
   3520000   0.44675591    -7.9174203     -7.247296       2.8122404      50218.233      36.893836      36.893836      36.893836    
   3530000   0.44600218    -7.9160568     -7.2470631      2.8183312      50218.233      36.893836      36.893836      36.893836    
   3540000   0.44504305    -7.9166067     -7.2490516      2.8264699      50218.233      36.893836      36.893836      36.893836    
   3550000   0.44478646    -7.9158606     -7.2486904      2.8397055      50218.233      36.893836      36.893836      36.893836    
   3560000   0.44253362    -7.9193881     -7.2555971      2.7958216      50218.233      36.893836      36.893836      36.893836    
   3570000   0.44549406    -7.9199004     -7.2516689      2.7989845      50218.233      36.893836      36.893836      36.893836    
   3580000   0.44372701    -7.9155809     -7.2499999      2.8244992      50218.233      36.893836      36.893836      36.893836    
   3590000   0.44743851    -7.917163      -7.2460148      2.8213537      50218.233      36.893836      36.893836      36.893836    
   3600000   0.44709435    -7.919305      -7.2486731      2.8119017      50218.233      36.893836      36.893836      36.893836    
   3610000   0.44543901    -7.9186752     -7.2505262      2.8052288      50218.233      36.893836      36.893836      36.893836    
   3620000   0.44542636    -7.914792      -7.246662       2.8350313      50218.233      36.893836      36.893836      36.893836    
   3630000   0.44554276    -7.9190399     -7.2507353      2.8124055      50218.233      36.893836      36.893836      36.893836    
   3640000   0.4455775     -7.9195936     -7.2512369      2.8115764      50218.233      36.893836      36.893836      36.893836    
   3650000   0.44603505    -7.9199029     -7.2508599      2.8053355      50218.233      36.893836      36.893836      36.893836    
   3660000   0.44443346    -7.9151234     -7.2484827      2.8463528      50218.233      36.893836      36.893836      36.893836    
   3670000   0.44581513    -7.9152382     -7.246525       2.8256932      50218.233      36.893836      36.893836      36.893836    
   3680000   0.44608622    -7.9191128     -7.249993       2.810957       50218.233      36.893836      36.893836      36.893836    
   3690000   0.44656143    -7.9167928     -7.2469602      2.8280673      50218.233      36.893836      36.893836      36.893836    
   3700000   0.44613954    -7.9147019     -7.2455021      2.8518645      50218.233      36.893836      36.893836      36.893836    
   3710000   0.44506979    -7.9167662     -7.249171       2.8326227      50218.233      36.893836      36.893836      36.893836    
   3720000   0.44547701    -7.9122294     -7.2440234      2.8550556      50218.233      36.893836      36.893836      36.893836    
   3730000   0.44815153    -7.9189814     -7.2467637      2.8124198      50218.233      36.893836      36.893836      36.893836    
   3740000   0.44473853    -7.9168378     -7.2497395      2.834388       50218.233      36.893836      36.893836      36.893836    
   3750000   0.44649056    -7.9149272     -7.2452009      2.8421675      50218.233      36.893836      36.893836      36.893836    
   3760000   0.44701964    -7.9209442     -7.2504243      2.801766       50218.233      36.893836      36.893836      36.893836    
   3770000   0.44390249    -7.9181644     -7.2523202      2.809142       50218.233      36.893836      36.893836      36.893836    
   3780000   0.44586521    -7.9191701     -7.2503818      2.805266       50218.233      36.893836      36.893836      36.893836    
   3790000   0.44600093    -7.9132837     -7.2442919      2.8581798      50218.233      36.893836      36.893836      36.893836    
   3800000   0.44399682    -7.9179197     -7.251934       2.8250581      50218.233      36.893836      36.893836      36.893836    
   3810000   0.44536131    -7.9181139     -7.2500814      2.8278913      50218.233      36.893836      36.893836      36.893836    
   3820000   0.44651661    -7.917086      -7.2473207      2.836455       50218.233      36.893836      36.893836      36.893836    
   3830000   0.44337967    -7.918923      -7.253863       2.8093566      50218.233      36.893836      36.893836      36.893836    
   3840000   0.44741117    -7.9199291     -7.2488219      2.8019815      50218.233      36.893836      36.893836      36.893836    
   3850000   0.44579595    -7.9187621     -7.2500777      2.8197818      50218.233      36.893836      36.893836      36.893836    
   3860000   0.44285006    -7.9162318     -7.2519662      2.8162984      50218.233      36.893836      36.893836      36.893836    
   3870000   0.44574842    -7.9176027     -7.2489896      2.8343485      50218.233      36.893836      36.893836      36.893836    
   3880000   0.44357468    -7.9197088     -7.2543562      2.806759       50218.233      36.893836      36.893836      36.893836    
   3890000   0.44677376    -7.9189942     -7.2488431      2.8222717      50218.233      36.893836      36.893836      36.893836    
   3900000   0.4440035     -7.9148981     -7.2489023      2.8467282      50218.233      36.893836      36.893836      36.893836    
   3910000   0.44481383    -7.9194786     -7.2522673      2.8089998      50218.233      36.893836      36.893836      36.893836    
   3920000   0.44337923    -7.9141692     -7.2491099      2.8417834      50218.233      36.893836      36.893836      36.893836    
   3930000   0.44271868    -7.9192027     -7.2551342      2.8108745      50218.233      36.893836      36.893836      36.893836    
   3940000   0.44363722    -7.9163537     -7.2509074      2.8363176      50218.233      36.893836      36.893836      36.893836    
   3950000   0.44372679    -7.9198943     -7.2543135      2.8010584      50218.233      36.893836      36.893836      36.893836    
   3960000   0.44519044    -7.9209355     -7.2531593      2.7916066      50218.233      36.893836      36.893836      36.893836    
   3970000   0.44328766    -7.9176004     -7.2526784      2.8161816      50218.233      36.893836      36.893836      36.893836    
   3980000   0.44347948    -7.9170618     -7.2518521      2.8220454      50218.233      36.893836      36.893836      36.893836    
   3990000   0.44597001    -7.9203799     -7.2514344      2.8137756      50218.233      36.893836      36.893836      36.893836    
   4000000   0.44554928    -7.9172941     -7.2489796      2.8254009      50218.233      36.893836      36.893836      36.893836    
   4010000   0.44287616    -7.9164145     -7.2521097      2.827453       50218.233      36.893836      36.893836      36.893836    
   4020000   0.44651686    -7.9160115     -7.2462457      2.8363956      50218.233      36.893836      36.893836      36.893836    
   4030000   0.4439829     -7.9203737     -7.2544088      2.798477       50218.233      36.893836      36.893836      36.893836    
   4040000   0.4471139     -7.9199506     -7.2492893      2.8087804      50218.233      36.893836      36.893836      36.893836    
   4050000   0.44371395    -7.9159269     -7.2503655      2.8361319      50218.233      36.893836      36.893836      36.893836    
   4060000   0.44627673    -7.9193056     -7.2499         2.8082225      50218.233      36.893836      36.893836      36.893836    
   4070000   0.44404724    -7.9123612     -7.2462998      2.8544576      50218.233      36.893836      36.893836      36.893836    
   4080000   0.44529533    -7.9166836     -7.2487501      2.8248261      50218.233      36.893836      36.893836      36.893836    
   4090000   0.44524215    -7.9178637     -7.25001        2.8259662      50218.233      36.893836      36.893836      36.893836    
   4100000   0.4471014     -7.9165629     -7.2459203      2.8262483      50218.233      36.893836      36.893836      36.893836    
   4110000   0.44476622    -7.9154848     -7.248345       2.8316531      50218.233      36.893836      36.893836      36.893836    
   4120000   0.44464532    -7.9166653     -7.2497068      2.8328183      50218.233      36.893836      36.893836      36.893836    
   4130000   0.44451133    -7.9151314     -7.2483739      2.8315738      50218.233      36.893836      36.893836      36.893836    
   4140000   0.44701958    -7.9193433     -7.2488235      2.8171945      50218.233      36.893836      36.893836      36.893836    
   4150000   0.44614796    -7.9175877     -7.2483753      2.8220172      50218.233      36.893836      36.893836      36.893836    
   4160000   0.44715518    -7.9173161     -7.2465929      2.8295469      50218.233      36.893836      36.893836      36.893836    
   4170000   0.44606656    -7.9198564     -7.2507661      2.8056404      50218.233      36.893836      36.893836      36.893836    
   4180000   0.44214852    -7.9145647     -7.2513513      2.8322683      50218.233      36.893836      36.893836      36.893836    
   4190000   0.44469266    -7.9152274     -7.2481979      2.8431236      50218.233      36.893836      36.893836      36.893836    
   4200000   0.44751709    -7.9183154     -7.2470493      2.8242813      50218.233      36.893836      36.893836      36.893836    
   4210000   0.44610371    -7.9136507     -7.2445047      2.8548577      50218.233      36.893836      36.893836      36.893836    
   4220000   0.443747      -7.9143171     -7.248706       2.8417216      50218.233      36.893836      36.893836      36.893836    
   4230000   0.44493138    -7.9153973     -7.2480097      2.8317498      50218.233      36.893836      36.893836      36.893836    
   4240000   0.44495341    -7.9151235     -7.2477028      2.8323643      50218.233      36.893836      36.893836      36.893836    
   4250000   0.44429613    -7.9155        -7.2490653      2.8299001      50218.233      36.893836      36.893836      36.893836    
   4260000   0.44521367    -7.9156121     -7.2478011      2.8388391      50218.233      36.893836      36.893836      36.893836    
   4270000   0.44689763    -7.9175228     -7.2471859      2.8200993      50218.233      36.893836      36.893836      36.893836    
   4280000   0.44159368    -7.9141912     -7.2518101      2.8331941      50218.233      36.893836      36.893836      36.893836    
   4290000   0.44685114    -7.9155164     -7.2452492      2.8471214      50218.233      36.893836      36.893836      36.893836    
   4300000   0.44593716    -7.9143002     -7.245404       2.844091       50218.233      36.893836      36.893836      36.893836    
   4310000   0.44684764    -7.9133718     -7.2431099      2.8604311      50218.233      36.893836      36.893836      36.893836    
   4320000   0.44398689    -7.9192843     -7.2533135      2.8112138      50218.233      36.893836      36.893836      36.893836    
   4330000   0.44234261    -7.916392      -7.2528875      2.8162828      50218.233      36.893836      36.893836      36.893836    
   4340000   0.44492045    -7.9176965     -7.2503253      2.8221524      50218.233      36.893836      36.893836      36.893836    
   4350000   0.44623715    -7.9172111     -7.2478649      2.8375328      50218.233      36.893836      36.893836      36.893836    
   4360000   0.44471509    -7.9151147     -7.2480516      2.8300347      50218.233      36.893836      36.893836      36.893836    
   4370000   0.44475085    -7.919387      -7.2522702      2.802336       50218.233      36.893836      36.893836      36.893836    
   4380000   0.44373045    -7.9208764     -7.2552902      2.7941022      50218.233      36.893836      36.893836      36.893836    
   4390000   0.44605147    -7.9196799     -7.2506122      2.8048838      50218.233      36.893836      36.893836      36.893836    
   4400000   0.44879154    -7.9212068     -7.2480291      2.7963482      50218.233      36.893836      36.893836      36.893836    
   4410000   0.44828086    -7.9150044     -7.2425927      2.850357       50218.233      36.893836      36.893836      36.893836    
   4420000   0.44593564    -7.9225893     -7.2536953      2.7792098      50218.233      36.893836      36.893836      36.893836    
   4430000   0.44648156    -7.9160448     -7.246332       2.826848       50218.233      36.893836      36.893836      36.893836    
   4440000   0.44366251    -7.9150775     -7.2495932      2.836434       50218.233      36.893836      36.893836      36.893836    
   4450000   0.44410663    -7.917752      -7.2516016      2.8194057      50218.233      36.893836      36.893836      36.893836    
   4460000   0.44445439    -7.9148619     -7.2481898      2.8439709      50218.233      36.893836      36.893836      36.893836    
   4470000   0.44660401    -7.9199393     -7.2500428      2.8095312      50218.233      36.893836      36.893836      36.893836    
   4480000   0.44309941    -7.919881      -7.2552413      2.8061942      50218.233      36.893836      36.893836      36.893836    
   4490000   0.44516701    -7.917806      -7.2500649      2.8276274      50218.233      36.893836      36.893836      36.893836    
   4500000   0.44710246    -7.9162047     -7.2455605      2.8314303      50218.233      36.893836      36.893836      36.893836    
   4510000   0.44527792    -7.9198597     -7.2519523      2.810652       50218.233      36.893836      36.893836      36.893836    
   4520000   0.4464285     -7.9145365     -7.2449032      2.8358741      50218.233      36.893836      36.893836      36.893836    
   4530000   0.44524595    -7.9209856     -7.2531262      2.7951508      50218.233      36.893836      36.893836      36.893836    
   4540000   0.44382263    -7.9166431     -7.2509186      2.8338987      50218.233      36.893836      36.893836      36.893836    
   4550000   0.44561898    -7.9177439     -7.2493249      2.8175454      50218.233      36.893836      36.893836      36.893836    
   4560000   0.44524138    -7.9168811     -7.2490286      2.8292407      50218.233      36.893836      36.893836      36.893836    
   4570000   0.44513464    -7.9177104     -7.2500179      2.819258       50218.233      36.893836      36.893836      36.893836    
   4580000   0.44545585    -7.9184758     -7.2503015      2.820596       50218.233      36.893836      36.893836      36.893836    
   4590000   0.44429411    -7.9145506     -7.2481189      2.8416394      50218.233      36.893836      36.893836      36.893836    
   4600000   0.44488099    -7.917736      -7.250424       2.8258116      50218.233      36.893836      36.893836      36.893836    
   4610000   0.44590435    -7.9160523     -7.2472053      2.833312       50218.233      36.893836      36.893836      36.893836    
   4620000   0.44421395    -7.920163      -7.2538515      2.8037502      50218.233      36.893836      36.893836      36.893836    
   4630000   0.4429153     -7.9165271     -7.2521636      2.826441       50218.233      36.893836      36.893836      36.893836    
   4640000   0.44455775    -7.9124663     -7.2456391      2.8524802      50218.233      36.893836      36.893836      36.893836    
   4650000   0.44473507    -7.9148496     -7.2477565      2.8434662      50218.233      36.893836      36.893836      36.893836    
   4660000   0.44438566    -7.9158472     -7.2492782      2.8301014      50218.233      36.893836      36.893836      36.893836    
   4670000   0.44521667    -7.9165099     -7.2486944      2.8303235      50218.233      36.893836      36.893836      36.893836    
   4680000   0.44631433    -7.9158421     -7.2463801      2.8315023      50218.233      36.893836      36.893836      36.893836    
   4690000   0.44447349    -7.9176587     -7.2509579      2.8121928      50218.233      36.893836      36.893836      36.893836    
   4700000   0.44663927    -7.9202655     -7.2503162      2.7984053      50218.233      36.893836      36.893836      36.893836    
   4710000   0.44542222    -7.9178999     -7.249776       2.8241179      50218.233      36.893836      36.893836      36.893836    
   4720000   0.44455657    -7.9217662     -7.2549408      2.7792826      50218.233      36.893836      36.893836      36.893836    
   4730000   0.44547006    -7.9166893     -7.2484937      2.8246481      50218.233      36.893836      36.893836      36.893836    
   4740000   0.44455645    -7.9199378     -7.2531126      2.7931759      50218.233      36.893836      36.893836      36.893836    
   4750000   0.4451008     -7.9185121     -7.2508704      2.810567       50218.233      36.893836      36.893836      36.893836    
   4760000   0.44409547    -7.9163477     -7.250214       2.840231       50218.233      36.893836      36.893836      36.893836    
   4770000   0.44543856    -7.9178027     -7.2496543      2.8170945      50218.233      36.893836      36.893836      36.893836    
   4780000   0.44507653    -7.9172147     -7.2496094      2.8177724      50218.233      36.893836      36.893836      36.893836    
   4790000   0.44501439    -7.9151294     -7.2476173      2.834091       50218.233      36.893836      36.893836      36.893836    
   4800000   0.44493323    -7.9143288     -7.2469385      2.8466513      50218.233      36.893836      36.893836      36.893836    
   4810000   0.44673586    -7.9159465     -7.2458522      2.8291576      50218.233      36.893836      36.893836      36.893836    
   4820000   0.4438821     -7.9196785     -7.2538648      2.7943929      50218.233      36.893836      36.893836      36.893836    
   4830000   0.44369631    -7.9175778     -7.2520428      2.8211854      50218.233      36.893836      36.893836      36.893836    
   4840000   0.44217121    -7.9169784     -7.253731       2.8258946      50218.233      36.893836      36.893836      36.893836    
   4850000   0.44542653    -7.9161893     -7.248059       2.8232956      50218.233      36.893836      36.893836      36.893836    
   4860000   0.44489178    -7.9172769     -7.2499487      2.8306929      50218.233      36.893836      36.893836      36.893836    
   4870000   0.44421977    -7.9197432     -7.253423       2.8025192      50218.233      36.893836      36.893836      36.893836    
   4880000   0.44670235    -7.9173391     -7.2472951      2.8257155      50218.233      36.893836      36.893836      36.893836    
   4890000   0.44601064    -7.9173936     -7.2483871      2.8177071      50218.233      36.893836      36.893836      36.893836    
   4900000   0.44643026    -7.916695      -7.2470592      2.8266125      50218.233      36.893836      36.893836      36.893836    
   4910000   0.44539012    -7.9153357     -7.24726        2.8447188      50218.233      36.893836      36.893836      36.893836    
   4920000   0.44437737    -7.9194346     -7.252878       2.8110683      50218.233      36.893836      36.893836      36.893836    
   4930000   0.44522091    -7.9151791     -7.2473573      2.8322373      50218.233      36.893836      36.893836      36.893836    
   4940000   0.44543773    -7.9205579     -7.2524108      2.7920961      50218.233      36.893836      36.893836      36.893836    
   4950000   0.44453591    -7.9149566     -7.2481623      2.830272       50218.233      36.893836      36.893836      36.893836    
   4960000   0.44699174    -7.9187596     -7.2482815      2.8203038      50218.233      36.893836      36.893836      36.893836    
   4970000   0.4444833     -7.9217469     -7.2550315      2.7798195      50218.233      36.893836      36.893836      36.893836    
   4980000   0.44628965    -7.9155943     -7.2461694      2.8340714      50218.233      36.893836      36.893836      36.893836    
   4990000   0.44505662    -7.9153325     -7.247757       2.8339131      50218.233      36.893836      36.893836      36.893836    
   5000000   0.44311591    -7.9195459     -7.2548815      2.8088331      50218.233      36.893836      36.893836      36.893836    
   5010000   0.4457761     -7.916858      -7.2482034      2.8257971      50218.233      36.893836      36.893836      36.893836    
   5020000   0.44533964    -7.9184272     -7.2504272      2.8151484      50218.233      36.893836      36.893836      36.893836    
   5030000   0.44541665    -7.9120577     -7.2439422      2.8570862      50218.233      36.893836      36.893836      36.893836    
   5040000   0.44362398    -7.914381      -7.2489545      2.843527       50218.233      36.893836      36.893836      36.893836    
   5050000   0.4460625     -7.9190636     -7.2499794      2.8155787      50218.233      36.893836      36.893836      36.893836    
   5060000   0.44380499    -7.9164717     -7.2507737      2.8281954      50218.233      36.893836      36.893836      36.893836    
   5070000   0.44658237    -7.9195108     -7.2496467      2.8031591      50218.233      36.893836      36.893836      36.893836    
   5080000   0.44599026    -7.9169543     -7.2479784      2.8313353      50218.233      36.893836      36.893836      36.893836    
   5090000   0.44536906    -7.9180207     -7.2499766      2.8083349      50218.233      36.893836      36.893836      36.893836    
   5100000   0.44577697    -7.9173489     -7.248693       2.8332688      50218.233      36.893836      36.893836      36.893836    
   5110000   0.4442654     -7.9193553     -7.2529667      2.8137117      50218.233      36.893836      36.893836      36.893836    
   5120000   0.44495533    -7.9197578     -7.2523343      2.8046703      50218.233      36.893836      36.893836      36.893836    
   5130000   0.44848694    -7.9164171     -7.2436963      2.8406841      50218.233      36.893836      36.893836      36.893836    
   5140000   0.44662377    -7.9161895     -7.2462634      2.8319689      50218.233      36.893836      36.893836      36.893836    
   5150000   0.44436392    -7.9177505     -7.2512141      2.8190919      50218.233      36.893836      36.893836      36.893836    
   5160000   0.44443821    -7.9175379     -7.2508901      2.8214007      50218.233      36.893836      36.893836      36.893836    
   5170000   0.44506708    -7.9157777     -7.2481866      2.8307781      50218.233      36.893836      36.893836      36.893836    
   5180000   0.4461393     -7.9145141     -7.2453146      2.8565856      50218.233      36.893836      36.893836      36.893836    
   5190000   0.44549879    -7.9188228     -7.2505841      2.8138844      50218.233      36.893836      36.893836      36.893836    
   5200000   0.44491424    -7.9187435     -7.2513817      2.816057       50218.233      36.893836      36.893836      36.893836    
   5210000   0.44247444    -7.9136702     -7.249968       2.8457998      50218.233      36.893836      36.893836      36.893836    
   5220000   0.44592275    -7.9171859     -7.2483113      2.8253324      50218.233      36.893836      36.893836      36.893836    
   5230000   0.44569945    -7.9167277     -7.248188       2.8297802      50218.233      36.893836      36.893836      36.893836    
   5240000   0.4435944     -7.9168395     -7.2514573      2.8266535      50218.233      36.893836      36.893836      36.893836    
   5250000   0.44404758    -7.9162298     -7.2501679      2.8312526      50218.233      36.893836      36.893836      36.893836    
   5260000   0.44536335    -7.9131332     -7.2450976      2.8621652      50218.233      36.893836      36.893836      36.893836    
   5270000   0.44363814    -7.9176191     -7.2521714      2.8176169      50218.233      36.893836      36.893836      36.893836    
   5280000   0.44509357    -7.9183107     -7.2506798      2.8100897      50218.233      36.893836      36.893836      36.893836    
   5290000   0.44257007    -7.9176552     -7.2538096      2.81909        50218.233      36.893836      36.893836      36.893836    
   5300000   0.44460063    -7.9194634     -7.252572       2.8002528      50218.233      36.893836      36.893836      36.893836    
   5310000   0.44414776    -7.9151338     -7.2489216      2.8371445      50218.233      36.893836      36.893836      36.893836    
   5320000   0.44277052    -7.9178134     -7.2536671      2.81132        50218.233      36.893836      36.893836      36.893836    
   5330000   0.44437664    -7.9190627     -7.2525072      2.8106924      50218.233      36.893836      36.893836      36.893836    
   5340000   0.44370552    -7.9186801     -7.2531313      2.8032523      50218.233      36.893836      36.893836      36.893836    
   5350000   0.44752664    -7.9183734     -7.247093       2.8255692      50218.233      36.893836      36.893836      36.893836    
   5360000   0.44257111    -7.9160089     -7.2521617      2.831937       50218.233      36.893836      36.893836      36.893836    
   5370000   0.4446245     -7.9198568     -7.2529295      2.8044454      50218.233      36.893836      36.893836      36.893836    
   5380000   0.44166649    -7.9188271     -7.2563368      2.8078383      50218.233      36.893836      36.893836      36.893836    
   5390000   0.44227228    -7.9140912     -7.2506922      2.8510389      50218.233      36.893836      36.893836      36.893836    
   5400000   0.44427116    -7.9189088     -7.2525115      2.80439        50218.233      36.893836      36.893836      36.893836    
   5410000   0.44737908    -7.9201112     -7.2490521      2.811632       50218.233      36.893836      36.893836      36.893836    
   5420000   0.44670387    -7.9184335     -7.2483872      2.8084796      50218.233      36.893836      36.893836      36.893836    
   5430000   0.44378152    -7.9162739     -7.2506111      2.8320583      50218.233      36.893836      36.893836      36.893836    
   5440000   0.44497779    -7.9163489     -7.2488917      2.8320479      50218.233      36.893836      36.893836      36.893836    
   5450000   0.44502266    -7.9178139     -7.2502894      2.8279707      50218.233      36.893836      36.893836      36.893836    
   5460000   0.44373624    -7.9146599     -7.249065       2.8506969      50218.233      36.893836      36.893836      36.893836    
   5470000   0.44615075    -7.9169967     -7.2477801      2.8279986      50218.233      36.893836      36.893836      36.893836    
   5480000   0.44706402    -7.9163681     -7.2457816      2.8297038      50218.233      36.893836      36.893836      36.893836    
   5490000   0.44347656    -7.9190543     -7.2538489      2.8149276      50218.233      36.893836      36.893836      36.893836    
   5500000   0.44386916    -7.917253      -7.2514588      2.8281728      50218.233      36.893836      36.893836      36.893836    
   5510000   0.44288995    -7.9162903     -7.2519649      2.8303807      50218.233      36.893836      36.893836      36.893836    
   5520000   0.4459197     -7.9196417     -7.2507716      2.8116419      50218.233      36.893836      36.893836      36.893836    
   5530000   0.44476727    -7.9191784     -7.252037       2.8101352      50218.233      36.893836      36.893836      36.893836    
   5540000   0.44486874    -7.919411      -7.2521174      2.8137273      50218.233      36.893836      36.893836      36.893836    
   5550000   0.44500287    -7.9159374     -7.2484426      2.8358361      50218.233      36.893836      36.893836      36.893836    
   5560000   0.4473564     -7.9154591     -7.2444341      2.842376       50218.233      36.893836      36.893836      36.893836    
   5570000   0.44613718    -7.9178984     -7.2487021      2.8195187      50218.233      36.893836      36.893836      36.893836    
   5580000   0.4428008     -7.9174687     -7.253277       2.8329266      50218.233      36.893836      36.893836      36.893836    
   5590000   0.44423646    -7.9188272     -7.252482       2.8177394      50218.233      36.893836      36.893836      36.893836    
   5600000   0.44546457    -7.9177381     -7.2495507      2.8146331      50218.233      36.893836      36.893836      36.893836    
   5610000   0.44421087    -7.9203824     -7.2540756      2.7923624      50218.233      36.893836      36.893836      36.893836    
   5620000   0.44603075    -7.9211944     -7.2521578      2.8019167      50218.233      36.893836      36.893836      36.893836    
   5630000   0.44618955    -7.918728      -7.2494532      2.8199709      50218.233      36.893836      36.893836      36.893836    
   5640000   0.44294766    -7.9169853     -7.2525732      2.8151078      50218.233      36.893836      36.893836      36.893836    
   5650000   0.44550599    -7.9162594     -7.2480099      2.8362462      50218.233      36.893836      36.893836      36.893836    
   5660000   0.44406126    -7.9164686     -7.2503862      2.8271623      50218.233      36.893836      36.893836      36.893836    
   5670000   0.44580196    -7.9139401     -7.2452467      2.8537666      50218.233      36.893836      36.893836      36.893836    
   5680000   0.44556647    -7.9191206     -7.2507804      2.8105125      50218.233      36.893836      36.893836      36.893836    
   5690000   0.44459324    -7.9217316     -7.2548512      2.7912827      50218.233      36.893836      36.893836      36.893836    
   5700000   0.44291335    -7.9161992     -7.2518386      2.8333234      50218.233      36.893836      36.893836      36.893836    
   5710000   0.447753      -7.912109      -7.240489       2.8737278      50218.233      36.893836      36.893836      36.893836    
   5720000   0.44378509    -7.9167163     -7.2510481      2.8295395      50218.233      36.893836      36.893836      36.893836    
   5730000   0.44830366    -7.9164037     -7.2439578      2.8408354      50218.233      36.893836      36.893836      36.893836    
   5740000   0.44487741    -7.9169294     -7.2496228      2.8196574      50218.233      36.893836      36.893836      36.893836    
   5750000   0.44562043    -7.9180428     -7.2496216      2.8214111      50218.233      36.893836      36.893836      36.893836    
   5760000   0.44331023    -7.9139113     -7.2489554      2.8441387      50218.233      36.893836      36.893836      36.893836    
   5770000   0.44635712    -7.9132377     -7.2437115      2.8664425      50218.233      36.893836      36.893836      36.893836    
   5780000   0.44343318    -7.9178004     -7.2526601      2.8183083      50218.233      36.893836      36.893836      36.893836    
   5790000   0.44572957    -7.9150594     -7.2464746      2.8435946      50218.233      36.893836      36.893836      36.893836    
   5800000   0.44523793    -7.9188066     -7.2509592      2.8151697      50218.233      36.893836      36.893836      36.893836    
   5810000   0.44673606    -7.915325      -7.2452304      2.8385865      50218.233      36.893836      36.893836      36.893836    
   5820000   0.44488282    -7.9149378     -7.247623       2.834643       50218.233      36.893836      36.893836      36.893836    
   5830000   0.44374536    -7.9188537     -7.2532451      2.8074514      50218.233      36.893836      36.893836      36.893836    
   5840000   0.44494878    -7.9187819     -7.2513682      2.812647       50218.233      36.893836      36.893836      36.893836    
   5850000   0.44312217    -7.9167393     -7.2520655      2.8353537      50218.233      36.893836      36.893836      36.893836    
   5860000   0.44513469    -7.9173033     -7.2496107      2.8287425      50218.233      36.893836      36.893836      36.893836    
   5870000   0.44574681    -7.9147813     -7.2461706      2.8421211      50218.233      36.893836      36.893836      36.893836    
   5880000   0.44351119    -7.9183429     -7.2530856      2.8089928      50218.233      36.893836      36.893836      36.893836    
   5890000   0.44397015    -7.916153      -7.2502073      2.834347       50218.233      36.893836      36.893836      36.893836    
   5900000   0.44667147    -7.9197381     -7.2497404      2.8109825      50218.233      36.893836      36.893836      36.893836    
   5910000   0.4448499     -7.9164761     -7.2492108      2.8334343      50218.233      36.893836      36.893836      36.893836    
   5920000   0.44405847    -7.9148775     -7.2487992      2.8514191      50218.233      36.893836      36.893836      36.893836    
   5930000   0.44366576    -7.9196591     -7.2541699      2.8106952      50218.233      36.893836      36.893836      36.893836    
   5940000   0.44405335    -7.9194936     -7.2534231      2.8170934      50218.233      36.893836      36.893836      36.893836    
   5950000   0.44295833    -7.9201391     -7.255711       2.8064753      50218.233      36.893836      36.893836      36.893836    
   5960000   0.44351434    -7.9200003     -7.2547382      2.8068847      50218.233      36.893836      36.893836      36.893836    
   5970000   0.44169045    -7.9197617     -7.2572355      2.798973       50218.233      36.893836      36.893836      36.893836    
   5980000   0.44205522    -7.918009      -7.2549356      2.82215        50218.233      36.893836      36.893836      36.893836    
   5990000   0.44438805    -7.9186706     -7.252098       2.8197968      50218.233      36.893836      36.893836      36.893836    
   6000000   0.44393061    -7.9219387     -7.2560523      2.7865937      50218.233      36.893836      36.893836      36.893836    
   6010000   0.4433253     -7.9185013     -7.2535229      2.8182111      50218.233      36.893836      36.893836      36.893836    
   6020000   0.44517518    -7.915949      -7.2481958      2.8404819      50218.233      36.893836      36.893836      36.893836    
   6030000   0.4445652     -7.9197924     -7.2529541      2.8028152      50218.233      36.893836      36.893836      36.893836    
   6040000   0.44426074    -7.9171024     -7.2507208      2.8287841      50218.233      36.893836      36.893836      36.893836    
   6050000   0.44439696    -7.9176698     -7.2510838      2.816335       50218.233      36.893836      36.893836      36.893836    
   6060000   0.44368152    -7.9160767     -7.2505639      2.8327348      50218.233      36.893836      36.893836      36.893836    
   6070000   0.44499218    -7.9190613     -7.2515825      2.8147483      50218.233      36.893836      36.893836      36.893836    
   6080000   0.44394762    -7.9210142     -7.2551023      2.7960212      50218.233      36.893836      36.893836      36.893836    
   6090000   0.44365814    -7.9165252     -7.2510474      2.8402017      50218.233      36.893836      36.893836      36.893836    
   6100000   0.44453781    -7.9195577     -7.2527604      2.8031157      50218.233      36.893836      36.893836      36.893836    
   6110000   0.44667816    -7.9204687     -7.250461       2.8093127      50218.233      36.893836      36.893836      36.893836    
   6120000   0.44503234    -7.9197262     -7.2521872      2.8125402      50218.233      36.893836      36.893836      36.893836    
   6130000   0.44670995    -7.915125      -7.2450696      2.848671       50218.233      36.893836      36.893836      36.893836    
   6140000   0.44604164    -7.9145548     -7.2455019      2.8466059      50218.233      36.893836      36.893836      36.893836    
   6150000   0.4433974     -7.9182696     -7.253183       2.8253606      50218.233      36.893836      36.893836      36.893836    
   6160000   0.44458659    -7.9192759     -7.2524055      2.8068156      50218.233      36.893836      36.893836      36.893836    
   6170000   0.44199227    -7.9159011     -7.2529221      2.8501869      50218.233      36.893836      36.893836      36.893836    
   6180000   0.44551996    -7.9174223     -7.2491519      2.8266233      50218.233      36.893836      36.893836      36.893836    
   6190000   0.44462375    -7.9194449     -7.2525187      2.8063753      50218.233      36.893836      36.893836      36.893836    
   6200000   0.44294621    -7.9185053     -7.2540954      2.8086226      50218.233      36.893836      36.893836      36.893836    
   6210000   0.44285567    -7.9200228     -7.2557488      2.8070892      50218.233      36.893836      36.893836      36.893836    
   6220000   0.44602871    -7.9141247     -7.2450912      2.8494906      50218.233      36.893836      36.893836      36.893836    
   6230000   0.44256708    -7.9140748     -7.2502336      2.8552849      50218.233      36.893836      36.893836      36.893836    
   6240000   0.44345733    -7.9171523     -7.2519758      2.8209715      50218.233      36.893836      36.893836      36.893836    
   6250000   0.4447815     -7.9183597     -7.2511969      2.8135924      50218.233      36.893836      36.893836      36.893836    
   6260000   0.44301684    -7.9147095     -7.2501937      2.8489387      50218.233      36.893836      36.893836      36.893836    
   6270000   0.44681505    -7.9147835     -7.2445704      2.8463675      50218.233      36.893836      36.893836      36.893836    
   6280000   0.44317757    -7.9171379     -7.252381       2.8172698      50218.233      36.893836      36.893836      36.893836    
   6290000   0.44433588    -7.9148214     -7.248327       2.836195       50218.233      36.893836      36.893836      36.893836    
   6300000   0.44854064    -7.9177248     -7.2449234      2.8216299      50218.233      36.893836      36.893836      36.893836    
   6310000   0.44576585    -7.9146674     -7.2460281      2.8362806      50218.233      36.893836      36.893836      36.893836    
   6320000   0.44491895    -7.9216139     -7.254245       2.8008467      50218.233      36.893836      36.893836      36.893836    
   6330000   0.4448097     -7.9208225     -7.2536175      2.7954828      50218.233      36.893836      36.893836      36.893836    
   6340000   0.44463445    -7.9210943     -7.2541521      2.8052308      50218.233      36.893836      36.893836      36.893836    
   6350000   0.44506476    -7.9171049     -7.2495172      2.8233086      50218.233      36.893836      36.893836      36.893836    
   6360000   0.44638423    -7.9180643     -7.2484974      2.8121275      50218.233      36.893836      36.893836      36.893836    
   6370000   0.4430722     -7.9163165     -7.2517176      2.8215636      50218.233      36.893836      36.893836      36.893836    
   6380000   0.44255536    -7.9169571     -7.2531335      2.8187871      50218.233      36.893836      36.893836      36.893836    
   6390000   0.4449781     -7.9181786     -7.250721       2.8158108      50218.233      36.893836      36.893836      36.893836    
   6400000   0.44673975    -7.9209542     -7.2508541      2.7996954      50218.233      36.893836      36.893836      36.893836    
   6410000   0.44568275    -7.9153862     -7.2468716      2.8485987      50218.233      36.893836      36.893836      36.893836    
   6420000   0.444421      -7.9198067     -7.2531846      2.8102401      50218.233      36.893836      36.893836      36.893836    
   6430000   0.44264167    -7.9188444     -7.2548914      2.8200745      50218.233      36.893836      36.893836      36.893836    
   6440000   0.44546456    -7.918445      -7.2502576      2.8338918      50218.233      36.893836      36.893836      36.893836    
   6450000   0.44215576    -7.9187625     -7.2555382      2.8103259      50218.233      36.893836      36.893836      36.893836    
   6460000   0.44663564    -7.9194113     -7.2494674      2.8031985      50218.233      36.893836      36.893836      36.893836    
   6470000   0.4475043     -7.9197337     -7.2484868      2.8129194      50218.233      36.893836      36.893836      36.893836    
   6480000   0.4470334     -7.9203257     -7.2497852      2.8066549      50218.233      36.893836      36.893836      36.893836    
   6490000   0.44619412    -7.9210889     -7.2518072      2.8014851      50218.233      36.893836      36.893836      36.893836    
   6500000   0.44659597    -7.9196696     -7.2497851      2.8117395      50218.233      36.893836      36.893836      36.893836    
   6510000   0.4442405     -7.9129734     -7.2466221      2.8578519      50218.233      36.893836      36.893836      36.893836    
   6520000   0.44457011    -7.9185153     -7.2516696      2.8200369      50218.233      36.893836      36.893836      36.893836    
   6530000   0.44427998    -7.9194087     -7.2529982      2.804509       50218.233      36.893836      36.893836      36.893836    
   6540000   0.44543977    -7.9192009     -7.2510508      2.8088604      50218.233      36.893836      36.893836      36.893836    
   6550000   0.44678255    -7.9182474     -7.2480831      2.8180385      50218.233      36.893836      36.893836      36.893836    
   6560000   0.44432627    -7.9170412     -7.2505613      2.8243377      50218.233      36.893836      36.893836      36.893836    
   6570000   0.44677753    -7.9142073     -7.2440506      2.8541544      50218.233      36.893836      36.893836      36.893836    
   6580000   0.44628989    -7.9178494     -7.2484241      2.8307686      50218.233      36.893836      36.893836      36.893836    
   6590000   0.44489975    -7.9173258     -7.2499857      2.8191367      50218.233      36.893836      36.893836      36.893836    
   6600000   0.44614836    -7.9172991     -7.2480861      2.8429347      50218.233      36.893836      36.893836      36.893836    
   6610000   0.44654149    -7.9136998     -7.2438971      2.8771725      50218.233      36.893836      36.893836      36.893836    
   6620000   0.44716928    -7.9160397     -7.2452953      2.84112        50218.233      36.893836      36.893836      36.893836    
   6630000   0.44741365    -7.9150109     -7.2439         2.8533912      50218.233      36.893836      36.893836      36.893836    
   6640000   0.44608139    -7.9151691     -7.2460565      2.8310969      50218.233      36.893836      36.893836      36.893836    
   6650000   0.44341472    -7.9158315     -7.2507189      2.8404303      50218.233      36.893836      36.893836      36.893836    
   6660000   0.44375642    -7.9150335     -7.2494084      2.842196       50218.233      36.893836      36.893836      36.893836    
   6670000   0.44557891    -7.9202175     -7.2518586      2.8069438      50218.233      36.893836      36.893836      36.893836    
   6680000   0.44590282    -7.9153451     -7.2465004      2.8458718      50218.233      36.893836      36.893836      36.893836    
   6690000   0.44390445    -7.9156892     -7.249842       2.8402833      50218.233      36.893836      36.893836      36.893836    
   6700000   0.44613504    -7.9122487     -7.2430556      2.8499058      50218.233      36.893836      36.893836      36.893836    
   6710000   0.44403686    -7.9121465     -7.2461007      2.8521123      50218.233      36.893836      36.893836      36.893836    
   6720000   0.44773677    -7.9172437     -7.2456481      2.8254339      50218.233      36.893836      36.893836      36.893836    
   6730000   0.44573124    -7.9143796     -7.2457923      2.8593829      50218.233      36.893836      36.893836      36.893836    
   6740000   0.44499128    -7.9175598     -7.2500824      2.8353082      50218.233      36.893836      36.893836      36.893836    
   6750000   0.44500363    -7.9151496     -7.2476536      2.8476119      50218.233      36.893836      36.893836      36.893836    
   6760000   0.44413719    -7.9169134     -7.2507171      2.831844       50218.233      36.893836      36.893836      36.893836    
   6770000   0.44250152    -7.9164005     -7.2526576      2.8353089      50218.233      36.893836      36.893836      36.893836    
   6780000   0.44411616    -7.9168775     -7.2507127      2.8313198      50218.233      36.893836      36.893836      36.893836    
   6790000   0.44472841    -7.9163029     -7.2492198      2.8364047      50218.233      36.893836      36.893836      36.893836    
   6800000   0.44667081    -7.9155043     -7.2455076      2.8347695      50218.233      36.893836      36.893836      36.893836    
   6810000   0.4465072     -7.9146156     -7.2448644      2.8529595      50218.233      36.893836      36.893836      36.893836    
   6820000   0.44570802    -7.9139934     -7.2454409      2.8615567      50218.233      36.893836      36.893836      36.893836    
   6830000   0.44409649    -7.9135578     -7.2474225      2.8534947      50218.233      36.893836      36.893836      36.893836    
   6840000   0.44464534    -7.9153243     -7.2483658      2.8395762      50218.233      36.893836      36.893836      36.893836    
   6850000   0.44512988    -7.9155669     -7.2478816      2.8334437      50218.233      36.893836      36.893836      36.893836    
   6860000   0.44593171    -7.9131264     -7.2442384      2.8618458      50218.233      36.893836      36.893836      36.893836    
   6870000   0.44618569    -7.9192196     -7.2499506      2.8237221      50218.233      36.893836      36.893836      36.893836    
   6880000   0.44557534    -7.9146579     -7.2463044      2.851522       50218.233      36.893836      36.893836      36.893836    
   6890000   0.44494185    -7.9149075     -7.2475042      2.8392787      50218.233      36.893836      36.893836      36.893836    
   6900000   0.44550835    -7.9165732     -7.2483202      2.8301411      50218.233      36.893836      36.893836      36.893836    
   6910000   0.44599664    -7.9172634     -7.2482779      2.8308784      50218.233      36.893836      36.893836      36.893836    
   6920000   0.44579817    -7.9192603     -7.2505726      2.81927        50218.233      36.893836      36.893836      36.893836    
   6930000   0.4455182     -7.9135424     -7.2452746      2.8581694      50218.233      36.893836      36.893836      36.893836    
   6940000   0.44480529    -7.918654      -7.2514555      2.8177909      50218.233      36.893836      36.893836      36.893836    
   6950000   0.44572628    -7.9175979     -7.249018       2.833528       50218.233      36.893836      36.893836      36.893836    
   6960000   0.44272454    -7.9193153     -7.2552379      2.8054661      50218.233      36.893836      36.893836      36.893836    
   6970000   0.44535104    -7.9167167     -7.2486997      2.8428157      50218.233      36.893836      36.893836      36.893836    
   6980000   0.44464561    -7.9191037     -7.2521448      2.8160927      50218.233      36.893836      36.893836      36.893836    
   6990000   0.44322942    -7.924147      -7.2593124      2.7753251      50218.233      36.893836      36.893836      36.893836    
   7000000   0.44353484    -7.9165247     -7.251232       2.8266189      50218.233      36.893836      36.893836      36.893836    
   7010000   0.44386617    -7.918258      -7.2524682      2.8187799      50218.233      36.893836      36.893836      36.893836    
   7020000   0.44723517    -7.9182512     -7.247408       2.8328458      50218.233      36.893836      36.893836      36.893836    
   7030000   0.44762596    -7.9195908     -7.2481614      2.8268776      50218.233      36.893836      36.893836      36.893836    
   7040000   0.4423358     -7.9186851     -7.2551908      2.8145689      50218.233      36.893836      36.893836      36.893836    
   7050000   0.44465501    -7.9175751     -7.2506021      2.81758        50218.233      36.893836      36.893836      36.893836    
   7060000   0.44219367    -7.9204586     -7.2571775      2.803861       50218.233      36.893836      36.893836      36.893836    
   7070000   0.44772942    -7.9189111     -7.2473265      2.8227612      50218.233      36.893836      36.893836      36.893836    
   7080000   0.44443622    -7.9196866     -7.2530418      2.8121445      50218.233      36.893836      36.893836      36.893836    
   7090000   0.44546199    -7.9217305     -7.2535471      2.7875595      50218.233      36.893836      36.893836      36.893836    
   7100000   0.44648102    -7.9196144     -7.2499024      2.806515       50218.233      36.893836      36.893836      36.893836    
   7110000   0.44574814    -7.9158017     -7.247189       2.8344889      50218.233      36.893836      36.893836      36.893836    
   7120000   0.44461909    -7.916619      -7.2496999      2.8338026      50218.233      36.893836      36.893836      36.893836    
   7130000   0.44468161    -7.9221935     -7.2551805      2.7921079      50218.233      36.893836      36.893836      36.893836    
   7140000   0.44404285    -7.9184441     -7.2523893      2.8261752      50218.233      36.893836      36.893836      36.893836    
   7150000   0.44636497    -7.9205068     -7.2509689      2.8031042      50218.233      36.893836      36.893836      36.893836    
   7160000   0.444517      -7.9181013     -7.2513352      2.8246569      50218.233      36.893836      36.893836      36.893836    
   7170000   0.44538969    -7.9158975     -7.2478224      2.8423757      50218.233      36.893836      36.893836      36.893836    
   7180000   0.44546338    -7.9132787     -7.2450931      2.8592217      50218.233      36.893836      36.893836      36.893836    
   7190000   0.44557401    -7.9174505     -7.249099       2.8312616      50218.233      36.893836      36.893836      36.893836    
   7200000   0.44464476    -7.9170659     -7.2501082      2.8233652      50218.233      36.893836      36.893836      36.893836    
   7210000   0.4415472     -7.9157753     -7.2534639      2.8424705      50218.233      36.893836      36.893836      36.893836    
   7220000   0.44430974    -7.9164843     -7.2500291      2.8350763      50218.233      36.893836      36.893836      36.893836    
   7230000   0.44579003    -7.9201109     -7.2514353      2.7990972      50218.233      36.893836      36.893836      36.893836    
   7240000   0.44603051    -7.9131184     -7.2440821      2.8677559      50218.233      36.893836      36.893836      36.893836    
   7250000   0.44392522    -7.9157798     -7.2499015      2.8332623      50218.233      36.893836      36.893836      36.893836    
   7260000   0.44595232    -7.914383      -7.245464       2.8514009      50218.233      36.893836      36.893836      36.893836    
   7270000   0.44429736    -7.9148759     -7.2484394      2.8483365      50218.233      36.893836      36.893836      36.893836    
   7280000   0.44408736    -7.9179325     -7.2518109      2.8302898      50218.233      36.893836      36.893836      36.893836    
   7290000   0.44478253    -7.9189761     -7.2518118      2.8074607      50218.233      36.893836      36.893836      36.893836    
   7300000   0.44470433    -7.9184566     -7.2514096      2.8221394      50218.233      36.893836      36.893836      36.893836    
   7310000   0.44548091    -7.9155336     -7.2473218      2.8497138      50218.233      36.893836      36.893836      36.893836    
   7320000   0.44437687    -7.9170727     -7.2505169      2.8289836      50218.233      36.893836      36.893836      36.893836    
   7330000   0.44545284    -7.9185973     -7.2504276      2.8109481      50218.233      36.893836      36.893836      36.893836    
   7340000   0.44605281    -7.9152044     -7.2461347      2.8488188      50218.233      36.893836      36.893836      36.893836    
   7350000   0.44633123    -7.9183021     -7.2488148      2.8128709      50218.233      36.893836      36.893836      36.893836    
   7360000   0.4467937     -7.9166535     -7.2464725      2.8379381      50218.233      36.893836      36.893836      36.893836    
   7370000   0.44544239    -7.9176354     -7.2494813      2.8267017      50218.233      36.893836      36.893836      36.893836    
   7380000   0.44423985    -7.9129585     -7.2466082      2.8634358      50218.233      36.893836      36.893836      36.893836    
   7390000   0.44515496    -7.9176632     -7.2499403      2.8250252      50218.233      36.893836      36.893836      36.893836    
   7400000   0.44363691    -7.9230596     -7.2576137      2.7758688      50218.233      36.893836      36.893836      36.893836    
   7410000   0.44429522    -7.915964      -7.2495307      2.8370884      50218.233      36.893836      36.893836      36.893836    
   7420000   0.44242071    -7.9182853     -7.2546636      2.8169765      50218.233      36.893836      36.893836      36.893836    
   7430000   0.4422722     -7.9193929     -7.2559941      2.8113215      50218.233      36.893836      36.893836      36.893836    
   7440000   0.44485599    -7.9215135     -7.254239       2.7977554      50218.233      36.893836      36.893836      36.893836    
   7450000   0.44593975    -7.9192017     -7.2503016      2.8170835      50218.233      36.893836      36.893836      36.893836    
   7460000   0.44565288    -7.9160567     -7.2475868      2.8363079      50218.233      36.893836      36.893836      36.893836    
   7470000   0.44471991    -7.9165613     -7.2494909      2.8231008      50218.233      36.893836      36.893836      36.893836    
   7480000   0.4436659     -7.9214748     -7.2559854      2.7898199      50218.233      36.893836      36.893836      36.893836    
   7490000   0.44600122    -7.9185982     -7.2496058      2.8275965      50218.233      36.893836      36.893836      36.893836    
   7500000   0.44558855    -7.9179406     -7.2495673      2.8199767      50218.233      36.893836      36.893836      36.893836    
   7510000   0.443836      -7.9227003     -7.2569557      2.7846675      50218.233      36.893836      36.893836      36.893836    
   7520000   0.44472039    -7.9173737     -7.2503026      2.8272821      50218.233      36.893836      36.893836      36.893836    
   7530000   0.44608789    -7.917801      -7.2486786      2.8273542      50218.233      36.893836      36.893836      36.893836    
   7540000   0.44407179    -7.9115428     -7.2454446      2.8676627      50218.233      36.893836      36.893836      36.893836    
   7550000   0.44545984    -7.9179586     -7.2497783      2.8250505      50218.233      36.893836      36.893836      36.893836    
   7560000   0.44506269    -7.9197178     -7.2521332      2.8042793      50218.233      36.893836      36.893836      36.893836    
   7570000   0.44188968    -7.9172993     -7.2544742      2.8298394      50218.233      36.893836      36.893836      36.893836    
   7580000   0.44305316    -7.9157968     -7.2512265      2.834672       50218.233      36.893836      36.893836      36.893836    
   7590000   0.44573553    -7.9152589     -7.2466652      2.8414415      50218.233      36.893836      36.893836      36.893836    
   7600000   0.4471682     -7.9171917     -7.2464489      2.8262014      50218.233      36.893836      36.893836      36.893836    
   7610000   0.44543719    -7.9148994     -7.2467531      2.8439133      50218.233      36.893836      36.893836      36.893836    
   7620000   0.44300737    -7.9160705     -7.2515689      2.8308891      50218.233      36.893836      36.893836      36.893836    
   7630000   0.44512328    -7.9171483     -7.2494729      2.8279656      50218.233      36.893836      36.893836      36.893836    
   7640000   0.44314107    -7.9165951     -7.251893       2.8242893      50218.233      36.893836      36.893836      36.893836    
   7650000   0.44478972    -7.9183165     -7.2511414      2.8163639      50218.233      36.893836      36.893836      36.893836    
   7660000   0.44710922    -7.9145657     -7.2439114      2.8477288      50218.233      36.893836      36.893836      36.893836    
   7670000   0.44539595    -7.9214267     -7.2533423      2.7950828      50218.233      36.893836      36.893836      36.893836    
   7680000   0.44587108    -7.915123      -7.2463259      2.8384718      50218.233      36.893836      36.893836      36.893836    
   7690000   0.44416239    -7.9197918     -7.2535577      2.8150444      50218.233      36.893836      36.893836      36.893836    
   7700000   0.44648158    -7.9174401     -7.2477272      2.8259383      50218.233      36.893836      36.893836      36.893836    
   7710000   0.44458647    -7.9164893     -7.2496191      2.83339        50218.233      36.893836      36.893836      36.893836    
   7720000   0.44594129    -7.9168294     -7.247927       2.8311158      50218.233      36.893836      36.893836      36.893836    
   7730000   0.44486173    -7.9159838     -7.2487007      2.836404       50218.233      36.893836      36.893836      36.893836    
   7740000   0.44475901    -7.9157229     -7.2485938      2.8449006      50218.233      36.893836      36.893836      36.893836    
   7750000   0.44663221    -7.918913      -7.2489742      2.830622       50218.233      36.893836      36.893836      36.893836    
   7760000   0.44572341    -7.9169515     -7.2483759      2.8343998      50218.233      36.893836      36.893836      36.893836    
   7770000   0.44650852    -7.916433      -7.2466798      2.8283964      50218.233      36.893836      36.893836      36.893836    
   7780000   0.44477193    -7.9189095     -7.2517611      2.8186911      50218.233      36.893836      36.893836      36.893836    
   7790000   0.44490067    -7.9176757     -7.2503342      2.8268406      50218.233      36.893836      36.893836      36.893836    
   7800000   0.44339623    -7.9175563     -7.2524714      2.817926       50218.233      36.893836      36.893836      36.893836    
   7810000   0.44548585    -7.9182336     -7.2500143      2.8304916      50218.233      36.893836      36.893836      36.893836    
   7820000   0.44355594    -7.9151084     -7.249784       2.8291903      50218.233      36.893836      36.893836      36.893836    
   7830000   0.44558914    -7.9208869     -7.2525127      2.7951328      50218.233      36.893836      36.893836      36.893836    
   7840000   0.44508465    -7.9177567     -7.2501392      2.8196717      50218.233      36.893836      36.893836      36.893836    
   7850000   0.44546514    -7.9153627     -7.2471745      2.837904       50218.233      36.893836      36.893836      36.893836    
   7860000   0.44559499    -7.9167957     -7.2484127      2.8299705      50218.233      36.893836      36.893836      36.893836    
   7870000   0.44574759    -7.9153706     -7.2467587      2.8352762      50218.233      36.893836      36.893836      36.893836    
   7880000   0.44421179    -7.9164003     -7.2500921      2.837552       50218.233      36.893836      36.893836      36.893836    
   7890000   0.44397507    -7.9192428     -7.2532896      2.8000411      50218.233      36.893836      36.893836      36.893836    
   7900000   0.44486848    -7.9183        -7.2510067      2.8161048      50218.233      36.893836      36.893836      36.893836    
   7910000   0.44606252    -7.9166953     -7.2476111      2.8326576      50218.233      36.893836      36.893836      36.893836    
   7920000   0.44434117    -7.9172139     -7.2507117      2.81893        50218.233      36.893836      36.893836      36.893836    
   7930000   0.44499313    -7.9179072     -7.250427       2.8199159      50218.233      36.893836      36.893836      36.893836    
   7940000   0.44391145    -7.917494      -7.2516363      2.8294495      50218.233      36.893836      36.893836      36.893836    
   7950000   0.44594969    -7.9178567     -7.2489417      2.8309705      50218.233      36.893836      36.893836      36.893836    
   7960000   0.44340407    -7.9165865     -7.2514899      2.830534       50218.233      36.893836      36.893836      36.893836    
   7970000   0.44504765    -7.9172351     -7.2496731      2.8223535      50218.233      36.893836      36.893836      36.893836    
   7980000   0.44627793    -7.921492      -7.2520847      2.7983069      50218.233      36.893836      36.893836      36.893836    
   7990000   0.44626977    -7.9199315     -7.2505364      2.8185371      50218.233      36.893836      36.893836      36.893836    
   8000000   0.44476459    -7.9168831     -7.2497457      2.8247699      50218.233      36.893836      36.893836      36.893836    
Loop time of 12572.6 on 5 procs for 8000000 steps with 70304 atoms

Performance: 549767.046 tau/day, 636.304 timesteps/s, 44.735 Matom-step/s
94.4% CPU use with 5 MPI tasks x 1 OpenMP threads

MPI task timing breakdown:
Section |  min time  |  avg time  |  max time  |%varavg| %total
---------------------------------------------------------------
Pair    | 4115.5     | 4942.8     | 5410.4     | 641.0 | 39.31
Neigh   | 36.81      | 40.877     | 45.647     |  60.3 |  0.33
Comm    | 1872.5     | 1878.9     | 1892.9     |  17.7 | 14.94
Output  | 0.14501    | 0.14953    | 0.15731    |   1.1 |  0.00
Modify  | 4631.3     | 5095.4     | 5940.9     | 644.5 | 40.53
Other   |            | 614.5      |            |       |  4.89

Nlocal:        14060.8 ave       14153 max       14012 min
Histogram: 2 0 1 1 0 0 0 0 0 1
Nghost:          18738 ave       18779 max       18697 min
Histogram: 2 0 0 0 0 1 0 0 1 1
Neighs:              0 ave           0 max           0 min
Histogram: 5 0 0 0 0 0 0 0 0 0

Total # of neighbors = 0
Ave neighs/atom = 0
Neighbor list builds = 1603121
Dangerous builds = 0

Total wall time: 119:35:43
