variable TLJ equal (${T}/1000)
variable TLJ equal (460/1000)
variable NCyle equal 10
variable iStep equal (${f})
variable iStep equal (10000)
variable dumpStep equal (${f}*100)
variable dumpStep equal (10000*100)
variable runStep equal (${f}*100*${NCyle})
variable runStep equal (10000*100*${NCyle})
variable runStep equal (10000*100*10)

units       lj
atom_style  atomic
dimension 3
boundary     p p p
pair_style  lj/cut 2.5
read_data  ../data/T${T}.dat
read_data  ../data/T460.dat
Reading data file ...
  orthogonal box = (0.97250269 0.97250269 0.97250269) to (37.866338 37.866338 37.866338)
  1 by 1 by 5 MPI processor grid
  reading atoms ...
  70304 atoms
  reading velocities ...
  70304 velocities
  read_data CPU = 0.209 seconds
change_box all triclinic
Changing box ...
  triclinic box = (0.97250269 0.97250269 0.97250269) to (37.866338 37.866338 37.866338) with tilt (0 0 0)
mass 1 1
mass 2 1
pair_modify shift yes
pair_coeff  1 1 1 1
pair_coeff  1 2 1.5 0.8
pair_coeff  2 2 0.5 0.88


timestep 0.01
thermo ${iStep}
thermo 10000
reset_timestep 0
thermo_style custom step temp pe etotal press vol lx ly lz
fix             1 all nvt temp ${TLJ}  ${TLJ}  0.1
fix             1 all nvt temp 0.46  ${TLJ}  0.1
fix             1 all nvt temp 0.46  0.46  0.1
thermo_modify flush yes

fix dsf all deform 1 xy  wiggle 0.5  ${f}   units box
fix dsf all deform 1 xy  wiggle 0.5  10000   units box
fix ps1 all ave/time 1 1 ${iStep} c_thermo_press[1] c_thermo_press[2]  c_thermo_press[3] c_thermo_press[4]  c_thermo_press[5] c_thermo_press[6]  file  stress.${T}
fix ps1 all ave/time 1 1 10000 c_thermo_press[1] c_thermo_press[2]  c_thermo_press[3] c_thermo_press[4]  c_thermo_press[5] c_thermo_press[6]  file  stress.${T}
fix ps1 all ave/time 1 1 10000 c_thermo_press[1] c_thermo_press[2]  c_thermo_press[3] c_thermo_press[4]  c_thermo_press[5] c_thermo_press[6]  file  stress.460
dump            1 all custom ${dumpStep} dump.${T} id type x y z
dump            1 all custom 1000000 dump.${T} id type x y z
dump            1 all custom 1000000 dump.460 id type x y z
dump_modify 1 sort id
fix nodrift all momentum 1  linear 1 1 1
fix com_seed all recenter INIT INIT INIT shift all
run ${runStep}
run 10000000
Generated 0 of 1 mixed pair_coeff terms from geometric mixing rule
Per MPI rank memory allocation (min/avg/max) = 6.665 | 8.016 | 8.92 Mbytes
   Step          Temp          PotEng         TotEng         Press          Volume           Lx             Ly             Lz      
         0   0.4590978     -7.8986281     -7.2099911      2.9759023      50218.233      36.893836      36.893836      36.893836    
     10000   0.46202346    -7.8908673     -7.197842       3.0412304      50218.233      36.893836      36.893836      36.893836    
     20000   0.45881448    -7.8894673     -7.2012554      3.0432695      50218.233      36.893836      36.893836      36.893836    
     30000   0.45875541    -7.8925086     -7.2043853      3.0241513      50218.233      36.893836      36.893836      36.893836    
     40000   0.45830564    -7.8949957     -7.207547       3.0155743      50218.233      36.893836      36.893836      36.893836    
     50000   0.4603765     -7.8913174     -7.2007625      3.0426569      50218.233      36.893836      36.893836      36.893836    
     60000   0.45875654    -7.8913118     -7.2031868      3.0396222      50218.233      36.893836      36.893836      36.893836    
     70000   0.45944002    -7.8906377     -7.2014874      3.0418859      50218.233      36.893836      36.893836      36.893836    
     80000   0.46078249    -7.8896945     -7.1985306      3.0523883      50218.233      36.893836      36.893836      36.893836    
     90000   0.45951537    -7.8897696     -7.2005064      3.0464452      50218.233      36.893836      36.893836      36.893836    
    100000   0.4620913     -7.8865416     -7.1934145      3.0903656      50218.233      36.893836      36.893836      36.893836    
    110000   0.45843511    -7.8949291     -7.2072862      3.0129573      50218.233      36.893836      36.893836      36.893836    
    120000   0.45893059    -7.8891159     -7.2007299      3.0586723      50218.233      36.893836      36.893836      36.893836    
    130000   0.46056082    -7.8901975     -7.1993661      3.0463146      50218.233      36.893836      36.893836      36.893836    
    140000   0.45967758    -7.89068       -7.2011734      3.0520925      50218.233      36.893836      36.893836      36.893836    
    150000   0.46108863    -7.8939311     -7.202308       3.0271167      50218.233      36.893836      36.893836      36.893836    
    160000   0.45854136    -7.8880842     -7.2002819      3.0606546      50218.233      36.893836      36.893836      36.893836    
    170000   0.46002533    -7.889743      -7.1997148      3.0439168      50218.233      36.893836      36.893836      36.893836    
    180000   0.4606878     -7.8877226     -7.1967007      3.0699054      50218.233      36.893836      36.893836      36.893836    
    190000   0.4582917     -7.8921781     -7.2047503      3.031518       50218.233      36.893836      36.893836      36.893836    
    200000   0.45761629    -7.8877213     -7.2013066      3.0602722      50218.233      36.893836      36.893836      36.893836    
    210000   0.46018105    -7.8869297     -7.1966679      3.0746162      50218.233      36.893836      36.893836      36.893836    
    220000   0.46174168    -7.8910732     -7.1984705      3.0400133      50218.233      36.893836      36.893836      36.893836    
    230000   0.46092769    -7.888167      -7.1967853      3.0648122      50218.233      36.893836      36.893836      36.893836    
    240000   0.4590237     -7.8874241     -7.1988984      3.067075       50218.233      36.893836      36.893836      36.893836    
    250000   0.46103892    -7.8866029     -7.1950543      3.0694432      50218.233      36.893836      36.893836      36.893836    
    260000   0.45895955    -7.8893975     -7.200968       3.0507731      50218.233      36.893836      36.893836      36.893836    
    270000   0.46063916    -7.8878628     -7.1969139      3.0700059      50218.233      36.893836      36.893836      36.893836    
    280000   0.45825731    -7.889877      -7.2025008      3.052136       50218.233      36.893836      36.893836      36.893836    
    290000   0.45941748    -7.8900421     -7.2009257      3.0487383      50218.233      36.893836      36.893836      36.893836    
    300000   0.46000938    -7.8902441     -7.2002398      3.0473792      50218.233      36.893836      36.893836      36.893836    
    310000   0.45705013    -7.8891994     -7.203634       3.0545404      50218.233      36.893836      36.893836      36.893836    
    320000   0.45957137    -7.8918516     -7.2025043      3.047323       50218.233      36.893836      36.893836      36.893836    
    330000   0.45942512    -7.8920385     -7.2029107      3.0414758      50218.233      36.893836      36.893836      36.893836    
    340000   0.46312341    -7.8900742     -7.195399       3.0450546      50218.233      36.893836      36.893836      36.893836    
    350000   0.45809376    -7.8864556     -7.1993247      3.0630993      50218.233      36.893836      36.893836      36.893836    
    360000   0.46132783    -7.8901304     -7.1981485      3.0363989      50218.233      36.893836      36.893836      36.893836    
    370000   0.46079429    -7.8910881     -7.1999065      3.0424661      50218.233      36.893836      36.893836      36.893836    
    380000   0.45969612    -7.8878634     -7.198329       3.0643341      50218.233      36.893836      36.893836      36.893836    
    390000   0.46038751    -7.8913837     -7.2008123      3.0351955      50218.233      36.893836      36.893836      36.893836    
    400000   0.45990166    -7.8938098     -7.2039671      3.0149591      50218.233      36.893836      36.893836      36.893836    
    410000   0.45815283    -7.8915993     -7.2043798      3.0391444      50218.233      36.893836      36.893836      36.893836    
    420000   0.45976274    -7.8928771     -7.2032428      3.0246329      50218.233      36.893836      36.893836      36.893836    
    430000   0.46097278    -7.8886456     -7.1971963      3.0545557      50218.233      36.893836      36.893836      36.893836    
    440000   0.45964574    -7.8901397     -7.2006809      3.0512339      50218.233      36.893836      36.893836      36.893836    
    450000   0.46089256    -7.8928325     -7.2015035      3.03266        50218.233      36.893836      36.893836      36.893836    
    460000   0.45985938    -7.8932786     -7.2034993      3.0173418      50218.233      36.893836      36.893836      36.893836    
    470000   0.46178627    -7.8863557     -7.1936862      3.0762779      50218.233      36.893836      36.893836      36.893836    
    480000   0.45793937    -7.8923986     -7.2054993      3.030355       50218.233      36.893836      36.893836      36.893836    
    490000   0.46067626    -7.8851896     -7.194185       3.0879964      50218.233      36.893836      36.893836      36.893836    
    500000   0.4607059     -7.8940402     -7.2029912      3.0166668      50218.233      36.893836      36.893836      36.893836    
    510000   0.46118744    -7.8922363     -7.200465       3.0392629      50218.233      36.893836      36.893836      36.893836    
    520000   0.45822657    -7.8857331     -7.198403       3.0765291      50218.233      36.893836      36.893836      36.893836    
    530000   0.46203937    -7.8916523     -7.1986031      3.0353206      50218.233      36.893836      36.893836      36.893836    
    540000   0.46012362    -7.8895119     -7.1993363      3.0422551      50218.233      36.893836      36.893836      36.893836    
    550000   0.45992008    -7.8886644     -7.1987941      3.0598595      50218.233      36.893836      36.893836      36.893836    
    560000   0.4603252     -7.8908117     -7.2003337      3.0351001      50218.233      36.893836      36.893836      36.893836    
    570000   0.4576713     -7.8887387     -7.2022415      3.0560531      50218.233      36.893836      36.893836      36.893836    
    580000   0.45965845    -7.8897281     -7.2002502      3.0603998      50218.233      36.893836      36.893836      36.893836    
    590000   0.45881857    -7.8898236     -7.2016056      3.0502426      50218.233      36.893836      36.893836      36.893836    
    600000   0.45944525    -7.8927925     -7.2036345      3.0162015      50218.233      36.893836      36.893836      36.893836    
    610000   0.46258909    -7.8916845     -7.1978107      3.0383632      50218.233      36.893836      36.893836      36.893836    
    620000   0.45589108    -7.8912153     -7.2073884      3.0301735      50218.233      36.893836      36.893836      36.893836    
    630000   0.45962758    -7.8889236     -7.199492       3.0576339      50218.233      36.893836      36.893836      36.893836    
    640000   0.45910585    -7.8899772     -7.2013283      3.0486538      50218.233      36.893836      36.893836      36.893836    
    650000   0.46090527    -7.8881638     -7.1968157      3.0685873      50218.233      36.893836      36.893836      36.893836    
    660000   0.46138197    -7.8906721     -7.198609       3.0389307      50218.233      36.893836      36.893836      36.893836    
    670000   0.45975312    -7.8890891     -7.1994692      3.0483978      50218.233      36.893836      36.893836      36.893836    
    680000   0.46184002    -7.8925839     -7.1998338      3.02999        50218.233      36.893836      36.893836      36.893836    
    690000   0.459973      -7.8920355     -7.2020858      3.0234555      50218.233      36.893836      36.893836      36.893836    
    700000   0.46053993    -7.8924677     -7.2016676      3.031459       50218.233      36.893836      36.893836      36.893836    
    710000   0.45652841    -7.8873486     -7.2025657      3.0689167      50218.233      36.893836      36.893836      36.893836    
    720000   0.46288569    -7.8886087     -7.1942901      3.0757002      50218.233      36.893836      36.893836      36.893836    
    730000   0.46034288    -7.8920581     -7.2015536      3.033246       50218.233      36.893836      36.893836      36.893836    
    740000   0.46131595    -7.8903482     -7.1983842      3.0487686      50218.233      36.893836      36.893836      36.893836    
    750000   0.46084291    -7.8912188     -7.1999642      3.0377129      50218.233      36.893836      36.893836      36.893836    
    760000   0.46141824    -7.8866766     -7.1945591      3.0796551      50218.233      36.893836      36.893836      36.893836    
    770000   0.45896564    -7.8884626     -7.200024       3.0506839      50218.233      36.893836      36.893836      36.893836    
    780000   0.46198143    -7.8878485     -7.1948862      3.0563143      50218.233      36.893836      36.893836      36.893836    
    790000   0.46330369    -7.8942736     -7.1993279      3.0243069      50218.233      36.893836      36.893836      36.893836    
    800000   0.45882526    -7.8915181     -7.20329        3.029421       50218.233      36.893836      36.893836      36.893836    
    810000   0.45836762    -7.8903574     -7.2028158      3.0517931      50218.233      36.893836      36.893836      36.893836    
    820000   0.45815062    -7.8893706     -7.2021544      3.0515716      50218.233      36.893836      36.893836      36.893836    
    830000   0.45835747    -7.8916175     -7.2040911      3.024651       50218.233      36.893836      36.893836      36.893836    
    840000   0.45737387    -7.8929953     -7.2069443      3.0100075      50218.233      36.893836      36.893836      36.893836    
    850000   0.45871451    -7.8902475     -7.2021855      3.0418542      50218.233      36.893836      36.893836      36.893836    
    860000   0.46058708    -7.8897525     -7.1988817      3.0507336      50218.233      36.893836      36.893836      36.893836    
    870000   0.45869499    -7.8893422     -7.2013095      3.0539454      50218.233      36.893836      36.893836      36.893836    
    880000   0.45878542    -7.8867306     -7.1985622      3.0772507      50218.233      36.893836      36.893836      36.893836    
    890000   0.4606707     -7.8922054     -7.2012092      3.0269552      50218.233      36.893836      36.893836      36.893836    
    900000   0.46187772    -7.892575      -7.1997682      3.0278094      50218.233      36.893836      36.893836      36.893836    
    910000   0.46183579    -7.8897091     -7.1969653      3.0455889      50218.233      36.893836      36.893836      36.893836    
    920000   0.45779106    -7.8921354     -7.2054586      3.0269659      50218.233      36.893836      36.893836      36.893836    
    930000   0.46153681    -7.8908125     -7.1985171      3.0377096      50218.233      36.893836      36.893836      36.893836    
    940000   0.45975076    -7.8936834     -7.2040671      3.0098221      50218.233      36.893836      36.893836      36.893836    
    950000   0.45917653    -7.8895236     -7.2007686      3.0600303      50218.233      36.893836      36.893836      36.893836    
    960000   0.4598557     -7.8876064     -7.1978327      3.0654727      50218.233      36.893836      36.893836      36.893836    
    970000   0.45891018    -7.8922326     -7.2038771      3.031796       50218.233      36.893836      36.893836      36.893836    
    980000   0.46208941    -7.8926867     -7.1995624      3.0183322      50218.233      36.893836      36.893836      36.893836    
    990000   0.46134071    -7.8961066     -7.2041054      2.9961972      50218.233      36.893836      36.893836      36.893836    
   1000000   0.45823512    -7.8915562     -7.2042133      3.0312959      50218.233      36.893836      36.893836      36.893836    
   1010000   0.45865211    -7.8901279     -7.2021595      3.0404015      50218.233      36.893836      36.893836      36.893836    
   1020000   0.45989738    -7.8912407     -7.2014044      3.0358523      50218.233      36.893836      36.893836      36.893836    
   1030000   0.46046808    -7.889162      -7.1984697      3.0515955      50218.233      36.893836      36.893836      36.893836    
   1040000   0.4583698     -7.8910988     -7.2035539      3.037538       50218.233      36.893836      36.893836      36.893836    
   1050000   0.46229849    -7.8897667     -7.1963288      3.046261       50218.233      36.893836      36.893836      36.893836    
   1060000   0.46089682    -7.8925073     -7.2011719      3.0249978      50218.233      36.893836      36.893836      36.893836    
   1070000   0.45835962    -7.8893821     -7.2018524      3.047667       50218.233      36.893836      36.893836      36.893836    
   1080000   0.45914109    -7.8902535     -7.2015516      3.04632        50218.233      36.893836      36.893836      36.893836    
   1090000   0.45824116    -7.8909369     -7.2035849      3.0346037      50218.233      36.893836      36.893836      36.893836    
   1100000   0.4609407     -7.8904424     -7.1990412      3.0466138      50218.233      36.893836      36.893836      36.893836    
   1110000   0.46000667    -7.8916369     -7.2016367      3.0348652      50218.233      36.893836      36.893836      36.893836    
   1120000   0.4619502     -7.8887483     -7.1958329      3.0649678      50218.233      36.893836      36.893836      36.893836    
   1130000   0.4598345     -7.8921766     -7.2024347      3.0263713      50218.233      36.893836      36.893836      36.893836    
   1140000   0.46079149    -7.8910674     -7.19989        3.0388392      50218.233      36.893836      36.893836      36.893836    
   1150000   0.45993025    -7.890606      -7.2007205      3.0371732      50218.233      36.893836      36.893836      36.893836    
   1160000   0.45927882    -7.8910727     -7.2021643      3.0419709      50218.233      36.893836      36.893836      36.893836    
   1170000   0.45968361    -7.8899084     -7.2003928      3.0516259      50218.233      36.893836      36.893836      36.893836    
   1180000   0.45964324    -7.8914233     -7.2019683      3.0321934      50218.233      36.893836      36.893836      36.893836    
   1190000   0.45885628    -7.8882393     -7.1999646      3.065051       50218.233      36.893836      36.893836      36.893836    
   1200000   0.46154396    -7.8887813     -7.1964752      3.0548678      50218.233      36.893836      36.893836      36.893836    
   1210000   0.4619446     -7.889062      -7.196155       3.0601124      50218.233      36.893836      36.893836      36.893836    
   1220000   0.45959521    -7.8916886     -7.2023056      3.0410043      50218.233      36.893836      36.893836      36.893836    
   1230000   0.45758871    -7.890352      -7.2039787      3.0448513      50218.233      36.893836      36.893836      36.893836    
   1240000   0.46208247    -7.8917165     -7.1986027      3.0343473      50218.233      36.893836      36.893836      36.893836    
   1250000   0.46016356    -7.8870371     -7.1968016      3.0661984      50218.233      36.893836      36.893836      36.893836    
   1260000   0.46010639    -7.8908077     -7.200658       3.0533192      50218.233      36.893836      36.893836      36.893836    
   1270000   0.45867362    -7.8873301     -7.1993294      3.0612165      50218.233      36.893836      36.893836      36.893836    
   1280000   0.45970694    -7.8874498     -7.1978992      3.07227        50218.233      36.893836      36.893836      36.893836    
   1290000   0.46046772    -7.8916125     -7.2009207      3.0311892      50218.233      36.893836      36.893836      36.893836    
   1300000   0.45870385    -7.8893144     -7.2012684      3.0568887      50218.233      36.893836      36.893836      36.893836    
   1310000   0.45963528    -7.8932722     -7.203829       3.0201412      50218.233      36.893836      36.893836      36.893836    
   1320000   0.45778052    -7.8920527     -7.2053917      3.0356979      50218.233      36.893836      36.893836      36.893836    
   1330000   0.46044602    -7.890078      -7.1994188      3.0494298      50218.233      36.893836      36.893836      36.893836    
   1340000   0.46158682    -7.8878219     -7.1954515      3.0709825      50218.233      36.893836      36.893836      36.893836    
   1350000   0.46224485    -7.888242      -7.1948845      3.0588434      50218.233      36.893836      36.893836      36.893836    
   1360000   0.46049619    -7.8902644     -7.1995299      3.0479302      50218.233      36.893836      36.893836      36.893836    
   1370000   0.46139004    -7.8907345     -7.1986592      3.0399151      50218.233      36.893836      36.893836      36.893836    
   1380000   0.46144943    -7.8891218     -7.1969575      3.0574635      50218.233      36.893836      36.893836      36.893836    
   1390000   0.46151715    -7.889781      -7.1975152      3.05881        50218.233      36.893836      36.893836      36.893836    
   1400000   0.46059877    -7.8890585     -7.1981701      3.0598944      50218.233      36.893836      36.893836      36.893836    
   1410000   0.45842863    -7.8868399     -7.1992067      3.066581       50218.233      36.893836      36.893836      36.893836    
   1420000   0.45904046    -7.891026      -7.2024751      3.0387769      50218.233      36.893836      36.893836      36.893836    
   1430000   0.46037803    -7.8946969     -7.2041396      3.0180956      50218.233      36.893836      36.893836      36.893836    
   1440000   0.46068686    -7.8920598     -7.2010393      3.0337906      50218.233      36.893836      36.893836      36.893836    
   1450000   0.45950952    -7.8904008     -7.2011464      3.0389853      50218.233      36.893836      36.893836      36.893836    
   1460000   0.46128449    -7.8930659     -7.201149       3.0323322      50218.233      36.893836      36.893836      36.893836    
   1470000   0.45790616    -7.8905271     -7.2036777      3.0650889      50218.233      36.893836      36.893836      36.893836    
   1480000   0.45954973    -7.8857331     -7.1964183      3.080135       50218.233      36.893836      36.893836      36.893836    
   1490000   0.46042096    -7.8908233     -7.2002017      3.0440239      50218.233      36.893836      36.893836      36.893836    
   1500000   0.45906766    -7.8906507     -7.202059       3.0452173      50218.233      36.893836      36.893836      36.893836    
   1510000   0.46042955    -7.8906016     -7.1999671      3.049982       50218.233      36.893836      36.893836      36.893836    
   1520000   0.46090358    -7.8917103     -7.2003648      3.0387008      50218.233      36.893836      36.893836      36.893836    
   1530000   0.46212045    -7.8964239     -7.203253       2.9978162      50218.233      36.893836      36.893836      36.893836    
   1540000   0.45948652    -7.8921168     -7.2028969      3.0246761      50218.233      36.893836      36.893836      36.893836    
   1550000   0.4586782     -7.8897215     -7.201714       3.0549278      50218.233      36.893836      36.893836      36.893836    
   1560000   0.46014681    -7.8915021     -7.2012917      3.0250647      50218.233      36.893836      36.893836      36.893836    
   1570000   0.45743292    -7.8915812     -7.2054416      3.0277919      50218.233      36.893836      36.893836      36.893836    
   1580000   0.45843842    -7.8919235     -7.2042757      3.0375688      50218.233      36.893836      36.893836      36.893836    
   1590000   0.45896726    -7.8884395     -7.1999984      3.0569661      50218.233      36.893836      36.893836      36.893836    
   1600000   0.46301673    -7.8906124     -7.1960972      3.0521678      50218.233      36.893836      36.893836      36.893836    
   1610000   0.46028041    -7.8870394     -7.1966286      3.0725769      50218.233      36.893836      36.893836      36.893836    
   1620000   0.4607489     -7.889428      -7.1983144      3.0673901      50218.233      36.893836      36.893836      36.893836    
   1630000   0.46234123    -7.8920605     -7.1985585      3.0423755      50218.233      36.893836      36.893836      36.893836    
   1640000   0.4580528     -7.88852       -7.2014506      3.054847       50218.233      36.893836      36.893836      36.893836    
   1650000   0.45771497    -7.8863471     -7.1997844      3.0766655      50218.233      36.893836      36.893836      36.893836    
   1660000   0.45855522    -7.890049      -7.2022259      3.0504296      50218.233      36.893836      36.893836      36.893836    
   1670000   0.45740274    -7.8910337     -7.2049393      3.0402048      50218.233      36.893836      36.893836      36.893836    
   1680000   0.45963356    -7.8896815     -7.2002409      3.0485817      50218.233      36.893836      36.893836      36.893836    
   1690000   0.45976212    -7.8889528     -7.1993194      3.0572228      50218.233      36.893836      36.893836      36.893836    
   1700000   0.46187574    -7.8855189     -7.1927151      3.0695234      50218.233      36.893836      36.893836      36.893836    
   1710000   0.45952407    -7.8856405     -7.1963642      3.0864682      50218.233      36.893836      36.893836      36.893836    
   1720000   0.45879711    -7.888582      -7.2003961      3.0575447      50218.233      36.893836      36.893836      36.893836    
   1730000   0.46217834    -7.8893721     -7.1961145      3.0626308      50218.233      36.893836      36.893836      36.893836    
   1740000   0.45807304    -7.887855      -7.2007552      3.0629141      50218.233      36.893836      36.893836      36.893836    
   1750000   0.45885444    -7.889976      -7.2017042      3.0578234      50218.233      36.893836      36.893836      36.893836    
   1760000   0.46038239    -7.8863881     -7.1958244      3.073401       50218.233      36.893836      36.893836      36.893836    
   1770000   0.46035342    -7.8870408     -7.1965204      3.0716794      50218.233      36.893836      36.893836      36.893836    
   1780000   0.46069781    -7.8865782     -7.1955413      3.070839       50218.233      36.893836      36.893836      36.893836    
   1790000   0.45758496    -7.8861339     -7.1997662      3.0727882      50218.233      36.893836      36.893836      36.893836    
   1800000   0.45841192    -7.8864411     -7.198833       3.0687591      50218.233      36.893836      36.893836      36.893836    
   1810000   0.46248071    -7.8862559     -7.1925447      3.0901574      50218.233      36.893836      36.893836      36.893836    
   1820000   0.45982383    -7.8854543     -7.1957284      3.0876963      50218.233      36.893836      36.893836      36.893836    
   1830000   0.45885469    -7.8906881     -7.2024158      3.0439083      50218.233      36.893836      36.893836      36.893836    
   1840000   0.46230626    -7.8881341     -7.1946846      3.0675654      50218.233      36.893836      36.893836      36.893836    
   1850000   0.46211966    -7.8912562     -7.1980865      3.0471073      50218.233      36.893836      36.893836      36.893836    
   1860000   0.46189644    -7.8898577     -7.1970229      3.0543585      50218.233      36.893836      36.893836      36.893836    
   1870000   0.4640477     -7.8890858     -7.1930241      3.0618194      50218.233      36.893836      36.893836      36.893836    
   1880000   0.46030231    -7.8908177     -7.2003741      3.0449984      50218.233      36.893836      36.893836      36.893836    
   1890000   0.45999094    -7.8860873     -7.1961107      3.0831149      50218.233      36.893836      36.893836      36.893836    
   1900000   0.45796494    -7.8909733     -7.2040357      3.0490889      50218.233      36.893836      36.893836      36.893836    
   1910000   0.4605477     -7.8888692     -7.1980574      3.0603461      50218.233      36.893836      36.893836      36.893836    
   1920000   0.46206601    -7.8922536     -7.1991644      3.0344984      50218.233      36.893836      36.893836      36.893836    
   1930000   0.46079708    -7.8889804     -7.1977946      3.0580639      50218.233      36.893836      36.893836      36.893836    
   1940000   0.45864006    -7.8897121     -7.2017618      3.0526248      50218.233      36.893836      36.893836      36.893836    
   1950000   0.45995841    -7.888992      -7.1990642      3.0571035      50218.233      36.893836      36.893836      36.893836    
   1960000   0.45925569    -7.8933678     -7.204494       3.0352214      50218.233      36.893836      36.893836      36.893836    
   1970000   0.45940998    -7.8913412     -7.2022361      3.0419067      50218.233      36.893836      36.893836      36.893836    
   1980000   0.46036931    -7.8914438     -7.2008996      3.0370198      50218.233      36.893836      36.893836      36.893836    
   1990000   0.45983337    -7.8911614     -7.2014212      3.0461534      50218.233      36.893836      36.893836      36.893836    
   2000000   0.46137264    -7.8931483     -7.2010992      3.0308814      50218.233      36.893836      36.893836      36.893836    
   2010000   0.46056091    -7.8879512     -7.1971196      3.0655811      50218.233      36.893836      36.893836      36.893836    
   2020000   0.45898187    -7.8893385     -7.2008754      3.0524272      50218.233      36.893836      36.893836      36.893836    
   2030000   0.46081102    -7.8885449     -7.1973382      3.066158       50218.233      36.893836      36.893836      36.893836    
   2040000   0.46033634    -7.8885702     -7.1980756      3.0727042      50218.233      36.893836      36.893836      36.893836    
   2050000   0.45646957    -7.8920547     -7.2073601      3.0282461      50218.233      36.893836      36.893836      36.893836    
   2060000   0.45871591    -7.8885289     -7.2004648      3.0485322      50218.233      36.893836      36.893836      36.893836    
   2070000   0.46107389    -7.890394      -7.198793       3.0570672      50218.233      36.893836      36.893836      36.893836    
   2080000   0.46195842    -7.8864436     -7.1935158      3.0841058      50218.233      36.893836      36.893836      36.893836    
   2090000   0.45874127    -7.8885926     -7.2004905      3.0642851      50218.233      36.893836      36.893836      36.893836    
   2100000   0.46053112    -7.8927884     -7.2020015      3.0364139      50218.233      36.893836      36.893836      36.893836    
   2110000   0.45824381    -7.8891642     -7.2018082      3.0472884      50218.233      36.893836      36.893836      36.893836    
   2120000   0.46091437    -7.8934348     -7.2020731      3.0360664      50218.233      36.893836      36.893836      36.893836    
   2130000   0.46002444    -7.8883193     -7.1982925      3.0609903      50218.233      36.893836      36.893836      36.893836    
   2140000   0.45942388    -7.891286      -7.20216        3.0399976      50218.233      36.893836      36.893836      36.893836    
   2150000   0.45664188    -7.886167      -7.2012139      3.0832919      50218.233      36.893836      36.893836      36.893836    
   2160000   0.45947665    -7.8908921     -7.2016869      3.0366386      50218.233      36.893836      36.893836      36.893836    
   2170000   0.45524532    -7.8934069     -7.2105486      3.0289819      50218.233      36.893836      36.893836      36.893836    
   2180000   0.46133586    -7.8905405     -7.1985466      3.0446758      50218.233      36.893836      36.893836      36.893836    
   2190000   0.46164864    -7.8858832     -7.1934201      3.0829415      50218.233      36.893836      36.893836      36.893836    
   2200000   0.46160982    -7.8889509     -7.1965461      3.0597514      50218.233      36.893836      36.893836      36.893836    
   2210000   0.4598322     -7.8895893     -7.1998508      3.049297       50218.233      36.893836      36.893836      36.893836    
   2220000   0.45975792    -7.8883415     -7.1987145      3.0594881      50218.233      36.893836      36.893836      36.893836    
   2230000   0.45990939    -7.8878921     -7.1980379      3.0580874      50218.233      36.893836      36.893836      36.893836    
   2240000   0.45756019    -7.8846902     -7.1983597      3.0909497      50218.233      36.893836      36.893836      36.893836    
   2250000   0.46029659    -7.8879422     -7.1975072      3.066659       50218.233      36.893836      36.893836      36.893836    
   2260000   0.46101081    -7.8895179     -7.1980115      3.0519996      50218.233      36.893836      36.893836      36.893836    
   2270000   0.46041285    -7.8887029     -7.1980935      3.0621356      50218.233      36.893836      36.893836      36.893836    
   2280000   0.46007372    -7.8876675     -7.1975668      3.0659454      50218.233      36.893836      36.893836      36.893836    
   2290000   0.45989027    -7.8889836     -7.199158       3.0614631      50218.233      36.893836      36.893836      36.893836    
   2300000   0.45961667    -7.8903718     -7.2009566      3.0438744      50218.233      36.893836      36.893836      36.893836    
   2310000   0.46021217    -7.8871354     -7.1968269      3.068544       50218.233      36.893836      36.893836      36.893836    
   2320000   0.4600026     -7.8870347     -7.1970406      3.0740043      50218.233      36.893836      36.893836      36.893836    
   2330000   0.45961242    -7.8898581     -7.2004492      3.0638335      50218.233      36.893836      36.893836      36.893836    
   2340000   0.46077486    -7.8910522     -7.1998997      3.0606996      50218.233      36.893836      36.893836      36.893836    
   2350000   0.45947328    -7.8903875     -7.2011873      3.0547989      50218.233      36.893836      36.893836      36.893836    
   2360000   0.46037369    -7.887373      -7.1968223      3.0748408      50218.233      36.893836      36.893836      36.893836    
   2370000   0.45881981    -7.8906263     -7.2024064      3.0377109      50218.233      36.893836      36.893836      36.893836    
   2380000   0.46080515    -7.8874948     -7.1962969      3.0824741      50218.233      36.893836      36.893836      36.893836    
   2390000   0.4589139     -7.8927791     -7.204418       3.0278446      50218.233      36.893836      36.893836      36.893836    
   2400000   0.46249408    -7.8911106     -7.1973794      3.0522415      50218.233      36.893836      36.893836      36.893836    
   2410000   0.4586292     -7.8897024     -7.2017683      3.0509193      50218.233      36.893836      36.893836      36.893836    
   2420000   0.45899614    -7.8912446     -7.2027602      3.0376095      50218.233      36.893836      36.893836      36.893836    
   2430000   0.46048719    -7.8869353     -7.1962144      3.0847959      50218.233      36.893836      36.893836      36.893836    
   2440000   0.4605809     -7.8900935     -7.1992319      3.047611       50218.233      36.893836      36.893836      36.893836    
   2450000   0.45953493    -7.8905796     -7.201287       3.0424225      50218.233      36.893836      36.893836      36.893836    
   2460000   0.46294539    -7.8886452     -7.194237       3.0690796      50218.233      36.893836      36.893836      36.893836    
   2470000   0.45868292    -7.8882684     -7.2002538      3.054229       50218.233      36.893836      36.893836      36.893836    
   2480000   0.45768831    -7.885584      -7.1990613      3.0760872      50218.233      36.893836      36.893836      36.893836    
   2490000   0.45929309    -7.8920265     -7.2030967      3.0401749      50218.233      36.893836      36.893836      36.893836    
   2500000   0.45926903    -7.8898645     -7.2009708      3.0573357      50218.233      36.893836      36.893836      36.893836    
   2510000   0.4626668     -7.8914433     -7.197453       3.0449428      50218.233      36.893836      36.893836      36.893836    
   2520000   0.46031113    -7.8926409     -7.2021841      3.0325049      50218.233      36.893836      36.893836      36.893836    
   2530000   0.46129343    -7.8874333     -7.195503       3.0723096      50218.233      36.893836      36.893836      36.893836    
   2540000   0.46217592    -7.8877257     -7.1944717      3.0651995      50218.233      36.893836      36.893836      36.893836    
   2550000   0.46160574    -7.888591      -7.1961922      3.0683563      50218.233      36.893836      36.893836      36.893836    
   2560000   0.46108233    -7.8920961     -7.2004825      3.0325935      50218.233      36.893836      36.893836      36.893836    
   2570000   0.46018666    -7.8883936     -7.1981235      3.0563225      50218.233      36.893836      36.893836      36.893836    
   2580000   0.45873127    -7.8850644     -7.1969773      3.0884789      50218.233      36.893836      36.893836      36.893836    
   2590000   0.46067741    -7.8902683     -7.199262       3.0525225      50218.233      36.893836      36.893836      36.893836    
   2600000   0.45807862    -7.8876176     -7.2005095      3.0600735      50218.233      36.893836      36.893836      36.893836    
   2610000   0.45918977    -7.8867707     -7.1979958      3.0726909      50218.233      36.893836      36.893836      36.893836    
   2620000   0.45839028    -7.8897902     -7.2022146      3.0487516      50218.233      36.893836      36.893836      36.893836    
   2630000   0.460533      -7.889177      -7.1983873      3.0611167      50218.233      36.893836      36.893836      36.893836    
   2640000   0.46153495    -7.890542      -7.1982494      3.0485042      50218.233      36.893836      36.893836      36.893836    
   2650000   0.4598294     -7.8877843     -7.19805        3.0692719      50218.233      36.893836      36.893836      36.893836    
   2660000   0.45829552    -7.891326      -7.2038925      3.0277772      50218.233      36.893836      36.893836      36.893836    
   2670000   0.46188581    -7.8905486     -7.1977298      3.0485457      50218.233      36.893836      36.893836      36.893836    
   2680000   0.45714767    -7.8908063     -7.2050945      3.0460765      50218.233      36.893836      36.893836      36.893836    
   2690000   0.46161182    -7.8896992     -7.1972913      3.0498074      50218.233      36.893836      36.893836      36.893836    
   2700000   0.46087288    -7.8868732     -7.1955737      3.067018       50218.233      36.893836      36.893836      36.893836    
   2710000   0.45900704    -7.8865327     -7.1980319      3.078172       50218.233      36.893836      36.893836      36.893836    
   2720000   0.46055047    -7.8888223     -7.1980064      3.0692773      50218.233      36.893836      36.893836      36.893836    
   2730000   0.45963463    -7.8904395     -7.2009974      3.0382211      50218.233      36.893836      36.893836      36.893836    
   2740000   0.45830211    -7.888489      -7.2010456      3.0598624      50218.233      36.893836      36.893836      36.893836    
   2750000   0.4614278     -7.8887817     -7.1966499      3.0692415      50218.233      36.893836      36.893836      36.893836    
   2760000   0.45948122    -7.8868921     -7.19768        3.0860196      50218.233      36.893836      36.893836      36.893836    
   2770000   0.45794227    -7.8887857     -7.2018821      3.0549279      50218.233      36.893836      36.893836      36.893836    
   2780000   0.45751843    -7.8926427     -7.2063748      3.0260128      50218.233      36.893836      36.893836      36.893836    
   2790000   0.46195439    -7.8907785     -7.1978568      3.0452056      50218.233      36.893836      36.893836      36.893836    
   2800000   0.46221135    -7.8910407     -7.1977335      3.0473488      50218.233      36.893836      36.893836      36.893836    
   2810000   0.45885846    -7.8891243     -7.2008464      3.0476167      50218.233      36.893836      36.893836      36.893836    
   2820000   0.45971848    -7.8880691     -7.1985011      3.0741597      50218.233      36.893836      36.893836      36.893836    
   2830000   0.46312935    -7.8902736     -7.1955894      3.0501624      50218.233      36.893836      36.893836      36.893836    
   2840000   0.46288851    -7.8909773     -7.1966544      3.0516572      50218.233      36.893836      36.893836      36.893836    
   2850000   0.46195252    -7.8892382     -7.1963193      3.0641986      50218.233      36.893836      36.893836      36.893836    
   2860000   0.45856029    -7.890356      -7.2025253      3.0451765      50218.233      36.893836      36.893836      36.893836    
   2870000   0.4610285     -7.8920476     -7.2005147      3.0251217      50218.233      36.893836      36.893836      36.893836    
   2880000   0.4608779     -7.8901514     -7.1988444      3.0483317      50218.233      36.893836      36.893836      36.893836    
   2890000   0.46182986    -7.8896579     -7.196923       3.0525092      50218.233      36.893836      36.893836      36.893836    
   2900000   0.4595339     -7.8939314     -7.2046404      3.0202803      50218.233      36.893836      36.893836      36.893836    
   2910000   0.45951799    -7.8871553     -7.1978881      3.0569868      50218.233      36.893836      36.893836      36.893836    
   2920000   0.45983777    -7.8882156     -7.1984688      3.0695055      50218.233      36.893836      36.893836      36.893836    
   2930000   0.46281381    -7.8890855     -7.1948747      3.0548958      50218.233      36.893836      36.893836      36.893836    
   2940000   0.46049161    -7.8923451     -7.2016175      3.0321028      50218.233      36.893836      36.893836      36.893836    
   2950000   0.45843701    -7.8894637     -7.201818       3.0513169      50218.233      36.893836      36.893836      36.893836    
   2960000   0.46077258    -7.8914027     -7.2002537      3.0516097      50218.233      36.893836      36.893836      36.893836    
   2970000   0.46126323    -7.8927101     -7.2008251      3.042489       50218.233      36.893836      36.893836      36.893836    
   2980000   0.46088442    -7.8910403     -7.1997235      3.0395715      50218.233      36.893836      36.893836      36.893836    
   2990000   0.46136867    -7.8909672     -7.198924       3.0328375      50218.233      36.893836      36.893836      36.893836    
   3000000   0.45792941    -7.8833707     -7.1964864      3.093915       50218.233      36.893836      36.893836      36.893836    
   3010000   0.4614905     -7.8873376     -7.1951117      3.0657783      50218.233      36.893836      36.893836      36.893836    
   3020000   0.45996541    -7.8900125     -7.2000742      3.0521802      50218.233      36.893836      36.893836      36.893836    
   3030000   0.45961704    -7.8896481     -7.2002324      3.056596       50218.233      36.893836      36.893836      36.893836    
   3040000   0.45997091    -7.8909023     -7.2009558      3.0569256      50218.233      36.893836      36.893836      36.893836    
   3050000   0.46007872    -7.8880335     -7.1979252      3.0710024      50218.233      36.893836      36.893836      36.893836    
   3060000   0.4589668     -7.8914149     -7.2029745      3.0397898      50218.233      36.893836      36.893836      36.893836    
   3070000   0.46109114    -7.8907741     -7.1991472      3.0420412      50218.233      36.893836      36.893836      36.893836    
   3080000   0.4609296     -7.8879025     -7.1965179      3.075628       50218.233      36.893836      36.893836      36.893836    
   3090000   0.46061192    -7.8842824     -7.1933744      3.0926176      50218.233      36.893836      36.893836      36.893836    
   3100000   0.4603801     -7.8925282     -7.2019678      3.0392365      50218.233      36.893836      36.893836      36.893836    
   3110000   0.46064091    -7.8897521     -7.1988006      3.0532092      50218.233      36.893836      36.893836      36.893836    
   3120000   0.45784827    -7.8853777     -7.1986151      3.0671118      50218.233      36.893836      36.893836      36.893836    
   3130000   0.4586387     -7.8925496     -7.2046014      3.0280453      50218.233      36.893836      36.893836      36.893836    
   3140000   0.46005054    -7.8886562     -7.1985902      3.0648761      50218.233      36.893836      36.893836      36.893836    
   3150000   0.45951672    -7.8883963     -7.199131       3.0562258      50218.233      36.893836      36.893836      36.893836    
   3160000   0.45900413    -7.8879059     -7.1994095      3.0664571      50218.233      36.893836      36.893836      36.893836    
   3170000   0.46026356    -7.8882097     -7.1978241      3.0677197      50218.233      36.893836      36.893836      36.893836    
   3180000   0.4609494     -7.8896203     -7.1982061      3.0586126      50218.233      36.893836      36.893836      36.893836    
   3190000   0.46076403    -7.8873042     -7.196168       3.0836172      50218.233      36.893836      36.893836      36.893836    
   3200000   0.46100646    -7.8907904     -7.1992906      3.0343373      50218.233      36.893836      36.893836      36.893836    
   3210000   0.46208786    -7.8868612     -7.1937393      3.0842544      50218.233      36.893836      36.893836      36.893836    
   3220000   0.45875007    -7.8891895     -7.2010742      3.052582       50218.233      36.893836      36.893836      36.893836    
   3230000   0.45799014    -7.8898592     -7.2028838      3.0590134      50218.233      36.893836      36.893836      36.893836    
   3240000   0.4596977     -7.8915425     -7.2020058      3.0393469      50218.233      36.893836      36.893836      36.893836    
   3250000   0.45990349    -7.8876246     -7.1977792      3.0715349      50218.233      36.893836      36.893836      36.893836    
   3260000   0.4619716     -7.890092      -7.1971445      3.0465289      50218.233      36.893836      36.893836      36.893836    
   3270000   0.46097157    -7.8885226     -7.1970751      3.0621567      50218.233      36.893836      36.893836      36.893836    
   3280000   0.45950591    -7.8895012     -7.2002522      3.0637431      50218.233      36.893836      36.893836      36.893836    
   3290000   0.46105179    -7.8891074     -7.1975396      3.0630167      50218.233      36.893836      36.893836      36.893836    
   3300000   0.45868725    -7.8891065     -7.2010854      3.0551145      50218.233      36.893836      36.893836      36.893836    
   3310000   0.46190739    -7.8930957     -7.2002445      3.0361477      50218.233      36.893836      36.893836      36.893836    
   3320000   0.46059517    -7.8896458     -7.1987629      3.0539943      50218.233      36.893836      36.893836      36.893836    
   3330000   0.46096442    -7.8854403     -7.1940035      3.0875769      50218.233      36.893836      36.893836      36.893836    
   3340000   0.4603391     -7.8854808     -7.194982       3.0857024      50218.233      36.893836      36.893836      36.893836    
   3350000   0.46010956    -7.8871748     -7.1970202      3.070132       50218.233      36.893836      36.893836      36.893836    
   3360000   0.46090843    -7.8900669     -7.1987141      3.0512598      50218.233      36.893836      36.893836      36.893836    
   3370000   0.46140243    -7.892339      -7.2002452      3.0267726      50218.233      36.893836      36.893836      36.893836    
   3380000   0.45796098    -7.8933093     -7.2063776      3.0293349      50218.233      36.893836      36.893836      36.893836    
   3390000   0.4603928     -7.8888739     -7.1982945      3.0648817      50218.233      36.893836      36.893836      36.893836    
   3400000   0.46030757    -7.8892569     -7.1988053      3.0605987      50218.233      36.893836      36.893836      36.893836    
   3410000   0.46244688    -7.8896        -7.1959395      3.0498666      50218.233      36.893836      36.893836      36.893836    
   3420000   0.46294987    -7.8955013     -7.2010863      3.0098669      50218.233      36.893836      36.893836      36.893836    
   3430000   0.45818902    -7.8920037     -7.20473        3.0368817      50218.233      36.893836      36.893836      36.893836    
   3440000   0.46095288    -7.8917923     -7.2003728      3.0293949      50218.233      36.893836      36.893836      36.893836    
   3450000   0.46053967    -7.8898257     -7.199026       3.0435426      50218.233      36.893836      36.893836      36.893836    
   3460000   0.46086502    -7.8920561     -7.2007684      3.0373647      50218.233      36.893836      36.893836      36.893836    
   3470000   0.45945827    -7.8880035     -7.1988259      3.0813006      50218.233      36.893836      36.893836      36.893836    
   3480000   0.46110569    -7.8948777     -7.203229       3.0162687      50218.233      36.893836      36.893836      36.893836    
   3490000   0.45968861    -7.8910058     -7.2014827      3.0485757      50218.233      36.893836      36.893836      36.893836    
   3500000   0.45727616    -7.8884577     -7.2025532      3.0686461      50218.233      36.893836      36.893836      36.893836    
   3510000   0.46217605    -7.8923161     -7.1990619      3.045662       50218.233      36.893836      36.893836      36.893836    
   3520000   0.45837106    -7.8895018     -7.2019549      3.0463328      50218.233      36.893836      36.893836      36.893836    
   3530000   0.45978869    -7.890214      -7.2005408      3.0566107      50218.233      36.893836      36.893836      36.893836    
   3540000   0.46049332    -7.890834      -7.2001038      3.0478847      50218.233      36.893836      36.893836      36.893836    
   3550000   0.46173283    -7.8893335     -7.1967441      3.0659886      50218.233      36.893836      36.893836      36.893836    
   3560000   0.46116146    -7.891523      -7.1997907      3.0504144      50218.233      36.893836      36.893836      36.893836    
   3570000   0.4565141     -7.8904965     -7.2057351      3.0372171      50218.233      36.893836      36.893836      36.893836    
   3580000   0.46044506    -7.8878419     -7.1971841      3.0607002      50218.233      36.893836      36.893836      36.893836    
   3590000   0.46288014    -7.8851504     -7.1908401      3.0921175      50218.233      36.893836      36.893836      36.893836    
   3600000   0.45767403    -7.8927049     -7.2062036      3.0289594      50218.233      36.893836      36.893836      36.893836    
   3610000   0.46269916    -7.8892603     -7.1952214      3.0623834      50218.233      36.893836      36.893836      36.893836    
   3620000   0.46034584    -7.8926627     -7.2021537      3.0287135      50218.233      36.893836      36.893836      36.893836    
   3630000   0.46022302    -7.8897645     -7.1994398      3.060074       50218.233      36.893836      36.893836      36.893836    
   3640000   0.45737566    -7.8905845     -7.2045307      3.0531347      50218.233      36.893836      36.893836      36.893836    
   3650000   0.46245024    -7.8898696     -7.1962041      3.0559008      50218.233      36.893836      36.893836      36.893836    
   3660000   0.46214389    -7.8892804     -7.1960744      3.0530588      50218.233      36.893836      36.893836      36.893836    
   3670000   0.45885538    -7.8869764     -7.1987031      3.0739533      50218.233      36.893836      36.893836      36.893836    
   3680000   0.46101779    -7.8873774     -7.1958606      3.0677265      50218.233      36.893836      36.893836      36.893836    
   3690000   0.46331809    -7.8925882     -7.1976209      3.0414445      50218.233      36.893836      36.893836      36.893836    
   3700000   0.46251446    -7.885372      -7.1916102      3.0937152      50218.233      36.893836      36.893836      36.893836    
   3710000   0.45907115    -7.8896032     -7.2010062      3.0645193      50218.233      36.893836      36.893836      36.893836    
   3720000   0.46170226    -7.8901886     -7.197645       3.0561222      50218.233      36.893836      36.893836      36.893836    
   3730000   0.46054751    -7.8872497     -7.1964382      3.083397       50218.233      36.893836      36.893836      36.893836    
   3740000   0.45851296    -7.8854822     -7.1977226      3.0856151      50218.233      36.893836      36.893836      36.893836    
   3750000   0.45938051    -7.8892555     -7.2001945      3.0540711      50218.233      36.893836      36.893836      36.893836    
   3760000   0.46102259    -7.8890477     -7.1975237      3.0611324      50218.233      36.893836      36.893836      36.893836    
   3770000   0.45945299    -7.8888839     -7.1997142      3.053586       50218.233      36.893836      36.893836      36.893836    
   3780000   0.46086298    -7.8881409     -7.1968562      3.0601776      50218.233      36.893836      36.893836      36.893836    
   3790000   0.45978903    -7.8909688     -7.201295       3.0343911      50218.233      36.893836      36.893836      36.893836    
   3800000   0.45944624    -7.8869772     -7.1978177      3.0717341      50218.233      36.893836      36.893836      36.893836    
   3810000   0.45733983    -7.8889211     -7.2029211      3.0676053      50218.233      36.893836      36.893836      36.893836    
   3820000   0.45917988    -7.8921185     -7.2033585      3.0353584      50218.233      36.893836      36.893836      36.893836    
   3830000   0.46176159    -7.8887373     -7.1961047      3.060991       50218.233      36.893836      36.893836      36.893836    
   3840000   0.45858466    -7.8869077     -7.1990405      3.0731138      50218.233      36.893836      36.893836      36.893836    
   3850000   0.46161614    -7.8896467     -7.1972323      3.0492052      50218.233      36.893836      36.893836      36.893836    
   3860000   0.4557658     -7.8903961     -7.2067571      3.0457263      50218.233      36.893836      36.893836      36.893836    
   3870000   0.4604767     -7.8909905     -7.2002853      3.0456248      50218.233      36.893836      36.893836      36.893836    
   3880000   0.46121139    -7.891292      -7.1994847      3.0355895      50218.233      36.893836      36.893836      36.893836    
   3890000   0.46123819    -7.892486      -7.2006385      3.0376342      50218.233      36.893836      36.893836      36.893836    
   3900000   0.45776528    -7.8873436     -7.2007054      3.0596053      50218.233      36.893836      36.893836      36.893836    
   3910000   0.45951878    -7.8883971     -7.1991288      3.0647825      50218.233      36.893836      36.893836      36.893836    
   3920000   0.46047402    -7.8893709     -7.1986697      3.0557274      50218.233      36.893836      36.893836      36.893836    
   3930000   0.46056784    -7.8890916     -7.1982497      3.0590527      50218.233      36.893836      36.893836      36.893836    
   3940000   0.46193235    -7.8879421     -7.1950534      3.0679642      50218.233      36.893836      36.893836      36.893836    
   3950000   0.46110651    -7.8861127     -7.1944628      3.0882956      50218.233      36.893836      36.893836      36.893836    
   3960000   0.46315562    -7.8914223     -7.1966987      3.0549756      50218.233      36.893836      36.893836      36.893836    
   3970000   0.46196801    -7.8873845     -7.1944424      3.0681383      50218.233      36.893836      36.893836      36.893836    
   3980000   0.46075391    -7.8921067     -7.2009856      3.0353833      50218.233      36.893836      36.893836      36.893836    
   3990000   0.4608775     -7.8897844     -7.198478       3.0588752      50218.233      36.893836      36.893836      36.893836    
   4000000   0.46017101    -7.8878917     -7.197645       3.071771       50218.233      36.893836      36.893836      36.893836    
   4010000   0.46014509    -7.8916522     -7.2014444      3.0468023      50218.233      36.893836      36.893836      36.893836    
   4020000   0.45987316    -7.8915207     -7.2017208      3.0318887      50218.233      36.893836      36.893836      36.893836    
   4030000   0.46367898    -7.8900693     -7.1945607      3.0561054      50218.233      36.893836      36.893836      36.893836    
   4040000   0.45809182    -7.8894969     -7.2023689      3.0552542      50218.233      36.893836      36.893836      36.893836    
   4050000   0.46102493    -7.886568      -7.1950405      3.0693702      50218.233      36.893836      36.893836      36.893836    
   4060000   0.45905566    -7.8918839     -7.2033102      3.0327701      50218.233      36.893836      36.893836      36.893836    
   4070000   0.46190205    -7.8906293     -7.1977861      3.0472263      50218.233      36.893836      36.893836      36.893836    
   4080000   0.46166645    -7.8883582     -7.1958684      3.0612767      50218.233      36.893836      36.893836      36.893836    
   4090000   0.46084614    -7.8895383     -7.1982789      3.0516924      50218.233      36.893836      36.893836      36.893836    
   4100000   0.45979422    -7.8898675     -7.200186       3.0385994      50218.233      36.893836      36.893836      36.893836    
   4110000   0.46320431    -7.8885503     -7.1937537      3.0596455      50218.233      36.893836      36.893836      36.893836    
   4120000   0.45839349    -7.8884336     -7.2008532      3.0503765      50218.233      36.893836      36.893836      36.893836    
   4130000   0.46170073    -7.8861282     -7.193587       3.0702062      50218.233      36.893836      36.893836      36.893836    
   4140000   0.45901172    -7.8876172     -7.1991094      3.0665468      50218.233      36.893836      36.893836      36.893836    
   4150000   0.45906911    -7.8927832     -7.2041893      3.0299115      50218.233      36.893836      36.893836      36.893836    
   4160000   0.45753881    -7.8923921     -7.2060937      3.0337369      50218.233      36.893836      36.893836      36.893836    
   4170000   0.46225963    -7.8862341     -7.1928545      3.0816299      50218.233      36.893836      36.893836      36.893836    
   4180000   0.46046948    -7.8887286     -7.1980342      3.0556073      50218.233      36.893836      36.893836      36.893836    
   4190000   0.4604001     -7.8914416     -7.2008513      3.0273716      50218.233      36.893836      36.893836      36.893836    
   4200000   0.46140297    -7.8870732     -7.1949786      3.0624971      50218.233      36.893836      36.893836      36.893836    
   4210000   0.45853032    -7.8910559     -7.2032702      3.0375268      50218.233      36.893836      36.893836      36.893836    
   4220000   0.45881819    -7.8888169     -7.2005994      3.0522141      50218.233      36.893836      36.893836      36.893836    
   4230000   0.45937771    -7.8897051     -7.2006483      3.0493765      50218.233      36.893836      36.893836      36.893836    
   4240000   0.45889149    -7.8890453     -7.2007179      3.0481083      50218.233      36.893836      36.893836      36.893836    
   4250000   0.45936102    -7.887022      -7.1979902      3.0684022      50218.233      36.893836      36.893836      36.893836    
   4260000   0.46156321    -7.8906954     -7.1983604      3.0477147      50218.233      36.893836      36.893836      36.893836    
   4270000   0.45956709    -7.8905038     -7.201163       3.0359392      50218.233      36.893836      36.893836      36.893836    
   4280000   0.45847142    -7.8893609     -7.2016636      3.0384583      50218.233      36.893836      36.893836      36.893836    
   4290000   0.45920712    -7.8879014     -7.1991005      3.0635152      50218.233      36.893836      36.893836      36.893836    
   4300000   0.46095179    -7.8920994     -7.2006815      3.0286121      50218.233      36.893836      36.893836      36.893836    
   4310000   0.45912938    -7.8947629     -7.2060786      3.0016352      50218.233      36.893836      36.893836      36.893836    
   4320000   0.46087043    -7.8929359     -7.2016401      3.0312486      50218.233      36.893836      36.893836      36.893836    
   4330000   0.46288253    -7.8885538     -7.1942399      3.0641553      50218.233      36.893836      36.893836      36.893836    
   4340000   0.46045549    -7.892352      -7.2016785      3.026478       50218.233      36.893836      36.893836      36.893836    
   4350000   0.46033554    -7.8917326     -7.2012391      3.0313334      50218.233      36.893836      36.893836      36.893836    
   4360000   0.46040762    -7.8905958     -7.1999942      3.0532701      50218.233      36.893836      36.893836      36.893836    
   4370000   0.45949602    -7.8933344     -7.2041002      3.0254849      50218.233      36.893836      36.893836      36.893836    
   4380000   0.46079786    -7.8890833     -7.1978963      3.0659683      50218.233      36.893836      36.893836      36.893836    
   4390000   0.46115581    -7.887065      -7.1953412      3.0667171      50218.233      36.893836      36.893836      36.893836    
   4400000   0.45738772    -7.8911176     -7.2050458      3.0436992      50218.233      36.893836      36.893836      36.893836    
   4410000   0.4592877     -7.8899848     -7.201063       3.0401792      50218.233      36.893836      36.893836      36.893836    
   4420000   0.46001524    -7.8939677     -7.2039547      3.0198893      50218.233      36.893836      36.893836      36.893836    
   4430000   0.46197334    -7.8876616     -7.1947114      3.0643951      50218.233      36.893836      36.893836      36.893836    
   4440000   0.45933945    -7.8901921     -7.2011927      3.0372166      50218.233      36.893836      36.893836      36.893836    
   4450000   0.46233984    -7.8912077     -7.1977078      3.0485617      50218.233      36.893836      36.893836      36.893836    
   4460000   0.45859097    -7.8919499     -7.2040732      3.0290177      50218.233      36.893836      36.893836      36.893836    
   4470000   0.45897239    -7.8932066     -7.2047578      3.016771       50218.233      36.893836      36.893836      36.893836    
   4480000   0.46067266    -7.8955237     -7.2045246      2.9953803      50218.233      36.893836      36.893836      36.893836    
   4490000   0.46377312    -7.892927      -7.1972772      3.0249101      50218.233      36.893836      36.893836      36.893836    
   4500000   0.46008452    -7.8920709     -7.2019539      3.0276172      50218.233      36.893836      36.893836      36.893836    
   4510000   0.460984      -7.8927715     -7.2013054      3.0294103      50218.233      36.893836      36.893836      36.893836    
   4520000   0.46037692    -7.8935408     -7.2029852      3.02192        50218.233      36.893836      36.893836      36.893836    
   4530000   0.45959093    -7.891933      -7.2025564      3.025023       50218.233      36.893836      36.893836      36.893836    
   4540000   0.46037504    -7.8915035     -7.2009508      3.0364578      50218.233      36.893836      36.893836      36.893836    
   4550000   0.46412723    -7.8883865     -7.1922056      3.0628793      50218.233      36.893836      36.893836      36.893836    
   4560000   0.45840858    -7.8911074     -7.2035043      3.0323792      50218.233      36.893836      36.893836      36.893836    
   4570000   0.45974755    -7.890979      -7.2013675      3.038017       50218.233      36.893836      36.893836      36.893836    
   4580000   0.45996031    -7.8913869     -7.2014563      3.03505        50218.233      36.893836      36.893836      36.893836    
   4590000   0.45971268    -7.8894975     -7.1999383      3.0396138      50218.233      36.893836      36.893836      36.893836    
   4600000   0.45983059    -7.8927852     -7.2030491      3.035459       50218.233      36.893836      36.893836      36.893836    
   4610000   0.45946075    -7.8900551     -7.2008738      3.0377507      50218.233      36.893836      36.893836      36.893836    
   4620000   0.45994527    -7.8872549     -7.1973468      3.0620386      50218.233      36.893836      36.893836      36.893836    
   4630000   0.46161674    -7.8882992     -7.1958839      3.0502039      50218.233      36.893836      36.893836      36.893836    
   4640000   0.46126828    -7.8888752     -7.1969826      3.0480722      50218.233      36.893836      36.893836      36.893836    
   4650000   0.46209971    -7.890599      -7.1974593      3.0474911      50218.233      36.893836      36.893836      36.893836    
   4660000   0.4616756     -7.8904131     -7.1979096      3.0432754      50218.233      36.893836      36.893836      36.893836    
   4670000   0.46093224    -7.8855217     -7.1941332      3.0822585      50218.233      36.893836      36.893836      36.893836    
   4680000   0.45912252    -7.8926581     -7.2039841      3.0289835      50218.233      36.893836      36.893836      36.893836    
   4690000   0.45907389    -7.8916742     -7.2030732      3.0226661      50218.233      36.893836      36.893836      36.893836    
   4700000   0.45984942    -7.8902338     -7.2004695      3.0409972      50218.233      36.893836      36.893836      36.893836    
   4710000   0.45946018    -7.8948857     -7.2057052      3.0051438      50218.233      36.893836      36.893836      36.893836    
   4720000   0.45943649    -7.89206       -7.202915       3.0358798      50218.233      36.893836      36.893836      36.893836    
   4730000   0.45878831    -7.8912693     -7.2030966      3.0301633      50218.233      36.893836      36.893836      36.893836    
   4740000   0.46189219    -7.8926717     -7.1998432      3.0205303      50218.233      36.893836      36.893836      36.893836    
   4750000   0.45905481    -7.8903814     -7.201809       3.0351992      50218.233      36.893836      36.893836      36.893836    
   4760000   0.46114198    -7.8877818     -7.1960787      3.066616       50218.233      36.893836      36.893836      36.893836    
   4770000   0.46230605    -7.8921191     -7.1986699      3.0310821      50218.233      36.893836      36.893836      36.893836    
   4780000   0.46028925    -7.8886528     -7.1982288      3.0582651      50218.233      36.893836      36.893836      36.893836    
   4790000   0.45875047    -7.8910101     -7.2028942      3.0385979      50218.233      36.893836      36.893836      36.893836    
   4800000   0.46154533    -7.8940201     -7.2017119      3.0201971      50218.233      36.893836      36.893836      36.893836    
   4810000   0.46036324    -7.8896416     -7.1991065      3.0516843      50218.233      36.893836      36.893836      36.893836    
   4820000   0.45960376    -7.886889      -7.1974932      3.0761086      50218.233      36.893836      36.893836      36.893836    
   4830000   0.46032562    -7.8935587     -7.2030801      3.0202359      50218.233      36.893836      36.893836      36.893836    
   4840000   0.4580195     -7.8950438     -7.2080243      2.997159       50218.233      36.893836      36.893836      36.893836    
   4850000   0.46060519    -7.8920846     -7.2011866      3.0265493      50218.233      36.893836      36.893836      36.893836    
   4860000   0.4603561     -7.8921849     -7.2016606      3.0216022      50218.233      36.893836      36.893836      36.893836    
   4870000   0.45754525    -7.891838      -7.2055299      3.0276742      50218.233      36.893836      36.893836      36.893836    
   4880000   0.45973522    -7.8949253     -7.2053323      3.0087888      50218.233      36.893836      36.893836      36.893836    
   4890000   0.45867443    -7.8928682     -7.2048664      3.0270252      50218.233      36.893836      36.893836      36.893836    
   4900000   0.46305141    -7.8897894     -7.1952222      3.0505909      50218.233      36.893836      36.893836      36.893836    
   4910000   0.46093615    -7.89301       -7.2016157      3.0283756      50218.233      36.893836      36.893836      36.893836    
   4920000   0.45835329    -7.8873082     -7.199788       3.0584844      50218.233      36.893836      36.893836      36.893836    
   4930000   0.45765083    -7.8923149     -7.2058484      3.0226384      50218.233      36.893836      36.893836      36.893836    
   4940000   0.45928218    -7.8892653     -7.2003518      3.041098       50218.233      36.893836      36.893836      36.893836    
   4950000   0.45928794    -7.890732      -7.2018099      3.0323031      50218.233      36.893836      36.893836      36.893836    
   4960000   0.4602559     -7.8904847     -7.2001106      3.0438854      50218.233      36.893836      36.893836      36.893836    
   4970000   0.46064257    -7.8892868     -7.1983328      3.0409587      50218.233      36.893836      36.893836      36.893836    
   4980000   0.45988787    -7.8882434     -7.1984214      3.0451727      50218.233      36.893836      36.893836      36.893836    
   4990000   0.45856376    -7.8940108     -7.206175       3.0067214      50218.233      36.893836      36.893836      36.893836    
   5000000   0.4597445     -7.8912077     -7.2016007      3.0432678      50218.233      36.893836      36.893836      36.893836    
   5010000   0.45982827    -7.8904558     -7.2007232      3.037392       50218.233      36.893836      36.893836      36.893836    
   5020000   0.46001606    -7.8884812     -7.198467       3.0518313      50218.233      36.893836      36.893836      36.893836    
   5030000   0.45918903    -7.8934486     -7.2046749      3.0052347      50218.233      36.893836      36.893836      36.893836    
   5040000   0.46330926    -7.892131      -7.197177       3.02342        50218.233      36.893836      36.893836      36.893836    
   5050000   0.4601203     -7.8887283     -7.1985577      3.0578599      50218.233      36.893836      36.893836      36.893836    
   5060000   0.46004123    -7.8939644     -7.2039123      3.0144372      50218.233      36.893836      36.893836      36.893836    
   5070000   0.45976902    -7.8890806     -7.1994368      3.0487856      50218.233      36.893836      36.893836      36.893836    
   5080000   0.45995516    -7.8901275     -7.2002046      3.0448585      50218.233      36.893836      36.893836      36.893836    
   5090000   0.46108783    -7.891643      -7.200021       3.0315764      50218.233      36.893836      36.893836      36.893836    
   5100000   0.45821267    -7.8917279     -7.2044186      3.0323597      50218.233      36.893836      36.893836      36.893836    
   5110000   0.45973049    -7.8924024     -7.2028165      3.0175457      50218.233      36.893836      36.893836      36.893836    
   5120000   0.45815497    -7.8914773     -7.2042546      3.0340377      50218.233      36.893836      36.893836      36.893836    
   5130000   0.46166372    -7.8930674     -7.2005817      3.0213524      50218.233      36.893836      36.893836      36.893836    
   5140000   0.46034087    -7.8902108     -7.1997093      3.0375082      50218.233      36.893836      36.893836      36.893836    
   5150000   0.4582551     -7.8884442     -7.2010714      3.0492532      50218.233      36.893836      36.893836      36.893836    
   5160000   0.45963674    -7.88884       -7.1993947      3.0449416      50218.233      36.893836      36.893836      36.893836    
   5170000   0.46184026    -7.8928244     -7.2000739      3.0200704      50218.233      36.893836      36.893836      36.893836    
   5180000   0.45826276    -7.8914538     -7.2040694      3.027874       50218.233      36.893836      36.893836      36.893836    
   5190000   0.46105692    -7.8890522     -7.1974766      3.0554657      50218.233      36.893836      36.893836      36.893836    
   5200000   0.45952353    -7.8896865     -7.200411       3.0472886      50218.233      36.893836      36.893836      36.893836    
   5210000   0.4569515     -7.8948435     -7.209426       3.0101654      50218.233      36.893836      36.893836      36.893836    
   5220000   0.46068254    -7.8955491     -7.2045351      3.0043028      50218.233      36.893836      36.893836      36.893836    
   5230000   0.46053868    -7.8885719     -7.1977737      3.0502052      50218.233      36.893836      36.893836      36.893836    
   5240000   0.4622192     -7.8925104     -7.1991914      3.0290844      50218.233      36.893836      36.893836      36.893836    
   5250000   0.45908049    -7.8895405     -7.2009295      3.0300615      50218.233      36.893836      36.893836      36.893836    
   5260000   0.46103941    -7.8899157     -7.1983664      3.0508036      50218.233      36.893836      36.893836      36.893836    
   5270000   0.46062466    -7.8905371     -7.1996099      3.028732       50218.233      36.893836      36.893836      36.893836    
   5280000   0.45777408    -7.8897945     -7.2031431      3.0395009      50218.233      36.893836      36.893836      36.893836    
   5290000   0.46070708    -7.8928421     -7.2017913      3.0256994      50218.233      36.893836      36.893836      36.893836    
   5300000   0.46187654    -7.8875342     -7.1947292      3.0618728      50218.233      36.893836      36.893836      36.893836    
   5310000   0.45657577    -7.8879954     -7.2031415      3.0434711      50218.233      36.893836      36.893836      36.893836    
   5320000   0.45739882    -7.8902964     -7.2042079      3.0336418      50218.233      36.893836      36.893836      36.893836    
   5330000   0.4591492     -7.8889184     -7.2002044      3.0438386      50218.233      36.893836      36.893836      36.893836    
   5340000   0.45939004    -7.8929895     -7.2039142      3.024945       50218.233      36.893836      36.893836      36.893836    
   5350000   0.46055082    -7.8927452     -7.2019288      3.0267675      50218.233      36.893836      36.893836      36.893836    
   5360000   0.46080773    -7.893451      -7.2022493      3.0130428      50218.233      36.893836      36.893836      36.893836    
   5370000   0.45878937    -7.8910809     -7.2029066      3.030835       50218.233      36.893836      36.893836      36.893836    
   5380000   0.45895107    -7.8916719     -7.2032551      3.0290158      50218.233      36.893836      36.893836      36.893836    
   5390000   0.45911971    -7.892184      -7.2035142      3.0196666      50218.233      36.893836      36.893836      36.893836    
   5400000   0.4596136     -7.8893348     -7.1999242      3.0436675      50218.233      36.893836      36.893836      36.893836    
   5410000   0.4587995     -7.8894495     -7.2012601      3.0447411      50218.233      36.893836      36.893836      36.893836    
   5420000   0.45892975    -7.8879214     -7.1995365      3.0458979      50218.233      36.893836      36.893836      36.893836    
   5430000   0.45942074    -7.8921571     -7.2030358      3.0278333      50218.233      36.893836      36.893836      36.893836    
   5440000   0.4615854     -7.8958839     -7.2035156      2.9935914      50218.233      36.893836      36.893836      36.893836    
   5450000   0.46078332    -7.8917803     -7.2006151      3.0280216      50218.233      36.893836      36.893836      36.893836    
   5460000   0.45928311    -7.8902234     -7.2013085      3.0454128      50218.233      36.893836      36.893836      36.893836    
   5470000   0.46113911    -7.8906741     -7.1989753      3.0458054      50218.233      36.893836      36.893836      36.893836    
   5480000   0.45935614    -7.8937525     -7.2047281      3.0111509      50218.233      36.893836      36.893836      36.893836    
   5490000   0.45866301    -7.8904859     -7.2025012      3.0420996      50218.233      36.893836      36.893836      36.893836    
   5500000   0.45856967    -7.8890215     -7.2011767      3.0444339      50218.233      36.893836      36.893836      36.893836    
   5510000   0.4601689     -7.8914882     -7.2012447      3.0283159      50218.233      36.893836      36.893836      36.893836    
   5520000   0.46187575    -7.8901323     -7.1973285      3.0460625      50218.233      36.893836      36.893836      36.893836    
   5530000   0.46240736    -7.8929659     -7.1993647      3.0299408      50218.233      36.893836      36.893836      36.893836    
   5540000   0.46069093    -7.8924417     -7.2014152      3.0167164      50218.233      36.893836      36.893836      36.893836    
   5550000   0.45932666    -7.8909034     -7.2019232      3.0364641      50218.233      36.893836      36.893836      36.893836    
   5560000   0.46154978    -7.8930093     -7.2006944      3.0248711      50218.233      36.893836      36.893836      36.893836    
   5570000   0.45946506    -7.8908798     -7.201692       3.0445019      50218.233      36.893836      36.893836      36.893836    
   5580000   0.46430344    -7.8915231     -7.1950779      3.0347067      50218.233      36.893836      36.893836      36.893836    
   5590000   0.45902797    -7.8920331     -7.2035009      3.0270372      50218.233      36.893836      36.893836      36.893836    
   5600000   0.45906661    -7.8930105     -7.2044204      3.0236067      50218.233      36.893836      36.893836      36.893836    
   5610000   0.45873278    -7.892093      -7.2040036      3.0269259      50218.233      36.893836      36.893836      36.893836    
   5620000   0.46200179    -7.8910071     -7.1980143      3.0451561      50218.233      36.893836      36.893836      36.893836    
   5630000   0.45998072    -7.8896515     -7.1996902      3.0450621      50218.233      36.893836      36.893836      36.893836    
   5640000   0.45886571    -7.8945552     -7.2062664      3.0174728      50218.233      36.893836      36.893836      36.893836    
   5650000   0.45955501    -7.8868701     -7.1975474      3.0612227      50218.233      36.893836      36.893836      36.893836    
   5660000   0.45886598    -7.889407      -7.2011178      3.0301114      50218.233      36.893836      36.893836      36.893836    
   5670000   0.46048353    -7.8855478     -7.1948323      3.0743199      50218.233      36.893836      36.893836      36.893836    
   5680000   0.46215484    -7.8878086     -7.1945862      3.0588258      50218.233      36.893836      36.893836      36.893836    
   5690000   0.46009294    -7.8916429     -7.2015133      3.0258515      50218.233      36.893836      36.893836      36.893836    
   5700000   0.46018968    -7.8902609     -7.1999862      3.0288705      50218.233      36.893836      36.893836      36.893836    
   5710000   0.45898654    -7.8841041     -7.1956341      3.0854517      50218.233      36.893836      36.893836      36.893836    
   5720000   0.45889879    -7.8911846     -7.2028462      3.0428685      50218.233      36.893836      36.893836      36.893836    
   5730000   0.45679417    -7.8891396     -7.2039581      3.0461913      50218.233      36.893836      36.893836      36.893836    
   5740000   0.45896145    -7.8893594     -7.200927       3.0418301      50218.233      36.893836      36.893836      36.893836    
   5750000   0.46080954    -7.8937406     -7.2025362      3.0193751      50218.233      36.893836      36.893836      36.893836    
   5760000   0.45947629    -7.8910174     -7.2018127      3.0335143      50218.233      36.893836      36.893836      36.893836    
   5770000   0.4590681     -7.8910684     -7.2024761      3.0328893      50218.233      36.893836      36.893836      36.893836    
   5780000   0.46118935    -7.8898657     -7.1980915      3.0456856      50218.233      36.893836      36.893836      36.893836    
   5790000   0.45866938    -7.8914914     -7.2034971      3.0277246      50218.233      36.893836      36.893836      36.893836    
   5800000   0.46046918    -7.8873877     -7.1966938      3.0643233      50218.233      36.893836      36.893836      36.893836    
   5810000   0.46109508    -7.8860156     -7.1943828      3.070432       50218.233      36.893836      36.893836      36.893836    
   5820000   0.46127106    -7.8922803     -7.2003836      3.0232976      50218.233      36.893836      36.893836      36.893836    
   5830000   0.46272325    -7.889991      -7.195916       3.046559       50218.233      36.893836      36.893836      36.893836    
   5840000   0.46073675    -7.8900298     -7.1989345      3.0381151      50218.233      36.893836      36.893836      36.893836    
   5850000   0.45809504    -7.8902184     -7.2030857      3.0418427      50218.233      36.893836      36.893836      36.893836    
   5860000   0.45937089    -7.891294      -7.2022475      3.0374361      50218.233      36.893836      36.893836      36.893836    
   5870000   0.45643802    -7.89265       -7.2080027      3.0194395      50218.233      36.893836      36.893836      36.893836    
   5880000   0.45898107    -7.890974      -7.2025122      3.0395676      50218.233      36.893836      36.893836      36.893836    
   5890000   0.45843361    -7.8884215     -7.2007808      3.0618187      50218.233      36.893836      36.893836      36.893836    
   5900000   0.46044057    -7.8898655     -7.1992145      3.0506219      50218.233      36.893836      36.893836      36.893836    
   5910000   0.45886759    -7.8913935     -7.2031019      3.0389499      50218.233      36.893836      36.893836      36.893836    
   5920000   0.46000096    -7.8895373     -7.1995457      3.041283       50218.233      36.893836      36.893836      36.893836    
   5930000   0.45993036    -7.89113       -7.2012443      3.0361442      50218.233      36.893836      36.893836      36.893836    
   5940000   0.46173986    -7.8921841     -7.1995842      3.0288052      50218.233      36.893836      36.893836      36.893836    
   5950000   0.46048816    -7.8935744     -7.202852       3.0157897      50218.233      36.893836      36.893836      36.893836    
   5960000   0.46086521    -7.8906446     -7.1993566      3.0356432      50218.233      36.893836      36.893836      36.893836    
   5970000   0.45742128    -7.8905401     -7.2044179      3.0357883      50218.233      36.893836      36.893836      36.893836    
   5980000   0.46004823    -7.8919174     -7.2018548      3.0306105      50218.233      36.893836      36.893836      36.893836    
   5990000   0.46011612    -7.8917132     -7.2015489      3.0269431      50218.233      36.893836      36.893836      36.893836    
   6000000   0.46073557    -7.890918      -7.1998245      3.0324086      50218.233      36.893836      36.893836      36.893836    
   6010000   0.4590416     -7.8899835     -7.2014309      3.0453447      50218.233      36.893836      36.893836      36.893836    
   6020000   0.46067825    -7.8920411     -7.2010335      3.0281574      50218.233      36.893836      36.893836      36.893836    
   6030000   0.45969935    -7.8914284     -7.2018892      3.029876       50218.233      36.893836      36.893836      36.893836    
   6040000   0.45876482    -7.8930329     -7.2048955      3.019465       50218.233      36.893836      36.893836      36.893836    
   6050000   0.4625513     -7.8924233     -7.1986062      3.0388225      50218.233      36.893836      36.893836      36.893836    
   6060000   0.46124579    -7.888512      -7.1966532      3.0493488      50218.233      36.893836      36.893836      36.893836    
   6070000   0.45924937    -7.8906597     -7.2017955      3.0336136      50218.233      36.893836      36.893836      36.893836    
   6080000   0.46057615    -7.8927184     -7.201864       3.0261739      50218.233      36.893836      36.893836      36.893836    
   6090000   0.46037881    -7.888212      -7.1976536      3.0619692      50218.233      36.893836      36.893836      36.893836    
   6100000   0.45806511    -7.8941319     -7.207044       3.0162567      50218.233      36.893836      36.893836      36.893836    
   6110000   0.45805205    -7.8900775     -7.2030092      3.0494137      50218.233      36.893836      36.893836      36.893836    
   6120000   0.46025306    -7.8901118     -7.199742       3.0466245      50218.233      36.893836      36.893836      36.893836    
   6130000   0.4579397     -7.889513      -7.2026133      3.041514       50218.233      36.893836      36.893836      36.893836    
   6140000   0.45884835    -7.8855721     -7.1973094      3.0750396      50218.233      36.893836      36.893836      36.893836    
   6150000   0.4623095     -7.8907003     -7.1972459      3.038175       50218.233      36.893836      36.893836      36.893836    
   6160000   0.46110479    -7.8888558     -7.1972085      3.0595063      50218.233      36.893836      36.893836      36.893836    
   6170000   0.46079525    -7.8910078     -7.1998247      3.0355845      50218.233      36.893836      36.893836      36.893836    
   6180000   0.46129883    -7.889815      -7.1978766      3.0493557      50218.233      36.893836      36.893836      36.893836    
   6190000   0.45964426    -7.884828      -7.1953714      3.0754217      50218.233      36.893836      36.893836      36.893836    
   6200000   0.45923292    -7.8939263     -7.2050868      3.0159416      50218.233      36.893836      36.893836      36.893836    
   6210000   0.45939665    -7.8878365     -7.1987513      3.0653428      50218.233      36.893836      36.893836      36.893836    
   6220000   0.4575855     -7.8896872     -7.2033187      3.0438985      50218.233      36.893836      36.893836      36.893836    
   6230000   0.46072086    -7.8904167     -7.1993452      3.0442062      50218.233      36.893836      36.893836      36.893836    
   6240000   0.45909819    -7.8906846     -7.2020471      3.0433738      50218.233      36.893836      36.893836      36.893836    
   6250000   0.45858583    -7.8897534     -7.2018844      3.0404304      50218.233      36.893836      36.893836      36.893836    
   6260000   0.45830792    -7.8914699     -7.2040177      3.0335801      50218.233      36.893836      36.893836      36.893836    
   6270000   0.45961926    -7.8897517     -7.2003326      3.0530258      50218.233      36.893836      36.893836      36.893836    
   6280000   0.4621249     -7.8872063     -7.1940288      3.0714239      50218.233      36.893836      36.893836      36.893836    
   6290000   0.46143859    -7.8905418     -7.1983938      3.0442853      50218.233      36.893836      36.893836      36.893836    
   6300000   0.4579298     -7.893703      -7.2068181      3.0115382      50218.233      36.893836      36.893836      36.893836    
   6310000   0.46012899    -7.8933795     -7.2031958      3.0181004      50218.233      36.893836      36.893836      36.893836    
   6320000   0.45834809    -7.892387      -7.2048746      3.0270309      50218.233      36.893836      36.893836      36.893836    
   6330000   0.45966492    -7.8863269     -7.1968393      3.0708597      50218.233      36.893836      36.893836      36.893836    
   6340000   0.46039107    -7.8948397     -7.2042629      3.0033148      50218.233      36.893836      36.893836      36.893836    
   6350000   0.45910971    -7.8909795     -7.2023247      3.0388486      50218.233      36.893836      36.893836      36.893836    
   6360000   0.46263604    -7.8887529     -7.1948087      3.0649405      50218.233      36.893836      36.893836      36.893836    
   6370000   0.45970296    -7.8920395     -7.2024948      3.0310646      50218.233      36.893836      36.893836      36.893836    
   6380000   0.45986813    -7.8919647     -7.2021723      3.0335852      50218.233      36.893836      36.893836      36.893836    
   6390000   0.46148226    -7.8932318     -7.2010183      3.0260749      50218.233      36.893836      36.893836      36.893836    
   6400000   0.45817475    -7.8896331     -7.2023808      3.0556147      50218.233      36.893836      36.893836      36.893836    
   6410000   0.45873268    -7.8908925     -7.2028033      3.0293259      50218.233      36.893836      36.893836      36.893836    
   6420000   0.45993236    -7.890896      -7.2010073      3.0438876      50218.233      36.893836      36.893836      36.893836    
   6430000   0.46102754    -7.8921111     -7.2005796      3.0384877      50218.233      36.893836      36.893836      36.893836    
   6440000   0.45772784    -7.8892429     -7.2026609      3.0471037      50218.233      36.893836      36.893836      36.893836    
   6450000   0.45926514    -7.89091       -7.202022       3.0380413      50218.233      36.893836      36.893836      36.893836    
   6460000   0.45979504    -7.8878246     -7.1981418      3.061166       50218.233      36.893836      36.893836      36.893836    
   6470000   0.46131189    -7.8906802     -7.1987222      3.0438192      50218.233      36.893836      36.893836      36.893836    
   6480000   0.45998869    -7.8921726     -7.2021994      3.0217229      50218.233      36.893836      36.893836      36.893836    
   6490000   0.45931658    -7.8923033     -7.2033383      3.0339554      50218.233      36.893836      36.893836      36.893836    
   6500000   0.4604813     -7.8896299     -7.1989178      3.0494369      50218.233      36.893836      36.893836      36.893836    
   6510000   0.46043798    -7.8934639     -7.2028168      3.0185748      50218.233      36.893836      36.893836      36.893836    
   6520000   0.45801988    -7.8917814     -7.2047614      3.0243265      50218.233      36.893836      36.893836      36.893836    
   6530000   0.45711549    -7.8935487     -7.2078852      3.006818       50218.233      36.893836      36.893836      36.893836    
   6540000   0.45765733    -7.8875483     -7.2010721      3.0660545      50218.233      36.893836      36.893836      36.893836    
   6550000   0.45956699    -7.8923355     -7.2029948      3.0218591      50218.233      36.893836      36.893836      36.893836    
   6560000   0.46045874    -7.8925737     -7.2018954      3.0253699      50218.233      36.893836      36.893836      36.893836    
   6570000   0.46005779    -7.8912857     -7.2012088      3.035602       50218.233      36.893836      36.893836      36.893836    
   6580000   0.45919322    -7.8897416     -7.2009615      3.0432074      50218.233      36.893836      36.893836      36.893836    
   6590000   0.46007856    -7.8878161     -7.1977081      3.0569982      50218.233      36.893836      36.893836      36.893836    
   6600000   0.46088683    -7.888861      -7.1975406      3.0532205      50218.233      36.893836      36.893836      36.893836    
   6610000   0.46160349    -7.8914255     -7.1990301      3.0404009      50218.233      36.893836      36.893836      36.893836    
   6620000   0.45856871    -7.8941095     -7.2062662      3.0188386      50218.233      36.893836      36.893836      36.893836    
   6630000   0.45915791    -7.8900376     -7.2013105      3.0518696      50218.233      36.893836      36.893836      36.893836    
   6640000   0.46067226    -7.8856873     -7.1946888      3.0643916      50218.233      36.893836      36.893836      36.893836    
   6650000   0.45756199    -7.8942025     -7.2078693      3.0124319      50218.233      36.893836      36.893836      36.893836    
   6660000   0.45957314    -7.8887369     -7.1993869      3.0558182      50218.233      36.893836      36.893836      36.893836    
   6670000   0.45826429    -7.8919695     -7.2045829      3.0265561      50218.233      36.893836      36.893836      36.893836    
   6680000   0.45932122    -7.8918028     -7.2028308      3.0266899      50218.233      36.893836      36.893836      36.893836    
   6690000   0.46127192    -7.8924655     -7.2005674      3.0192339      50218.233      36.893836      36.893836      36.893836    
   6700000   0.45867942    -7.8891617     -7.2011524      3.0408165      50218.233      36.893836      36.893836      36.893836    
   6710000   0.46065942    -7.8880023     -7.197023       3.0563185      50218.233      36.893836      36.893836      36.893836    
   6720000   0.46162769    -7.8893692     -7.1969376      3.0477667      50218.233      36.893836      36.893836      36.893836    
   6730000   0.45890952    -7.8886802     -7.2003257      3.0501658      50218.233      36.893836      36.893836      36.893836    
   6740000   0.46051221    -7.8911953     -7.2004369      3.0341765      50218.233      36.893836      36.893836      36.893836    
   6750000   0.45890038    -7.8893234     -7.2009826      3.0467075      50218.233      36.893836      36.893836      36.893836    
   6760000   0.45993743    -7.8870903     -7.197194       3.0581528      50218.233      36.893836      36.893836      36.893836    
   6770000   0.45966377    -7.8904794     -7.2009936      3.0493646      50218.233      36.893836      36.893836      36.893836    
   6780000   0.4608276     -7.8887819     -7.1975503      3.0478888      50218.233      36.893836      36.893836      36.893836    
   6790000   0.46177343    -7.8891037     -7.1964534      3.0453333      50218.233      36.893836      36.893836      36.893836    
   6800000   0.46027418    -7.8914281     -7.2010266      3.0265637      50218.233      36.893836      36.893836      36.893836    
   6810000   0.45946887    -7.8912714     -7.2020779      3.0320178      50218.233      36.893836      36.893836      36.893836    
   6820000   0.46030994    -7.8865806     -7.1961255      3.0669135      50218.233      36.893836      36.893836      36.893836    
   6830000   0.46065553    -7.8904714     -7.1994979      3.0434424      50218.233      36.893836      36.893836      36.893836    
   6840000   0.46116521    -7.8886458     -7.1969078      3.0610576      50218.233      36.893836      36.893836      36.893836    
   6850000   0.46147794    -7.8894292     -7.1972221      3.0455379      50218.233      36.893836      36.893836      36.893836    
   6860000   0.46074089    -7.8907066     -7.1996051      3.0365735      50218.233      36.893836      36.893836      36.893836    
   6870000   0.4579009     -7.8931096     -7.206268       3.0147741      50218.233      36.893836      36.893836      36.893836    
   6880000   0.46046292    -7.8959244     -7.2052398      2.9880948      50218.233      36.893836      36.893836      36.893836    
   6890000   0.45823516    -7.8942024     -7.2068594      3.0061403      50218.233      36.893836      36.893836      36.893836    
   6900000   0.45990174    -7.8915776     -7.2017348      3.0343922      50218.233      36.893836      36.893836      36.893836    
   6910000   0.46142323    -7.8893471     -7.1972221      3.0510508      50218.233      36.893836      36.893836      36.893836    
   6920000   0.46062697    -7.8930755     -7.2021448      3.0180953      50218.233      36.893836      36.893836      36.893836    
   6930000   0.46015226    -7.8896        -7.1993814      3.0375538      50218.233      36.893836      36.893836      36.893836    
   6940000   0.45961441    -7.8903721     -7.2009603      3.0283233      50218.233      36.893836      36.893836      36.893836    
   6950000   0.4594743     -7.8914064     -7.2022048      3.0350322      50218.233      36.893836      36.893836      36.893836    
   6960000   0.4606536     -7.8944865     -7.2035159      3.0222523      50218.233      36.893836      36.893836      36.893836    
   6970000   0.45919919    -7.8903251     -7.2015361      3.0458175      50218.233      36.893836      36.893836      36.893836    
   6980000   0.45951395    -7.8894927     -7.2002316      3.0499133      50218.233      36.893836      36.893836      36.893836    
   6990000   0.45921543    -7.8891977     -7.2003844      3.0564182      50218.233      36.893836      36.893836      36.893836    
   7000000   0.46092878    -7.8922876     -7.2009043      3.02481        50218.233      36.893836      36.893836      36.893836    
   7010000   0.46157201    -7.8854221     -7.193074       3.0825663      50218.233      36.893836      36.893836      36.893836    
   7020000   0.45924941    -7.8874984     -7.1986341      3.062478       50218.233      36.893836      36.893836      36.893836    
   7030000   0.45971625    -7.8920955     -7.2025309      3.0269097      50218.233      36.893836      36.893836      36.893836    
   7040000   0.45748091    -7.8903112     -7.2040996      3.0443339      50218.233      36.893836      36.893836      36.893836    
   7050000   0.46045432    -7.8899675     -7.1992958      3.0431294      50218.233      36.893836      36.893836      36.893836    
   7060000   0.45595646    -7.8894848     -7.2055598      3.0509248      50218.233      36.893836      36.893836      36.893836    
   7070000   0.45959039    -7.8951449     -7.2057691      3.0094887      50218.233      36.893836      36.893836      36.893836    
   7080000   0.45904148    -7.8878417     -7.1992893      3.0635834      50218.233      36.893836      36.893836      36.893836    
   7090000   0.46022889    -7.8908286     -7.2004951      3.0328051      50218.233      36.893836      36.893836      36.893836    
   7100000   0.45980443    -7.8927616     -7.2030647      3.0197493      50218.233      36.893836      36.893836      36.893836    
   7110000   0.45879484    -7.8911906     -7.2030082      3.0344254      50218.233      36.893836      36.893836      36.893836    
   7120000   0.46063182    -7.8878401     -7.1969022      3.0573852      50218.233      36.893836      36.893836      36.893836    
   7130000   0.45877319    -7.8927652     -7.2046152      3.0228959      50218.233      36.893836      36.893836      36.893836    
   7140000   0.46155956    -7.8899005     -7.197571       3.0350338      50218.233      36.893836      36.893836      36.893836    
   7150000   0.45620705    -7.8884373     -7.2041365      3.0473587      50218.233      36.893836      36.893836      36.893836    
   7160000   0.46154089    -7.8911212     -7.1988197      3.0373934      50218.233      36.893836      36.893836      36.893836    
   7170000   0.45846776    -7.8933305     -7.2056386      3.0277204      50218.233      36.893836      36.893836      36.893836    
   7180000   0.46112497    -7.8887064     -7.1970288      3.0529171      50218.233      36.893836      36.893836      36.893836    
   7190000   0.45903549    -7.8856203     -7.1970769      3.0686517      50218.233      36.893836      36.893836      36.893836    
   7200000   0.46021525    -7.8899426     -7.1996295      3.0458138      50218.233      36.893836      36.893836      36.893836    
   7210000   0.46146383    -7.8920012     -7.1998153      3.027548       50218.233      36.893836      36.893836      36.893836    
   7220000   0.46016606    -7.8937726     -7.2035333      3.0244525      50218.233      36.893836      36.893836      36.893836    
   7230000   0.46021624    -7.8907798     -7.2004653      3.0398949      50218.233      36.893836      36.893836      36.893836    
   7240000   0.46010828    -7.8873603     -7.1972078      3.0608267      50218.233      36.893836      36.893836      36.893836    
   7250000   0.45877867    -7.8897078     -7.2015496      3.0377436      50218.233      36.893836      36.893836      36.893836    
   7260000   0.46166517    -7.8836604     -7.1911725      3.0875503      50218.233      36.893836      36.893836      36.893836    
   7270000   0.45977574    -7.8875648     -7.197911       3.0629162      50218.233      36.893836      36.893836      36.893836    
   7280000   0.45949082    -7.8919576     -7.2027312      3.0319574      50218.233      36.893836      36.893836      36.893836    
   7290000   0.46036823    -7.8922174     -7.2016749      3.0331515      50218.233      36.893836      36.893836      36.893836    
   7300000   0.46025762    -7.8857813     -7.1954047      3.0832074      50218.233      36.893836      36.893836      36.893836    
   7310000   0.46212746    -7.8915753     -7.198394       3.0409205      50218.233      36.893836      36.893836      36.893836    
   7320000   0.4594902     -7.8924529     -7.2032274      3.033526       50218.233      36.893836      36.893836      36.893836    
   7330000   0.46040865    -7.8877962     -7.197193       3.0683919      50218.233      36.893836      36.893836      36.893836    
   7340000   0.46109011    -7.8873914     -7.195766       3.0651885      50218.233      36.893836      36.893836      36.893836    
   7350000   0.46007597    -7.8938138     -7.2037096      3.0265273      50218.233      36.893836      36.893836      36.893836    
   7360000   0.45936949    -7.8922797     -7.2032352      3.029163       50218.233      36.893836      36.893836      36.893836    
   7370000   0.46142424    -7.8895902     -7.1974637      3.0556214      50218.233      36.893836      36.893836      36.893836    
   7380000   0.46246471    -7.8904587     -7.1967715      3.0567165      50218.233      36.893836      36.893836      36.893836    
   7390000   0.46076517    -7.8912918     -7.2001539      3.0481999      50218.233      36.893836      36.893836      36.893836    
   7400000   0.46164275    -7.8894978     -7.1970436      3.0502594      50218.233      36.893836      36.893836      36.893836    
   7410000   0.4591419     -7.8915021     -7.202799       3.0307407      50218.233      36.893836      36.893836      36.893836    
   7420000   0.46141601    -7.8922295     -7.2001154      3.0325846      50218.233      36.893836      36.893836      36.893836    
   7430000   0.4612853     -7.8889437     -7.1970256      3.0591424      50218.233      36.893836      36.893836      36.893836    
   7440000   0.4575789     -7.8937787     -7.2074201      3.0195949      50218.233      36.893836      36.893836      36.893836    
   7450000   0.45882991    -7.8896491     -7.201414       3.0555162      50218.233      36.893836      36.893836      36.893836    
   7460000   0.46085467    -7.8929535     -7.2016813      3.0261287      50218.233      36.893836      36.893836      36.893836    
   7470000   0.45945369    -7.8906022     -7.2014314      3.0398654      50218.233      36.893836      36.893836      36.893836    
   7480000   0.46025927    -7.8931869     -7.2028078      3.0177086      50218.233      36.893836      36.893836      36.893836    
   7490000   0.46013362    -7.8915494     -7.2013588      3.0311434      50218.233      36.893836      36.893836      36.893836    
   7500000   0.46045344    -7.8908541     -7.2001838      3.0463624      50218.233      36.893836      36.893836      36.893836    
   7510000   0.45954868    -7.888456      -7.1991428      3.0640647      50218.233      36.893836      36.893836      36.893836    
   7520000   0.46017198    -7.891942      -7.2016938      3.0250039      50218.233      36.893836      36.893836      36.893836    
   7530000   0.4563448     -7.8891702     -7.2046627      3.0562353      50218.233      36.893836      36.893836      36.893836    
   7540000   0.45930183    -7.8915885     -7.2026456      3.0328635      50218.233      36.893836      36.893836      36.893836    
   7550000   0.46235103    -7.891649      -7.1981323      3.0462143      50218.233      36.893836      36.893836      36.893836    
   7560000   0.46008269    -7.8894555     -7.1993413      3.0489409      50218.233      36.893836      36.893836      36.893836    
   7570000   0.46088743    -7.8930834     -7.2017621      3.0263977      50218.233      36.893836      36.893836      36.893836    
   7580000   0.45826068    -7.8913478     -7.2039665      3.0315593      50218.233      36.893836      36.893836      36.893836    
   7590000   0.46092032    -7.8905689     -7.1991982      3.0402741      50218.233      36.893836      36.893836      36.893836    
   7600000   0.45820308    -7.8869676     -7.1996728      3.072065       50218.233      36.893836      36.893836      36.893836    
   7610000   0.45947335    -7.8897201     -7.2005199      3.0581871      50218.233      36.893836      36.893836      36.893836    
   7620000   0.45975482    -7.8888217     -7.1991993      3.0528044      50218.233      36.893836      36.893836      36.893836    
   7630000   0.45972362    -7.890401      -7.2008253      3.0496694      50218.233      36.893836      36.893836      36.893836    
   7640000   0.46027457    -7.889756      -7.1993539      3.0607101      50218.233      36.893836      36.893836      36.893836    
   7650000   0.45971225    -7.8921709     -7.2026124      3.0379823      50218.233      36.893836      36.893836      36.893836    
   7660000   0.46052976    -7.8890532     -7.1982684      3.0561791      50218.233      36.893836      36.893836      36.893836    
   7670000   0.46002861    -7.8936035     -7.2035703      3.0271607      50218.233      36.893836      36.893836      36.893836    
   7680000   0.46141887    -7.8896282     -7.1975098      3.051891       50218.233      36.893836      36.893836      36.893836    
   7690000   0.4614705     -7.888863      -7.1966671      3.0592581      50218.233      36.893836      36.893836      36.893836    
   7700000   0.460807      -7.8849922     -7.1937915      3.0856665      50218.233      36.893836      36.893836      36.893836    
   7710000   0.45964385    -7.887762      -7.198306       3.0494182      50218.233      36.893836      36.893836      36.893836    
   7720000   0.45961164    -7.8905585     -7.2011509      3.0385005      50218.233      36.893836      36.893836      36.893836    
   7730000   0.4612392     -7.8909194     -7.1990704      3.041419       50218.233      36.893836      36.893836      36.893836    
   7740000   0.46094472    -7.887994      -7.1965868      3.0605445      50218.233      36.893836      36.893836      36.893836    
   7750000   0.46045712    -7.8923789     -7.2017031      3.0374686      50218.233      36.893836      36.893836      36.893836    
   7760000   0.46030944    -7.8894625     -7.1990082      3.0468252      50218.233      36.893836      36.893836      36.893836    
   7770000   0.45930141    -7.8918526     -7.2029103      3.0343573      50218.233      36.893836      36.893836      36.893836    
   7780000   0.46149943    -7.8917941     -7.1995548      3.0301251      50218.233      36.893836      36.893836      36.893836    
   7790000   0.45855969    -7.8907948     -7.2029651      3.0423219      50218.233      36.893836      36.893836      36.893836    
   7800000   0.46070008    -7.889441      -7.1984007      3.0558891      50218.233      36.893836      36.893836      36.893836    
   7810000   0.4612945     -7.8892038     -7.1972719      3.0531139      50218.233      36.893836      36.893836      36.893836    
   7820000   0.46301422    -7.8873975     -7.192886       3.0674413      50218.233      36.893836      36.893836      36.893836    
   7830000   0.4565478     -7.8890527     -7.2042408      3.0427872      50218.233      36.893836      36.893836      36.893836    
   7840000   0.45924085    -7.892706      -7.2038546      3.0325382      50218.233      36.893836      36.893836      36.893836    
   7850000   0.45860751    -7.8914469     -7.2035454      3.0307593      50218.233      36.893836      36.893836      36.893836    
   7860000   0.45783981    -7.8896287     -7.2028787      3.0538735      50218.233      36.893836      36.893836      36.893836    
   7870000   0.45807246    -7.8912633     -7.2041644      3.0327355      50218.233      36.893836      36.893836      36.893836    
   7880000   0.45863807    -7.8865051     -7.1985578      3.0673917      50218.233      36.893836      36.893836      36.893836    
   7890000   0.46054169    -7.8917574     -7.2009547      3.0276551      50218.233      36.893836      36.893836      36.893836    
   7900000   0.45816055    -7.8933959     -7.2061649      3.0276272      50218.233      36.893836      36.893836      36.893836    
   7910000   0.46041393    -7.8903868     -7.1997757      3.0392789      50218.233      36.893836      36.893836      36.893836    
   7920000   0.46112576    -7.8898549     -7.1981761      3.0608713      50218.233      36.893836      36.893836      36.893836    
   7930000   0.46056882    -7.889373      -7.1985296      3.0503929      50218.233      36.893836      36.893836      36.893836    
   7940000   0.46091462    -7.8888649     -7.1975028      3.0673534      50218.233      36.893836      36.893836      36.893836    
   7950000   0.4629526     -7.892986      -7.198567       3.0389418      50218.233      36.893836      36.893836      36.893836    
   7960000   0.45832358    -7.8914429     -7.2039674      3.0416707      50218.233      36.893836      36.893836      36.893836    
   7970000   0.45781114    -7.8886981     -7.2019912      3.0513768      50218.233      36.893836      36.893836      36.893836    
   7980000   0.458644      -7.8892531     -7.2012969      3.0630157      50218.233      36.893836      36.893836      36.893836    
   7990000   0.45753248    -7.8887752     -7.2024862      3.0498433      50218.233      36.893836      36.893836      36.893836    
   8000000   0.45783183    -7.8902779     -7.2035399      3.0488225      50218.233      36.893836      36.893836      36.893836    
   8010000   0.46025336    -7.8889519     -7.1985817      3.0654218      50218.233      36.893836      36.893836      36.893836    
   8020000   0.4595439     -7.8883944     -7.1990884      3.0555471      50218.233      36.893836      36.893836      36.893836    
   8030000   0.46128813    -7.8906767     -7.1987543      3.0387602      50218.233      36.893836      36.893836      36.893836    
   8040000   0.45806788    -7.887498      -7.200406       3.068669       50218.233      36.893836      36.893836      36.893836    
   8050000   0.45882001    -7.8939388     -7.2057186      3.0136189      50218.233      36.893836      36.893836      36.893836    
   8060000   0.46054744    -7.8919359     -7.2011246      3.0285221      50218.233      36.893836      36.893836      36.893836    
   8070000   0.45942475    -7.8880661     -7.1989388      3.056349       50218.233      36.893836      36.893836      36.893836    
   8080000   0.4587788     -7.8944327     -7.2062743      3.0190806      50218.233      36.893836      36.893836      36.893836    
   8090000   0.45902138    -7.8866626     -7.1981403      3.062978       50218.233      36.893836      36.893836      36.893836    
   8100000   0.45776382    -7.8921962     -7.2055603      3.0310681      50218.233      36.893836      36.893836      36.893836    
   8110000   0.45889328    -7.8929963     -7.2046662      3.0314588      50218.233      36.893836      36.893836      36.893836    
   8120000   0.45873166    -7.8920854     -7.2039977      3.0285495      50218.233      36.893836      36.893836      36.893836    
   8130000   0.45865287    -7.888837      -7.2008675      3.05782        50218.233      36.893836      36.893836      36.893836    
   8140000   0.46341627    -7.8944526     -7.1993381      3.0241018      50218.233      36.893836      36.893836      36.893836    
   8150000   0.45949763    -7.8891859     -7.1999492      3.0571954      50218.233      36.893836      36.893836      36.893836    
   8160000   0.46088458    -7.8864432     -7.1951262      3.0785321      50218.233      36.893836      36.893836      36.893836    
   8170000   0.45943588    -7.8886017     -7.1994577      3.0604549      50218.233      36.893836      36.893836      36.893836    
   8180000   0.46260777    -7.8907602     -7.1968584      3.0485629      50218.233      36.893836      36.893836      36.893836    
   8190000   0.46134967    -7.8921446     -7.2001299      3.0395959      50218.233      36.893836      36.893836      36.893836    
   8200000   0.45934564    -7.8888448     -7.1998361      3.0550616      50218.233      36.893836      36.893836      36.893836    
   8210000   0.46008962    -7.8911332     -7.2010086      3.0374522      50218.233      36.893836      36.893836      36.893836    
   8220000   0.46070234    -7.8879999     -7.1969562      3.0623765      50218.233      36.893836      36.893836      36.893836    
   8230000   0.4613063     -7.8909882     -7.1990386      3.0491124      50218.233      36.893836      36.893836      36.893836    
   8240000   0.45893382    -7.8867371     -7.1983462      3.0745562      50218.233      36.893836      36.893836      36.893836    
   8250000   0.45918761    -7.8900796     -7.2013079      3.047481       50218.233      36.893836      36.893836      36.893836    
   8260000   0.45954156    -7.8920266     -7.2027241      3.028108       50218.233      36.893836      36.893836      36.893836    
   8270000   0.45790582    -7.8890182     -7.2021693      3.0566587      50218.233      36.893836      36.893836      36.893836    
   8280000   0.45885039    -7.8908189     -7.2025531      3.0330592      50218.233      36.893836      36.893836      36.893836    
   8290000   0.45960951    -7.8920137     -7.2026092      3.0291113      50218.233      36.893836      36.893836      36.893836    
   8300000   0.46254813    -7.8899861     -7.1961738      3.0564063      50218.233      36.893836      36.893836      36.893836    
   8310000   0.45989794    -7.8901786     -7.2003415      3.0571946      50218.233      36.893836      36.893836      36.893836    
   8320000   0.46179603    -7.8917232     -7.199039       3.0425265      50218.233      36.893836      36.893836      36.893836    
   8330000   0.4590408     -7.8927329     -7.2041815      3.0259148      50218.233      36.893836      36.893836      36.893836    
   8340000   0.46162558    -7.8895073     -7.1970787      3.0606722      50218.233      36.893836      36.893836      36.893836    
   8350000   0.45756312    -7.8897909     -7.203456       3.0470681      50218.233      36.893836      36.893836      36.893836    
   8360000   0.46133146    -7.8923636     -7.2003763      3.0356635      50218.233      36.893836      36.893836      36.893836    
   8370000   0.45934866    -7.8878475     -7.1988343      3.0640065      50218.233      36.893836      36.893836      36.893836    
   8380000   0.45863639    -7.8926052     -7.2046604      3.028928       50218.233      36.893836      36.893836      36.893836    
   8390000   0.45936647    -7.8891298     -7.2000899      3.0495307      50218.233      36.893836      36.893836      36.893836    
   8400000   0.45928762    -7.8905415     -7.2016199      3.0455934      50218.233      36.893836      36.893836      36.893836    
   8410000   0.46107314    -7.8941877     -7.2025878      3.0139907      50218.233      36.893836      36.893836      36.893836    
   8420000   0.46012413    -7.8914449     -7.2012685      3.0394797      50218.233      36.893836      36.893836      36.893836    
   8430000   0.45924854    -7.8896105     -7.2007475      3.048682       50218.233      36.893836      36.893836      36.893836    
   8440000   0.45995184    -7.8918498     -7.2019318      3.0293357      50218.233      36.893836      36.893836      36.893836    
   8450000   0.45891893    -7.890881      -7.2025124      3.0415543      50218.233      36.893836      36.893836      36.893836    
   8460000   0.46147618    -7.8940184     -7.201814       3.0230336      50218.233      36.893836      36.893836      36.893836    
   8470000   0.46065024    -7.893284      -7.2023184      3.0174379      50218.233      36.893836      36.893836      36.893836    
   8480000   0.45730076    -7.8865618     -7.2006204      3.0760741      50218.233      36.893836      36.893836      36.893836    
   8490000   0.46178704    -7.8931029     -7.2004322      3.0342661      50218.233      36.893836      36.893836      36.893836    
   8500000   0.46193136    -7.8940396     -7.2011524      3.0191785      50218.233      36.893836      36.893836      36.893836    
   8510000   0.46305176    -7.8930311     -7.1984633      3.0280144      50218.233      36.893836      36.893836      36.893836    
   8520000   0.4616132     -7.8937349     -7.201325       3.0264291      50218.233      36.893836      36.893836      36.893836    
   8530000   0.45880465    -7.8913502     -7.203153       3.0406342      50218.233      36.893836      36.893836      36.893836    
   8540000   0.4594234     -7.8917844     -7.2026591      3.0264574      50218.233      36.893836      36.893836      36.893836    
   8550000   0.46045738    -7.8932199     -7.2025436      3.0186051      50218.233      36.893836      36.893836      36.893836    
   8560000   0.46022795    -7.888175      -7.1978429      3.0643687      50218.233      36.893836      36.893836      36.893836    
   8570000   0.45837742    -7.8903632     -7.2028069      3.0506963      50218.233      36.893836      36.893836      36.893836    
   8580000   0.46138873    -7.8905889     -7.1985156      3.0485505      50218.233      36.893836      36.893836      36.893836    
   8590000   0.45891649    -7.890002      -7.2016371      3.0396518      50218.233      36.893836      36.893836      36.893836    
   8600000   0.46007238    -7.8922037     -7.202105       3.0296508      50218.233      36.893836      36.893836      36.893836    
   8610000   0.46321874    -7.8906575     -7.1958393      3.0557983      50218.233      36.893836      36.893836      36.893836    
   8620000   0.45925791    -7.8907314     -7.2018543      3.0409355      50218.233      36.893836      36.893836      36.893836    
   8630000   0.46161877    -7.8875761     -7.1951578      3.0704345      50218.233      36.893836      36.893836      36.893836    
   8640000   0.46126365    -7.890138      -7.1982523      3.0498243      50218.233      36.893836      36.893836      36.893836    
   8650000   0.45559282    -7.887698      -7.2043185      3.0549152      50218.233      36.893836      36.893836      36.893836    
   8660000   0.46115459    -7.892917      -7.2011949      3.0221458      50218.233      36.893836      36.893836      36.893836    
   8670000   0.45622085    -7.8948387     -7.2105171      3.0017852      50218.233      36.893836      36.893836      36.893836    
   8680000   0.46065072    -7.8910481     -7.2000819      3.0336161      50218.233      36.893836      36.893836      36.893836    
   8690000   0.46008177    -7.8881752     -7.1980624      3.0702745      50218.233      36.893836      36.893836      36.893836    
   8700000   0.4593612     -7.891951      -7.202919       3.0303705      50218.233      36.893836      36.893836      36.893836    
   8710000   0.45974028    -7.8886018     -7.1990012      3.063653       50218.233      36.893836      36.893836      36.893836    
   8720000   0.45719463    -7.8899013     -7.2041191      3.041674       50218.233      36.893836      36.893836      36.893836    
   8730000   0.45939326    -7.8917511     -7.202671       3.0304458      50218.233      36.893836      36.893836      36.893836    
   8740000   0.46049632    -7.8890114     -7.1982767      3.0546779      50218.233      36.893836      36.893836      36.893836    
   8750000   0.45969766    -7.8884023     -7.1988656      3.0637732      50218.233      36.893836      36.893836      36.893836    
   8760000   0.45850168    -7.8913046     -7.2035619      3.0318879      50218.233      36.893836      36.893836      36.893836    
   8770000   0.46003685    -7.8869295     -7.1968841      3.0751778      50218.233      36.893836      36.893836      36.893836    
   8780000   0.46146025    -7.8892712     -7.1970907      3.052645       50218.233      36.893836      36.893836      36.893836    
   8790000   0.45926864    -7.8913582     -7.2024651      3.037783       50218.233      36.893836      36.893836      36.893836    
   8800000   0.45905994    -7.8908073     -7.2022272      3.0491112      50218.233      36.893836      36.893836      36.893836    
   8810000   0.45800346    -7.8925148     -7.2055194      3.0329345      50218.233      36.893836      36.893836      36.893836    
   8820000   0.45958307    -7.8921594     -7.2027946      3.0223366      50218.233      36.893836      36.893836      36.893836    
   8830000   0.45859452    -7.8906144     -7.2027324      3.0402263      50218.233      36.893836      36.893836      36.893836    
   8840000   0.46043918    -7.8898934     -7.1992445      3.0523398      50218.233      36.893836      36.893836      36.893836    
   8850000   0.46111068    -7.8915175     -7.1998614      3.0311795      50218.233      36.893836      36.893836      36.893836    
   8860000   0.45787925    -7.8880609     -7.2012518      3.0668197      50218.233      36.893836      36.893836      36.893836    
   8870000   0.46073828    -7.8956005     -7.2045029      3.0085964      50218.233      36.893836      36.893836      36.893836    
   8880000   0.4602789     -7.8931137     -7.2027051      3.0311239      50218.233      36.893836      36.893836      36.893836    
   8890000   0.46033769    -7.8868241     -7.1963274      3.0833315      50218.233      36.893836      36.893836      36.893836    
   8900000   0.46076948    -7.8885241     -7.1973797      3.067846       50218.233      36.893836      36.893836      36.893836    
   8910000   0.46143305    -7.8881805     -7.1960407      3.0639965      50218.233      36.893836      36.893836      36.893836    
   8920000   0.46000385    -7.8885883     -7.1985923      3.0547169      50218.233      36.893836      36.893836      36.893836    
   8930000   0.45928365    -7.889227      -7.2003113      3.0644639      50218.233      36.893836      36.893836      36.893836    
   8940000   0.46215276    -7.8897874     -7.1965681      3.0573794      50218.233      36.893836      36.893836      36.893836    
   8950000   0.45997875    -7.8936419     -7.2036836      3.0117507      50218.233      36.893836      36.893836      36.893836    
   8960000   0.45906974    -7.8897821     -7.2011873      3.0395013      50218.233      36.893836      36.893836      36.893836    
   8970000   0.46184088    -7.8873322     -7.1945808      3.0711429      50218.233      36.893836      36.893836      36.893836    
   8980000   0.46078782    -7.8895036     -7.1983317      3.055306       50218.233      36.893836      36.893836      36.893836    
   8990000   0.46268206    -7.890704      -7.1966908      3.0423249      50218.233      36.893836      36.893836      36.893836    
   9000000   0.4590142     -7.892605      -7.2040935      3.0309341      50218.233      36.893836      36.893836      36.893836    
   9010000   0.46127297    -7.8889032     -7.1970036      3.0636695      50218.233      36.893836      36.893836      36.893836    
   9020000   0.45921674    -7.8903641     -7.2015488      3.0438493      50218.233      36.893836      36.893836      36.893836    
   9030000   0.46239058    -7.8937944     -7.2002184      3.0282585      50218.233      36.893836      36.893836      36.893836    
   9040000   0.45910115    -7.8883677     -7.1997258      3.0515567      50218.233      36.893836      36.893836      36.893836    
   9050000   0.46098796    -7.890025      -7.1985529      3.0553974      50218.233      36.893836      36.893836      36.893836    
   9060000   0.46159279    -7.8898488     -7.1974694      3.0555582      50218.233      36.893836      36.893836      36.893836    
   9070000   0.46046717    -7.8871653     -7.1964744      3.0681128      50218.233      36.893836      36.893836      36.893836    
   9080000   0.45836608    -7.8875786     -7.2000393      3.0725263      50218.233      36.893836      36.893836      36.893836    
   9090000   0.46125434    -7.8892735     -7.1974018      3.0586211      50218.233      36.893836      36.893836      36.893836    
   9100000   0.45865171    -7.8919746     -7.2040068      3.0283935      50218.233      36.893836      36.893836      36.893836    
   9110000   0.46105208    -7.8916976     -7.2001293      3.0442079      50218.233      36.893836      36.893836      36.893836    
   9120000   0.45816893    -7.8893627     -7.2021191      3.0598189      50218.233      36.893836      36.893836      36.893836    
   9130000   0.45839649    -7.886918      -7.199333       3.0745802      50218.233      36.893836      36.893836      36.893836    
   9140000   0.46068777    -7.8923407     -7.2013189      3.0330784      50218.233      36.893836      36.893836      36.893836    
   9150000   0.46018467    -7.8875075     -7.1972403      3.0734064      50218.233      36.893836      36.893836      36.893836    
   9160000   0.45884504    -7.8913216     -7.2030639      3.0477665      50218.233      36.893836      36.893836      36.893836    
   9170000   0.46173487    -7.8874678     -7.1948753      3.0722674      50218.233      36.893836      36.893836      36.893836    
   9180000   0.46116897    -7.8891603     -7.1974167      3.0603078      50218.233      36.893836      36.893836      36.893836    
   9190000   0.4597351     -7.8849445     -7.1953516      3.0874302      50218.233      36.893836      36.893836      36.893836    
   9200000   0.46067292    -7.8849935     -7.1939939      3.0927128      50218.233      36.893836      36.893836      36.893836    
   9210000   0.45912282    -7.8870009     -7.1983264      3.0796871      50218.233      36.893836      36.893836      36.893836    
   9220000   0.46116242    -7.890013      -7.1982792      3.0480073      50218.233      36.893836      36.893836      36.893836    
   9230000   0.46036432    -7.8877191     -7.1971824      3.0665446      50218.233      36.893836      36.893836      36.893836    
   9240000   0.45978316    -7.8920081     -7.2023431      3.0276104      50218.233      36.893836      36.893836      36.893836    
   9250000   0.46181867    -7.8887608     -7.1960426      3.0563599      50218.233      36.893836      36.893836      36.893836    
   9260000   0.45937543    -7.8917722     -7.2027188      3.0459951      50218.233      36.893836      36.893836      36.893836    
   9270000   0.45981034    -7.8923231     -7.2026175      3.0392867      50218.233      36.893836      36.893836      36.893836    
   9280000   0.4600317     -7.8919159     -7.2018781      3.038824       50218.233      36.893836      36.893836      36.893836    
   9290000   0.45989185    -7.891753      -7.201925       3.0249728      50218.233      36.893836      36.893836      36.893836    
   9300000   0.45940822    -7.8857384     -7.1966359      3.0786966      50218.233      36.893836      36.893836      36.893836    
   9310000   0.45873391    -7.8921022     -7.2040112      3.0347908      50218.233      36.893836      36.893836      36.893836    
   9320000   0.45823985    -7.888783      -7.201433       3.0535665      50218.233      36.893836      36.893836      36.893836    
   9330000   0.45977652    -7.8886504     -7.1989954      3.0632274      50218.233      36.893836      36.893836      36.893836    
   9340000   0.45909996    -7.8895343     -7.2008941      3.0515079      50218.233      36.893836      36.893836      36.893836    
   9350000   0.45902531    -7.8913346     -7.2028064      3.0432947      50218.233      36.893836      36.893836      36.893836    
   9360000   0.4601653     -7.8929647     -7.2027266      3.0263983      50218.233      36.893836      36.893836      36.893836    
   9370000   0.4605725     -7.8936449     -7.202796       3.0235784      50218.233      36.893836      36.893836      36.893836    
   9380000   0.45814263    -7.8908785     -7.2036744      3.0453417      50218.233      36.893836      36.893836      36.893836    
   9390000   0.46075977    -7.8914966     -7.2003667      3.0394248      50218.233      36.893836      36.893836      36.893836    
   9400000   0.46150021    -7.8894455     -7.1972051      3.0399451      50218.233      36.893836      36.893836      36.893836    
   9410000   0.46059701    -7.8900786     -7.1991929      3.0465289      50218.233      36.893836      36.893836      36.893836    
   9420000   0.45802629    -7.8914237     -7.204394       3.0387911      50218.233      36.893836      36.893836      36.893836    
   9430000   0.46101455    -7.891013      -7.1995011      3.0455164      50218.233      36.893836      36.893836      36.893836    
   9440000   0.46123707    -7.8879523     -7.1961066      3.0649858      50218.233      36.893836      36.893836      36.893836    
   9450000   0.4591025     -7.8913219     -7.202678       3.0292362      50218.233      36.893836      36.893836      36.893836    
   9460000   0.4597828     -7.8906129     -7.2009485      3.0551284      50218.233      36.893836      36.893836      36.893836    
   9470000   0.45737251    -7.8919834     -7.2059344      3.0259932      50218.233      36.893836      36.893836      36.893836    
   9480000   0.45778349    -7.889815      -7.2031495      3.0444205      50218.233      36.893836      36.893836      36.893836    
   9490000   0.45761657    -7.8882777     -7.2018626      3.0533247      50218.233      36.893836      36.893836      36.893836    
   9500000   0.45642615    -7.8885748     -7.2039453      3.0507774      50218.233      36.893836      36.893836      36.893836    
   9510000   0.4587104     -7.8921518     -7.204096       3.018019       50218.233      36.893836      36.893836      36.893836    
   9520000   0.46193973    -7.8868272     -7.1939275      3.0811775      50218.233      36.893836      36.893836      36.893836    
   9530000   0.45824668    -7.8874123     -7.2000521      3.0653428      50218.233      36.893836      36.893836      36.893836    
   9540000   0.45958986    -7.8881561     -7.1987812      3.0517593      50218.233      36.893836      36.893836      36.893836    
   9550000   0.45941027    -7.8893984     -7.2002928      3.0557785      50218.233      36.893836      36.893836      36.893836    
   9560000   0.45975531    -7.8900371     -7.200414       3.0459026      50218.233      36.893836      36.893836      36.893836    
   9570000   0.46134921    -7.8917489     -7.1997349      3.0318115      50218.233      36.893836      36.893836      36.893836    
   9580000   0.46056333    -7.8951717     -7.2043366      3.0085721      50218.233      36.893836      36.893836      36.893836    
   9590000   0.45915172    -7.8898611     -7.2011433      3.0381651      50218.233      36.893836      36.893836      36.893836    
   9600000   0.45919789    -7.8962145     -7.2074275      3.0055256      50218.233      36.893836      36.893836      36.893836    
   9610000   0.45896913    -7.8874067     -7.1989628      3.0709824      50218.233      36.893836      36.893836      36.893836    
   9620000   0.45814538    -7.8885158     -7.2013075      3.0570996      50218.233      36.893836      36.893836      36.893836    
   9630000   0.46126298    -7.8927817     -7.200897       3.0378356      50218.233      36.893836      36.893836      36.893836    
   9640000   0.45750334    -7.8911574     -7.2049122      3.036828       50218.233      36.893836      36.893836      36.893836    
   9650000   0.45992142    -7.8859671     -7.1960948      3.0785951      50218.233      36.893836      36.893836      36.893836    
   9660000   0.46070419    -7.8897309     -7.1986844      3.0572481      50218.233      36.893836      36.893836      36.893836    
   9670000   0.46139235    -7.8926063     -7.2005276      3.0325431      50218.233      36.893836      36.893836      36.893836    
   9680000   0.46006153    -7.8863424     -7.1962599      3.09213        50218.233      36.893836      36.893836      36.893836    
   9690000   0.45960994    -7.8893731     -7.199968       3.0538122      50218.233      36.893836      36.893836      36.893836    
   9700000   0.46024845    -7.8898718     -7.1995089      3.0482628      50218.233      36.893836      36.893836      36.893836    
   9710000   0.46147486    -7.8907177     -7.1985153      3.0467338      50218.233      36.893836      36.893836      36.893836    
   9720000   0.45989256    -7.8924698     -7.2026408      3.0151845      50218.233      36.893836      36.893836      36.893836    
   9730000   0.46122892    -7.8913462     -7.1995127      3.0321784      50218.233      36.893836      36.893836      36.893836    
   9740000   0.45840163    -7.8921687     -7.2045761      3.0299923      50218.233      36.893836      36.893836      36.893836    
   9750000   0.46091745    -7.8882641     -7.1968977      3.0605942      50218.233      36.893836      36.893836      36.893836    
   9760000   0.45784533    -7.8908102     -7.2040519      3.0320291      50218.233      36.893836      36.893836      36.893836    
   9770000   0.4615136     -7.8897815     -7.197521       3.0437726      50218.233      36.893836      36.893836      36.893836    
   9780000   0.45993021    -7.8884954     -7.1986099      3.0571624      50218.233      36.893836      36.893836      36.893836    
   9790000   0.45644746    -7.8883076     -7.2036462      3.0569976      50218.233      36.893836      36.893836      36.893836    
   9800000   0.45978774    -7.8854001     -7.1957283      3.0866943      50218.233      36.893836      36.893836      36.893836    
   9810000   0.46086586    -7.8929706     -7.2016817      3.0282811      50218.233      36.893836      36.893836      36.893836    
   9820000   0.45998853    -7.8919002     -7.2019272      3.034559       50218.233      36.893836      36.893836      36.893836    
   9830000   0.45964357    -7.8892222     -7.1997667      3.047434       50218.233      36.893836      36.893836      36.893836    
   9840000   0.4601717     -7.8934999     -7.2032522      3.0349301      50218.233      36.893836      36.893836      36.893836    
   9850000   0.46070344    -7.8880766     -7.1970313      3.0654374      50218.233      36.893836      36.893836      36.893836    
   9860000   0.4571869     -7.8919085     -7.2061379      3.0230504      50218.233      36.893836      36.893836      36.893836    
   9870000   0.46005152    -7.8916345     -7.201567       3.0371616      50218.233      36.893836      36.893836      36.893836    
   9880000   0.45894928    -7.891248      -7.2028339      3.0334656      50218.233      36.893836      36.893836      36.893836    
   9890000   0.45799416    -7.89175       -7.2047685      3.0283646      50218.233      36.893836      36.893836      36.893836    
   9900000   0.46135733    -7.887121      -7.1950949      3.0679444      50218.233      36.893836      36.893836      36.893836    
   9910000   0.4573557     -7.8903896     -7.2043658      3.0394139      50218.233      36.893836      36.893836      36.893836    
   9920000   0.45849435    -7.89123       -7.2034982      3.025919       50218.233      36.893836      36.893836      36.893836    
   9930000   0.45946392    -7.8914151     -7.2022291      3.0375727      50218.233      36.893836      36.893836      36.893836    
   9940000   0.46030463    -7.8896243     -7.1991772      3.0494501      50218.233      36.893836      36.893836      36.893836    
   9950000   0.46103199    -7.890341      -7.1988028      3.0436962      50218.233      36.893836      36.893836      36.893836    
   9960000   0.45856987    -7.8894399     -7.2015949      3.0548143      50218.233      36.893836      36.893836      36.893836    
   9970000   0.45796902    -7.8903837     -7.20344        3.040004       50218.233      36.893836      36.893836      36.893836    
   9980000   0.4591748     -7.8922725     -7.2035201      3.0268796      50218.233      36.893836      36.893836      36.893836    
   9990000   0.46314379    -7.892676      -7.1979702      3.0261132      50218.233      36.893836      36.893836      36.893836    
  10000000   0.46201928    -7.8927192     -7.1997001      3.0237706      50218.233      36.893836      36.893836      36.893836    
Loop time of 15738.3 on 5 procs for 10000000 steps with 70304 atoms

Performance: 548978.860 tau/day, 635.392 timesteps/s, 44.671 Matom-step/s
94.5% CPU use with 5 MPI tasks x 1 OpenMP threads

MPI task timing breakdown:
Section |  min time  |  avg time  |  max time  |%varavg| %total
---------------------------------------------------------------
Pair    | 5646.3     | 6328.8     | 7234.8     | 692.3 | 40.21
Neigh   | 45.644     | 48.291     | 50.746     |  26.7 |  0.31
Comm    | 2303.6     | 2335.9     | 2358.6     |  37.6 | 14.84
Output  | 0.17919    | 0.18534    | 0.19587    |   1.3 |  0.00
Modify  | 5333.8     | 6253.5     | 6916.3     | 704.5 | 39.73
Other   |            | 771.6      |            |       |  4.90

Nlocal:        14060.8 ave       14130 max       14008 min
Histogram: 1 1 0 1 0 0 1 0 0 1
Nghost:        18727.6 ave       18751 max       18695 min
Histogram: 1 0 0 1 0 0 0 1 1 1
Neighs:              0 ave           0 max           0 min
Histogram: 5 0 0 0 0 0 0 0 0 0

Total # of neighbors = 0
Ave neighs/atom = 0
Neighbor list builds = 2013273
Dangerous builds = 0
clear
OMP_NUM_THREADS environment is not set. Defaulting to 1 thread. (src/comm.cpp:98)
  using 1 OpenMP thread(s) per MPI task
package gpu 0
jump dms440.lmp

variable T equal 440
# T = 1000* (temp in LJ unit)
variable f equal 10000
log log.${T}
log log.440
