variable TLJ equal (${T}/1000)
variable TLJ equal (425/1000)
variable NCyle equal 8
variable iStep equal (${f})
variable iStep equal (10000)
variable dumpStep equal (${f}*100)
variable dumpStep equal (10000*100)
variable runStep equal (${f}*100*${NCyle})
variable runStep equal (10000*100*${NCyle})
variable runStep equal (10000*100*8)

units       lj
atom_style  atomic
dimension 3
boundary     p p p
pair_style  lj/cut 2.5
read_data  ../data/T${T}.dat
read_data  ../data/T425.dat
Reading data file ...
  orthogonal box = (0.97250269 0.97250269 0.97250269) to (37.866338 37.866338 37.866338)
  1 by 1 by 5 MPI processor grid
  reading atoms ...
  70304 atoms
  reading velocities ...
  70304 velocities
  read_data CPU = 0.211 seconds
change_box all triclinic
Changing box ...
  triclinic box = (0.97250269 0.97250269 0.97250269) to (37.866338 37.866338 37.866338) with tilt (0 0 0)
mass 1 1
mass 2 1
pair_modify shift yes
pair_coeff  1 1 1 1
pair_coeff  1 2 1.5 0.8
pair_coeff  2 2 0.5 0.88


timestep 0.01
thermo ${iStep}
thermo 10000
reset_timestep 0
thermo_style custom step temp pe etotal press vol lx ly lz
fix             1 all nvt temp ${TLJ}  ${TLJ}  0.1
fix             1 all nvt temp 0.425  ${TLJ}  0.1
fix             1 all nvt temp 0.425  0.425  0.1
thermo_modify flush yes

fix dsf all deform 1 xy  wiggle 0.5  ${f}   units box
fix dsf all deform 1 xy  wiggle 0.5  10000   units box
fix ps1 all ave/time 1 1 ${iStep} c_thermo_press[1] c_thermo_press[2]  c_thermo_press[3] c_thermo_press[4]  c_thermo_press[5] c_thermo_press[6]  file  stress.${T}
fix ps1 all ave/time 1 1 10000 c_thermo_press[1] c_thermo_press[2]  c_thermo_press[3] c_thermo_press[4]  c_thermo_press[5] c_thermo_press[6]  file  stress.${T}
fix ps1 all ave/time 1 1 10000 c_thermo_press[1] c_thermo_press[2]  c_thermo_press[3] c_thermo_press[4]  c_thermo_press[5] c_thermo_press[6]  file  stress.425
dump            1 all custom ${dumpStep} dump.${T} id type x y z
dump            1 all custom 1000000 dump.${T} id type x y z
dump            1 all custom 1000000 dump.425 id type x y z
dump_modify 1 sort id
fix nodrift all momentum 1  linear 1 1 1
fix com_seed all recenter INIT INIT INIT shift all
run ${runStep}
run 8000000
Generated 0 of 1 mixed pair_coeff terms from geometric mixing rule
Per MPI rank memory allocation (min/avg/max) = 8.915 | 8.917 | 8.92 Mbytes
   Step          Temp          PotEng         TotEng         Press          Volume           Lx             Ly             Lz      
         0   0.42776754    -7.9560938     -7.3144516      2.5199554      50218.233      36.893836      36.893836      36.893836    
     10000   0.42545858    -7.9485778     -7.310399       2.5664929      50218.233      36.893836      36.893836      36.893836    
     20000   0.42809133    -7.9514453     -7.3093175      2.5334203      50218.233      36.893836      36.893836      36.893836    
     30000   0.42319309    -7.9499767     -7.3151961      2.5566491      50218.233      36.893836      36.893836      36.893836    
     40000   0.42440834    -7.9510111     -7.3144077      2.5459725      50218.233      36.893836      36.893836      36.893836    
     50000   0.42434085    -7.9529928     -7.3164905      2.5302609      50218.233      36.893836      36.893836      36.893836    
     60000   0.42681227    -7.9512898     -7.3110805      2.5420859      50218.233      36.893836      36.893836      36.893836    
     70000   0.42598268    -7.9513813     -7.3124164      2.5475914      50218.233      36.893836      36.893836      36.893836    
     80000   0.42362884    -7.9496092     -7.314175       2.5576867      50218.233      36.893836      36.893836      36.893836    
     90000   0.42615824    -7.9513301     -7.3121018      2.5584737      50218.233      36.893836      36.893836      36.893836    
    100000   0.42273198    -7.9508844     -7.3167955      2.5447493      50218.233      36.893836      36.893836      36.893836    
    110000   0.42458336    -7.9492097     -7.3123437      2.5571959      50218.233      36.893836      36.893836      36.893836    
    120000   0.42389791    -7.9501129     -7.3142751      2.5529572      50218.233      36.893836      36.893836      36.893836    
    130000   0.42614347    -7.9486017     -7.3093956      2.5733854      50218.233      36.893836      36.893836      36.893836    
    140000   0.42523979    -7.9468329     -7.3089823      2.5793521      50218.233      36.893836      36.893836      36.893836    
    150000   0.42283466    -7.9489301     -7.3146872      2.5561784      50218.233      36.893836      36.893836      36.893836    
    160000   0.42578124    -7.9495896     -7.3109269      2.5617017      50218.233      36.893836      36.893836      36.893836    
    170000   0.42553295    -7.9539886     -7.3156983      2.5220949      50218.233      36.893836      36.893836      36.893836    
    180000   0.42575144    -7.9518654     -7.3132473      2.5373904      50218.233      36.893836      36.893836      36.893836    
    190000   0.42460825    -7.950359      -7.3134557      2.5544363      50218.233      36.893836      36.893836      36.893836    
    200000   0.42539656    -7.9492127     -7.311127       2.5559262      50218.233      36.893836      36.893836      36.893836    
    210000   0.42513563    -7.9511949     -7.3135005      2.5446909      50218.233      36.893836      36.893836      36.893836    
    220000   0.42628446    -7.9491085     -7.3096909      2.556534       50218.233      36.893836      36.893836      36.893836    
    230000   0.42608865    -7.9456691     -7.3065452      2.5994369      50218.233      36.893836      36.893836      36.893836    
    240000   0.42812865    -7.9496437     -7.3074599      2.5546606      50218.233      36.893836      36.893836      36.893836    
    250000   0.4237432     -7.9516696     -7.3160639      2.5405642      50218.233      36.893836      36.893836      36.893836    
    260000   0.42564117    -7.9499322     -7.3114795      2.5594672      50218.233      36.893836      36.893836      36.893836    
    270000   0.42534351    -7.9482672     -7.310261       2.5615439      50218.233      36.893836      36.893836      36.893836    
    280000   0.42661421    -7.9467466     -7.3068343      2.5756857      50218.233      36.893836      36.893836      36.893836    
    290000   0.42532975    -7.9486519     -7.3106664      2.5683993      50218.233      36.893836      36.893836      36.893836    
    300000   0.42509735    -7.9495349     -7.311898       2.570873       50218.233      36.893836      36.893836      36.893836    
    310000   0.42628768    -7.949384      -7.3099615      2.5574083      50218.233      36.893836      36.893836      36.893836    
    320000   0.42762088    -7.9486576     -7.3072354      2.5774017      50218.233      36.893836      36.893836      36.893836    
    330000   0.4263077     -7.9517879     -7.3123355      2.5430727      50218.233      36.893836      36.893836      36.893836    
    340000   0.42734241    -7.9505662     -7.3095617      2.5615412      50218.233      36.893836      36.893836      36.893836    
    350000   0.42453542    -7.9522045     -7.3154104      2.5336457      50218.233      36.893836      36.893836      36.893836    
    360000   0.42392731    -7.9493672     -7.3134853      2.5570889      50218.233      36.893836      36.893836      36.893836    
    370000   0.42646664    -7.9483632     -7.3086723      2.5716321      50218.233      36.893836      36.893836      36.893836    
    380000   0.42539011    -7.9525166     -7.3144405      2.5364716      50218.233      36.893836      36.893836      36.893836    
    390000   0.42315659    -7.9501184     -7.3153925      2.5555091      50218.233      36.893836      36.893836      36.893836    
    400000   0.42425388    -7.9481264     -7.3117546      2.5714188      50218.233      36.893836      36.893836      36.893836    
    410000   0.42296991    -7.9526476     -7.3182018      2.5303244      50218.233      36.893836      36.893836      36.893836    
    420000   0.4259151     -7.9524338     -7.3135703      2.5388609      50218.233      36.893836      36.893836      36.893836    
    430000   0.42432617    -7.9507688     -7.3142886      2.5431766      50218.233      36.893836      36.893836      36.893836    
    440000   0.42332307    -7.9483892     -7.3134136      2.5751329      50218.233      36.893836      36.893836      36.893836    
    450000   0.4250134     -7.9495075     -7.3119965      2.5575098      50218.233      36.893836      36.893836      36.893836    
    460000   0.42697409    -7.9508263     -7.3103742      2.5549501      50218.233      36.893836      36.893836      36.893836    
    470000   0.42645743    -7.9537696     -7.3140925      2.5274833      50218.233      36.893836      36.893836      36.893836    
    480000   0.42395555    -7.9518724     -7.3159481      2.536095       50218.233      36.893836      36.893836      36.893836    
    490000   0.42481229    -7.9499463     -7.312737       2.5628243      50218.233      36.893836      36.893836      36.893836    
    500000   0.4261687     -7.953071      -7.3138271      2.5279596      50218.233      36.893836      36.893836      36.893836    
    510000   0.42503675    -7.9539613     -7.3164152      2.5245482      50218.233      36.893836      36.893836      36.893836    
    520000   0.42503392    -7.9544881     -7.3169463      2.5258136      50218.233      36.893836      36.893836      36.893836    
    530000   0.42468417    -7.9517103     -7.3146932      2.5491177      50218.233      36.893836      36.893836      36.893836    
    540000   0.42498566    -7.9479223     -7.3104529      2.5651429      50218.233      36.893836      36.893836      36.893836    
    550000   0.42694697    -7.9520206     -7.3116093      2.548314       50218.233      36.893836      36.893836      36.893836    
    560000   0.42407202    -7.9509454     -7.3148464      2.5479321      50218.233      36.893836      36.893836      36.893836    
    570000   0.42429678    -7.9462932     -7.3098571      2.584735       50218.233      36.893836      36.893836      36.893836    
    580000   0.42243094    -7.9486659     -7.3150285      2.5616376      50218.233      36.893836      36.893836      36.893836    
    590000   0.42360355    -7.9518457     -7.3164495      2.5542188      50218.233      36.893836      36.893836      36.893836    
    600000   0.42576813    -7.9496768     -7.3110337      2.5624993      50218.233      36.893836      36.893836      36.893836    
    610000   0.4268568     -7.9494914     -7.3092153      2.5598848      50218.233      36.893836      36.893836      36.893836    
    620000   0.42560222    -7.9512559     -7.3128617      2.5557016      50218.233      36.893836      36.893836      36.893836    
    630000   0.42405496    -7.9487132     -7.3126398      2.5592032      50218.233      36.893836      36.893836      36.893836    
    640000   0.42366406    -7.9505927     -7.3151056      2.5542667      50218.233      36.893836      36.893836      36.893836    
    650000   0.42427455    -7.951938      -7.3155352      2.5374198      50218.233      36.893836      36.893836      36.893836    
    660000   0.42441824    -7.9503328     -7.3137145      2.545591       50218.233      36.893836      36.893836      36.893836    
    670000   0.42447754    -7.94892       -7.3122127      2.5640597      50218.233      36.893836      36.893836      36.893836    
    680000   0.42637477    -7.9510336     -7.3114806      2.5557619      50218.233      36.893836      36.893836      36.893836    
    690000   0.42616712    -7.9506376     -7.3113961      2.5515497      50218.233      36.893836      36.893836      36.893836    
    700000   0.42460007    -7.94695       -7.310059       2.5741669      50218.233      36.893836      36.893836      36.893836    
    710000   0.42394703    -7.9496005     -7.313689       2.5502046      50218.233      36.893836      36.893836      36.893836    
    720000   0.42447057    -7.9537515     -7.3170546      2.5305418      50218.233      36.893836      36.893836      36.893836    
    730000   0.42656661    -7.9505136     -7.3106728      2.5651843      50218.233      36.893836      36.893836      36.893836    
    740000   0.4247627     -7.9503347     -7.3131997      2.5517636      50218.233      36.893836      36.893836      36.893836    
    750000   0.42563746    -7.9521217     -7.3136746      2.5350677      50218.233      36.893836      36.893836      36.893836    
    760000   0.42359914    -7.949833      -7.3144433      2.550712       50218.233      36.893836      36.893836      36.893836    
    770000   0.42581662    -7.9513107     -7.3125949      2.5551549      50218.233      36.893836      36.893836      36.893836    
    780000   0.42458422    -7.9491175     -7.3122503      2.5670342      50218.233      36.893836      36.893836      36.893836    
    790000   0.4273099     -7.9480205     -7.3070648      2.5675732      50218.233      36.893836      36.893836      36.893836    
    800000   0.42722272    -7.9506856     -7.3098607      2.5568033      50218.233      36.893836      36.893836      36.893836    
    810000   0.4250167     -7.9466496     -7.3091337      2.5898789      50218.233      36.893836      36.893836      36.893836    
    820000   0.42456047    -7.9488409     -7.3120092      2.5604744      50218.233      36.893836      36.893836      36.893836    
    830000   0.42478881    -7.9495578     -7.3123837      2.5571859      50218.233      36.893836      36.893836      36.893836    
    840000   0.42569391    -7.9480849     -7.3095532      2.5695419      50218.233      36.893836      36.893836      36.893836    
    850000   0.42483059    -7.952895      -7.3156582      2.5344327      50218.233      36.893836      36.893836      36.893836    
    860000   0.42587268    -7.9516313     -7.3128314      2.5415695      50218.233      36.893836      36.893836      36.893836    
    870000   0.42442409    -7.9530483     -7.3164213      2.5332359      50218.233      36.893836      36.893836      36.893836    
    880000   0.42633166    -7.948967      -7.3094786      2.571342       50218.233      36.893836      36.893836      36.893836    
    890000   0.4255883     -7.9512737     -7.3129003      2.5428512      50218.233      36.893836      36.893836      36.893836    
    900000   0.42464807    -7.9511872     -7.3142242      2.5538164      50218.233      36.893836      36.893836      36.893836    
    910000   0.42423634    -7.9500526     -7.3137072      2.5594988      50218.233      36.893836      36.893836      36.893836    
    920000   0.42519433    -7.9536396     -7.3158572      2.5282614      50218.233      36.893836      36.893836      36.893836    
    930000   0.42853836    -7.9507979     -7.3079995      2.5502254      50218.233      36.893836      36.893836      36.893836    
    940000   0.42507854    -7.9534922     -7.3158835      2.5379794      50218.233      36.893836      36.893836      36.893836    
    950000   0.42544506    -7.9509667     -7.3128082      2.5596869      50218.233      36.893836      36.893836      36.893836    
    960000   0.42516122    -7.9539261     -7.3161933      2.5318942      50218.233      36.893836      36.893836      36.893836    
    970000   0.42594956    -7.953013      -7.3140978      2.5355886      50218.233      36.893836      36.893836      36.893836    
    980000   0.42640723    -7.9509328     -7.311331       2.5605464      50218.233      36.893836      36.893836      36.893836    
    990000   0.42548806    -7.9510943     -7.3128713      2.5510119      50218.233      36.893836      36.893836      36.893836    
   1000000   0.42559836    -7.9500921     -7.3117037      2.55982        50218.233      36.893836      36.893836      36.893836    
   1010000   0.42346721    -7.9543941     -7.3192023      2.5317638      50218.233      36.893836      36.893836      36.893836    
   1020000   0.42598026    -7.9518852     -7.3129239      2.5424145      50218.233      36.893836      36.893836      36.893836    
   1030000   0.42273346    -7.9501898     -7.3160986      2.5591071      50218.233      36.893836      36.893836      36.893836    
   1040000   0.42621776    -7.9514554     -7.3121379      2.5407806      50218.233      36.893836      36.893836      36.893836    
   1050000   0.4252044     -7.952784      -7.3149865      2.5303016      50218.233      36.893836      36.893836      36.893836    
   1060000   0.42514634    -7.953964      -7.3162536      2.5303645      50218.233      36.893836      36.893836      36.893836    
   1070000   0.42381904    -7.9508282     -7.3151087      2.5474425      50218.233      36.893836      36.893836      36.893836    
   1080000   0.42409382    -7.944588      -7.3084563      2.5940436      50218.233      36.893836      36.893836      36.893836    
   1090000   0.42444899    -7.9498439     -7.3131795      2.5476062      50218.233      36.893836      36.893836      36.893836    
   1100000   0.42622203    -7.9494045     -7.3100806      2.5561937      50218.233      36.893836      36.893836      36.893836    
   1110000   0.42751033    -7.9463554     -7.305099       2.5876534      50218.233      36.893836      36.893836      36.893836    
   1120000   0.42642494    -7.9497572     -7.3101289      2.5498143      50218.233      36.893836      36.893836      36.893836    
   1130000   0.42449961    -7.9506026     -7.3138622      2.5517509      50218.233      36.893836      36.893836      36.893836    
   1140000   0.42498915    -7.9507052     -7.3132305      2.5424755      50218.233      36.893836      36.893836      36.893836    
   1150000   0.42468803    -7.9502138     -7.3131909      2.5585678      50218.233      36.893836      36.893836      36.893836    
   1160000   0.42704087    -7.9484219     -7.3078698      2.5692571      50218.233      36.893836      36.893836      36.893836    
   1170000   0.42217457    -7.9507513     -7.3174985      2.5388711      50218.233      36.893836      36.893836      36.893836    
   1180000   0.42585729    -7.9496275     -7.3108506      2.5576372      50218.233      36.893836      36.893836      36.893836    
   1190000   0.4250001     -7.9492166     -7.3117255      2.5678362      50218.233      36.893836      36.893836      36.893836    
   1200000   0.42452539    -7.9502248     -7.3134458      2.5491112      50218.233      36.893836      36.893836      36.893836    
   1210000   0.42259575    -7.9480641     -7.3141795      2.5715472      50218.233      36.893836      36.893836      36.893836    
   1220000   0.42772724    -7.9474569     -7.3058752      2.5883522      50218.233      36.893836      36.893836      36.893836    
   1230000   0.42550907    -7.9496233     -7.3113688      2.559187       50218.233      36.893836      36.893836      36.893836    
   1240000   0.42350968    -7.9526436     -7.3173881      2.53022        50218.233      36.893836      36.893836      36.893836    
   1250000   0.42673477    -7.9516207     -7.3115277      2.5526075      50218.233      36.893836      36.893836      36.893836    
   1260000   0.42286931    -7.9455734     -7.3112784      2.5908977      50218.233      36.893836      36.893836      36.893836    
   1270000   0.42466913    -7.9505194     -7.3135248      2.5569323      50218.233      36.893836      36.893836      36.893836    
   1280000   0.42488517    -7.9495516     -7.3122329      2.5544391      50218.233      36.893836      36.893836      36.893836    
   1290000   0.4268148     -7.9529106     -7.3126975      2.5325025      50218.233      36.893836      36.893836      36.893836    
   1300000   0.42456572    -7.9519477     -7.3151082      2.5390859      50218.233      36.893836      36.893836      36.893836    
   1310000   0.42421914    -7.9494657     -7.3131461      2.5581385      50218.233      36.893836      36.893836      36.893836    
   1320000   0.42375616    -7.9457775     -7.3101523      2.582574       50218.233      36.893836      36.893836      36.893836    
   1330000   0.42720133    -7.9519432     -7.3111503      2.5427734      50218.233      36.893836      36.893836      36.893836    
   1340000   0.42595918    -7.9426922     -7.3037625      2.6146849      50218.233      36.893836      36.893836      36.893836    
   1350000   0.42446119    -7.9512869     -7.3146042      2.5336003      50218.233      36.893836      36.893836      36.893836    
   1360000   0.4231501     -7.9524412     -7.3177251      2.5222783      50218.233      36.893836      36.893836      36.893836    
   1370000   0.42278394    -7.9516435     -7.3174766      2.529649       50218.233      36.893836      36.893836      36.893836    
   1380000   0.42666183    -7.9472324     -7.3072487      2.5729784      50218.233      36.893836      36.893836      36.893836    
   1390000   0.4259819     -7.9534389     -7.3144751      2.5341446      50218.233      36.893836      36.893836      36.893836    
   1400000   0.42431827    -7.9479        -7.3114317      2.5623108      50218.233      36.893836      36.893836      36.893836    
   1410000   0.4253998     -7.9511137     -7.3130231      2.5415586      50218.233      36.893836      36.893836      36.893836    
   1420000   0.42883462    -7.9486212     -7.3053784      2.5783897      50218.233      36.893836      36.893836      36.893836    
   1430000   0.42658855    -7.9514375     -7.3115638      2.5534019      50218.233      36.893836      36.893836      36.893836    
   1440000   0.42462589    -7.9502122     -7.3132824      2.5476532      50218.233      36.893836      36.893836      36.893836    
   1450000   0.42359032    -7.9487902     -7.3134137      2.5542136      50218.233      36.893836      36.893836      36.893836    
   1460000   0.42432058    -7.9472487     -7.3107768      2.5753177      50218.233      36.893836      36.893836      36.893836    
   1470000   0.42330415    -7.9522147     -7.3172675      2.5420414      50218.233      36.893836      36.893836      36.893836    
   1480000   0.42413798    -7.9530118     -7.3168139      2.5282128      50218.233      36.893836      36.893836      36.893836    
   1490000   0.42337642    -7.951465      -7.3164094      2.5373236      50218.233      36.893836      36.893836      36.893836    
   1500000   0.42558195    -7.9509447     -7.3125808      2.5516841      50218.233      36.893836      36.893836      36.893836    
   1510000   0.42665888    -7.9532807     -7.3133015      2.5341569      50218.233      36.893836      36.893836      36.893836    
   1520000   0.42774546    -7.9507778     -7.3091687      2.5715323      50218.233      36.893836      36.893836      36.893836    
   1530000   0.42303146    -7.9490897     -7.3145515      2.5626904      50218.233      36.893836      36.893836      36.893836    
   1540000   0.42193986    -7.9495602     -7.3166594      2.5484524      50218.233      36.893836      36.893836      36.893836    
   1550000   0.42648303    -7.9511434     -7.311428       2.5531352      50218.233      36.893836      36.893836      36.893836    
   1560000   0.42350417    -7.9518271     -7.3165799      2.5369229      50218.233      36.893836      36.893836      36.893836    
   1570000   0.42621749    -7.9514591     -7.3121419      2.5366588      50218.233      36.893836      36.893836      36.893836    
   1580000   0.42412993    -7.9501477     -7.3139619      2.5496337      50218.233      36.893836      36.893836      36.893836    
   1590000   0.42643559    -7.9495324     -7.3098881      2.5602273      50218.233      36.893836      36.893836      36.893836    
   1600000   0.42249483    -7.947857      -7.3141238      2.5738291      50218.233      36.893836      36.893836      36.893836    
   1610000   0.42492621    -7.950269      -7.3128887      2.5556082      50218.233      36.893836      36.893836      36.893836    
   1620000   0.42333528    -7.9497236     -7.3147298      2.5538739      50218.233      36.893836      36.893836      36.893836    
   1630000   0.42337273    -7.9512862     -7.3162361      2.5518209      50218.233      36.893836      36.893836      36.893836    
   1640000   0.42419535    -7.9458401     -7.3095561      2.5808091      50218.233      36.893836      36.893836      36.893836    
   1650000   0.4257465     -7.9490547     -7.310444       2.5586859      50218.233      36.893836      36.893836      36.893836    
   1660000   0.42571988    -7.9471855     -7.3086147      2.5886161      50218.233      36.893836      36.893836      36.893836    
   1670000   0.4214279     -7.9508772     -7.3187444      2.5425951      50218.233      36.893836      36.893836      36.893836    
   1680000   0.42417583    -7.9500162     -7.3137615      2.55695        50218.233      36.893836      36.893836      36.893836    
   1690000   0.42363246    -7.9502059     -7.3147663      2.5487677      50218.233      36.893836      36.893836      36.893836    
   1700000   0.42588395    -7.9484398     -7.3096229      2.5660551      50218.233      36.893836      36.893836      36.893836    
   1710000   0.42505952    -7.9506688     -7.3130886      2.5489609      50218.233      36.893836      36.893836      36.893836    
   1720000   0.42316234    -7.9446194     -7.3098849      2.5947472      50218.233      36.893836      36.893836      36.893836    
   1730000   0.42387089    -7.9464928     -7.3106956      2.5780991      50218.233      36.893836      36.893836      36.893836    
   1740000   0.42703987    -7.9493705     -7.3088198      2.5549483      50218.233      36.893836      36.893836      36.893836    
   1750000   0.42507253    -7.9469471     -7.3093474      2.584752       50218.233      36.893836      36.893836      36.893836    
   1760000   0.42293562    -7.9506262     -7.3162318      2.5502166      50218.233      36.893836      36.893836      36.893836    
   1770000   0.42362032    -7.9472126     -7.3117911      2.5685815      50218.233      36.893836      36.893836      36.893836    
   1780000   0.42343926    -7.9525934     -7.3174435      2.5380968      50218.233      36.893836      36.893836      36.893836    
   1790000   0.42624058    -7.9473056     -7.3079539      2.5879025      50218.233      36.893836      36.893836      36.893836    
   1800000   0.42547813    -7.9498529     -7.3116448      2.5608175      50218.233      36.893836      36.893836      36.893836    
   1810000   0.4239365     -7.9468865     -7.3109908      2.5712858      50218.233      36.893836      36.893836      36.893836    
   1820000   0.42433652    -7.9480233     -7.3115276      2.5592551      50218.233      36.893836      36.893836      36.893836    
   1830000   0.42411799    -7.9498033     -7.3136353      2.5532005      50218.233      36.893836      36.893836      36.893836    
   1840000   0.42456739    -7.952586      -7.315744       2.5255623      50218.233      36.893836      36.893836      36.893836    
   1850000   0.42477694    -7.9497911     -7.3126348      2.5556767      50218.233      36.893836      36.893836      36.893836    
   1860000   0.4252724     -7.9486486     -7.3107491      2.5605116      50218.233      36.893836      36.893836      36.893836    
   1870000   0.42513724    -7.9506951     -7.3129984      2.5424293      50218.233      36.893836      36.893836      36.893836    
   1880000   0.42413588    -7.9451662     -7.3089714      2.5890397      50218.233      36.893836      36.893836      36.893836    
   1890000   0.42336237    -7.9504882     -7.3154536      2.5557359      50218.233      36.893836      36.893836      36.893836    
   1900000   0.4249216     -7.9506957     -7.3133223      2.5498435      50218.233      36.893836      36.893836      36.893836    
   1910000   0.42609259    -7.9484169     -7.3092871      2.5796639      50218.233      36.893836      36.893836      36.893836    
   1920000   0.42355968    -7.9498281     -7.3144976      2.5545511      50218.233      36.893836      36.893836      36.893836    
   1930000   0.42335456    -7.9490525     -7.3140297      2.5607258      50218.233      36.893836      36.893836      36.893836    
   1940000   0.4227522     -7.950871      -7.3167517      2.5496381      50218.233      36.893836      36.893836      36.893836    
   1950000   0.42303252    -7.9473923     -7.3128526      2.5828403      50218.233      36.893836      36.893836      36.893836    
   1960000   0.42277733    -7.9475785     -7.3134215      2.5772438      50218.233      36.893836      36.893836      36.893836    
   1970000   0.4251817     -7.9496071     -7.3118436      2.5633663      50218.233      36.893836      36.893836      36.893836    
   1980000   0.42412434    -7.9526126     -7.3164352      2.533563       50218.233      36.893836      36.893836      36.893836    
   1990000   0.42549494    -7.9473641     -7.3091308      2.564028       50218.233      36.893836      36.893836      36.893836    
   2000000   0.42479181    -7.9480262     -7.3108475      2.5738575      50218.233      36.893836      36.893836      36.893836    
   2010000   0.42297699    -7.9497023     -7.3152458      2.5539344      50218.233      36.893836      36.893836      36.893836    
   2020000   0.4266635     -7.9530892     -7.313103       2.5334441      50218.233      36.893836      36.893836      36.893836    
   2030000   0.42381064    -7.948775      -7.3130681      2.5721773      50218.233      36.893836      36.893836      36.893836    
   2040000   0.42503897    -7.9498547     -7.3123053      2.5608475      50218.233      36.893836      36.893836      36.893836    
   2050000   0.42596288    -7.9525022     -7.313567       2.5313105      50218.233      36.893836      36.893836      36.893836    
   2060000   0.42525657    -7.9529264     -7.3150506      2.5215773      50218.233      36.893836      36.893836      36.893836    
   2070000   0.42513925    -7.9539492     -7.3162494      2.5180181      50218.233      36.893836      36.893836      36.893836    
   2080000   0.42587768    -7.9476287     -7.3088212      2.5696267      50218.233      36.893836      36.893836      36.893836    
   2090000   0.42590841    -7.9479856     -7.3091321      2.5693127      50218.233      36.893836      36.893836      36.893836    
   2100000   0.42456904    -7.9501456     -7.3133011      2.5583234      50218.233      36.893836      36.893836      36.893836    
   2110000   0.42647756    -7.9467296     -7.3070223      2.5662316      50218.233      36.893836      36.893836      36.893836    
   2120000   0.42391121    -7.9478329     -7.3119751      2.5750056      50218.233      36.893836      36.893836      36.893836    
   2130000   0.42556476    -7.9526357     -7.3142976      2.5336019      50218.233      36.893836      36.893836      36.893836    
   2140000   0.42576319    -7.9513887     -7.312753       2.5419637      50218.233      36.893836      36.893836      36.893836    
   2150000   0.4242841     -7.945883      -7.3094659      2.5908194      50218.233      36.893836      36.893836      36.893836    
   2160000   0.42692288    -7.9518426     -7.3114674      2.5448894      50218.233      36.893836      36.893836      36.893836    
   2170000   0.42405718    -7.9503345     -7.3142578      2.5522603      50218.233      36.893836      36.893836      36.893836    
   2180000   0.42481835    -7.9508385     -7.3136201      2.5463953      50218.233      36.893836      36.893836      36.893836    
   2190000   0.42357973    -7.9493049     -7.3139443      2.5622684      50218.233      36.893836      36.893836      36.893836    
   2200000   0.42450917    -7.9513941     -7.3146394      2.5475687      50218.233      36.893836      36.893836      36.893836    
   2210000   0.4259434     -7.9487627     -7.3098567      2.5672315      50218.233      36.893836      36.893836      36.893836    
   2220000   0.42295232    -7.9479037     -7.3134843      2.5771238      50218.233      36.893836      36.893836      36.893836    
   2230000   0.4258237     -7.9517171     -7.3129907      2.5368593      50218.233      36.893836      36.893836      36.893836    
   2240000   0.42635473    -7.9475914     -7.3080684      2.5753347      50218.233      36.893836      36.893836      36.893836    
   2250000   0.42689578    -7.9472939     -7.3069593      2.5683231      50218.233      36.893836      36.893836      36.893836    
   2260000   0.42655298    -7.9483233     -7.3085029      2.5678143      50218.233      36.893836      36.893836      36.893836    
   2270000   0.42597342    -7.9524084     -7.3134573      2.5339025      50218.233      36.893836      36.893836      36.893836    
   2280000   0.42529272    -7.9507402     -7.3128102      2.5537881      50218.233      36.893836      36.893836      36.893836    
   2290000   0.42545086    -7.9487263     -7.3105591      2.5694346      50218.233      36.893836      36.893836      36.893836    
   2300000   0.42701118    -7.9476019     -7.3070943      2.5700257      50218.233      36.893836      36.893836      36.893836    
   2310000   0.42902255    -7.9493781     -7.3058534      2.5619131      50218.233      36.893836      36.893836      36.893836    
   2320000   0.42361553    -7.949839      -7.3144248      2.5620506      50218.233      36.893836      36.893836      36.893836    
   2330000   0.42569558    -7.9491176     -7.3105833      2.5583922      50218.233      36.893836      36.893836      36.893836    
   2340000   0.42627114    -7.9472553     -7.3078577      2.5724255      50218.233      36.893836      36.893836      36.893836    
   2350000   0.42553031    -7.9507206     -7.3124343      2.5508536      50218.233      36.893836      36.893836      36.893836    
   2360000   0.42597966    -7.9490678     -7.3101074      2.5622345      50218.233      36.893836      36.893836      36.893836    
   2370000   0.42218023    -7.9520146     -7.3187533      2.5456853      50218.233      36.893836      36.893836      36.893836    
   2380000   0.42473483    -7.9501974     -7.3131042      2.5498334      50218.233      36.893836      36.893836      36.893836    
   2390000   0.42694116    -7.9537566     -7.313354       2.535352       50218.233      36.893836      36.893836      36.893836    
   2400000   0.4260505     -7.9521725     -7.3131059      2.5367996      50218.233      36.893836      36.893836      36.893836    
   2410000   0.42368934    -7.9487676     -7.3132426      2.5560555      50218.233      36.893836      36.893836      36.893836    
   2420000   0.42519206    -7.9478525     -7.3100735      2.5726663      50218.233      36.893836      36.893836      36.893836    
   2430000   0.42589386    -7.9490891     -7.3102573      2.575412       50218.233      36.893836      36.893836      36.893836    
   2440000   0.42533979    -7.9481826     -7.310182       2.5631211      50218.233      36.893836      36.893836      36.893836    
   2450000   0.42528242    -7.9511661     -7.3132515      2.5545889      50218.233      36.893836      36.893836      36.893836    
   2460000   0.42464707    -7.9528833     -7.3159217      2.5398447      50218.233      36.893836      36.893836      36.893836    
   2470000   0.42494062    -7.9501651     -7.3127633      2.5542874      50218.233      36.893836      36.893836      36.893836    
   2480000   0.42424448    -7.949109      -7.3127513      2.5706137      50218.233      36.893836      36.893836      36.893836    
   2490000   0.42574358    -7.9485999     -7.3099936      2.5755552      50218.233      36.893836      36.893836      36.893836    
   2500000   0.42637683    -7.9497548     -7.3101987      2.5671468      50218.233      36.893836      36.893836      36.893836    
   2510000   0.42466966    -7.9552093     -7.3182139      2.5096206      50218.233      36.893836      36.893836      36.893836    
   2520000   0.42304394    -7.949796      -7.3152391      2.5502861      50218.233      36.893836      36.893836      36.893836    
   2530000   0.42561615    -7.9516742     -7.313259       2.5386337      50218.233      36.893836      36.893836      36.893836    
   2540000   0.42575154    -7.9495621     -7.3109438      2.5582966      50218.233      36.893836      36.893836      36.893836    
   2550000   0.42447725    -7.9493666     -7.3126598      2.5543147      50218.233      36.893836      36.893836      36.893836    
   2560000   0.42785058    -7.9517103     -7.3099435      2.5480286      50218.233      36.893836      36.893836      36.893836    
   2570000   0.4258329     -7.9499961     -7.3112559      2.5476581      50218.233      36.893836      36.893836      36.893836    
   2580000   0.42369276    -7.9513974     -7.3158673      2.544455       50218.233      36.893836      36.893836      36.893836    
   2590000   0.42643376    -7.9515521     -7.3119105      2.54559        50218.233      36.893836      36.893836      36.893836    
   2600000   0.42666542    -7.9522128     -7.3122238      2.5302452      50218.233      36.893836      36.893836      36.893836    
   2610000   0.42531442    -7.9499887     -7.3120261      2.5518449      50218.233      36.893836      36.893836      36.893836    
   2620000   0.42110836    -7.9480981     -7.3164445      2.5712026      50218.233      36.893836      36.893836      36.893836    
   2630000   0.42416893    -7.9519969     -7.3157526      2.539839       50218.233      36.893836      36.893836      36.893836    
   2640000   0.42447261    -7.9433801     -7.3066802      2.6073182      50218.233      36.893836      36.893836      36.893836    
   2650000   0.4261904     -7.9482563     -7.3089798      2.5658703      50218.233      36.893836      36.893836      36.893836    
   2660000   0.42495891    -7.9517209     -7.3142917      2.5437296      50218.233      36.893836      36.893836      36.893836    
   2670000   0.42307373    -7.9519707     -7.3173691      2.5442352      50218.233      36.893836      36.893836      36.893836    
   2680000   0.42675043    -7.9507163     -7.3105997      2.5473657      50218.233      36.893836      36.893836      36.893836    
   2690000   0.42295356    -7.9537073     -7.319286       2.525152       50218.233      36.893836      36.893836      36.893836    
   2700000   0.42399734    -7.9503847     -7.3143978      2.5553248      50218.233      36.893836      36.893836      36.893836    
   2710000   0.4268133     -7.9488497     -7.3086388      2.5607988      50218.233      36.893836      36.893836      36.893836    
   2720000   0.42464916    -7.9479227     -7.310958       2.5774416      50218.233      36.893836      36.893836      36.893836    
   2730000   0.42617311    -7.9518239     -7.3125734      2.5425549      50218.233      36.893836      36.893836      36.893836    
   2740000   0.42744832    -7.9493348     -7.3081715      2.5582013      50218.233      36.893836      36.893836      36.893836    
   2750000   0.42539651    -7.9485295     -7.3104438      2.5562068      50218.233      36.893836      36.893836      36.893836    
   2760000   0.42359911    -7.9507207     -7.315331       2.5421632      50218.233      36.893836      36.893836      36.893836    
   2770000   0.42256737    -7.9474785     -7.3136364      2.5692947      50218.233      36.893836      36.893836      36.893836    
   2780000   0.42652802    -7.9511666     -7.3113837      2.5522303      50218.233      36.893836      36.893836      36.893836    
   2790000   0.42540855    -7.9505094     -7.3124057      2.5537011      50218.233      36.893836      36.893836      36.893836    
   2800000   0.42455465    -7.9478907     -7.3110677      2.5678864      50218.233      36.893836      36.893836      36.893836    
   2810000   0.42504275    -7.9469752     -7.3094202      2.5792977      50218.233      36.893836      36.893836      36.893836    
   2820000   0.42639227    -7.9516907     -7.3121113      2.5424988      50218.233      36.893836      36.893836      36.893836    
   2830000   0.42507862    -7.9498274     -7.3122185      2.5564553      50218.233      36.893836      36.893836      36.893836    
   2840000   0.42355703    -7.9471353     -7.3118088      2.5659791      50218.233      36.893836      36.893836      36.893836    
   2850000   0.42444705    -7.9473319     -7.3106704      2.5768185      50218.233      36.893836      36.893836      36.893836    
   2860000   0.42302178    -7.9499606     -7.315437       2.5489248      50218.233      36.893836      36.893836      36.893836    
   2870000   0.42599134    -7.9509248     -7.3119469      2.5462006      50218.233      36.893836      36.893836      36.893836    
   2880000   0.42358631    -7.9498247     -7.3144543      2.5495382      50218.233      36.893836      36.893836      36.893836    
   2890000   0.42325001    -7.9511293     -7.3162633      2.5380401      50218.233      36.893836      36.893836      36.893836    
   2900000   0.42099724    -7.9494872     -7.3180003      2.5450257      50218.233      36.893836      36.893836      36.893836    
   2910000   0.42225417    -7.9523151     -7.3189428      2.5360575      50218.233      36.893836      36.893836      36.893836    
   2920000   0.42408776    -7.952743      -7.3166204      2.5238703      50218.233      36.893836      36.893836      36.893836    
   2930000   0.42653171    -7.9520069     -7.3122184      2.5414423      50218.233      36.893836      36.893836      36.893836    
   2940000   0.42539828    -7.9515539     -7.3134655      2.5409606      50218.233      36.893836      36.893836      36.893836    
   2950000   0.4256744     -7.9541509     -7.3156483      2.5139222      50218.233      36.893836      36.893836      36.893836    
   2960000   0.42356099    -7.9525138     -7.3171814      2.5354384      50218.233      36.893836      36.893836      36.893836    
   2970000   0.42354008    -7.9537566     -7.3184555      2.5219849      50218.233      36.893836      36.893836      36.893836    
   2980000   0.42502709    -7.9514326     -7.313901       2.544184       50218.233      36.893836      36.893836      36.893836    
   2990000   0.42661919    -7.9504686     -7.3105489      2.5542827      50218.233      36.893836      36.893836      36.893836    
   3000000   0.42625452    -7.9514341     -7.3120614      2.5439598      50218.233      36.893836      36.893836      36.893836    
   3010000   0.42188506    -7.9494881     -7.3166695      2.5505381      50218.233      36.893836      36.893836      36.893836    
   3020000   0.42335316    -7.9491369     -7.3141161      2.5571946      50218.233      36.893836      36.893836      36.893836    
   3030000   0.42480532    -7.9532558     -7.3160569      2.5300473      50218.233      36.893836      36.893836      36.893836    
   3040000   0.42518284    -7.9488739     -7.3111087      2.5676633      50218.233      36.893836      36.893836      36.893836    
   3050000   0.42370525    -7.9522036     -7.3166548      2.5287674      50218.233      36.893836      36.893836      36.893836    
   3060000   0.42538025    -7.9486051     -7.3105438      2.5662322      50218.233      36.893836      36.893836      36.893836    
   3070000   0.42406489    -7.9512178     -7.3151295      2.5321905      50218.233      36.893836      36.893836      36.893836    
   3080000   0.42588554    -7.9492091     -7.3103899      2.5586341      50218.233      36.893836      36.893836      36.893836    
   3090000   0.42604222    -7.9519443     -7.3128901      2.5379691      50218.233      36.893836      36.893836      36.893836    
   3100000   0.42590568    -7.9499154     -7.311066       2.5577986      50218.233      36.893836      36.893836      36.893836    
   3110000   0.42604334    -7.9522012     -7.3131453      2.5312125      50218.233      36.893836      36.893836      36.893836    
   3120000   0.42426885    -7.9519734     -7.3155792      2.5308184      50218.233      36.893836      36.893836      36.893836    
   3130000   0.42641592    -7.9522922     -7.3126774      2.5287342      50218.233      36.893836      36.893836      36.893836    
   3140000   0.42429768    -7.9491292     -7.3126917      2.555106       50218.233      36.893836      36.893836      36.893836    
   3150000   0.42559346    -7.9480772     -7.3096961      2.5717949      50218.233      36.893836      36.893836      36.893836    
   3160000   0.42702172    -7.95156       -7.3110366      2.5328345      50218.233      36.893836      36.893836      36.893836    
   3170000   0.42598887    -7.9569221     -7.3179479      2.50185        50218.233      36.893836      36.893836      36.893836    
   3180000   0.42394084    -7.9458673     -7.3099651      2.5810341      50218.233      36.893836      36.893836      36.893836    
   3190000   0.42274618    -7.9463463     -7.312236       2.5696344      50218.233      36.893836      36.893836      36.893836    
   3200000   0.42378627    -7.9515872     -7.3159168      2.5407763      50218.233      36.893836      36.893836      36.893836    
   3210000   0.42329828    -7.9507107     -7.3157723      2.5430991      50218.233      36.893836      36.893836      36.893836    
   3220000   0.42730985    -7.9502857     -7.3093301      2.5635106      50218.233      36.893836      36.893836      36.893836    
   3230000   0.42320343    -7.9482842     -7.3134881      2.5547681      50218.233      36.893836      36.893836      36.893836    
   3240000   0.4257504     -7.9443772     -7.3057607      2.590871       50218.233      36.893836      36.893836      36.893836    
   3250000   0.42385159    -7.9508353     -7.3150669      2.5432052      50218.233      36.893836      36.893836      36.893836    
   3260000   0.42509322    -7.9490002     -7.3113695      2.5698109      50218.233      36.893836      36.893836      36.893836    
   3270000   0.42685404    -7.9491037     -7.3088317      2.5651356      50218.233      36.893836      36.893836      36.893836    
   3280000   0.42741397    -7.949748      -7.3086362      2.5563061      50218.233      36.893836      36.893836      36.893836    
   3290000   0.42534213    -7.9486754     -7.3106712      2.5634948      50218.233      36.893836      36.893836      36.893836    
   3300000   0.42447802    -7.9502159     -7.3135079      2.5344474      50218.233      36.893836      36.893836      36.893836    
   3310000   0.42737591    -7.9524408     -7.311386       2.5363531      50218.233      36.893836      36.893836      36.893836    
   3320000   0.42599347    -7.9506469     -7.3116658      2.5534394      50218.233      36.893836      36.893836      36.893836    
   3330000   0.42603774    -7.9495823     -7.3105348      2.5506556      50218.233      36.893836      36.893836      36.893836    
   3340000   0.42594267    -7.9505223     -7.3116174      2.5660705      50218.233      36.893836      36.893836      36.893836    
   3350000   0.42387115    -7.9475318     -7.3117341      2.5711698      50218.233      36.893836      36.893836      36.893836    
   3360000   0.42309738    -7.9497211     -7.3150841      2.5477319      50218.233      36.893836      36.893836      36.893836    
   3370000   0.42330386    -7.9492407     -7.3142939      2.5544481      50218.233      36.893836      36.893836      36.893836    
   3380000   0.42340338    -7.9487798     -7.3136837      2.5581977      50218.233      36.893836      36.893836      36.893836    
   3390000   0.42564848    -7.9518946     -7.3134309      2.5370967      50218.233      36.893836      36.893836      36.893836    
   3400000   0.4282599     -7.9516797     -7.309299       2.5423284      50218.233      36.893836      36.893836      36.893836    
   3410000   0.42563775    -7.9524279     -7.3139804      2.5400738      50218.233      36.893836      36.893836      36.893836    
   3420000   0.42499842    -7.9494468     -7.3119582      2.5521807      50218.233      36.893836      36.893836      36.893836    
   3430000   0.42336968    -7.9512707     -7.3162252      2.5359788      50218.233      36.893836      36.893836      36.893836    
   3440000   0.42740496    -7.9515977     -7.3104994      2.5428472      50218.233      36.893836      36.893836      36.893836    
   3450000   0.42352726    -7.9486786     -7.3133967      2.5555633      50218.233      36.893836      36.893836      36.893836    
   3460000   0.42397419    -7.9490766     -7.3131243      2.553289       50218.233      36.893836      36.893836      36.893836    
   3470000   0.4259456     -7.949651      -7.3107417      2.5611345      50218.233      36.893836      36.893836      36.893836    
   3480000   0.42502578    -7.9495222     -7.3119926      2.5563752      50218.233      36.893836      36.893836      36.893836    
   3490000   0.42510969    -7.9515053     -7.3138498      2.5467296      50218.233      36.893836      36.893836      36.893836    
   3500000   0.42452158    -7.9475372     -7.3107639      2.5691397      50218.233      36.893836      36.893836      36.893836    
   3510000   0.42585303    -7.9512407     -7.3124702      2.5425081      50218.233      36.893836      36.893836      36.893836    
   3520000   0.42631281    -7.9506831     -7.311223       2.5580377      50218.233      36.893836      36.893836      36.893836    
   3530000   0.4236352     -7.9507724     -7.3153287      2.5358349      50218.233      36.893836      36.893836      36.893836    
   3540000   0.42517991    -7.9549597     -7.3171989      2.5191676      50218.233      36.893836      36.893836      36.893836    
   3550000   0.42323605    -7.951003      -7.316158       2.5483315      50218.233      36.893836      36.893836      36.893836    
   3560000   0.42416772    -7.9515319     -7.3152893      2.5374611      50218.233      36.893836      36.893836      36.893836    
   3570000   0.42478071    -7.9509522     -7.3137902      2.54643        50218.233      36.893836      36.893836      36.893836    
   3580000   0.42472703    -7.9498926     -7.3128111      2.5604638      50218.233      36.893836      36.893836      36.893836    
   3590000   0.42595275    -7.9512296     -7.3123096      2.534975       50218.233      36.893836      36.893836      36.893836    
   3600000   0.42482999    -7.9511127     -7.3138768      2.5511168      50218.233      36.893836      36.893836      36.893836    
   3610000   0.42474576    -7.9547692     -7.3176596      2.5178096      50218.233      36.893836      36.893836      36.893836    
   3620000   0.42437152    -7.9532428     -7.3166946      2.530164       50218.233      36.893836      36.893836      36.893836    
   3630000   0.42479436    -7.9527887     -7.3156062      2.5347732      50218.233      36.893836      36.893836      36.893836    
   3640000   0.42367831    -7.9476384     -7.3121299      2.5773315      50218.233      36.893836      36.893836      36.893836    
   3650000   0.42506579    -7.94838       -7.3107904      2.5617137      50218.233      36.893836      36.893836      36.893836    
   3660000   0.42403845    -7.9518782     -7.3158296      2.5388465      50218.233      36.893836      36.893836      36.893836    
   3670000   0.42550191    -7.9501887     -7.3119449      2.5511864      50218.233      36.893836      36.893836      36.893836    
   3680000   0.4245222     -7.946196      -7.3094217      2.5803973      50218.233      36.893836      36.893836      36.893836    
   3690000   0.42361341    -7.9495341     -7.314123       2.5520297      50218.233      36.893836      36.893836      36.893836    
   3700000   0.42495112    -7.9492759     -7.3118583      2.5632648      50218.233      36.893836      36.893836      36.893836    
   3710000   0.42535852    -7.9496912     -7.3116625      2.5541084      50218.233      36.893836      36.893836      36.893836    
   3720000   0.42681183    -7.9495982     -7.3093895      2.5625905      50218.233      36.893836      36.893836      36.893836    
   3730000   0.4252161     -7.948423      -7.3106079      2.5676731      50218.233      36.893836      36.893836      36.893836    
   3740000   0.42669565    -7.9478516     -7.3078172      2.5733622      50218.233      36.893836      36.893836      36.893836    
   3750000   0.42472161    -7.9499472     -7.3128738      2.5454473      50218.233      36.893836      36.893836      36.893836    
   3760000   0.42346867    -7.9503918     -7.3151978      2.5475639      50218.233      36.893836      36.893836      36.893836    
   3770000   0.42569577    -7.9484886     -7.309954       2.5703998      50218.233      36.893836      36.893836      36.893836    
   3780000   0.42570739    -7.9458963     -7.3073443      2.5762973      50218.233      36.893836      36.893836      36.893836    
   3790000   0.42487301    -7.9497022     -7.3124017      2.5479843      50218.233      36.893836      36.893836      36.893836    
   3800000   0.42507196    -7.9514067     -7.3138078      2.5444442      50218.233      36.893836      36.893836      36.893836    
   3810000   0.42556878    -7.9517676     -7.3134235      2.5402035      50218.233      36.893836      36.893836      36.893836    
   3820000   0.42551171    -7.951566      -7.3133075      2.543258       50218.233      36.893836      36.893836      36.893836    
   3830000   0.428642      -7.9500318     -7.307078       2.5619582      50218.233      36.893836      36.893836      36.893836    
   3840000   0.42595088    -7.9516127     -7.3126955      2.5412281      50218.233      36.893836      36.893836      36.893836    
   3850000   0.42597227    -7.9503974     -7.311448       2.5565483      50218.233      36.893836      36.893836      36.893836    
   3860000   0.42499428    -7.9495712     -7.3120888      2.5595976      50218.233      36.893836      36.893836      36.893836    
   3870000   0.42538248    -7.9472751     -7.3092104      2.5775412      50218.233      36.893836      36.893836      36.893836    
   3880000   0.42275337    -7.94866       -7.314539       2.5596801      50218.233      36.893836      36.893836      36.893836    
   3890000   0.42480873    -7.949635      -7.3124309      2.5534846      50218.233      36.893836      36.893836      36.893836    
   3900000   0.42565535    -7.9469275     -7.3084536      2.5771956      50218.233      36.893836      36.893836      36.893836    
   3910000   0.42361227    -7.9524209     -7.3170116      2.5321293      50218.233      36.893836      36.893836      36.893836    
   3920000   0.42371588    -7.9500149     -7.3144501      2.5429765      50218.233      36.893836      36.893836      36.893836    
   3930000   0.42214226    -7.9496693     -7.3164649      2.5572551      50218.233      36.893836      36.893836      36.893836    
   3940000   0.42474763    -7.9476474     -7.310535       2.5638588      50218.233      36.893836      36.893836      36.893836    
   3950000   0.4274082     -7.95396       -7.3128568      2.5181468      50218.233      36.893836      36.893836      36.893836    
   3960000   0.42495361    -7.9517259     -7.3143046      2.5328157      50218.233      36.893836      36.893836      36.893836    
   3970000   0.42314667    -7.9487961     -7.3140851      2.5611452      50218.233      36.893836      36.893836      36.893836    
   3980000   0.4240653     -7.9505685     -7.3144796      2.5545638      50218.233      36.893836      36.893836      36.893836    
   3990000   0.42439648    -7.9532822     -7.3166965      2.538143       50218.233      36.893836      36.893836      36.893836    
   4000000   0.42425866    -7.9512814     -7.3149025      2.5401594      50218.233      36.893836      36.893836      36.893836    
   4010000   0.42535735    -7.9500635     -7.3120365      2.5556893      50218.233      36.893836      36.893836      36.893836    
   4020000   0.42720455    -7.9482404     -7.3074427      2.5715848      50218.233      36.893836      36.893836      36.893836    
   4030000   0.42531404    -7.9514764     -7.3135144      2.5503108      50218.233      36.893836      36.893836      36.893836    
   4040000   0.42626693    -7.9516728     -7.3122815      2.5405482      50218.233      36.893836      36.893836      36.893836    
   4050000   0.42365282    -7.953355      -7.3178848      2.5267559      50218.233      36.893836      36.893836      36.893836    
   4060000   0.42605994    -7.9503752     -7.3112943      2.5619247      50218.233      36.893836      36.893836      36.893836    
   4070000   0.4256413     -7.9519693     -7.3135165      2.5396829      50218.233      36.893836      36.893836      36.893836    
   4080000   0.4241641     -7.9492494     -7.3130123      2.5453977      50218.233      36.893836      36.893836      36.893836    
   4090000   0.42686038    -7.9483971     -7.3081157      2.555717       50218.233      36.893836      36.893836      36.893836    
   4100000   0.42436696    -7.9501096     -7.3135682      2.5430668      50218.233      36.893836      36.893836      36.893836    
   4110000   0.42551689    -7.9480936     -7.3098273      2.5688085      50218.233      36.893836      36.893836      36.893836    
   4120000   0.42549819    -7.9481654     -7.3099272      2.5587068      50218.233      36.893836      36.893836      36.893836    
   4130000   0.42562489    -7.9484899     -7.3100617      2.5570609      50218.233      36.893836      36.893836      36.893836    
   4140000   0.4275813     -7.9524237     -7.3110609      2.5377287      50218.233      36.893836      36.893836      36.893836    
   4150000   0.4231895     -7.9495792     -7.314804       2.553715       50218.233      36.893836      36.893836      36.893836    
   4160000   0.42528249    -7.9522601     -7.3143454      2.5420991      50218.233      36.893836      36.893836      36.893836    
   4170000   0.42460807    -7.9506545     -7.3137514      2.5364402      50218.233      36.893836      36.893836      36.893836    
   4180000   0.4241944     -7.9471055     -7.310823       2.5711158      50218.233      36.893836      36.893836      36.893836    
   4190000   0.42475701    -7.9498794     -7.312753       2.5589837      50218.233      36.893836      36.893836      36.893836    
   4200000   0.42371877    -7.9507675     -7.3151984      2.5531717      50218.233      36.893836      36.893836      36.893836    
   4210000   0.42466693    -7.9503465     -7.3133551      2.545718       50218.233      36.893836      36.893836      36.893836    
   4220000   0.42499642    -7.950499      -7.3130135      2.5434773      50218.233      36.893836      36.893836      36.893836    
   4230000   0.42585511    -7.9485801     -7.3098066      2.568314       50218.233      36.893836      36.893836      36.893836    
   4240000   0.42433059    -7.9470658     -7.310579       2.5743766      50218.233      36.893836      36.893836      36.893836    
   4250000   0.42509745    -7.9522713     -7.3146342      2.5359518      50218.233      36.893836      36.893836      36.893836    
   4260000   0.42651422    -7.949629      -7.3098668      2.5627408      50218.233      36.893836      36.893836      36.893836    
   4270000   0.42529422    -7.9527777     -7.3148455      2.5448445      50218.233      36.893836      36.893836      36.893836    
   4280000   0.42408358    -7.9488867     -7.3127704      2.5605478      50218.233      36.893836      36.893836      36.893836    
   4290000   0.42470821    -7.9501834     -7.3131302      2.5504945      50218.233      36.893836      36.893836      36.893836    
   4300000   0.42250803    -7.9484984     -7.3147453      2.5486829      50218.233      36.893836      36.893836      36.893836    
   4310000   0.42717166    -7.9506845     -7.3099361      2.5459068      50218.233      36.893836      36.893836      36.893836    
   4320000   0.42407773    -7.9511142     -7.3150066      2.5397119      50218.233      36.893836      36.893836      36.893836    
   4330000   0.42498951    -7.9512713     -7.3137961      2.539803       50218.233      36.893836      36.893836      36.893836    
   4340000   0.42376958    -7.9526621     -7.3170168      2.527588       50218.233      36.893836      36.893836      36.893836    
   4350000   0.42473446    -7.9503465     -7.3132539      2.546915       50218.233      36.893836      36.893836      36.893836    
   4360000   0.42484428    -7.9493179     -7.3120605      2.5508638      50218.233      36.893836      36.893836      36.893836    
   4370000   0.42395931    -7.9522582     -7.3163283      2.5335426      50218.233      36.893836      36.893836      36.893836    
   4380000   0.42370329    -7.9483897     -7.3128438      2.5533784      50218.233      36.893836      36.893836      36.893836    
   4390000   0.42315303    -7.9507794     -7.3160589      2.542378       50218.233      36.893836      36.893836      36.893836    
   4400000   0.42479539    -7.9513935     -7.3142095      2.5464113      50218.233      36.893836      36.893836      36.893836    
   4410000   0.42499907    -7.950362      -7.3128725      2.5446887      50218.233      36.893836      36.893836      36.893836    
   4420000   0.42380242    -7.9514657     -7.3157711      2.5473873      50218.233      36.893836      36.893836      36.893836    
   4430000   0.42569664    -7.9503957     -7.3118598      2.5560482      50218.233      36.893836      36.893836      36.893836    
   4440000   0.42616814    -7.9525065     -7.3132634      2.5349807      50218.233      36.893836      36.893836      36.893836    
   4450000   0.42339255    -7.9505335     -7.3154537      2.5409684      50218.233      36.893836      36.893836      36.893836    
   4460000   0.42482289    -7.9555999     -7.3183746      2.523238       50218.233      36.893836      36.893836      36.893836    
   4470000   0.4275781     -7.9447726     -7.3034145      2.5976227      50218.233      36.893836      36.893836      36.893836    
   4480000   0.42454613    -7.9500583     -7.3132481      2.5446449      50218.233      36.893836      36.893836      36.893836    
   4490000   0.42459261    -7.9505536     -7.3136737      2.5491709      50218.233      36.893836      36.893836      36.893836    
   4500000   0.42496619    -7.9471456     -7.3097054      2.5757044      50218.233      36.893836      36.893836      36.893836    
   4510000   0.4252411     -7.9485743     -7.3107218      2.5490255      50218.233      36.893836      36.893836      36.893836    
   4520000   0.42562343    -7.9505814     -7.3121553      2.5534824      50218.233      36.893836      36.893836      36.893836    
   4530000   0.4258405     -7.9524523     -7.3137006      2.5357055      50218.233      36.893836      36.893836      36.893836    
   4540000   0.42287227    -7.9537497     -7.3194503      2.5184207      50218.233      36.893836      36.893836      36.893836    
   4550000   0.42527914    -7.9508514     -7.3129418      2.5456431      50218.233      36.893836      36.893836      36.893836    
   4560000   0.42607462    -7.9518835     -7.3127807      2.5447579      50218.233      36.893836      36.893836      36.893836    
   4570000   0.42568946    -7.9525553     -7.3140302      2.5381884      50218.233      36.893836      36.893836      36.893836    
   4580000   0.42593669    -7.9538781     -7.3149821      2.5275768      50218.233      36.893836      36.893836      36.893836    
   4590000   0.42556989    -7.9511684     -7.3128227      2.5444794      50218.233      36.893836      36.893836      36.893836    
   4600000   0.4226094     -7.9493014     -7.3153963      2.5512083      50218.233      36.893836      36.893836      36.893836    
   4610000   0.42468073    -7.9497819     -7.3127699      2.5646129      50218.233      36.893836      36.893836      36.893836    
   4620000   0.42526985    -7.9533141     -7.3154184      2.5266573      50218.233      36.893836      36.893836      36.893836    
   4630000   0.42546022    -7.9524943     -7.3143131      2.5302552      50218.233      36.893836      36.893836      36.893836    
   4640000   0.42579918    -7.9480381     -7.3093484      2.5727974      50218.233      36.893836      36.893836      36.893836    
   4650000   0.42490257    -7.948835      -7.3114902      2.5681442      50218.233      36.893836      36.893836      36.893836    
   4660000   0.4259101     -7.9480365     -7.3091804      2.5659016      50218.233      36.893836      36.893836      36.893836    
   4670000   0.42360737    -7.9469768     -7.3115748      2.5766707      50218.233      36.893836      36.893836      36.893836    
   4680000   0.42529239    -7.9508364     -7.3129069      2.547605       50218.233      36.893836      36.893836      36.893836    
   4690000   0.425024      -7.9517316     -7.3142047      2.5428589      50218.233      36.893836      36.893836      36.893836    
   4700000   0.42401659    -7.9452959     -7.3092801      2.5882702      50218.233      36.893836      36.893836      36.893836    
   4710000   0.42374309    -7.9493419     -7.3137363      2.5552121      50218.233      36.893836      36.893836      36.893836    
   4720000   0.42622935    -7.9486729     -7.309338       2.5633191      50218.233      36.893836      36.893836      36.893836    
   4730000   0.42696224    -7.9488057     -7.3083715      2.5621091      50218.233      36.893836      36.893836      36.893836    
   4740000   0.42564229    -7.9493954     -7.310941       2.5607278      50218.233      36.893836      36.893836      36.893836    
   4750000   0.42673341    -7.9508694     -7.3107784      2.5612672      50218.233      36.893836      36.893836      36.893836    
   4760000   0.42482284    -7.9489483     -7.311723       2.5615791      50218.233      36.893836      36.893836      36.893836    
   4770000   0.42457718    -7.9508521     -7.3139954      2.5488631      50218.233      36.893836      36.893836      36.893836    
   4780000   0.42650634    -7.9476461     -7.3078957      2.5743227      50218.233      36.893836      36.893836      36.893836    
   4790000   0.42315693    -7.9480354     -7.313309       2.5705308      50218.233      36.893836      36.893836      36.893836    
   4800000   0.42587921    -7.9522486     -7.3134389      2.5321162      50218.233      36.893836      36.893836      36.893836    
   4810000   0.42626473    -7.9528484     -7.3134604      2.535412       50218.233      36.893836      36.893836      36.893836    
   4820000   0.42621284    -7.952043      -7.3127328      2.5456468      50218.233      36.893836      36.893836      36.893836    
   4830000   0.42413483    -7.9508839     -7.3146907      2.5411213      50218.233      36.893836      36.893836      36.893836    
   4840000   0.42594066    -7.9479908     -7.3090889      2.5714694      50218.233      36.893836      36.893836      36.893836    
   4850000   0.42682963    -7.948844      -7.3086087      2.5566767      50218.233      36.893836      36.893836      36.893836    
   4860000   0.42435365    -7.9509283     -7.3144069      2.5503357      50218.233      36.893836      36.893836      36.893836    
   4870000   0.42596461    -7.9457849     -7.3068471      2.5760896      50218.233      36.893836      36.893836      36.893836    
   4880000   0.42340046    -7.9493988     -7.3143072      2.5664906      50218.233      36.893836      36.893836      36.893836    
   4890000   0.42493567    -7.9516655     -7.3142711      2.5425572      50218.233      36.893836      36.893836      36.893836    
   4900000   0.42504222    -7.9504854     -7.3129311      2.5574603      50218.233      36.893836      36.893836      36.893836    
   4910000   0.42523011    -7.9494147     -7.3115786      2.5639238      50218.233      36.893836      36.893836      36.893836    
   4920000   0.42573152    -7.9501752     -7.311587       2.5553357      50218.233      36.893836      36.893836      36.893836    
   4930000   0.42595307    -7.9483639     -7.3094433      2.5673329      50218.233      36.893836      36.893836      36.893836    
   4940000   0.42515354    -7.9500934     -7.3123722      2.5554132      50218.233      36.893836      36.893836      36.893836    
   4950000   0.42410861    -7.9503223     -7.3141684      2.5453449      50218.233      36.893836      36.893836      36.893836    
   4960000   0.42442515    -7.9534333     -7.3168046      2.5302068      50218.233      36.893836      36.893836      36.893836    
   4970000   0.42298099    -7.9511573     -7.3166948      2.5455232      50218.233      36.893836      36.893836      36.893836    
   4980000   0.42361088    -7.9518903     -7.316483       2.5353567      50218.233      36.893836      36.893836      36.893836    
   4990000   0.4251097     -7.950487      -7.3128316      2.5475685      50218.233      36.893836      36.893836      36.893836    
   5000000   0.42459054    -7.9505099     -7.3136331      2.546084       50218.233      36.893836      36.893836      36.893836    
   5010000   0.42513132    -7.9546375     -7.3169496      2.5206289      50218.233      36.893836      36.893836      36.893836    
   5020000   0.4251681     -7.9523984     -7.3146553      2.5356667      50218.233      36.893836      36.893836      36.893836    
   5030000   0.42479589    -7.9523221     -7.3151374      2.5398607      50218.233      36.893836      36.893836      36.893836    
   5040000   0.42474125    -7.9504432     -7.3133404      2.5583514      50218.233      36.893836      36.893836      36.893836    
   5050000   0.42537282    -7.9507582     -7.312708       2.5526599      50218.233      36.893836      36.893836      36.893836    
   5060000   0.42453466    -7.9484058     -7.3116129      2.5667941      50218.233      36.893836      36.893836      36.893836    
   5070000   0.42440183    -7.9492887     -7.312695       2.5614442      50218.233      36.893836      36.893836      36.893836    
   5080000   0.42337972    -7.9490842     -7.3140236      2.558257       50218.233      36.893836      36.893836      36.893836    
   5090000   0.42607815    -7.9506735     -7.3115654      2.5532063      50218.233      36.893836      36.893836      36.893836    
   5100000   0.42562281    -7.9505995     -7.3121743      2.5463656      50218.233      36.893836      36.893836      36.893836    
   5110000   0.42284674    -7.9529456     -7.3186845      2.5314043      50218.233      36.893836      36.893836      36.893836    
   5120000   0.42424846    -7.9512973     -7.3149337      2.5477664      50218.233      36.893836      36.893836      36.893836    
   5130000   0.42610294    -7.9502509     -7.3111056      2.5523858      50218.233      36.893836      36.893836      36.893836    
   5140000   0.42324817    -7.9496758     -7.3148126      2.5478386      50218.233      36.893836      36.893836      36.893836    
   5150000   0.4231152     -7.9508434     -7.3161797      2.5448937      50218.233      36.893836      36.893836      36.893836    
   5160000   0.42597557    -7.9493173     -7.310363       2.5664599      50218.233      36.893836      36.893836      36.893836    
   5170000   0.42596723    -7.949638      -7.3106962      2.5578678      50218.233      36.893836      36.893836      36.893836    
   5180000   0.42422497    -7.9528088     -7.3164804      2.5338307      50218.233      36.893836      36.893836      36.893836    
   5190000   0.42257358    -7.9497264     -7.315875       2.5568216      50218.233      36.893836      36.893836      36.893836    
   5200000   0.42538673    -7.9456542     -7.3075832      2.5872466      50218.233      36.893836      36.893836      36.893836    
   5210000   0.42540528    -7.9508204     -7.3127216      2.5554648      50218.233      36.893836      36.893836      36.893836    
   5220000   0.42538333    -7.9529585     -7.3148925      2.5338035      50218.233      36.893836      36.893836      36.893836    
   5230000   0.42413766    -7.9500704     -7.3138729      2.5483609      50218.233      36.893836      36.893836      36.893836    
   5240000   0.42631979    -7.9478337     -7.3083631      2.5707008      50218.233      36.893836      36.893836      36.893836    
   5250000   0.42539432    -7.9473992     -7.3093168      2.575469       50218.233      36.893836      36.893836      36.893836    
   5260000   0.42595816    -7.952367      -7.3134389      2.5459828      50218.233      36.893836      36.893836      36.893836    
   5270000   0.42471784    -7.9505489     -7.3134813      2.5495402      50218.233      36.893836      36.893836      36.893836    
   5280000   0.42564326    -7.9529018     -7.314446       2.5424133      50218.233      36.893836      36.893836      36.893836    
   5290000   0.42540426    -7.9507546     -7.3126573      2.5505452      50218.233      36.893836      36.893836      36.893836    
   5300000   0.42555548    -7.9519314     -7.3136073      2.5432854      50218.233      36.893836      36.893836      36.893836    
   5310000   0.42330209    -7.947479      -7.3125349      2.5612382      50218.233      36.893836      36.893836      36.893836    
   5320000   0.42495843    -7.9502615     -7.3128329      2.5613509      50218.233      36.893836      36.893836      36.893836    
   5330000   0.4246146     -7.9482754     -7.3113626      2.5849236      50218.233      36.893836      36.893836      36.893836    
   5340000   0.42532258    -7.9484795     -7.3105047      2.5629275      50218.233      36.893836      36.893836      36.893836    
   5350000   0.42502468    -7.946338      -7.30881        2.5866285      50218.233      36.893836      36.893836      36.893836    
   5360000   0.42659272    -7.9487142     -7.3088343      2.5586901      50218.233      36.893836      36.893836      36.893836    
   5370000   0.4236219     -7.9516753     -7.3162515      2.5370605      50218.233      36.893836      36.893836      36.893836    
   5380000   0.42414609    -7.9499112     -7.3137011      2.5487844      50218.233      36.893836      36.893836      36.893836    
   5390000   0.42544924    -7.9491894     -7.3110246      2.5560008      50218.233      36.893836      36.893836      36.893836    
   5400000   0.42668155    -7.9489447     -7.3089315      2.5650686      50218.233      36.893836      36.893836      36.893836    
   5410000   0.42572948    -7.9530843     -7.3144991      2.5418022      50218.233      36.893836      36.893836      36.893836    
   5420000   0.42597768    -7.9515708     -7.3126134      2.5407077      50218.233      36.893836      36.893836      36.893836    
   5430000   0.42667907    -7.9505059     -7.3104964      2.5624753      50218.233      36.893836      36.893836      36.893836    
   5440000   0.42404189    -7.9512714     -7.3152176      2.5411801      50218.233      36.893836      36.893836      36.893836    
   5450000   0.42649362    -7.9485712     -7.3088398      2.5643622      50218.233      36.893836      36.893836      36.893836    
   5460000   0.42706677    -7.9528495     -7.3122584      2.5310917      50218.233      36.893836      36.893836      36.893836    
   5470000   0.4238332     -7.9475763     -7.3118355      2.5804048      50218.233      36.893836      36.893836      36.893836    
   5480000   0.42583606    -7.9481285     -7.3093835      2.5686785      50218.233      36.893836      36.893836      36.893836    
   5490000   0.4284737     -7.9533621     -7.3106607      2.53616        50218.233      36.893836      36.893836      36.893836    
   5500000   0.42420107    -7.9542959     -7.3180034      2.5215274      50218.233      36.893836      36.893836      36.893836    
   5510000   0.42649958    -7.950687      -7.3109467      2.5566913      50218.233      36.893836      36.893836      36.893836    
   5520000   0.42320529    -7.9497877     -7.3149888      2.5536661      50218.233      36.893836      36.893836      36.893836    
   5530000   0.42401909    -7.9517465     -7.3157269      2.5344328      50218.233      36.893836      36.893836      36.893836    
   5540000   0.4253718     -7.9495726     -7.311524       2.565836       50218.233      36.893836      36.893836      36.893836    
   5550000   0.42481957    -7.9508738     -7.3136536      2.5551273      50218.233      36.893836      36.893836      36.893836    
   5560000   0.42471959    -7.9525116     -7.3154413      2.5336451      50218.233      36.893836      36.893836      36.893836    
   5570000   0.42515377    -7.9470332     -7.3093116      2.5743499      50218.233      36.893836      36.893836      36.893836    
   5580000   0.42497324    -7.9507288     -7.313278       2.5342211      50218.233      36.893836      36.893836      36.893836    
   5590000   0.42242927    -7.9493245     -7.3156896      2.548489       50218.233      36.893836      36.893836      36.893836    
   5600000   0.42352844    -7.9460641     -7.3107805      2.5793583      50218.233      36.893836      36.893836      36.893836    
   5610000   0.42679251    -7.9512241     -7.3110444      2.5474053      50218.233      36.893836      36.893836      36.893836    
   5620000   0.42489495    -7.9517447     -7.3144113      2.5346053      50218.233      36.893836      36.893836      36.893836    
   5630000   0.42379356    -7.9517304     -7.3160491      2.544083       50218.233      36.893836      36.893836      36.893836    
   5640000   0.42620409    -7.9481298     -7.3088328      2.5633562      50218.233      36.893836      36.893836      36.893836    
   5650000   0.42156949    -7.9512441     -7.3188989      2.5518416      50218.233      36.893836      36.893836      36.893836    
   5660000   0.42602658    -7.948953      -7.3099223      2.5673391      50218.233      36.893836      36.893836      36.893836    
   5670000   0.4274307     -7.9533856     -7.3122486      2.5400055      50218.233      36.893836      36.893836      36.893836    
   5680000   0.42592974    -7.9497163     -7.3108308      2.5564625      50218.233      36.893836      36.893836      36.893836    
   5690000   0.42456721    -7.9532797     -7.3164379      2.5394671      50218.233      36.893836      36.893836      36.893836    
   5700000   0.42476651    -7.9480637     -7.310923       2.5732047      50218.233      36.893836      36.893836      36.893836    
   5710000   0.42406661    -7.950376      -7.3142851      2.551226       50218.233      36.893836      36.893836      36.893836    
   5720000   0.42537387    -7.9505552     -7.3125035      2.546934       50218.233      36.893836      36.893836      36.893836    
   5730000   0.42519739    -7.9524913     -7.3147043      2.5358385      50218.233      36.893836      36.893836      36.893836    
   5740000   0.42728096    -7.9508149     -7.3099026      2.5569662      50218.233      36.893836      36.893836      36.893836    
   5750000   0.42369903    -7.9495287     -7.3139892      2.5555072      50218.233      36.893836      36.893836      36.893836    
   5760000   0.42540063    -7.951265      -7.3131732      2.5436667      50218.233      36.893836      36.893836      36.893836    
   5770000   0.42730928    -7.9485877     -7.3076329      2.5756156      50218.233      36.893836      36.893836      36.893836    
   5780000   0.42597471    -7.948449      -7.309496       2.5744838      50218.233      36.893836      36.893836      36.893836    
   5790000   0.42469373    -7.9503868     -7.3133552      2.5643654      50218.233      36.893836      36.893836      36.893836    
   5800000   0.42366173    -7.9523672     -7.3168837      2.5279328      50218.233      36.893836      36.893836      36.893836    
   5810000   0.42533456    -7.947076      -7.3090833      2.5715984      50218.233      36.893836      36.893836      36.893836    
   5820000   0.42504946    -7.9524789     -7.3149138      2.5336337      50218.233      36.893836      36.893836      36.893836    
   5830000   0.42639119    -7.9481356     -7.308558       2.577199       50218.233      36.893836      36.893836      36.893836    
   5840000   0.42403526    -7.9503161     -7.3142723      2.5495507      50218.233      36.893836      36.893836      36.893836    
   5850000   0.42580274    -7.9481987     -7.3095037      2.5716541      50218.233      36.893836      36.893836      36.893836    
   5860000   0.42640724    -7.9515291     -7.3119273      2.5455016      50218.233      36.893836      36.893836      36.893836    
   5870000   0.42775384    -7.9524762     -7.3108545      2.5398587      50218.233      36.893836      36.893836      36.893836    
   5880000   0.42488274    -7.9502378     -7.3129227      2.5512363      50218.233      36.893836      36.893836      36.893836    
   5890000   0.42563501    -7.9486478     -7.3102043      2.5626802      50218.233      36.893836      36.893836      36.893836    
   5900000   0.42371099    -7.9525574     -7.3169999      2.5240107      50218.233      36.893836      36.893836      36.893836    
   5910000   0.42555499    -7.9508315     -7.3125081      2.5507514      50218.233      36.893836      36.893836      36.893836    
   5920000   0.42569353    -7.9519589     -7.3134277      2.5346582      50218.233      36.893836      36.893836      36.893836    
   5930000   0.42614076    -7.9510193     -7.3118173      2.5367782      50218.233      36.893836      36.893836      36.893836    
   5940000   0.42476908    -7.9509925     -7.3138479      2.5555309      50218.233      36.893836      36.893836      36.893836    
   5950000   0.42490987    -7.9502813     -7.3129255      2.5509593      50218.233      36.893836      36.893836      36.893836    
   5960000   0.42380845    -7.9511337     -7.31543        2.5470551      50218.233      36.893836      36.893836      36.893836    
   5970000   0.42326289    -7.9519179     -7.3170326      2.5347593      50218.233      36.893836      36.893836      36.893836    
   5980000   0.42400889    -7.9499847     -7.3139804      2.5551795      50218.233      36.893836      36.893836      36.893836    
   5990000   0.42310577    -7.9523388     -7.3176892      2.5371617      50218.233      36.893836      36.893836      36.893836    
   6000000   0.42371055    -7.9530444     -7.3174876      2.5303702      50218.233      36.893836      36.893836      36.893836    
   6010000   0.42382183    -7.9526342     -7.3169105      2.5318578      50218.233      36.893836      36.893836      36.893836    
   6020000   0.42434046    -7.9542162     -7.3177146      2.5267547      50218.233      36.893836      36.893836      36.893836    
   6030000   0.42495548    -7.9508789     -7.3134548      2.548392       50218.233      36.893836      36.893836      36.893836    
   6040000   0.42404826    -7.9507337     -7.3146704      2.539685       50218.233      36.893836      36.893836      36.893836    
   6050000   0.42637553    -7.9524701     -7.3129159      2.5408889      50218.233      36.893836      36.893836      36.893836    
   6060000   0.42515805    -7.9496896     -7.3119616      2.5512223      50218.233      36.893836      36.893836      36.893836    
   6070000   0.42384061    -7.9520707     -7.3163188      2.5389158      50218.233      36.893836      36.893836      36.893836    
   6080000   0.42692561    -7.9537707     -7.3133914      2.5309638      50218.233      36.893836      36.893836      36.893836    
   6090000   0.42520676    -7.9507094     -7.3129083      2.5504478      50218.233      36.893836      36.893836      36.893836    
   6100000   0.42499111    -7.9479072     -7.3104296      2.5704214      50218.233      36.893836      36.893836      36.893836    
   6110000   0.42474481    -7.9526624     -7.3155543      2.5287255      50218.233      36.893836      36.893836      36.893836    
   6120000   0.42690893    -7.9505208     -7.3101665      2.5485634      50218.233      36.893836      36.893836      36.893836    
   6130000   0.42497877    -7.9542186     -7.3167596      2.5212081      50218.233      36.893836      36.893836      36.893836    
   6140000   0.42402736    -7.9455217     -7.3094897      2.5892651      50218.233      36.893836      36.893836      36.893836    
   6150000   0.42620704    -7.9502972     -7.3109957      2.5557687      50218.233      36.893836      36.893836      36.893836    
   6160000   0.42502284    -7.9518578     -7.3143326      2.5389107      50218.233      36.893836      36.893836      36.893836    
   6170000   0.42435018    -7.9490853     -7.3125691      2.5476363      50218.233      36.893836      36.893836      36.893836    
   6180000   0.42751261    -7.9485262     -7.3072664      2.5677797      50218.233      36.893836      36.893836      36.893836    
   6190000   0.42536253    -7.9516926     -7.3136579      2.5409315      50218.233      36.893836      36.893836      36.893836    
   6200000   0.42581735    -7.9484719     -7.309755       2.5736991      50218.233      36.893836      36.893836      36.893836    
   6210000   0.42581814    -7.9489645     -7.3102464      2.5624527      50218.233      36.893836      36.893836      36.893836    
   6220000   0.42559663    -7.9527715     -7.3143856      2.5303368      50218.233      36.893836      36.893836      36.893836    
   6230000   0.42663098    -7.9479249     -7.3079876      2.5754667      50218.233      36.893836      36.893836      36.893836    
   6240000   0.424407      -7.9502047     -7.3136033      2.5577528      50218.233      36.893836      36.893836      36.893836    
   6250000   0.42671963    -7.9488821     -7.3088117      2.5733555      50218.233      36.893836      36.893836      36.893836    
   6260000   0.42590667    -7.9532309     -7.31438        2.5180376      50218.233      36.893836      36.893836      36.893836    
   6270000   0.42499783    -7.9454836     -7.3079959      2.5859498      50218.233      36.893836      36.893836      36.893836    
   6280000   0.42631915    -7.9509254     -7.3114558      2.5497745      50218.233      36.893836      36.893836      36.893836    
   6290000   0.42466271    -7.9489481     -7.3119631      2.5598439      50218.233      36.893836      36.893836      36.893836    
   6300000   0.42532128    -7.9489314     -7.3109585      2.5559124      50218.233      36.893836      36.893836      36.893836    
   6310000   0.42417386    -7.9514486     -7.3151968      2.5406406      50218.233      36.893836      36.893836      36.893836    
   6320000   0.42621288    -7.9497715     -7.3104612      2.5579908      50218.233      36.893836      36.893836      36.893836    
   6330000   0.42435316    -7.9491848     -7.3126641      2.5653708      50218.233      36.893836      36.893836      36.893836    
   6340000   0.42431875    -7.9492548     -7.3127857      2.5552949      50218.233      36.893836      36.893836      36.893836    
   6350000   0.42549119    -7.9488158     -7.3105881      2.553466       50218.233      36.893836      36.893836      36.893836    
   6360000   0.42640004    -7.9502624     -7.3106714      2.5530723      50218.233      36.893836      36.893836      36.893836    
   6370000   0.42497697    -7.9502041     -7.3127478      2.5566046      50218.233      36.893836      36.893836      36.893836    
   6380000   0.42561114    -7.9518218     -7.3134142      2.5484636      50218.233      36.893836      36.893836      36.893836    
   6390000   0.42399248    -7.9508698     -7.3148901      2.5412021      50218.233      36.893836      36.893836      36.893836    
   6400000   0.42313996    -7.9498805     -7.3151796      2.558321       50218.233      36.893836      36.893836      36.893836    
   6410000   0.42523608    -7.9503295     -7.3124845      2.547818       50218.233      36.893836      36.893836      36.893836    
   6420000   0.42265301    -7.9535884     -7.3196179      2.5202986      50218.233      36.893836      36.893836      36.893836    
   6430000   0.42450321    -7.9521707     -7.315425       2.5410209      50218.233      36.893836      36.893836      36.893836    
   6440000   0.42357884    -7.955352      -7.3199928      2.5127254      50218.233      36.893836      36.893836      36.893836    
   6450000   0.42542202    -7.9513688     -7.3132448      2.5539402      50218.233      36.893836      36.893836      36.893836    
   6460000   0.4244483     -7.9516501     -7.3149867      2.5433471      50218.233      36.893836      36.893836      36.893836    
   6470000   0.42577236    -7.9515034     -7.312854       2.544245       50218.233      36.893836      36.893836      36.893836    
   6480000   0.42562378    -7.949647      -7.3112204      2.5480222      50218.233      36.893836      36.893836      36.893836    
   6490000   0.42346015    -7.9541764     -7.3189952      2.5174497      50218.233      36.893836      36.893836      36.893836    
   6500000   0.42485715    -7.9515256     -7.314249       2.5514405      50218.233      36.893836      36.893836      36.893836    
   6510000   0.42402119    -7.9510184     -7.3149957      2.5436153      50218.233      36.893836      36.893836      36.893836    
   6520000   0.42662453    -7.9519175     -7.3119898      2.5472197      50218.233      36.893836      36.893836      36.893836    
   6530000   0.42429095    -7.9485621     -7.3121347      2.5612133      50218.233      36.893836      36.893836      36.893836    
   6540000   0.42659508    -7.9522571     -7.3123736      2.5368728      50218.233      36.893836      36.893836      36.893836    
   6550000   0.42392158    -7.9527775     -7.3169042      2.5394469      50218.233      36.893836      36.893836      36.893836    
   6560000   0.42680846    -7.9517075     -7.3115039      2.5526119      50218.233      36.893836      36.893836      36.893836    
   6570000   0.42521217    -7.9558574     -7.3180482      2.5164613      50218.233      36.893836      36.893836      36.893836    
   6580000   0.422799      -7.9500576     -7.3158681      2.5420909      50218.233      36.893836      36.893836      36.893836    
   6590000   0.42514317    -7.953359      -7.3156534      2.5230121      50218.233      36.893836      36.893836      36.893836    
   6600000   0.42622249    -7.9513995     -7.3120749      2.5441756      50218.233      36.893836      36.893836      36.893836    
   6610000   0.42533606    -7.9498883     -7.3118933      2.5533865      50218.233      36.893836      36.893836      36.893836    
   6620000   0.42382344    -7.9483317     -7.3126055      2.5610951      50218.233      36.893836      36.893836      36.893836    
   6630000   0.42692701    -7.9546641     -7.3142827      2.534387       50218.233      36.893836      36.893836      36.893836    
   6640000   0.42468532    -7.9517121     -7.3146932      2.5430707      50218.233      36.893836      36.893836      36.893836    
   6650000   0.42638992    -7.9511157     -7.3115399      2.5450284      50218.233      36.893836      36.893836      36.893836    
   6660000   0.42414316    -7.9479973     -7.3117916      2.5715428      50218.233      36.893836      36.893836      36.893836    
   6670000   0.42564949    -7.9540631     -7.315598       2.5263064      50218.233      36.893836      36.893836      36.893836    
   6680000   0.42538541    -7.9552196     -7.3171506      2.5140199      50218.233      36.893836      36.893836      36.893836    
   6690000   0.42623505    -7.9514153     -7.3120718      2.5563141      50218.233      36.893836      36.893836      36.893836    
   6700000   0.42286061    -7.9497816     -7.3154997      2.5525403      50218.233      36.893836      36.893836      36.893836    
   6710000   0.42303272    -7.9522405     -7.3177005      2.5388892      50218.233      36.893836      36.893836      36.893836    
   6720000   0.42217885    -7.9490779     -7.3158187      2.5637231      50218.233      36.893836      36.893836      36.893836    
   6730000   0.42331982    -7.9506184     -7.3156477      2.5463303      50218.233      36.893836      36.893836      36.893836    
   6740000   0.4254473     -7.950532      -7.3123701      2.5582558      50218.233      36.893836      36.893836      36.893836    
   6750000   0.42513762    -7.950972      -7.3132746      2.5476744      50218.233      36.893836      36.893836      36.893836    
   6760000   0.4250036     -7.9490441     -7.3115478      2.5683         50218.233      36.893836      36.893836      36.893836    
   6770000   0.42564736    -7.9477745     -7.3093125      2.5710208      50218.233      36.893836      36.893836      36.893836    
   6780000   0.42533353    -7.949868      -7.3118768      2.5546536      50218.233      36.893836      36.893836      36.893836    
   6790000   0.42303337    -7.9512351     -7.316694       2.548287       50218.233      36.893836      36.893836      36.893836    
   6800000   0.42246152    -7.9511546     -7.3174713      2.5486267      50218.233      36.893836      36.893836      36.893836    
   6810000   0.42392595    -7.9490674     -7.3131876      2.5641699      50218.233      36.893836      36.893836      36.893836    
   6820000   0.42335413    -7.9491456     -7.3141234      2.5602536      50218.233      36.893836      36.893836      36.893836    
   6830000   0.42397693    -7.9500368     -7.3140805      2.5544589      50218.233      36.893836      36.893836      36.893836    
   6840000   0.42431095    -7.9515141     -7.3150567      2.5449241      50218.233      36.893836      36.893836      36.893836    
   6850000   0.42501396    -7.9496324     -7.3121206      2.5502998      50218.233      36.893836      36.893836      36.893836    
   6860000   0.42538211    -7.9493214     -7.3112573      2.5540896      50218.233      36.893836      36.893836      36.893836    
   6870000   0.42437836    -7.9549461     -7.3183876      2.5233081      50218.233      36.893836      36.893836      36.893836    
   6880000   0.42386942    -7.9519089     -7.3161138      2.529621       50218.233      36.893836      36.893836      36.893836    
   6890000   0.42261324    -7.9483114     -7.3144005      2.5512032      50218.233      36.893836      36.893836      36.893836    
   6900000   0.42790269    -7.9484144     -7.3065695      2.5598766      50218.233      36.893836      36.893836      36.893836    
   6910000   0.42355986    -7.9521543     -7.3168236      2.54036        50218.233      36.893836      36.893836      36.893836    
   6920000   0.42632151    -7.9484762     -7.3090031      2.5624507      50218.233      36.893836      36.893836      36.893836    
   6930000   0.42460036    -7.9510596     -7.3141681      2.5455635      50218.233      36.893836      36.893836      36.893836    
   6940000   0.42530006    -7.9557597     -7.3178187      2.5083594      50218.233      36.893836      36.893836      36.893836    
   6950000   0.42434973    -7.9523384     -7.3158228      2.5303776      50218.233      36.893836      36.893836      36.893836    
   6960000   0.42630831    -7.9504817     -7.3110283      2.5619         50218.233      36.893836      36.893836      36.893836    
   6970000   0.42503615    -7.9490307     -7.3114855      2.5682059      50218.233      36.893836      36.893836      36.893836    
   6980000   0.42564521    -7.951297      -7.3128382      2.5474896      50218.233      36.893836      36.893836      36.893836    
   6990000   0.42504141    -7.9500047     -7.3124517      2.5489885      50218.233      36.893836      36.893836      36.893836    
   7000000   0.42484092    -7.9523299     -7.3150776      2.5320536      50218.233      36.893836      36.893836      36.893836    
   7010000   0.42838263    -7.9518275     -7.3092627      2.5413507      50218.233      36.893836      36.893836      36.893836    
   7020000   0.42606208    -7.9498297     -7.3107456      2.5616724      50218.233      36.893836      36.893836      36.893836    
   7030000   0.42477883    -7.9495471     -7.3123879      2.5531369      50218.233      36.893836      36.893836      36.893836    
   7040000   0.42565697    -7.9499078     -7.3114314      2.5551625      50218.233      36.893836      36.893836      36.893836    
   7050000   0.42398653    -7.9515298     -7.315559       2.5399601      50218.233      36.893836      36.893836      36.893836    
   7060000   0.42177873    -7.9562965     -7.3236374      2.499134       50218.233      36.893836      36.893836      36.893836    
   7070000   0.42464978    -7.9493625     -7.3123969      2.5649964      50218.233      36.893836      36.893836      36.893836    
   7080000   0.42746049    -7.9510566     -7.309875       2.5393999      50218.233      36.893836      36.893836      36.893836    
   7090000   0.42425225    -7.9501478     -7.3137785      2.5542196      50218.233      36.893836      36.893836      36.893836    
   7100000   0.42315361    -7.9498979     -7.3151765      2.5528451      50218.233      36.893836      36.893836      36.893836    
   7110000   0.42344008    -7.9534739     -7.3183228      2.5300056      50218.233      36.893836      36.893836      36.893836    
   7120000   0.42289844    -7.9532225     -7.3188838      2.5313475      50218.233      36.893836      36.893836      36.893836    
   7130000   0.42613695    -7.9500192     -7.3108229      2.5534132      50218.233      36.893836      36.893836      36.893836    
   7140000   0.42580862    -7.9482654     -7.3095616      2.5589756      50218.233      36.893836      36.893836      36.893836    
   7150000   0.42559269    -7.9528817     -7.3145017      2.5456815      50218.233      36.893836      36.893836      36.893836    
   7160000   0.42504096    -7.9546953     -7.317143       2.5096452      50218.233      36.893836      36.893836      36.893836    
   7170000   0.42391907    -7.9485091     -7.3126396      2.5610689      50218.233      36.893836      36.893836      36.893836    
   7180000   0.42573398    -7.9485899     -7.309998       2.5549988      50218.233      36.893836      36.893836      36.893836    
   7190000   0.4241331     -7.9478483     -7.3116577      2.567727       50218.233      36.893836      36.893836      36.893836    
   7200000   0.42589495    -7.9507946     -7.3119613      2.5440838      50218.233      36.893836      36.893836      36.893836    
   7210000   0.42714498    -7.9498992     -7.3091909      2.5617462      50218.233      36.893836      36.893836      36.893836    
   7220000   0.42681262    -7.9497315     -7.3095217      2.5619343      50218.233      36.893836      36.893836      36.893836    
   7230000   0.42743933    -7.9528302     -7.3116803      2.5200008      50218.233      36.893836      36.893836      36.893836    
   7240000   0.42400267    -7.9526684     -7.3166734      2.5291807      50218.233      36.893836      36.893836      36.893836    
   7250000   0.42524358    -7.9510106     -7.3131543      2.5473421      50218.233      36.893836      36.893836      36.893836    
   7260000   0.42595932    -7.9497898     -7.3108599      2.5570727      50218.233      36.893836      36.893836      36.893836    
   7270000   0.42674676    -7.9507617     -7.3106507      2.5529488      50218.233      36.893836      36.893836      36.893836    
   7280000   0.42294676    -7.9534715     -7.3190604      2.5222475      50218.233      36.893836      36.893836      36.893836    
   7290000   0.42487766    -7.9479513     -7.3106439      2.5687047      50218.233      36.893836      36.893836      36.893836    
   7300000   0.42486358    -7.9518578     -7.3145715      2.5424645      50218.233      36.893836      36.893836      36.893836    
   7310000   0.42476196    -7.9535818     -7.3164479      2.5285289      50218.233      36.893836      36.893836      36.893836    
   7320000   0.42322835    -7.9534528     -7.3186193      2.528452       50218.233      36.893836      36.893836      36.893836    
   7330000   0.42646667    -7.9493379     -7.309647       2.5558524      50218.233      36.893836      36.893836      36.893836    
   7340000   0.42604781    -7.9506528     -7.3115902      2.5531477      50218.233      36.893836      36.893836      36.893836    
   7350000   0.42508231    -7.9482227     -7.3106083      2.559676       50218.233      36.893836      36.893836      36.893836    
   7360000   0.42390234    -7.9502061     -7.3143617      2.5499067      50218.233      36.893836      36.893836      36.893836    
   7370000   0.42257055    -7.94879       -7.3149432      2.5518668      50218.233      36.893836      36.893836      36.893836    
   7380000   0.42584056    -7.9514606     -7.3127089      2.5471459      50218.233      36.893836      36.893836      36.893836    
   7390000   0.42488996    -7.9479205     -7.3105946      2.5656208      50218.233      36.893836      36.893836      36.893836    
   7400000   0.42356976    -7.9521447     -7.3167991      2.5316646      50218.233      36.893836      36.893836      36.893836    
   7410000   0.42495945    -7.94967       -7.3122399      2.5622993      50218.233      36.893836      36.893836      36.893836    
   7420000   0.42721195    -7.9509481     -7.3101392      2.53544        50218.233      36.893836      36.893836      36.893836    
   7430000   0.42315643    -7.9509672     -7.3162416      2.5396759      50218.233      36.893836      36.893836      36.893836    
   7440000   0.42415406    -7.9524262     -7.3162041      2.5277108      50218.233      36.893836      36.893836      36.893836    
   7450000   0.42552502    -7.9534174     -7.3151389      2.5286919      50218.233      36.893836      36.893836      36.893836    
   7460000   0.42317366    -7.9530641     -7.3183127      2.5178558      50218.233      36.893836      36.893836      36.893836    
   7470000   0.42377946    -7.951175      -7.3155148      2.5309257      50218.233      36.893836      36.893836      36.893836    
   7480000   0.42220621    -7.9506919     -7.3173916      2.5458738      50218.233      36.893836      36.893836      36.893836    
   7490000   0.42604169    -7.9511044     -7.3120509      2.5338159      50218.233      36.893836      36.893836      36.893836    
   7500000   0.42533365    -7.95022       -7.3122286      2.554974       50218.233      36.893836      36.893836      36.893836    
   7510000   0.42364945    -7.9529871     -7.317522       2.5379652      50218.233      36.893836      36.893836      36.893836    
   7520000   0.42329587    -7.9502443     -7.3153095      2.5446666      50218.233      36.893836      36.893836      36.893836    
   7530000   0.42662509    -7.948984      -7.3090555      2.5708183      50218.233      36.893836      36.893836      36.893836    
   7540000   0.42575526    -7.9492202     -7.3105964      2.559222       50218.233      36.893836      36.893836      36.893836    
   7550000   0.42382474    -7.9509972     -7.3152691      2.5423738      50218.233      36.893836      36.893836      36.893836    
   7560000   0.42529295    -7.9505726     -7.3126422      2.5502043      50218.233      36.893836      36.893836      36.893836    
   7570000   0.42546293    -7.9493478     -7.3111625      2.5582914      50218.233      36.893836      36.893836      36.893836    
   7580000   0.42676502    -7.9522141     -7.3120757      2.5266448      50218.233      36.893836      36.893836      36.893836    
   7590000   0.42422253    -7.9536809     -7.3173561      2.5287097      50218.233      36.893836      36.893836      36.893836    
   7600000   0.42598395    -7.9470317     -7.3080649      2.5704265      50218.233      36.893836      36.893836      36.893836    
   7610000   0.42534966    -7.9476601     -7.3096447      2.5693248      50218.233      36.893836      36.893836      36.893836    
   7620000   0.42663037    -7.9465305     -7.306594       2.5824779      50218.233      36.893836      36.893836      36.893836    
   7630000   0.42578479    -7.9524345     -7.3137664      2.543269       50218.233      36.893836      36.893836      36.893836    
   7640000   0.4245375     -7.9495215     -7.3127244      2.5560948      50218.233      36.893836      36.893836      36.893836    
   7650000   0.4236246     -7.9493604     -7.3139325      2.554742       50218.233      36.893836      36.893836      36.893836    
   7660000   0.42707626    -7.9520458     -7.3114405      2.5458204      50218.233      36.893836      36.893836      36.893836    
   7670000   0.42322356    -7.9532956     -7.3184693      2.5255379      50218.233      36.893836      36.893836      36.893836    
   7680000   0.42431338    -7.9512539     -7.3147928      2.551709       50218.233      36.893836      36.893836      36.893836    
   7690000   0.42365905    -7.9522662     -7.3167866      2.5336518      50218.233      36.893836      36.893836      36.893836    
   7700000   0.42487351    -7.9522686     -7.3149674      2.5368549      50218.233      36.893836      36.893836      36.893836    
   7710000   0.42487446    -7.9504464     -7.3131437      2.5511202      50218.233      36.893836      36.893836      36.893836    
   7720000   0.42701554    -7.9523456     -7.3118314      2.5454242      50218.233      36.893836      36.893836      36.893836    
   7730000   0.42361129    -7.9503679     -7.31496        2.5532219      50218.233      36.893836      36.893836      36.893836    
   7740000   0.42488396    -7.9521874     -7.3148706      2.5331476      50218.233      36.893836      36.893836      36.893836    
   7750000   0.42393145    -7.952028      -7.3161399      2.5430614      50218.233      36.893836      36.893836      36.893836    
   7760000   0.42461346    -7.951473      -7.3145619      2.53724        50218.233      36.893836      36.893836      36.893836    
   7770000   0.42645421    -7.9510619     -7.3113897      2.5330957      50218.233      36.893836      36.893836      36.893836    
   7780000   0.42250668    -7.9506259     -7.3168749      2.541297       50218.233      36.893836      36.893836      36.893836    
   7790000   0.42172043    -7.9519062     -7.3193346      2.5381647      50218.233      36.893836      36.893836      36.893836    
   7800000   0.42459597    -7.9484511     -7.3115663      2.568186       50218.233      36.893836      36.893836      36.893836    
   7810000   0.42339486    -7.9500259     -7.3149427      2.5432064      50218.233      36.893836      36.893836      36.893836    
   7820000   0.42492268    -7.9522153     -7.3148403      2.5270573      50218.233      36.893836      36.893836      36.893836    
   7830000   0.42492906    -7.953144      -7.3157595      2.5346942      50218.233      36.893836      36.893836      36.893836    
   7840000   0.42628928    -7.9500291     -7.3106043      2.5612932      50218.233      36.893836      36.893836      36.893836    
   7850000   0.42579041    -7.9522897     -7.3136131      2.5439985      50218.233      36.893836      36.893836      36.893836    
   7860000   0.42502872    -7.9494918     -7.3119578      2.5507322      50218.233      36.893836      36.893836      36.893836    
   7870000   0.42431592    -7.9534504     -7.3169856      2.5320748      50218.233      36.893836      36.893836      36.893836    
   7880000   0.42895808    -7.9487443     -7.3053163      2.5739902      50218.233      36.893836      36.893836      36.893836    
   7890000   0.42571466    -7.9539768     -7.3154139      2.5235162      50218.233      36.893836      36.893836      36.893836    
   7900000   0.42649686    -7.950439      -7.3107028      2.5574986      50218.233      36.893836      36.893836      36.893836    
   7910000   0.427233      -7.9526305     -7.3117901      2.538352       50218.233      36.893836      36.893836      36.893836    
   7920000   0.4279648     -7.9474432     -7.3055051      2.5751405      50218.233      36.893836      36.893836      36.893836    
   7930000   0.42624193    -7.9501431     -7.3107893      2.5592841      50218.233      36.893836      36.893836      36.893836    
   7940000   0.42670731    -7.9544298     -7.3143779      2.5219238      50218.233      36.893836      36.893836      36.893836    
   7950000   0.42475842    -7.9522333     -7.3151048      2.5379213      50218.233      36.893836      36.893836      36.893836    
   7960000   0.4253961     -7.9515945     -7.3135094      2.5479823      50218.233      36.893836      36.893836      36.893836    
   7970000   0.4247442     -7.9479787     -7.3108715      2.5750136      50218.233      36.893836      36.893836      36.893836    
   7980000   0.42388881    -7.9508953     -7.3150712      2.5409753      50218.233      36.893836      36.893836      36.893836    
   7990000   0.42276382    -7.9528466     -7.3187099      2.5300318      50218.233      36.893836      36.893836      36.893836    
   8000000   0.42463021    -7.9531313     -7.316195       2.5255837      50218.233      36.893836      36.893836      36.893836    
Loop time of 12678.1 on 5 procs for 8000000 steps with 70304 atoms

Performance: 545191.305 tau/day, 631.008 timesteps/s, 44.362 Matom-step/s
93.8% CPU use with 5 MPI tasks x 1 OpenMP threads

MPI task timing breakdown:
Section |  min time  |  avg time  |  max time  |%varavg| %total
---------------------------------------------------------------
Pair    | 3505.2     | 4706.3     | 6069.1     |1321.7 | 37.12
Neigh   | 39.335     | 41.639     | 43.077     |  24.4 |  0.33
Comm    | 1878       | 1895.2     | 1905.7     |  22.6 | 14.95
Output  | 0.1445     | 0.15029    | 0.16109    |   1.5 |  0.00
Modify  | 4035.4     | 5378.4     | 6591.1     |1232.3 | 42.42
Other   |            | 656.4      |            |       |  5.18

Nlocal:        14060.8 ave       14096 max       14036 min
Histogram: 1 0 1 0 2 0 0 0 0 1
Nghost:        18727.6 ave       18790 max       18686 min
Histogram: 1 0 2 0 0 1 0 0 0 1
Neighs:              0 ave           0 max           0 min
Histogram: 5 0 0 0 0 0 0 0 0 0

Total # of neighbors = 0
Ave neighs/atom = 0
Neighbor list builds = 1583441
Dangerous builds = 0
Total wall time: 35:13:46
