variable TLJ equal (${T}/1000)
variable TLJ equal (545/1000)
variable NCyle equal 8
variable iStep equal (${f})
variable iStep equal (10000)
variable dumpStep equal (${f}*100)
variable dumpStep equal (10000*100)
variable runStep equal (${f}*100*${NCyle})
variable runStep equal (10000*100*${NCyle})
variable runStep equal (10000*100*8)

units       lj
atom_style  atomic
dimension 3
boundary     p p p
pair_style  lj/cut 2.5
read_data  ../data/T${T}.dat
read_data  ../data/T545.dat
Reading data file ...
  orthogonal box = (0.97250269 0.97250269 0.97250269) to (37.866338 37.866338 37.866338)
  1 by 1 by 5 MPI processor grid
  reading atoms ...
  70304 atoms
  reading velocities ...
  70304 velocities
  read_data CPU = 0.209 seconds
change_box all triclinic
Changing box ...
  triclinic box = (0.97250269 0.97250269 0.97250269) to (37.866338 37.866338 37.866338) with tilt (0 0 0)
mass 1 1
mass 2 1
pair_modify shift yes
pair_coeff  1 1 1 1
pair_coeff  1 2 1.5 0.8
pair_coeff  2 2 0.5 0.88


timestep 0.01
thermo ${iStep}
thermo 10000
reset_timestep 0
thermo_style custom step temp pe etotal press vol lx ly lz
fix             1 all nvt temp ${TLJ}  ${TLJ}  0.1
fix             1 all nvt temp 0.545  ${TLJ}  0.1
fix             1 all nvt temp 0.545  0.545  0.1
thermo_modify flush yes

fix dsf all deform 1 xy  wiggle 0.5  ${f}   units box
fix dsf all deform 1 xy  wiggle 0.5  10000   units box
fix ps1 all ave/time 1 1 ${iStep} c_thermo_press[1] c_thermo_press[2]  c_thermo_press[3] c_thermo_press[4]  c_thermo_press[5] c_thermo_press[6]  file  stress.${T}
fix ps1 all ave/time 1 1 10000 c_thermo_press[1] c_thermo_press[2]  c_thermo_press[3] c_thermo_press[4]  c_thermo_press[5] c_thermo_press[6]  file  stress.${T}
fix ps1 all ave/time 1 1 10000 c_thermo_press[1] c_thermo_press[2]  c_thermo_press[3] c_thermo_press[4]  c_thermo_press[5] c_thermo_press[6]  file  stress.545
dump            1 all custom ${dumpStep} dump.${T} id type x y z
dump            1 all custom 1000000 dump.${T} id type x y z
dump            1 all custom 1000000 dump.545 id type x y z
dump_modify 1 sort id
fix nodrift all momentum 1  linear 1 1 1
fix com_seed all recenter INIT INIT INIT shift all
run ${runStep}
run 8000000
Generated 0 of 1 mixed pair_coeff terms from geometric mixing rule
Per MPI rank memory allocation (min/avg/max) = 6.664 | 8.019 | 8.924 Mbytes
   Step          Temp          PotEng         TotEng         Press          Volume           Lx             Ly             Lz      
         0   0.54674483    -7.7247533     -6.9046477      4.3965535      50218.233      36.893836      36.893836      36.893836    
     10000   0.54382496    -7.719305      -6.9035792      4.4309909      50218.233      36.893836      36.893836      36.893836    
     20000   0.5469436     -7.7202282     -6.8998245      4.4222502      50218.233      36.893836      36.893836      36.893836    
     30000   0.54425176    -7.7193121     -6.9029461      4.4283208      50218.233      36.893836      36.893836      36.893836    
     40000   0.54122628    -7.7177203     -6.9058924      4.437525       50218.233      36.893836      36.893836      36.893836    
     50000   0.54528211    -7.7234277     -6.9055162      4.383036       50218.233      36.893836      36.893836      36.893836    
     60000   0.54325396    -7.7199068     -6.9050374      4.4149234      50218.233      36.893836      36.893836      36.893836    
     70000   0.54475701    -7.7167909     -6.899667       4.4440296      50218.233      36.893836      36.893836      36.893836    
     80000   0.54320306    -7.7229866     -6.9081936      4.4024936      50218.233      36.893836      36.893836      36.893836    
     90000   0.54545145    -7.7200859     -6.9019203      4.4171376      50218.233      36.893836      36.893836      36.893836    
    100000   0.54514022    -7.7176525     -6.8999538      4.4362266      50218.233      36.893836      36.893836      36.893836    
    110000   0.54695442    -7.7175592     -6.8971393      4.4480664      50218.233      36.893836      36.893836      36.893836    
    120000   0.54182928    -7.717419      -6.9046867      4.4381926      50218.233      36.893836      36.893836      36.893836    
    130000   0.54645657    -7.7194281     -6.8997549      4.4228626      50218.233      36.893836      36.893836      36.893836    
    140000   0.5453791     -7.7146066     -6.8965496      4.4574321      50218.233      36.893836      36.893836      36.893836    
    150000   0.54710604    -7.7214023     -6.9007549      4.4165796      50218.233      36.893836      36.893836      36.893836    
    160000   0.54727849    -7.7211624     -6.9002564      4.4218451      50218.233      36.893836      36.893836      36.893836    
    170000   0.5439318     -7.7176575     -6.9017714      4.4374586      50218.233      36.893836      36.893836      36.893836    
    180000   0.54336758    -7.7192148     -6.904175       4.432448       50218.233      36.893836      36.893836      36.893836    
    190000   0.54659611    -7.7185604     -6.8986779      4.4414091      50218.233      36.893836      36.893836      36.893836    
    200000   0.54442732    -7.7190883     -6.902459       4.4305126      50218.233      36.893836      36.893836      36.893836    
    210000   0.5472604     -7.7188793     -6.8980004      4.4287649      50218.233      36.893836      36.893836      36.893836    
    220000   0.54405819    -7.7208958     -6.9048201      4.4041967      50218.233      36.893836      36.893836      36.893836    
    230000   0.5441693     -7.7166814     -6.900439       4.4433145      50218.233      36.893836      36.893836      36.893836    
    240000   0.54851043    -7.7145825     -6.8918286      4.4568533      50218.233      36.893836      36.893836      36.893836    
    250000   0.54025024    -7.7176823     -6.9073185      4.4306319      50218.233      36.893836      36.893836      36.893836    
    260000   0.54210799    -7.7204079     -6.9072574      4.4242821      50218.233      36.893836      36.893836      36.893836    
    270000   0.54670491    -7.7177218     -6.8976761      4.4352611      50218.233      36.893836      36.893836      36.893836    
    280000   0.54703826    -7.7190167     -6.8984709      4.4310866      50218.233      36.893836      36.893836      36.893836    
    290000   0.5443561     -7.7184169     -6.9018943      4.4294412      50218.233      36.893836      36.893836      36.893836    
    300000   0.54682448    -7.7159599     -6.8957349      4.4563895      50218.233      36.893836      36.893836      36.893836    
    310000   0.5443983     -7.7171301     -6.9005443      4.4475795      50218.233      36.893836      36.893836      36.893836    
    320000   0.54725623    -7.716223      -6.8953503      4.45627        50218.233      36.893836      36.893836      36.893836    
    330000   0.54333137    -7.7201221     -6.9051366      4.424011       50218.233      36.893836      36.893836      36.893836    
    340000   0.54280698    -7.7204679     -6.906269       4.4135136      50218.233      36.893836      36.893836      36.893836    
    350000   0.54213192    -7.7169655     -6.9037792      4.4442117      50218.233      36.893836      36.893836      36.893836    
    360000   0.54674197    -7.7171759     -6.8970746      4.4383739      50218.233      36.893836      36.893836      36.893836    
    370000   0.54501132    -7.7164345     -6.8989291      4.445937       50218.233      36.893836      36.893836      36.893836    
    380000   0.54789187    -7.7212333     -6.8994072      4.4228238      50218.233      36.893836      36.893836      36.893836    
    390000   0.54576795    -7.7129573     -6.894317       4.4721767      50218.233      36.893836      36.893836      36.893836    
    400000   0.54356071    -7.7197088     -6.9043794      4.4178895      50218.233      36.893836      36.893836      36.893836    
    410000   0.54646169    -7.7186793     -6.8989985      4.430763       50218.233      36.893836      36.893836      36.893836    
    420000   0.54439169    -7.7154058     -6.8988299      4.465899       50218.233      36.893836      36.893836      36.893836    
    430000   0.54273167    -7.714803      -6.900717       4.4611732      50218.233      36.893836      36.893836      36.893836    
    440000   0.54518072    -7.7180314     -6.900272       4.4243039      50218.233      36.893836      36.893836      36.893836    
    450000   0.54935876    -7.7198423     -6.8958159      4.4333197      50218.233      36.893836      36.893836      36.893836    
    460000   0.54262334    -7.7181957     -6.9042722      4.4340311      50218.233      36.893836      36.893836      36.893836    
    470000   0.54269638    -7.7200798     -6.9060468      4.4197961      50218.233      36.893836      36.893836      36.893836    
    480000   0.54316834    -7.7154496     -6.9007087      4.4594073      50218.233      36.893836      36.893836      36.893836    
    490000   0.54491308    -7.7180103     -6.9006523      4.4434903      50218.233      36.893836      36.893836      36.893836    
    500000   0.54497324    -7.714698      -6.8972497      4.460918       50218.233      36.893836      36.893836      36.893836    
    510000   0.54674494    -7.7158627     -6.8957569      4.4644734      50218.233      36.893836      36.893836      36.893836    
    520000   0.54586822    -7.7180866     -6.899296       4.4307188      50218.233      36.893836      36.893836      36.893836    
    530000   0.54824508    -7.7171015     -6.8947456      4.4390928      50218.233      36.893836      36.893836      36.893836    
    540000   0.548812      -7.7208967     -6.8976904      4.4204611      50218.233      36.893836      36.893836      36.893836    
    550000   0.54507312    -7.7167463     -6.8991482      4.4391271      50218.233      36.893836      36.893836      36.893836    
    560000   0.54433283    -7.7196297     -6.9031421      4.4117938      50218.233      36.893836      36.893836      36.893836    
    570000   0.54386978    -7.7196779     -6.9038848      4.4146901      50218.233      36.893836      36.893836      36.893836    
    580000   0.54430045    -7.719235      -6.902796       4.4241093      50218.233      36.893836      36.893836      36.893836    
    590000   0.55009977    -7.7145023     -6.8893643      4.4744867      50218.233      36.893836      36.893836      36.893836    
    600000   0.54483528    -7.7189634     -6.9017221      4.4306086      50218.233      36.893836      36.893836      36.893836    
    610000   0.54484856    -7.7207338     -6.9034726      4.4131277      50218.233      36.893836      36.893836      36.893836    
    620000   0.54475997    -7.7153091     -6.8981808      4.4579698      50218.233      36.893836      36.893836      36.893836    
    630000   0.54473349    -7.7165651     -6.8994765      4.4425454      50218.233      36.893836      36.893836      36.893836    
    640000   0.54435652    -7.7111051     -6.8945819      4.496187       50218.233      36.893836      36.893836      36.893836    
    650000   0.54525082    -7.7166963     -6.8988317      4.4391564      50218.233      36.893836      36.893836      36.893836    
    660000   0.54654165    -7.7163681     -6.8965672      4.4503315      50218.233      36.893836      36.893836      36.893836    
    670000   0.5458113     -7.7144401     -6.8957348      4.4684129      50218.233      36.893836      36.893836      36.893836    
    680000   0.54779815    -7.7167283     -6.8950428      4.4436548      50218.233      36.893836      36.893836      36.893836    
    690000   0.54411898    -7.7218349     -6.905668       4.4060537      50218.233      36.893836      36.893836      36.893836    
    700000   0.54763754    -7.7180454     -6.8966008      4.4409262      50218.233      36.893836      36.893836      36.893836    
    710000   0.5437234     -7.7163542     -6.9007807      4.4462296      50218.233      36.893836      36.893836      36.893836    
    720000   0.54654621    -7.7139033     -6.8940956      4.4587897      50218.233      36.893836      36.893836      36.893836    
    730000   0.54553678    -7.7135907     -6.8952971      4.4808137      50218.233      36.893836      36.893836      36.893836    
    740000   0.5459497     -7.7113577     -6.8924448      4.5021696      50218.233      36.893836      36.893836      36.893836    
    750000   0.54528628    -7.7142231     -6.8963053      4.4684649      50218.233      36.893836      36.893836      36.893836    
    760000   0.54636052    -7.7111266     -6.8915974      4.4854205      50218.233      36.893836      36.893836      36.893836    
    770000   0.54527834    -7.7117558     -6.89385        4.4887985      50218.233      36.893836      36.893836      36.893836    
    780000   0.5429656     -7.7137154     -6.8992786      4.4700141      50218.233      36.893836      36.893836      36.893836    
    790000   0.54924488    -7.7115952     -6.8877396      4.4801479      50218.233      36.893836      36.893836      36.893836    
    800000   0.54566573    -7.7136708     -6.8951839      4.4620467      50218.233      36.893836      36.893836      36.893836    
    810000   0.54187998    -7.7152371     -6.9024287      4.4628959      50218.233      36.893836      36.893836      36.893836    
    820000   0.54533529    -7.7113787     -6.8933874      4.4861832      50218.233      36.893836      36.893836      36.893836    
    830000   0.54695789    -7.7123267     -6.8919016      4.4763008      50218.233      36.893836      36.893836      36.893836    
    840000   0.54544239    -7.7162692     -6.8981172      4.4434715      50218.233      36.893836      36.893836      36.893836    
    850000   0.54501149    -7.7135955     -6.8960899      4.4662433      50218.233      36.893836      36.893836      36.893836    
    860000   0.54491593    -7.7104345     -6.8930722      4.502426       50218.233      36.893836      36.893836      36.893836    
    870000   0.54329793    -7.7170733     -6.902138       4.4389017      50218.233      36.893836      36.893836      36.893836    
    880000   0.54447904    -7.7148341     -6.8981272      4.4653729      50218.233      36.893836      36.893836      36.893836    
    890000   0.54684701    -7.7116997     -6.8914408      4.4908953      50218.233      36.893836      36.893836      36.893836    
    900000   0.54243617    -7.7187047     -6.905062       4.4216879      50218.233      36.893836      36.893836      36.893836    
    910000   0.54145257    -7.7180714     -6.9059041      4.4259022      50218.233      36.893836      36.893836      36.893836    
    920000   0.54367722    -7.7208805     -6.9053763      4.4209345      50218.233      36.893836      36.893836      36.893836    
    930000   0.54543041    -7.7207068     -6.9025728      4.416188       50218.233      36.893836      36.893836      36.893836    
    940000   0.54577595    -7.7191944     -6.9005422      4.4375828      50218.233      36.893836      36.893836      36.893836    
    950000   0.54650576    -7.719734      -6.899987       4.4170214      50218.233      36.893836      36.893836      36.893836    
    960000   0.54474826    -7.7166695     -6.8995587      4.4485311      50218.233      36.893836      36.893836      36.893836    
    970000   0.54391703    -7.7149134     -6.8990494      4.4672288      50218.233      36.893836      36.893836      36.893836    
    980000   0.54903076    -7.7198909     -6.8963564      4.4408663      50218.233      36.893836      36.893836      36.893836    
    990000   0.54664104    -7.7181809     -6.898231       4.4305543      50218.233      36.893836      36.893836      36.893836    
   1000000   0.54628003    -7.7153365     -6.8959282      4.4520141      50218.233      36.893836      36.893836      36.893836    
   1010000   0.5436247     -7.7199411     -6.9045157      4.4338057      50218.233      36.893836      36.893836      36.893836    
   1020000   0.54671129    -7.7176122     -6.8975569      4.4482287      50218.233      36.893836      36.893836      36.893836    
   1030000   0.54555972    -7.7138349     -6.8955069      4.4669968      50218.233      36.893836      36.893836      36.893836    
   1040000   0.54449802    -7.7181712     -6.9014358      4.4313181      50218.233      36.893836      36.893836      36.893836    
   1050000   0.54443345    -7.7125959     -6.8959573      4.4691675      50218.233      36.893836      36.893836      36.893836    
   1060000   0.54420052    -7.7151174     -6.8988282      4.4545088      50218.233      36.893836      36.893836      36.893836    
   1070000   0.54446371    -7.7195768     -6.9028929      4.4200035      50218.233      36.893836      36.893836      36.893836    
   1080000   0.54347194    -7.7154069     -6.9002106      4.4536262      50218.233      36.893836      36.893836      36.893836    
   1090000   0.54568998    -7.71487       -6.8963466      4.4580192      50218.233      36.893836      36.893836      36.893836    
   1100000   0.54574261    -7.7163219     -6.8977196      4.4399155      50218.233      36.893836      36.893836      36.893836    
   1110000   0.5427368     -7.7162132     -6.9021196      4.4518154      50218.233      36.893836      36.893836      36.893836    
   1120000   0.54464219    -7.7157636     -6.8988119      4.4482648      50218.233      36.893836      36.893836      36.893836    
   1130000   0.54414498    -7.7142907     -6.8980848      4.4503913      50218.233      36.893836      36.893836      36.893836    
   1140000   0.54636825    -7.7162694     -6.8967286      4.4370879      50218.233      36.893836      36.893836      36.893836    
   1150000   0.54408545    -7.7164644     -6.9003478      4.447158       50218.233      36.893836      36.893836      36.893836    
   1160000   0.54289002    -7.7146826     -6.9003592      4.4370538      50218.233      36.893836      36.893836      36.893836    
   1170000   0.54399107    -7.7169193     -6.9009443      4.4365091      50218.233      36.893836      36.893836      36.893836    
   1180000   0.54762732    -7.7140557     -6.8926264      4.4738062      50218.233      36.893836      36.893836      36.893836    
   1190000   0.54467891    -7.7172028     -6.9001961      4.427716       50218.233      36.893836      36.893836      36.893836    
   1200000   0.54702933    -7.7224118     -6.9018795      4.4076885      50218.233      36.893836      36.893836      36.893836    
   1210000   0.54603024    -7.7181613     -6.8991276      4.4230626      50218.233      36.893836      36.893836      36.893836    
   1220000   0.54481215    -7.7152496     -6.898043       4.4540644      50218.233      36.893836      36.893836      36.893836    
   1230000   0.54919828    -7.7183533     -6.8945676      4.4312475      50218.233      36.893836      36.893836      36.893836    
   1240000   0.54891376    -7.7232235     -6.8998645      4.399286       50218.233      36.893836      36.893836      36.893836    
   1250000   0.54519671    -7.7172087     -6.8994252      4.4274718      50218.233      36.893836      36.893836      36.893836    
   1260000   0.54275316    -7.7203049     -6.9061867      4.4015697      50218.233      36.893836      36.893836      36.893836    
   1270000   0.54561477    -7.7214199     -6.9030094      4.3980791      50218.233      36.893836      36.893836      36.893836    
   1280000   0.54690416    -7.7193731     -6.8990285      4.4222896      50218.233      36.893836      36.893836      36.893836    
   1290000   0.54614338    -7.7165311     -6.8973277      4.4470447      50218.233      36.893836      36.893836      36.893836    
   1300000   0.54660034    -7.7137596     -6.8938708      4.4706209      50218.233      36.893836      36.893836      36.893836    
   1310000   0.54560955    -7.7125295     -6.8941268      4.4797062      50218.233      36.893836      36.893836      36.893836    
   1320000   0.54611307    -7.717874      -6.898716       4.4351556      50218.233      36.893836      36.893836      36.893836    
   1330000   0.5464691     -7.7158477     -6.8961558      4.459912       50218.233      36.893836      36.893836      36.893836    
   1340000   0.54501998    -7.7149548     -6.8974364      4.453161       50218.233      36.893836      36.893836      36.893836    
   1350000   0.54420542    -7.7167279     -6.9004314      4.4378275      50218.233      36.893836      36.893836      36.893836    
   1360000   0.54292334    -7.7151619     -6.9007885      4.4537685      50218.233      36.893836      36.893836      36.893836    
   1370000   0.54518606    -7.7180899     -6.9003224      4.4407381      50218.233      36.893836      36.893836      36.893836    
   1380000   0.54598066    -7.7133683     -6.894409       4.4747617      50218.233      36.893836      36.893836      36.893836    
   1390000   0.54553648    -7.7197914     -6.9014984      4.4115703      50218.233      36.893836      36.893836      36.893836    
   1400000   0.54281988    -7.7181608     -6.9039426      4.4386168      50218.233      36.893836      36.893836      36.893836    
   1410000   0.54507359    -7.7112916     -6.8936928      4.4878108      50218.233      36.893836      36.893836      36.893836    
   1420000   0.54279381    -7.7159207     -6.9017416      4.4422251      50218.233      36.893836      36.893836      36.893836    
   1430000   0.54712058    -7.7096096     -6.8889404      4.4974467      50218.233      36.893836      36.893836      36.893836    
   1440000   0.54952723    -7.7124073     -6.8881282      4.4889944      50218.233      36.893836      36.893836      36.893836    
   1450000   0.54550134    -7.7100492     -6.8918088      4.4972355      50218.233      36.893836      36.893836      36.893836    
   1460000   0.54338105    -7.7192321     -6.9041721      4.4332159      50218.233      36.893836      36.893836      36.893836    
   1470000   0.54380865    -7.7147118     -6.8990104      4.463925       50218.233      36.893836      36.893836      36.893836    
   1480000   0.54359083    -7.714253      -6.8988783      4.4553952      50218.233      36.893836      36.893836      36.893836    
   1490000   0.54480228    -7.7161719     -6.8989801      4.4577986      50218.233      36.893836      36.893836      36.893836    
   1500000   0.54576732    -7.7188859     -6.9002466      4.4273942      50218.233      36.893836      36.893836      36.893836    
   1510000   0.54598468    -7.7163363     -6.8973709      4.4431469      50218.233      36.893836      36.893836      36.893836    
   1520000   0.54350402    -7.7162876     -6.9010432      4.4378696      50218.233      36.893836      36.893836      36.893836    
   1530000   0.54541326    -7.7165106     -6.8984023      4.4644974      50218.233      36.893836      36.893836      36.893836    
   1540000   0.54630063    -7.7156133     -6.896174       4.4618759      50218.233      36.893836      36.893836      36.893836    
   1550000   0.54406521    -7.7103213     -6.8942351      4.4955448      50218.233      36.893836      36.893836      36.893836    
   1560000   0.54489216    -7.7112547     -6.8939281      4.4822174      50218.233      36.893836      36.893836      36.893836    
   1570000   0.54340102    -7.7160996     -6.9010097      4.4451838      50218.233      36.893836      36.893836      36.893836    
   1580000   0.54770538    -7.7136674     -6.892121       4.4724543      50218.233      36.893836      36.893836      36.893836    
   1590000   0.54690164    -7.7156064     -6.8952656      4.4560078      50218.233      36.893836      36.893836      36.893836    
   1600000   0.54529935    -7.7137336     -6.8957962      4.461498       50218.233      36.893836      36.893836      36.893836    
   1610000   0.5445343     -7.7153564     -6.8985665      4.4584726      50218.233      36.893836      36.893836      36.893836    
   1620000   0.54690633    -7.7171601     -6.8968123      4.4403354      50218.233      36.893836      36.893836      36.893836    
   1630000   0.54651989    -7.7138582     -6.8940901      4.4827574      50218.233      36.893836      36.893836      36.893836    
   1640000   0.54328844    -7.7183331     -6.903412       4.4316559      50218.233      36.893836      36.893836      36.893836    
   1650000   0.54269899    -7.7159105     -6.9018736      4.4449205      50218.233      36.893836      36.893836      36.893836    
   1660000   0.54422584    -7.7113099     -6.8949827      4.4973512      50218.233      36.893836      36.893836      36.893836    
   1670000   0.54704867    -7.716542      -6.8959806      4.4586135      50218.233      36.893836      36.893836      36.893836    
   1680000   0.54695699    -7.7143308     -6.893907       4.4677331      50218.233      36.893836      36.893836      36.893836    
   1690000   0.54568113    -7.713066      -6.894556       4.476409       50218.233      36.893836      36.893836      36.893836    
   1700000   0.54275893    -7.7184147     -6.9042879      4.4304687      50218.233      36.893836      36.893836      36.893836    
   1710000   0.54624103    -7.71301       -6.8936601      4.468961       50218.233      36.893836      36.893836      36.893836    
   1720000   0.54405875    -7.7153486     -6.8992721      4.4588623      50218.233      36.893836      36.893836      36.893836    
   1730000   0.54737517    -7.7168245     -6.8957734      4.4568439      50218.233      36.893836      36.893836      36.893836    
   1740000   0.54336155    -7.7145498     -6.899519       4.4569805      50218.233      36.893836      36.893836      36.893836    
   1750000   0.54870297    -7.7086606     -6.8856178      4.5135299      50218.233      36.893836      36.893836      36.893836    
   1760000   0.54385613    -7.7136375     -6.8978649      4.46801        50218.233      36.893836      36.893836      36.893836    
   1770000   0.54420077    -7.7178498     -6.9015603      4.434872       50218.233      36.893836      36.893836      36.893836    
   1780000   0.54793136    -7.7137432     -6.8918579      4.4587564      50218.233      36.893836      36.893836      36.893836    
   1790000   0.54544478    -7.71064       -6.8924844      4.4889091      50218.233      36.893836      36.893836      36.893836    
   1800000   0.54598158    -7.7146844     -6.8957236      4.4674098      50218.233      36.893836      36.893836      36.893836    
   1810000   0.54363525    -7.716114      -6.9006728      4.4472817      50218.233      36.893836      36.893836      36.893836    
   1820000   0.54665744    -7.7143087     -6.8943342      4.4591769      50218.233      36.893836      36.893836      36.893836    
   1830000   0.54606656    -7.7161873     -6.8970991      4.4610881      50218.233      36.893836      36.893836      36.893836    
   1840000   0.54658922    -7.7161386     -6.8962664      4.4580757      50218.233      36.893836      36.893836      36.893836    
   1850000   0.54537518    -7.720148      -6.9020969      4.4231565      50218.233      36.893836      36.893836      36.893836    
   1860000   0.54475808    -7.717707      -6.9005815      4.4505329      50218.233      36.893836      36.893836      36.893836    
   1870000   0.54651278    -7.7119485     -6.892191       4.4935464      50218.233      36.893836      36.893836      36.893836    
   1880000   0.54353119    -7.7120517     -6.8967665      4.480309       50218.233      36.893836      36.893836      36.893836    
   1890000   0.54462402    -7.7202559     -6.9033315      4.4212614      50218.233      36.893836      36.893836      36.893836    
   1900000   0.54251507    -7.7160762     -6.9023151      4.4437828      50218.233      36.893836      36.893836      36.893836    
   1910000   0.54838621    -7.7145077     -6.8919401      4.4675974      50218.233      36.893836      36.893836      36.893836    
   1920000   0.54560235    -7.7147658     -6.8963739      4.4514522      50218.233      36.893836      36.893836      36.893836    
   1930000   0.54515615    -7.718135      -6.9004124      4.4401391      50218.233      36.893836      36.893836      36.893836    
   1940000   0.54596591    -7.7081608     -6.8892236      4.5160769      50218.233      36.893836      36.893836      36.893836    
   1950000   0.54773556    -7.7136249     -6.8920333      4.4752716      50218.233      36.893836      36.893836      36.893836    
   1960000   0.54372298    -7.7165099     -6.9009371      4.4420555      50218.233      36.893836      36.893836      36.893836    
   1970000   0.54316346    -7.7132338     -6.8985001      4.4542873      50218.233      36.893836      36.893836      36.893836    
   1980000   0.54612921    -7.714991      -6.8958088      4.4485342      50218.233      36.893836      36.893836      36.893836    
   1990000   0.54298995    -7.7107097     -6.8962364      4.4793105      50218.233      36.893836      36.893836      36.893836    
   2000000   0.54361994    -7.7118524     -6.8964341      4.4720136      50218.233      36.893836      36.893836      36.893836    
   2010000   0.54733977    -7.7199144     -6.8989164      4.4253182      50218.233      36.893836      36.893836      36.893836    
   2020000   0.54262923    -7.7118921     -6.8979598      4.4647517      50218.233      36.893836      36.893836      36.893836    
   2030000   0.54453735    -7.7114276     -6.8946332      4.4847624      50218.233      36.893836      36.893836      36.893836    
   2040000   0.54230238    -7.7175209     -6.9040789      4.4238874      50218.233      36.893836      36.893836      36.893836    
   2050000   0.54727768    -7.7154219     -6.8945171      4.4574873      50218.233      36.893836      36.893836      36.893836    
   2060000   0.54741915    -7.7158932     -6.8947761      4.4405423      50218.233      36.893836      36.893836      36.893836    
   2070000   0.54393616    -7.7104147     -6.894522       4.4777104      50218.233      36.893836      36.893836      36.893836    
   2080000   0.54401894    -7.7101467     -6.8941299      4.4885736      50218.233      36.893836      36.893836      36.893836    
   2090000   0.54706941    -7.7138728     -6.8932803      4.4686455      50218.233      36.893836      36.893836      36.893836    
   2100000   0.54604325    -7.716347      -6.8972938      4.4603518      50218.233      36.893836      36.893836      36.893836    
   2110000   0.54629236    -7.7145041     -6.8950772      4.4627069      50218.233      36.893836      36.893836      36.893836    
   2120000   0.54442704    -7.7157015     -6.8990726      4.4485581      50218.233      36.893836      36.893836      36.893836    
   2130000   0.54538401    -7.7140414     -6.8959771      4.458442       50218.233      36.893836      36.893836      36.893836    
   2140000   0.54722446    -7.712578      -6.891753       4.4780265      50218.233      36.893836      36.893836      36.893836    
   2150000   0.54281557    -7.7167277     -6.902516       4.4393521      50218.233      36.893836      36.893836      36.893836    
   2160000   0.5458131     -7.7119633     -6.8932553      4.4857463      50218.233      36.893836      36.893836      36.893836    
   2170000   0.54513014    -7.7160747     -6.8983911      4.4480965      50218.233      36.893836      36.893836      36.893836    
   2180000   0.54749722    -7.7143156     -6.8930814      4.4603108      50218.233      36.893836      36.893836      36.893836    
   2190000   0.54405902    -7.7129066     -6.8968297      4.4737727      50218.233      36.893836      36.893836      36.893836    
   2200000   0.54329611    -7.7163513     -6.9014188      4.4452284      50218.233      36.893836      36.893836      36.893836    
   2210000   0.54546515    -7.7106632     -6.8924771      4.4780746      50218.233      36.893836      36.893836      36.893836    
   2220000   0.54448045    -7.71478       -6.8980709      4.4607878      50218.233      36.893836      36.893836      36.893836    
   2230000   0.54452214    -7.7110743     -6.8943027      4.4810634      50218.233      36.893836      36.893836      36.893836    
   2240000   0.54357066    -7.7131666     -6.8978222      4.4673058      50218.233      36.893836      36.893836      36.893836    
   2250000   0.54733517    -7.7117001     -6.8907091      4.4780196      50218.233      36.893836      36.893836      36.893836    
   2260000   0.54727801    -7.7127379     -6.8918325      4.4649106      50218.233      36.893836      36.893836      36.893836    
   2270000   0.54544824    -7.7103415     -6.8921808      4.4853744      50218.233      36.893836      36.893836      36.893836    
   2280000   0.54763349    -7.7155555     -6.894117       4.4543923      50218.233      36.893836      36.893836      36.893836    
   2290000   0.54617751    -7.7138854     -6.8946308      4.4765142      50218.233      36.893836      36.893836      36.893836    
   2300000   0.54486826    -7.716511      -6.8992202      4.4401716      50218.233      36.893836      36.893836      36.893836    
   2310000   0.54562278    -7.715319      -6.8968965      4.4514305      50218.233      36.893836      36.893836      36.893836    
   2320000   0.54681505    -7.7156859     -6.8954749      4.4681342      50218.233      36.893836      36.893836      36.893836    
   2330000   0.5434118     -7.7136516     -6.8985455      4.4675553      50218.233      36.893836      36.893836      36.893836    
   2340000   0.54387667    -7.7119851     -6.8961817      4.4758543      50218.233      36.893836      36.893836      36.893836    
   2350000   0.54609944    -7.7155733     -6.8964358      4.4417303      50218.233      36.893836      36.893836      36.893836    
   2360000   0.54534706    -7.7167368     -6.8987278      4.4300944      50218.233      36.893836      36.893836      36.893836    
   2370000   0.54327216    -7.7185173     -6.9036206      4.4251336      50218.233      36.893836      36.893836      36.893836    
   2380000   0.54389107    -7.7187522     -6.9029272      4.4158         50218.233      36.893836      36.893836      36.893836    
   2390000   0.54626395    -7.7170936     -6.8977093      4.4452829      50218.233      36.893836      36.893836      36.893836    
   2400000   0.5461004     -7.7154366     -6.8962977      4.4503634      50218.233      36.893836      36.893836      36.893836    
   2410000   0.54618379    -7.7162726     -6.8970085      4.4547655      50218.233      36.893836      36.893836      36.893836    
   2420000   0.5426616     -7.7175437     -6.9035628      4.4228305      50218.233      36.893836      36.893836      36.893836    
   2430000   0.54362665    -7.7138041     -6.8983757      4.4554561      50218.233      36.893836      36.893836      36.893836    
   2440000   0.54536109    -7.7129585     -6.8949285      4.4666328      50218.233      36.893836      36.893836      36.893836    
   2450000   0.54188103    -7.7130362     -6.9002262      4.4677415      50218.233      36.893836      36.893836      36.893836    
   2460000   0.54616151    -7.7141824     -6.8949517      4.4660064      50218.233      36.893836      36.893836      36.893836    
   2470000   0.54539285    -7.7168487     -6.8987711      4.4457604      50218.233      36.893836      36.893836      36.893836    
   2480000   0.54585022    -7.719553      -6.9007893      4.4291965      50218.233      36.893836      36.893836      36.893836    
   2490000   0.54527641    -7.7131648     -6.8952618      4.4749356      50218.233      36.893836      36.893836      36.893836    
   2500000   0.54682535    -7.7180711     -6.8978448      4.4327727      50218.233      36.893836      36.893836      36.893836    
   2510000   0.54504277    -7.7140589     -6.8965063      4.4568716      50218.233      36.893836      36.893836      36.893836    
   2520000   0.54425523    -7.7166663     -6.9002951      4.445073       50218.233      36.893836      36.893836      36.893836    
   2530000   0.54319838    -7.7136465     -6.8988605      4.4586965      50218.233      36.893836      36.893836      36.893836    
   2540000   0.54556873    -7.7163599     -6.8980184      4.4535327      50218.233      36.893836      36.893836      36.893836    
   2550000   0.54460915    -7.7174888     -6.9005867      4.4360426      50218.233      36.893836      36.893836      36.893836    
   2560000   0.54433743    -7.7210418     -6.9045473      4.4096547      50218.233      36.893836      36.893836      36.893836    
   2570000   0.54679395    -7.7141        -6.8939208      4.4681311      50218.233      36.893836      36.893836      36.893836    
   2580000   0.54654372    -7.7167802     -6.8969763      4.4442726      50218.233      36.893836      36.893836      36.893836    
   2590000   0.54460215    -7.7179884     -6.9010968      4.431131       50218.233      36.893836      36.893836      36.893836    
   2600000   0.54635118    -7.7181169     -6.8986018      4.4365179      50218.233      36.893836      36.893836      36.893836    
   2610000   0.54930871    -7.7207193     -6.896768       4.429488       50218.233      36.893836      36.893836      36.893836    
   2620000   0.54610661    -7.7181282     -6.8989799      4.4381115      50218.233      36.893836      36.893836      36.893836    
   2630000   0.54258978    -7.7128463     -6.8989732      4.4811281      50218.233      36.893836      36.893836      36.893836    
   2640000   0.54766472    -7.7137729     -6.8922875      4.4734768      50218.233      36.893836      36.893836      36.893836    
   2650000   0.54575617    -7.718914      -6.9002914      4.4339228      50218.233      36.893836      36.893836      36.893836    
   2660000   0.54774863    -7.7194703     -6.897859       4.421505       50218.233      36.893836      36.893836      36.893836    
   2670000   0.54457102    -7.7167541     -6.8999092      4.4526059      50218.233      36.893836      36.893836      36.893836    
   2680000   0.54414898    -7.7192021     -6.9029902      4.4230539      50218.233      36.893836      36.893836      36.893836    
   2690000   0.54629834    -7.7170102     -6.8975743      4.4487385      50218.233      36.893836      36.893836      36.893836    
   2700000   0.54218226    -7.7156661     -6.9024043      4.4540749      50218.233      36.893836      36.893836      36.893836    
   2710000   0.54472089    -7.7115114     -6.8944417      4.4735376      50218.233      36.893836      36.893836      36.893836    
   2720000   0.54273524    -7.712119      -6.8980277      4.4857585      50218.233      36.893836      36.893836      36.893836    
   2730000   0.54561001    -7.7137112     -6.8953079      4.4647049      50218.233      36.893836      36.893836      36.893836    
   2740000   0.54455656    -7.7142827     -6.8974595      4.4634428      50218.233      36.893836      36.893836      36.893836    
   2750000   0.54364738    -7.714481      -6.8990215      4.4577924      50218.233      36.893836      36.893836      36.893836    
   2760000   0.54492844    -7.7138296     -6.8964485      4.4613917      50218.233      36.893836      36.893836      36.893836    
   2770000   0.54709678    -7.721237      -6.9006035      4.4208126      50218.233      36.893836      36.893836      36.893836    
   2780000   0.54255264    -7.713883      -6.9000656      4.4703701      50218.233      36.893836      36.893836      36.893836    
   2790000   0.54504716    -7.7126911     -6.895132       4.4802205      50218.233      36.893836      36.893836      36.893836    
   2800000   0.54480973    -7.7142633     -6.8970604      4.4617348      50218.233      36.893836      36.893836      36.893836    
   2810000   0.54764533    -7.7153267     -6.8938704      4.4635208      50218.233      36.893836      36.893836      36.893836    
   2820000   0.54753336    -7.7124503     -6.891162       4.4827505      50218.233      36.893836      36.893836      36.893836    
   2830000   0.54405096    -7.7185049     -6.9024401      4.4367563      50218.233      36.893836      36.893836      36.893836    
   2840000   0.54304454    -7.7174016     -6.9028464      4.4284509      50218.233      36.893836      36.893836      36.893836    
   2850000   0.54199421    -7.7160263     -6.9030465      4.4407569      50218.233      36.893836      36.893836      36.893836    
   2860000   0.54313934    -7.7129053     -6.8982078      4.4676818      50218.233      36.893836      36.893836      36.893836    
   2870000   0.54804479    -7.7132798     -6.8912243      4.4670379      50218.233      36.893836      36.893836      36.893836    
   2880000   0.54277064    -7.7149201     -6.9007757      4.4570338      50218.233      36.893836      36.893836      36.893836    
   2890000   0.54437779    -7.7163602     -6.8998051      4.4377109      50218.233      36.893836      36.893836      36.893836    
   2900000   0.54833482    -7.7202971     -6.8978066      4.4166753      50218.233      36.893836      36.893836      36.893836    
   2910000   0.54356864    -7.7138358     -6.8984944      4.4802965      50218.233      36.893836      36.893836      36.893836    
   2920000   0.5452627     -7.7121359     -6.8942535      4.4824861      50218.233      36.893836      36.893836      36.893836    
   2930000   0.54630652    -7.7155698     -6.8961217      4.4544425      50218.233      36.893836      36.893836      36.893836    
   2940000   0.54488639    -7.712055      -6.894737       4.4697509      50218.233      36.893836      36.893836      36.893836    
   2950000   0.54405391    -7.7122513     -6.896182       4.4650325      50218.233      36.893836      36.893836      36.893836    
   2960000   0.54413739    -7.718387      -6.9021925      4.4292031      50218.233      36.893836      36.893836      36.893836    
   2970000   0.54403462    -7.7113092     -6.8952688      4.4911242      50218.233      36.893836      36.893836      36.893836    
   2980000   0.54225516    -7.7116973     -6.8983261      4.4776764      50218.233      36.893836      36.893836      36.893836    
   2990000   0.54698674    -7.7172131     -6.8967447      4.4380995      50218.233      36.893836      36.893836      36.893836    
   3000000   0.54784434    -7.7180558     -6.896301       4.4461595      50218.233      36.893836      36.893836      36.893836    
   3010000   0.5444111     -7.7142686     -6.8976636      4.4720868      50218.233      36.893836      36.893836      36.893836    
   3020000   0.54526578    -7.7140013     -6.8961143      4.478681       50218.233      36.893836      36.893836      36.893836    
   3030000   0.54171145    -7.7134142     -6.9008586      4.4654257      50218.233      36.893836      36.893836      36.893836    
   3040000   0.5444751     -7.7138144     -6.8971133      4.4624464      50218.233      36.893836      36.893836      36.893836    
   3050000   0.54455313    -7.7170447     -6.9002266      4.4414059      50218.233      36.893836      36.893836      36.893836    
   3060000   0.54729999    -7.7181108     -6.8971725      4.4377379      50218.233      36.893836      36.893836      36.893836    
   3070000   0.54494974    -7.7153928     -6.8979798      4.4626628      50218.233      36.893836      36.893836      36.893836    
   3080000   0.54732594    -7.7198064     -6.8988291      4.4424327      50218.233      36.893836      36.893836      36.893836    
   3090000   0.54478581    -7.7158991     -6.8987321      4.4592744      50218.233      36.893836      36.893836      36.893836    
   3100000   0.5464552     -7.7162658     -6.8965947      4.4437721      50218.233      36.893836      36.893836      36.893836    
   3110000   0.54287942    -7.7128172     -6.8985097      4.4738883      50218.233      36.893836      36.893836      36.893836    
   3120000   0.54693035    -7.7165024     -6.8961186      4.4475879      50218.233      36.893836      36.893836      36.893836    
   3130000   0.54614415    -7.7155769     -6.8963723      4.4622127      50218.233      36.893836      36.893836      36.893836    
   3140000   0.54500625    -7.7191753     -6.9016776      4.4229106      50218.233      36.893836      36.893836      36.893836    
   3150000   0.54354799    -7.7166042     -6.9012938      4.4455776      50218.233      36.893836      36.893836      36.893836    
   3160000   0.54827627    -7.7192961     -6.8968934      4.4207811      50218.233      36.893836      36.893836      36.893836    
   3170000   0.54509173    -7.7132395     -6.8956135      4.4549088      50218.233      36.893836      36.893836      36.893836    
   3180000   0.54590215    -7.7210201     -6.9021785      4.4083346      50218.233      36.893836      36.893836      36.893836    
   3190000   0.54481182    -7.7171758     -6.8999697      4.4316187      50218.233      36.893836      36.893836      36.893836    
   3200000   0.54618174    -7.7157595     -6.8964985      4.4494026      50218.233      36.893836      36.893836      36.893836    
   3210000   0.54598105    -7.7171194     -6.8981595      4.4469207      50218.233      36.893836      36.893836      36.893836    
   3220000   0.54636322    -7.7139503     -6.8944171      4.4629703      50218.233      36.893836      36.893836      36.893836    
   3230000   0.54759129    -7.7139187     -6.8925435      4.4741594      50218.233      36.893836      36.893836      36.893836    
   3240000   0.54712502    -7.7227271     -6.9020513      4.411123       50218.233      36.893836      36.893836      36.893836    
   3250000   0.54459719    -7.7145732     -6.897689       4.4540777      50218.233      36.893836      36.893836      36.893836    
   3260000   0.54535095    -7.7114712     -6.8934565      4.4844218      50218.233      36.893836      36.893836      36.893836    
   3270000   0.54878133    -7.7175303     -6.89437        4.4542086      50218.233      36.893836      36.893836      36.893836    
   3280000   0.54330891    -7.7190626     -6.9041108      4.4172787      50218.233      36.893836      36.893836      36.893836    
   3290000   0.54422219    -7.7231469     -6.9068252      4.3922739      50218.233      36.893836      36.893836      36.893836    
   3300000   0.54606078    -7.7193579     -6.9002784      4.4289336      50218.233      36.893836      36.893836      36.893836    
   3310000   0.54212403    -7.7183337     -6.9051592      4.4306003      50218.233      36.893836      36.893836      36.893836    
   3320000   0.54336412    -7.7207259     -6.9056913      4.4221866      50218.233      36.893836      36.893836      36.893836    
   3330000   0.54282012    -7.7188169     -6.9045983      4.4305174      50218.233      36.893836      36.893836      36.893836    
   3340000   0.54631334    -7.7167477     -6.8972894      4.4600715      50218.233      36.893836      36.893836      36.893836    
   3350000   0.54650756    -7.7163497     -6.8966         4.4558614      50218.233      36.893836      36.893836      36.893836    
   3360000   0.54369143    -7.7215615     -6.9060359      4.413374       50218.233      36.893836      36.893836      36.893836    
   3370000   0.544312      -7.7168103     -6.9003539      4.4416344      50218.233      36.893836      36.893836      36.893836    
   3380000   0.54569875    -7.7189573     -6.9004208      4.425172       50218.233      36.893836      36.893836      36.893836    
   3390000   0.54328855    -7.7171459     -6.9022247      4.4382728      50218.233      36.893836      36.893836      36.893836    
   3400000   0.54356857    -7.7157429     -6.9004016      4.4533809      50218.233      36.893836      36.893836      36.893836    
   3410000   0.54080675    -7.7217337     -6.9105351      4.4002257      50218.233      36.893836      36.893836      36.893836    
   3420000   0.54539946    -7.7114143     -6.8933268      4.4925623      50218.233      36.893836      36.893836      36.893836    
   3430000   0.54408891    -7.7163384     -6.9002166      4.4460495      50218.233      36.893836      36.893836      36.893836    
   3440000   0.54528275    -7.7136633     -6.8957508      4.4726389      50218.233      36.893836      36.893836      36.893836    
   3450000   0.54508938    -7.708703      -6.8910805      4.5064048      50218.233      36.893836      36.893836      36.893836    
   3460000   0.54541473    -7.7101777     -6.8920672      4.490207       50218.233      36.893836      36.893836      36.893836    
   3470000   0.54678334    -7.7139475     -6.8937841      4.4690811      50218.233      36.893836      36.893836      36.893836    
   3480000   0.54351378    -7.711288      -6.896029       4.4794171      50218.233      36.893836      36.893836      36.893836    
   3490000   0.54378641    -7.7190896     -6.9034216      4.4145295      50218.233      36.893836      36.893836      36.893836    
   3500000   0.54329036    -7.716177      -6.9012531      4.43742        50218.233      36.893836      36.893836      36.893836    
   3510000   0.5473467     -7.7130595     -6.8920511      4.481406       50218.233      36.893836      36.893836      36.893836    
   3520000   0.5449055     -7.7169608     -6.8996142      4.4278071      50218.233      36.893836      36.893836      36.893836    
   3530000   0.54732159    -7.7132984     -6.8923277      4.4600045      50218.233      36.893836      36.893836      36.893836    
   3540000   0.54345259    -7.7167236     -6.9015563      4.4383543      50218.233      36.893836      36.893836      36.893836    
   3550000   0.54509422    -7.7155842     -6.8979545      4.453454       50218.233      36.893836      36.893836      36.893836    
   3560000   0.54555063    -7.7138679     -6.8955536      4.4667591      50218.233      36.893836      36.893836      36.893836    
   3570000   0.5460333     -7.71299       -6.8939517      4.4665589      50218.233      36.893836      36.893836      36.893836    
   3580000   0.54810305    -7.7137797     -6.8916368      4.4661752      50218.233      36.893836      36.893836      36.893836    
   3590000   0.5424296     -7.716661      -6.9030282      4.4395676      50218.233      36.893836      36.893836      36.893836    
   3600000   0.54396289    -7.7159416     -6.9000089      4.4481943      50218.233      36.893836      36.893836      36.893836    
   3610000   0.54362242    -7.7152058     -6.8997837      4.4497891      50218.233      36.893836      36.893836      36.893836    
   3620000   0.54646885    -7.7191562     -6.8994646      4.4196615      50218.233      36.893836      36.893836      36.893836    
   3630000   0.54440448    -7.7159874     -6.8993922      4.4506062      50218.233      36.893836      36.893836      36.893836    
   3640000   0.54154871    -7.7140637     -6.9017522      4.4590076      50218.233      36.893836      36.893836      36.893836    
   3650000   0.5438197     -7.716116      -6.900398       4.4469927      50218.233      36.893836      36.893836      36.893836    
   3660000   0.5460148     -7.7133434     -6.8943328      4.4666634      50218.233      36.893836      36.893836      36.893836    
   3670000   0.54789089    -7.7158772     -6.8940526      4.4474637      50218.233      36.893836      36.893836      36.893836    
   3680000   0.54383925    -7.7149667     -6.8992194      4.459257       50218.233      36.893836      36.893836      36.893836    
   3690000   0.54319006    -7.7160838     -6.9013103      4.4432786      50218.233      36.893836      36.893836      36.893836    
   3700000   0.54556308    -7.7176555     -6.8993225      4.4414779      50218.233      36.893836      36.893836      36.893836    
   3710000   0.54492539    -7.7144745     -6.8970981      4.4655241      50218.233      36.893836      36.893836      36.893836    
   3720000   0.54771207    -7.719789      -6.8982326      4.4306251      50218.233      36.893836      36.893836      36.893836    
   3730000   0.54574231    -7.7188257     -6.9002239      4.4294359      50218.233      36.893836      36.893836      36.893836    
   3740000   0.54543683    -7.7149405     -6.8967969      4.4567155      50218.233      36.893836      36.893836      36.893836    
   3750000   0.54379873    -7.7149525     -6.899266       4.4522246      50218.233      36.893836      36.893836      36.893836    
   3760000   0.54352913    -7.7159645     -6.9006824      4.4540702      50218.233      36.893836      36.893836      36.893836    
   3770000   0.54479352    -7.7175951     -6.9004165      4.4451648      50218.233      36.893836      36.893836      36.893836    
   3780000   0.54596448    -7.7208894     -6.9019543      4.4174047      50218.233      36.893836      36.893836      36.893836    
   3790000   0.54443789    -7.7186731     -6.9020279      4.425376       50218.233      36.893836      36.893836      36.893836    
   3800000   0.54336877    -7.7089796     -6.8939381      4.485023       50218.233      36.893836      36.893836      36.893836    
   3810000   0.54304189    -7.715615      -6.9010638      4.4455681      50218.233      36.893836      36.893836      36.893836    
   3820000   0.54723745    -7.7134778     -6.8926333      4.4599168      50218.233      36.893836      36.893836      36.893836    
   3830000   0.54530104    -7.7132298     -6.8952899      4.4642374      50218.233      36.893836      36.893836      36.893836    
   3840000   0.54253153    -7.7124892     -6.8987034      4.4708715      50218.233      36.893836      36.893836      36.893836    
   3850000   0.54347962    -7.7121814     -6.8969735      4.480287       50218.233      36.893836      36.893836      36.893836    
   3860000   0.54402789    -7.7101436     -6.8941134      4.4877485      50218.233      36.893836      36.893836      36.893836    
   3870000   0.54291017    -7.7132812     -6.8989275      4.4601594      50218.233      36.893836      36.893836      36.893836    
   3880000   0.54650677    -7.7132642     -6.8935157      4.4735461      50218.233      36.893836      36.893836      36.893836    
   3890000   0.54508025    -7.7134192     -6.8958105      4.4614986      50218.233      36.893836      36.893836      36.893836    
   3900000   0.54706981    -7.7130707     -6.8924777      4.4813101      50218.233      36.893836      36.893836      36.893836    
   3910000   0.54648632    -7.7110529     -6.8913351      4.4890049      50218.233      36.893836      36.893836      36.893836    
   3920000   0.54032887    -7.7168807     -6.9063989      4.4385365      50218.233      36.893836      36.893836      36.893836    
   3930000   0.54383278    -7.7135207     -6.8977831      4.4663264      50218.233      36.893836      36.893836      36.893836    
   3940000   0.54276475    -7.7102477     -6.8961122      4.4880218      50218.233      36.893836      36.893836      36.893836    
   3950000   0.5421291     -7.7111335     -6.8979514      4.4765163      50218.233      36.893836      36.893836      36.893836    
   3960000   0.54576945    -7.7132634     -6.8946208      4.4713071      50218.233      36.893836      36.893836      36.893836    
   3970000   0.54503278    -7.7162661     -6.8987285      4.439985       50218.233      36.893836      36.893836      36.893836    
   3980000   0.54419777    -7.7136507     -6.8973656      4.4725728      50218.233      36.893836      36.893836      36.893836    
   3990000   0.54413848    -7.7132426     -6.8970465      4.4643814      50218.233      36.893836      36.893836      36.893836    
   4000000   0.54133279    -7.7179639     -6.9059763      4.4305908      50218.233      36.893836      36.893836      36.893836    
   4010000   0.54588705    -7.712712      -6.8938931      4.4759278      50218.233      36.893836      36.893836      36.893836    
   4020000   0.54772546    -7.7095091     -6.8879326      4.4995131      50218.233      36.893836      36.893836      36.893836    
   4030000   0.54532961    -7.7159457     -6.8979629      4.4488802      50218.233      36.893836      36.893836      36.893836    
   4040000   0.54481237    -7.7150245     -6.8978176      4.4510694      50218.233      36.893836      36.893836      36.893836    
   4050000   0.54459056    -7.7093427     -6.8924685      4.4859251      50218.233      36.893836      36.893836      36.893836    
   4060000   0.54773241    -7.7133494     -6.8917625      4.4707619      50218.233      36.893836      36.893836      36.893836    
   4070000   0.54404502    -7.7135148     -6.8974588      4.4689309      50218.233      36.893836      36.893836      36.893836    
   4080000   0.54323764    -7.7187684     -6.9039235      4.4194823      50218.233      36.893836      36.893836      36.893836    
   4090000   0.54313481    -7.7136841     -6.8989935      4.4711353      50218.233      36.893836      36.893836      36.893836    
   4100000   0.54356368    -7.7163235     -6.9009896      4.4483965      50218.233      36.893836      36.893836      36.893836    
   4110000   0.54374406    -7.7168614     -6.901257       4.4363066      50218.233      36.893836      36.893836      36.893836    
   4120000   0.54611107    -7.715233      -6.896078       4.4676113      50218.233      36.893836      36.893836      36.893836    
   4130000   0.55003073    -7.7168782     -6.8918438      4.4484236      50218.233      36.893836      36.893836      36.893836    
   4140000   0.54343191    -7.7157175     -6.9005812      4.4441835      50218.233      36.893836      36.893836      36.893836    
   4150000   0.5433252     -7.7143423     -6.8993661      4.4577473      50218.233      36.893836      36.893836      36.893836    
   4160000   0.54471335    -7.7192135     -6.9021551      4.4366931      50218.233      36.893836      36.893836      36.893836    
   4170000   0.54390231    -7.7185579     -6.902716       4.4277368      50218.233      36.893836      36.893836      36.893836    
   4180000   0.54469021    -7.721842      -6.9048183      4.4013525      50218.233      36.893836      36.893836      36.893836    
   4190000   0.54340586    -7.7141649     -6.8990677      4.4598357      50218.233      36.893836      36.893836      36.893836    
   4200000   0.54461608    -7.7128308     -6.8959183      4.4762135      50218.233      36.893836      36.893836      36.893836    
   4210000   0.54283987    -7.7113921     -6.8971439      4.4892217      50218.233      36.893836      36.893836      36.893836    
   4220000   0.54322379    -7.7188103     -6.9039862      4.4184065      50218.233      36.893836      36.893836      36.893836    
   4230000   0.54541044    -7.7196168     -6.9015127      4.4219688      50218.233      36.893836      36.893836      36.893836    
   4240000   0.54215855    -7.7238158     -6.9105895      4.3843036      50218.233      36.893836      36.893836      36.893836    
   4250000   0.54502696    -7.7116299     -6.8941011      4.478976       50218.233      36.893836      36.893836      36.893836    
   4260000   0.5460958     -7.7149919     -6.8958599      4.4629858      50218.233      36.893836      36.893836      36.893836    
   4270000   0.54220177    -7.720365      -6.9070739      4.4216756      50218.233      36.893836      36.893836      36.893836    
   4280000   0.54489957    -7.7165014     -6.8991636      4.4562359      50218.233      36.893836      36.893836      36.893836    
   4290000   0.54371258    -7.721013      -6.9054557      4.3964333      50218.233      36.893836      36.893836      36.893836    
   4300000   0.54727778    -7.7186681     -6.8977631      4.4397365      50218.233      36.893836      36.893836      36.893836    
   4310000   0.54280155    -7.7155251     -6.9013343      4.4604047      50218.233      36.893836      36.893836      36.893836    
   4320000   0.54648229    -7.7184939     -6.8987821      4.422752       50218.233      36.893836      36.893836      36.893836    
   4330000   0.54641567    -7.7154511     -6.8958393      4.438811       50218.233      36.893836      36.893836      36.893836    
   4340000   0.54321827    -7.7175017     -6.9026859      4.4356844      50218.233      36.893836      36.893836      36.893836    
   4350000   0.54562803    -7.7230358     -6.9046054      4.3978771      50218.233      36.893836      36.893836      36.893836    
   4360000   0.54489059    -7.7143273     -6.897003       4.4653196      50218.233      36.893836      36.893836      36.893836    
   4370000   0.54513028    -7.718152      -6.9004682      4.4249871      50218.233      36.893836      36.893836      36.893836    
   4380000   0.54389216    -7.7164784     -6.9006518      4.4340928      50218.233      36.893836      36.893836      36.893836    
   4390000   0.54554383    -7.7136338     -6.8953297      4.4821736      50218.233      36.893836      36.893836      36.893836    
   4400000   0.54339576    -7.7219508     -6.9068688      4.4172521      50218.233      36.893836      36.893836      36.893836    
   4410000   0.54546934    -7.7179735     -6.8997811      4.4311746      50218.233      36.893836      36.893836      36.893836    
   4420000   0.5452962     -7.7138217     -6.895889       4.4689983      50218.233      36.893836      36.893836      36.893836    
   4430000   0.54372132    -7.7076329     -6.8920626      4.5078564      50218.233      36.893836      36.893836      36.893836    
   4440000   0.5471846     -7.7178858     -6.8971206      4.4400267      50218.233      36.893836      36.893836      36.893836    
   4450000   0.54486261    -7.7168381     -6.8995558      4.438205       50218.233      36.893836      36.893836      36.893836    
   4460000   0.54356636    -7.716336      -6.9009981      4.4377067      50218.233      36.893836      36.893836      36.893836    
   4470000   0.54524774    -7.7153997     -6.8975397      4.4516946      50218.233      36.893836      36.893836      36.893836    
   4480000   0.54418878    -7.7164168     -6.9001453      4.4305561      50218.233      36.893836      36.893836      36.893836    
   4490000   0.54472563    -7.7150473     -6.8979705      4.4507657      50218.233      36.893836      36.893836      36.893836    
   4500000   0.54626977    -7.7183449     -6.8989519      4.4292339      50218.233      36.893836      36.893836      36.893836    
   4510000   0.54231142    -7.712714      -6.8992584      4.4719483      50218.233      36.893836      36.893836      36.893836    
   4520000   0.54656573    -7.7139155     -6.8940786      4.4682711      50218.233      36.893836      36.893836      36.893836    
   4530000   0.54710849    -7.715259      -6.8946079      4.4600584      50218.233      36.893836      36.893836      36.893836    
   4540000   0.54497768    -7.7120088     -6.8945539      4.4835759      50218.233      36.893836      36.893836      36.893836    
   4550000   0.5447306     -7.715913      -6.8988287      4.4345355      50218.233      36.893836      36.893836      36.893836    
   4560000   0.54636997    -7.7157431     -6.8961998      4.4554918      50218.233      36.893836      36.893836      36.893836    
   4570000   0.54274717    -7.719234      -6.9051248      4.4284486      50218.233      36.893836      36.893836      36.893836    
   4580000   0.54288128    -7.7132037     -6.8988934      4.4575861      50218.233      36.893836      36.893836      36.893836    
   4590000   0.54452282    -7.7171487     -6.9003761      4.4543959      50218.233      36.893836      36.893836      36.893836    
   4600000   0.54435941    -7.7131667     -6.8966392      4.4621745      50218.233      36.893836      36.893836      36.893836    
   4610000   0.54644223    -7.7156753     -6.8960237      4.4409603      50218.233      36.893836      36.893836      36.893836    
   4620000   0.54582022    -7.7195722     -6.9008535      4.4278919      50218.233      36.893836      36.893836      36.893836    
   4630000   0.54365407    -7.7156756     -6.9002061      4.4578108      50218.233      36.893836      36.893836      36.893836    
   4640000   0.54644862    -7.716         -6.8963388      4.4579976      50218.233      36.893836      36.893836      36.893836    
   4650000   0.5486111     -7.7174407     -6.8945358      4.452216       50218.233      36.893836      36.893836      36.893836    
   4660000   0.54360583    -7.7095321     -6.8941349      4.4945234      50218.233      36.893836      36.893836      36.893836    
   4670000   0.54565886    -7.7133097     -6.8948331      4.4723949      50218.233      36.893836      36.893836      36.893836    
   4680000   0.54462373    -7.7170981     -6.9001741      4.4525653      50218.233      36.893836      36.893836      36.893836    
   4690000   0.54357483    -7.7138763     -6.8985256      4.4694735      50218.233      36.893836      36.893836      36.893836    
   4700000   0.54647683    -7.7168931     -6.8971895      4.4492937      50218.233      36.893836      36.893836      36.893836    
   4710000   0.54381913    -7.7155888     -6.8998717      4.4526345      50218.233      36.893836      36.893836      36.893836    
   4720000   0.54319666    -7.7152207     -6.9004373      4.4479182      50218.233      36.893836      36.893836      36.893836    
   4730000   0.54388098    -7.713599      -6.8977891      4.462943       50218.233      36.893836      36.893836      36.893836    
   4740000   0.54365501    -7.7150119     -6.899541       4.4600083      50218.233      36.893836      36.893836      36.893836    
   4750000   0.5455884     -7.7177436     -6.8993726      4.4350987      50218.233      36.893836      36.893836      36.893836    
   4760000   0.54451043    -7.7121254     -6.8953714      4.4816967      50218.233      36.893836      36.893836      36.893836    
   4770000   0.54548915    -7.7083115     -6.8900894      4.492405       50218.233      36.893836      36.893836      36.893836    
   4780000   0.54701825    -7.7104652     -6.8899495      4.4863057      50218.233      36.893836      36.893836      36.893836    
   4790000   0.5418104     -7.7138118     -6.9011078      4.4597123      50218.233      36.893836      36.893836      36.893836    
   4800000   0.54607854    -7.7173628     -6.8982567      4.4398527      50218.233      36.893836      36.893836      36.893836    
   4810000   0.54552908    -7.7118853     -6.8936033      4.4678514      50218.233      36.893836      36.893836      36.893836    
   4820000   0.54373442    -7.7120205     -6.8964305      4.4851135      50218.233      36.893836      36.893836      36.893836    
   4830000   0.54638981    -7.7135637     -6.8939906      4.474062       50218.233      36.893836      36.893836      36.893836    
   4840000   0.54442168    -7.7138137     -6.8971928      4.4613986      50218.233      36.893836      36.893836      36.893836    
   4850000   0.54462892    -7.7121974     -6.8952657      4.4795154      50218.233      36.893836      36.893836      36.893836    
   4860000   0.54084217    -7.7088633     -6.8976116      4.496319       50218.233      36.893836      36.893836      36.893836    
   4870000   0.54569206    -7.7132907     -6.8947642      4.4716765      50218.233      36.893836      36.893836      36.893836    
   4880000   0.54330461    -7.7162243     -6.901279       4.4376259      50218.233      36.893836      36.893836      36.893836    
   4890000   0.54589269    -7.7184975     -6.8996702      4.4417293      50218.233      36.893836      36.893836      36.893836    
   4900000   0.54426255    -7.7129633     -6.896581       4.4701991      50218.233      36.893836      36.893836      36.893836    
   4910000   0.54376694    -7.7161674     -6.9005286      4.4486211      50218.233      36.893836      36.893836      36.893836    
   4920000   0.54567891    -7.7110736     -6.8925669      4.4877771      50218.233      36.893836      36.893836      36.893836    
   4930000   0.54426378    -7.7134555     -6.8970714      4.4613058      50218.233      36.893836      36.893836      36.893836    
   4940000   0.54352109    -7.712931      -6.897661       4.4863737      50218.233      36.893836      36.893836      36.893836    
   4950000   0.54506232    -7.7138769     -6.8962951      4.4704428      50218.233      36.893836      36.893836      36.893836    
   4960000   0.54593318    -7.7135292     -6.8946411      4.4717875      50218.233      36.893836      36.893836      36.893836    
   4970000   0.54876598    -7.7118938     -6.8887566      4.4975469      50218.233      36.893836      36.893836      36.893836    
   4980000   0.54509547    -7.7111273     -6.8934957      4.4944486      50218.233      36.893836      36.893836      36.893836    
   4990000   0.54639757    -7.7143675     -6.8947829      4.4737192      50218.233      36.893836      36.893836      36.893836    
   5000000   0.54445437    -7.7150283     -6.8983584      4.4487469      50218.233      36.893836      36.893836      36.893836    
   5010000   0.54712986    -7.7129775     -6.8922944      4.4831992      50218.233      36.893836      36.893836      36.893836    
   5020000   0.5480151     -7.7170382     -6.8950272      4.4486214      50218.233      36.893836      36.893836      36.893836    
   5030000   0.54626618    -7.7159357     -6.8965481      4.4541372      50218.233      36.893836      36.893836      36.893836    
   5040000   0.54427071    -7.7132461     -6.8968517      4.4689264      50218.233      36.893836      36.893836      36.893836    
   5050000   0.54561137    -7.7154333     -6.8970279      4.4579769      50218.233      36.893836      36.893836      36.893836    
   5060000   0.54373655    -7.7131194     -6.8975262      4.4603629      50218.233      36.893836      36.893836      36.893836    
   5070000   0.54822058    -7.7126188     -6.8902996      4.4799784      50218.233      36.893836      36.893836      36.893836    
   5080000   0.54219396    -7.7143519     -6.9010725      4.4645892      50218.233      36.893836      36.893836      36.893836    
   5090000   0.54319654    -7.7131584     -6.8983751      4.4603073      50218.233      36.893836      36.893836      36.893836    
   5100000   0.54797006    -7.7109442     -6.8890008      4.4948119      50218.233      36.893836      36.893836      36.893836    
   5110000   0.54509296    -7.7115013     -6.8938735      4.480205       50218.233      36.893836      36.893836      36.893836    
   5120000   0.54440427    -7.7138438     -6.897249       4.4667351      50218.233      36.893836      36.893836      36.893836    
   5130000   0.54487482    -7.7155424     -6.8982418      4.4547344      50218.233      36.893836      36.893836      36.893836    
   5140000   0.54257699    -7.7154564     -6.9016025      4.4548897      50218.233      36.893836      36.893836      36.893836    
   5150000   0.54475657    -7.7104721     -6.8933489      4.4893544      50218.233      36.893836      36.893836      36.893836    
   5160000   0.54390688    -7.717568      -6.9017192      4.4407541      50218.233      36.893836      36.893836      36.893836    
   5170000   0.54520615    -7.7112702     -6.8934726      4.4743215      50218.233      36.893836      36.893836      36.893836    
   5180000   0.54396683    -7.7172895     -6.9013509      4.4282162      50218.233      36.893836      36.893836      36.893836    
   5190000   0.54523382    -7.7082484     -6.8904094      4.500614       50218.233      36.893836      36.893836      36.893836    
   5200000   0.54453563    -7.7129482     -6.8961564      4.4820467      50218.233      36.893836      36.893836      36.893836    
   5210000   0.54482305    -7.7152255     -6.8980026      4.4620515      50218.233      36.893836      36.893836      36.893836    
   5220000   0.54510155    -7.7129773     -6.8953366      4.4775158      50218.233      36.893836      36.893836      36.893836    
   5230000   0.54471547    -7.7105374     -6.8934758      4.4955242      50218.233      36.893836      36.893836      36.893836    
   5240000   0.54327224    -7.7115451     -6.8966483      4.4744659      50218.233      36.893836      36.893836      36.893836    
   5250000   0.5446637     -7.7195889     -6.902605       4.4289047      50218.233      36.893836      36.893836      36.893836    
   5260000   0.54649992    -7.711855      -6.8921167      4.4796951      50218.233      36.893836      36.893836      36.893836    
   5270000   0.54431017    -7.7095768     -6.8931231      4.4879779      50218.233      36.893836      36.893836      36.893836    
   5280000   0.54463864    -7.7164146     -6.8994682      4.4478583      50218.233      36.893836      36.893836      36.893836    
   5290000   0.54555855    -7.7100686     -6.8917424      4.4781062      50218.233      36.893836      36.893836      36.893836    
   5300000   0.54259607    -7.711745      -6.8978625      4.4754711      50218.233      36.893836      36.893836      36.893836    
   5310000   0.54446127    -7.7081052     -6.891425       4.5063474      50218.233      36.893836      36.893836      36.893836    
   5320000   0.54634861    -7.7135893     -6.894078       4.4627673      50218.233      36.893836      36.893836      36.893836    
   5330000   0.54667899    -7.7150629     -6.895056       4.4744661      50218.233      36.893836      36.893836      36.893836    
   5340000   0.54641809    -7.7106287     -6.8910132      4.4841233      50218.233      36.893836      36.893836      36.893836    
   5350000   0.54579632    -7.7104465     -6.8917636      4.4905437      50218.233      36.893836      36.893836      36.893836    
   5360000   0.5460545     -7.7075988     -6.8885287      4.5160229      50218.233      36.893836      36.893836      36.893836    
   5370000   0.54140308    -7.712636      -6.9005429      4.47402        50218.233      36.893836      36.893836      36.893836    
   5380000   0.54328837    -7.7167662     -6.9018452      4.4417869      50218.233      36.893836      36.893836      36.893836    
   5390000   0.54388552    -7.7136192     -6.8978025      4.4536924      50218.233      36.893836      36.893836      36.893836    
   5400000   0.54744776    -7.7132483     -6.8920883      4.4723145      50218.233      36.893836      36.893836      36.893836    
   5410000   0.5431491     -7.7153199     -6.9006078      4.4533835      50218.233      36.893836      36.893836      36.893836    
   5420000   0.54542776    -7.7098405     -6.8917105      4.4941986      50218.233      36.893836      36.893836      36.893836    
   5430000   0.54535482    -7.7143625     -6.8963419      4.4606332      50218.233      36.893836      36.893836      36.893836    
   5440000   0.54525409    -7.7108912     -6.8930217      4.4952034      50218.233      36.893836      36.893836      36.893836    
   5450000   0.54728427    -7.7170615     -6.8961468      4.4468096      50218.233      36.893836      36.893836      36.893836    
   5460000   0.54332723    -7.7151619     -6.9001827      4.4538258      50218.233      36.893836      36.893836      36.893836    
   5470000   0.54871091    -7.7157412     -6.8926865      4.4648046      50218.233      36.893836      36.893836      36.893836    
   5480000   0.54257219    -7.7109217     -6.897075       4.4764664      50218.233      36.893836      36.893836      36.893836    
   5490000   0.5429053     -7.7147449     -6.9003985      4.4603741      50218.233      36.893836      36.893836      36.893836    
   5500000   0.54788616    -7.7105653     -6.8887478      4.4922569      50218.233      36.893836      36.893836      36.893836    
   5510000   0.54327993    -7.7118901     -6.8969818      4.4825067      50218.233      36.893836      36.893836      36.893836    
   5520000   0.54262439    -7.7148546     -6.9009296      4.4529766      50218.233      36.893836      36.893836      36.893836    
   5530000   0.5469139     -7.7161003     -6.8957411      4.4477537      50218.233      36.893836      36.893836      36.893836    
   5540000   0.54525034    -7.7190913     -6.9012274      4.4231927      50218.233      36.893836      36.893836      36.893836    
   5550000   0.54742906    -7.7174948     -6.8963629      4.447081       50218.233      36.893836      36.893836      36.893836    
   5560000   0.54658122    -7.7155279     -6.8956678      4.4566687      50218.233      36.893836      36.893836      36.893836    
   5570000   0.54640736    -7.716237      -6.8966376      4.4516282      50218.233      36.893836      36.893836      36.893836    
   5580000   0.5490273     -7.7116963     -6.888167       4.4829658      50218.233      36.893836      36.893836      36.893836    
   5590000   0.54404901    -7.7162542     -6.9001922      4.4433793      50218.233      36.893836      36.893836      36.893836    
   5600000   0.54448998    -7.7128895     -6.8961661      4.4727008      50218.233      36.893836      36.893836      36.893836    
   5610000   0.54391536    -7.7121486     -6.8962872      4.4918353      50218.233      36.893836      36.893836      36.893836    
   5620000   0.54785669    -7.7120485     -6.8902752      4.4708101      50218.233      36.893836      36.893836      36.893836    
   5630000   0.5429866     -7.7078239     -6.8933555      4.5097934      50218.233      36.893836      36.893836      36.893836    
   5640000   0.54700737    -7.7147071     -6.8942077      4.4607621      50218.233      36.893836      36.893836      36.893836    
   5650000   0.54738506    -7.7172046     -6.8961387      4.4387409      50218.233      36.893836      36.893836      36.893836    
   5660000   0.54597615    -7.7138157     -6.8948631      4.4723091      50218.233      36.893836      36.893836      36.893836    
   5670000   0.54280521    -7.7142496     -6.9000534      4.4678439      50218.233      36.893836      36.893836      36.893836    
   5680000   0.5467841     -7.7192877     -6.8991232      4.4373321      50218.233      36.893836      36.893836      36.893836    
   5690000   0.54597164    -7.7135234     -6.8945776      4.473799       50218.233      36.893836      36.893836      36.893836    
   5700000   0.54739875    -7.7115967     -6.8905102      4.4875057      50218.233      36.893836      36.893836      36.893836    
   5710000   0.54561553    -7.7138469     -6.8954352      4.4644635      50218.233      36.893836      36.893836      36.893836    
   5720000   0.54550709    -7.7137228     -6.8954738      4.4609094      50218.233      36.893836      36.893836      36.893836    
   5730000   0.54678266    -7.7124176     -6.8922553      4.4776427      50218.233      36.893836      36.893836      36.893836    
   5740000   0.54578553    -7.7172127     -6.8985461      4.4426536      50218.233      36.893836      36.893836      36.893836    
   5750000   0.54634009    -7.7127415     -6.893243       4.4736393      50218.233      36.893836      36.893836      36.893836    
   5760000   0.54212907    -7.7157491     -6.9025671      4.4412972      50218.233      36.893836      36.893836      36.893836    
   5770000   0.54818298    -7.7175925     -6.8953297      4.4402083      50218.233      36.893836      36.893836      36.893836    
   5780000   0.54484051    -7.7134295     -6.8961803      4.461282       50218.233      36.893836      36.893836      36.893836    
   5790000   0.54227807    -7.7115278     -6.8981222      4.4820333      50218.233      36.893836      36.893836      36.893836    
   5800000   0.54606369    -7.7126877     -6.8936038      4.4828814      50218.233      36.893836      36.893836      36.893836    
   5810000   0.54694009    -7.7166369     -6.8962384      4.4548465      50218.233      36.893836      36.893836      36.893836    
   5820000   0.54552278    -7.7103397     -6.8920672      4.4920364      50218.233      36.893836      36.893836      36.893836    
   5830000   0.54630535    -7.7149658     -6.8955194      4.4665637      50218.233      36.893836      36.893836      36.893836    
   5840000   0.54677148    -7.7137072     -6.8935616      4.4682647      50218.233      36.893836      36.893836      36.893836    
   5850000   0.5446388     -7.7140451     -6.8970985      4.4700998      50218.233      36.893836      36.893836      36.893836    
   5860000   0.54365764    -7.7083927     -6.8929179      4.5104466      50218.233      36.893836      36.893836      36.893836    
   5870000   0.54362237    -7.7135785     -6.8981565      4.4553704      50218.233      36.893836      36.893836      36.893836    
   5880000   0.54466515    -7.7157629     -6.8987768      4.4483777      50218.233      36.893836      36.893836      36.893836    
   5890000   0.54370615    -7.7146666     -6.899119       4.4531847      50218.233      36.893836      36.893836      36.893836    
   5900000   0.54503854    -7.7128918     -6.8953456      4.4804119      50218.233      36.893836      36.893836      36.893836    
   5910000   0.54585497    -7.7144401     -6.8956692      4.4635848      50218.233      36.893836      36.893836      36.893836    
   5920000   0.54457817    -7.7157442     -6.8988886      4.4564489      50218.233      36.893836      36.893836      36.893836    
   5930000   0.54351581    -7.7181112     -6.9028491      4.4313777      50218.233      36.893836      36.893836      36.893836    
   5940000   0.54378888    -7.7156837     -6.900012       4.4549587      50218.233      36.893836      36.893836      36.893836    
   5950000   0.54426529    -7.7138436     -6.8974573      4.472644       50218.233      36.893836      36.893836      36.893836    
   5960000   0.54418649    -7.7160221     -6.899754       4.4601009      50218.233      36.893836      36.893836      36.893836    
   5970000   0.54690522    -7.7131887     -6.8928425      4.47504        50218.233      36.893836      36.893836      36.893836    
   5980000   0.54575557    -7.7072517     -6.88863        4.5218125      50218.233      36.893836      36.893836      36.893836    
   5990000   0.54649661    -7.7105872     -6.890854       4.4958528      50218.233      36.893836      36.893836      36.893836    
   6000000   0.54523242    -7.718693      -6.900856       4.4345243      50218.233      36.893836      36.893836      36.893836    
   6010000   0.54635116    -7.7187385     -6.8992235      4.4279224      50218.233      36.893836      36.893836      36.893836    
   6020000   0.54700148    -7.717744      -6.8972535      4.4389733      50218.233      36.893836      36.893836      36.893836    
   6030000   0.54769469    -7.7109192     -6.8893889      4.4935968      50218.233      36.893836      36.893836      36.893836    
   6040000   0.54596247    -7.7169644     -6.8980323      4.4442865      50218.233      36.893836      36.893836      36.893836    
   6050000   0.54530664    -7.7145731     -6.8966248      4.4591415      50218.233      36.893836      36.893836      36.893836    
   6060000   0.54514406    -7.7151545     -6.8974501      4.4442462      50218.233      36.893836      36.893836      36.893836    
   6070000   0.54419898    -7.7157454     -6.8994585      4.437303       50218.233      36.893836      36.893836      36.893836    
   6080000   0.5489476     -7.7102441     -6.8868344      4.4915973      50218.233      36.893836      36.893836      36.893836    
   6090000   0.54480128    -7.7088068     -6.8916165      4.505893       50218.233      36.893836      36.893836      36.893836    
   6100000   0.54347535    -7.7159934     -6.9007919      4.4331237      50218.233      36.893836      36.893836      36.893836    
   6110000   0.54326286    -7.7154227     -6.90054        4.4471953      50218.233      36.893836      36.893836      36.893836    
   6120000   0.54594232    -7.7139446     -6.8950427      4.4672879      50218.233      36.893836      36.893836      36.893836    
   6130000   0.5463436     -7.7117852     -6.8922814      4.4811899      50218.233      36.893836      36.893836      36.893836    
   6140000   0.54337721    -7.7161842     -6.90113        4.4381477      50218.233      36.893836      36.893836      36.893836    
   6150000   0.54327788    -7.712757      -6.8978517      4.4722947      50218.233      36.893836      36.893836      36.893836    
   6160000   0.54870136    -7.7146275     -6.8915872      4.4604811      50218.233      36.893836      36.893836      36.893836    
   6170000   0.54565009    -7.7111831     -6.8927196      4.4903919      50218.233      36.893836      36.893836      36.893836    
   6180000   0.54569904    -7.7128822     -6.8943453      4.4818087      50218.233      36.893836      36.893836      36.893836    
   6190000   0.54573913    -7.7138229     -6.8952258      4.4713303      50218.233      36.893836      36.893836      36.893836    
   6200000   0.54541835    -7.7145197     -6.8964038      4.4674249      50218.233      36.893836      36.893836      36.893836    
   6210000   0.5470434     -7.720407      -6.8998536      4.4200306      50218.233      36.893836      36.893836      36.893836    
   6220000   0.54539998    -7.7165734     -6.8984851      4.451518       50218.233      36.893836      36.893836      36.893836    
   6230000   0.54567144    -7.7128823     -6.8943868      4.475689       50218.233      36.893836      36.893836      36.893836    
   6240000   0.54130601    -7.7154846     -6.9035371      4.4550394      50218.233      36.893836      36.893836      36.893836    
   6250000   0.54474471    -7.713165      -6.8960596      4.4658689      50218.233      36.893836      36.893836      36.893836    
   6260000   0.54705554    -7.7167062     -6.8961346      4.4487895      50218.233      36.893836      36.893836      36.893836    
   6270000   0.54382837    -7.7134325     -6.8977015      4.4639301      50218.233      36.893836      36.893836      36.893836    
   6280000   0.54648367    -7.7162239     -6.8965101      4.4403045      50218.233      36.893836      36.893836      36.893836    
   6290000   0.54606208    -7.7116301     -6.8925486      4.491536       50218.233      36.893836      36.893836      36.893836    
   6300000   0.54546213    -7.7156522     -6.8974707      4.4643258      50218.233      36.893836      36.893836      36.893836    
   6310000   0.54365669    -7.7166086     -6.9011352      4.4529865      50218.233      36.893836      36.893836      36.893836    
   6320000   0.54447381    -7.7096539     -6.8929548      4.4911481      50218.233      36.893836      36.893836      36.893836    
   6330000   0.54337158    -7.7154916     -6.9004459      4.443312       50218.233      36.893836      36.893836      36.893836    
   6340000   0.54755802    -7.7190243     -6.8976989      4.4287438      50218.233      36.893836      36.893836      36.893836    
   6350000   0.5455552     -7.7137991     -6.8954779      4.4680954      50218.233      36.893836      36.893836      36.893836    
   6360000   0.54646809    -7.7173493     -6.8976588      4.4502276      50218.233      36.893836      36.893836      36.893836    
   6370000   0.54129082    -7.7126561     -6.9007314      4.4705208      50218.233      36.893836      36.893836      36.893836    
   6380000   0.5446892     -7.7208596     -6.9038374      4.4184255      50218.233      36.893836      36.893836      36.893836    
   6390000   0.54490281    -7.7178621     -6.9005195      4.429893       50218.233      36.893836      36.893836      36.893836    
   6400000   0.54377793    -7.7147455     -6.8990902      4.4578134      50218.233      36.893836      36.893836      36.893836    
   6410000   0.54274904    -7.7132391     -6.8991271      4.4734862      50218.233      36.893836      36.893836      36.893836    
   6420000   0.5461873     -7.7167332     -6.8974639      4.4433895      50218.233      36.893836      36.893836      36.893836    
   6430000   0.54594575    -7.7161648     -6.8972578      4.4509345      50218.233      36.893836      36.893836      36.893836    
   6440000   0.5470766     -7.7176504     -6.8970472      4.4398508      50218.233      36.893836      36.893836      36.893836    
   6450000   0.54645785    -7.7141647     -6.8944896      4.4576922      50218.233      36.893836      36.893836      36.893836    
   6460000   0.54789683    -7.7188934     -6.8970599      4.4199056      50218.233      36.893836      36.893836      36.893836    
   6470000   0.54759337    -7.7151887     -6.8938104      4.4618146      50218.233      36.893836      36.893836      36.893836    
   6480000   0.54236739    -7.721017      -6.9074775      4.4007109      50218.233      36.893836      36.893836      36.893836    
   6490000   0.54315208    -7.7163595     -6.901643       4.4391517      50218.233      36.893836      36.893836      36.893836    
   6500000   0.54665733    -7.7135157     -6.8935414      4.4730631      50218.233      36.893836      36.893836      36.893836    
   6510000   0.54531549    -7.7121169     -6.8941553      4.4742586      50218.233      36.893836      36.893836      36.893836    
   6520000   0.54330044    -7.719988      -6.9050489      4.4163737      50218.233      36.893836      36.893836      36.893836    
   6530000   0.5458502     -7.7112544     -6.8924908      4.4853833      50218.233      36.893836      36.893836      36.893836    
   6540000   0.54456917    -7.7138335     -6.8969913      4.4628064      50218.233      36.893836      36.893836      36.893836    
   6550000   0.54370517    -7.7140174     -6.8984713      4.4590168      50218.233      36.893836      36.893836      36.893836    
   6560000   0.54795004    -7.7130698     -6.8911564      4.476321       50218.233      36.893836      36.893836      36.893836    
   6570000   0.54453038    -7.7183653     -6.9015813      4.4334287      50218.233      36.893836      36.893836      36.893836    
   6580000   0.54589219    -7.709474      -6.8906474      4.5119798      50218.233      36.893836      36.893836      36.893836    
   6590000   0.5442629     -7.7136679     -6.8972851      4.4661566      50218.233      36.893836      36.893836      36.893836    
   6600000   0.54571253    -7.7146942     -6.896137       4.4639475      50218.233      36.893836      36.893836      36.893836    
   6610000   0.54990857    -7.7190944     -6.8942432      4.4330507      50218.233      36.893836      36.893836      36.893836    
   6620000   0.54691436    -7.7175459     -6.897186       4.4360803      50218.233      36.893836      36.893836      36.893836    
   6630000   0.54142046    -7.7155004     -6.9033813      4.4524961      50218.233      36.893836      36.893836      36.893836    
   6640000   0.54406295    -7.7152408     -6.899158       4.4469519      50218.233      36.893836      36.893836      36.893836    
   6650000   0.54372735    -7.7135226     -6.8979432      4.4611598      50218.233      36.893836      36.893836      36.893836    
   6660000   0.54664611    -7.7169577     -6.8970002      4.4508309      50218.233      36.893836      36.893836      36.893836    
   6670000   0.54255163    -7.7144347     -6.9006188      4.455049       50218.233      36.893836      36.893836      36.893836    
   6680000   0.54454166    -7.7203022     -6.9035013      4.4234699      50218.233      36.893836      36.893836      36.893836    
   6690000   0.54515318    -7.7145772     -6.896859       4.4684291      50218.233      36.893836      36.893836      36.893836    
   6700000   0.54295498    -7.7139955     -6.8995746      4.4659018      50218.233      36.893836      36.893836      36.893836    
   6710000   0.54536557    -7.7141778     -6.8961411      4.4683296      50218.233      36.893836      36.893836      36.893836    
   6720000   0.54411324    -7.7163777     -6.9002195      4.4520052      50218.233      36.893836      36.893836      36.893836    
   6730000   0.54384324    -7.7097943     -6.8940411      4.4859371      50218.233      36.893836      36.893836      36.893836    
   6740000   0.54564599    -7.7140252     -6.8955678      4.4613601      50218.233      36.893836      36.893836      36.893836    
   6750000   0.54587466    -7.7163583     -6.897558       4.4587769      50218.233      36.893836      36.893836      36.893836    
   6760000   0.54072116    -7.7124735     -6.9014032      4.4616349      50218.233      36.893836      36.893836      36.893836    
   6770000   0.54554989    -7.7176487     -6.8993355      4.4437652      50218.233      36.893836      36.893836      36.893836    
   6780000   0.54600271    -7.7135923     -6.8945999      4.4773774      50218.233      36.893836      36.893836      36.893836    
   6790000   0.54629083    -7.7145632     -6.8951386      4.4664707      50218.233      36.893836      36.893836      36.893836    
   6800000   0.54361272    -7.717492      -6.9020845      4.4518069      50218.233      36.893836      36.893836      36.893836    
   6810000   0.54412611    -7.7169051     -6.9007275      4.4454661      50218.233      36.893836      36.893836      36.893836    
   6820000   0.5420496     -7.714735      -6.9016721      4.4546876      50218.233      36.893836      36.893836      36.893836    
   6830000   0.54525802    -7.7208283     -6.9029529      4.4089696      50218.233      36.893836      36.893836      36.893836    
   6840000   0.54208986    -7.7228199     -6.9096967      4.3932679      50218.233      36.893836      36.893836      36.893836    
   6850000   0.54730266    -7.7162244     -6.8952821      4.4476957      50218.233      36.893836      36.893836      36.893836    
   6860000   0.54613621    -7.7136031     -6.8944105      4.473358       50218.233      36.893836      36.893836      36.893836    
   6870000   0.54647485    -7.7192855     -6.8995849      4.4170304      50218.233      36.893836      36.893836      36.893836    
   6880000   0.54535894    -7.7161602     -6.8981335      4.4477737      50218.233      36.893836      36.893836      36.893836    
   6890000   0.54519777    -7.7158809     -6.8980959      4.4508491      50218.233      36.893836      36.893836      36.893836    
   6900000   0.54501352    -7.7138862     -6.8963776      4.4647674      50218.233      36.893836      36.893836      36.893836    
   6910000   0.54523371    -7.7229656     -6.9051267      4.4145092      50218.233      36.893836      36.893836      36.893836    
   6920000   0.54715358    -7.7171515     -6.8964328      4.4484461      50218.233      36.893836      36.893836      36.893836    
   6930000   0.54308523    -7.7180531     -6.9034369      4.4442815      50218.233      36.893836      36.893836      36.893836    
   6940000   0.54491165    -7.7183455     -6.9009896      4.4331373      50218.233      36.893836      36.893836      36.893836    
   6950000   0.54416999    -7.7168751     -6.9006318      4.4504701      50218.233      36.893836      36.893836      36.893836    
   6960000   0.54443687    -7.7152419     -6.8985982      4.4582443      50218.233      36.893836      36.893836      36.893836    
   6970000   0.5472463     -7.7157348     -6.8948771      4.453166       50218.233      36.893836      36.893836      36.893836    
   6980000   0.54380821    -7.7125549     -6.8968542      4.490589       50218.233      36.893836      36.893836      36.893836    
   6990000   0.54326451    -7.716096      -6.9012108      4.4491764      50218.233      36.893836      36.893836      36.893836    
   7000000   0.54309634    -7.714632      -6.8999991      4.4658865      50218.233      36.893836      36.893836      36.893836    
   7010000   0.54009672    -7.7189294     -6.9087959      4.4249629      50218.233      36.893836      36.893836      36.893836    
   7020000   0.5433482     -7.7166891     -6.9016783      4.4441525      50218.233      36.893836      36.893836      36.893836    
   7030000   0.54491966    -7.7145129     -6.897145       4.4541992      50218.233      36.893836      36.893836      36.893836    
   7040000   0.54473172    -7.7191714     -6.9020854      4.4205279      50218.233      36.893836      36.893836      36.893836    
   7050000   0.54566306    -7.7171496     -6.8986666      4.4455603      50218.233      36.893836      36.893836      36.893836    
   7060000   0.54369726    -7.7201256     -6.9045913      4.414499       50218.233      36.893836      36.893836      36.893836    
   7070000   0.5474819     -7.7156339     -6.8944227      4.4640195      50218.233      36.893836      36.893836      36.893836    
   7080000   0.54595773    -7.7202836     -6.9013587      4.4110417      50218.233      36.893836      36.893836      36.893836    
   7090000   0.54663679    -7.7185526     -6.8986091      4.4309907      50218.233      36.893836      36.893836      36.893836    
   7100000   0.54681665    -7.7133261     -6.8931128      4.4773676      50218.233      36.893836      36.893836      36.893836    
   7110000   0.54465589    -7.7193137     -6.9023415      4.4325526      50218.233      36.893836      36.893836      36.893836    
   7120000   0.54503308    -7.7172905     -6.8997525      4.4334877      50218.233      36.893836      36.893836      36.893836    
   7130000   0.54679784    -7.7186419     -6.8984568      4.4282486      50218.233      36.893836      36.893836      36.893836    
   7140000   0.54623474    -7.7200826     -6.9007422      4.4088713      50218.233      36.893836      36.893836      36.893836    
   7150000   0.54369741    -7.7180831     -6.9025486      4.4250953      50218.233      36.893836      36.893836      36.893836    
   7160000   0.54653435    -7.7178603     -6.8980704      4.4392621      50218.233      36.893836      36.893836      36.893836    
   7170000   0.54524624    -7.7153059     -6.8974482      4.4502224      50218.233      36.893836      36.893836      36.893836    
   7180000   0.54395935    -7.7117818     -6.8958543      4.4895396      50218.233      36.893836      36.893836      36.893836    
   7190000   0.54424467    -7.7179035     -6.9015481      4.4361495      50218.233      36.893836      36.893836      36.893836    
   7200000   0.54464845    -7.7140362     -6.8970752      4.4579925      50218.233      36.893836      36.893836      36.893836    
   7210000   0.54651564    -7.7118768     -6.892115       4.4683726      50218.233      36.893836      36.893836      36.893836    
   7220000   0.54510117    -7.7156171     -6.897977       4.4485663      50218.233      36.893836      36.893836      36.893836    
   7230000   0.54599127    -7.7135219     -6.8945466      4.4694832      50218.233      36.893836      36.893836      36.893836    
   7240000   0.54387792    -7.7163924     -6.9005872      4.4559283      50218.233      36.893836      36.893836      36.893836    
   7250000   0.544571      -7.7154825     -6.8986376      4.4517119      50218.233      36.893836      36.893836      36.893836    
   7260000   0.54488661    -7.7194307     -6.9021125      4.4181434      50218.233      36.893836      36.893836      36.893836    
   7270000   0.54437354    -7.7149963     -6.8984476      4.4661766      50218.233      36.893836      36.893836      36.893836    
   7280000   0.54637053    -7.7153841     -6.8958399      4.4602828      50218.233      36.893836      36.893836      36.893836    
   7290000   0.54559079    -7.7131143     -6.8947398      4.4701825      50218.233      36.893836      36.893836      36.893836    
   7300000   0.54313245    -7.7122848     -6.8975977      4.4787561      50218.233      36.893836      36.893836      36.893836    
   7310000   0.54892097    -7.7111154     -6.8877456      4.4922429      50218.233      36.893836      36.893836      36.893836    
   7320000   0.54470434    -7.7101125     -6.8930676      4.4950014      50218.233      36.893836      36.893836      36.893836    
   7330000   0.54596998    -7.7140768     -6.8951334      4.4550668      50218.233      36.893836      36.893836      36.893836    
   7340000   0.54525052    -7.7137346     -6.8958704      4.4658267      50218.233      36.893836      36.893836      36.893836    
   7350000   0.54533215    -7.7196085     -6.9016219      4.4312221      50218.233      36.893836      36.893836      36.893836    
   7360000   0.54725432    -7.7208266     -6.8999568      4.4095066      50218.233      36.893836      36.893836      36.893836    
   7370000   0.54632155    -7.7123432     -6.8928725      4.4804939      50218.233      36.893836      36.893836      36.893836    
   7380000   0.5428889     -7.7142757     -6.899954       4.4615273      50218.233      36.893836      36.893836      36.893836    
   7390000   0.5425871     -7.7180339     -6.9041649      4.4361129      50218.233      36.893836      36.893836      36.893836    
   7400000   0.54614562    -7.7173894     -6.8981827      4.4420609      50218.233      36.893836      36.893836      36.893836    
   7410000   0.544559      -7.720699      -6.9038721      4.41188        50218.233      36.893836      36.893836      36.893836    
   7420000   0.54475943    -7.7217148     -6.9045872      4.4168781      50218.233      36.893836      36.893836      36.893836    
   7430000   0.54577707    -7.7180568     -6.8994028      4.4212247      50218.233      36.893836      36.893836      36.893836    
   7440000   0.54473206    -7.7139719     -6.8968855      4.4655008      50218.233      36.893836      36.893836      36.893836    
   7450000   0.54451508    -7.7155924     -6.8988314      4.4403093      50218.233      36.893836      36.893836      36.893836    
   7460000   0.54527598    -7.7168368     -6.8989344      4.4543451      50218.233      36.893836      36.893836      36.893836    
   7470000   0.54598054    -7.7136015     -6.8946423      4.4714568      50218.233      36.893836      36.893836      36.893836    
   7480000   0.54602862    -7.7161492     -6.897118       4.4470311      50218.233      36.893836      36.893836      36.893836    
   7490000   0.54575855    -7.7160183     -6.8973921      4.4444219      50218.233      36.893836      36.893836      36.893836    
   7500000   0.54641531    -7.7114965     -6.8918852      4.4915877      50218.233      36.893836      36.893836      36.893836    
   7510000   0.54415586    -7.7190538     -6.9028316      4.431377       50218.233      36.893836      36.893836      36.893836    
   7520000   0.54111513    -7.7195438     -6.9078827      4.4212625      50218.233      36.893836      36.893836      36.893836    
   7530000   0.54450812    -7.7199139     -6.9031633      4.4125234      50218.233      36.893836      36.893836      36.893836    
   7540000   0.54441018    -7.7168836     -6.9002799      4.4483141      50218.233      36.893836      36.893836      36.893836    
   7550000   0.54715571    -7.71802       -6.8972981      4.4535706      50218.233      36.893836      36.893836      36.893836    
   7560000   0.54607142    -7.7194501     -6.9003546      4.4224619      50218.233      36.893836      36.893836      36.893836    
   7570000   0.54271103    -7.7168356     -6.9027807      4.4488912      50218.233      36.893836      36.893836      36.893836    
   7580000   0.54671498    -7.7192978     -6.899237       4.4260772      50218.233      36.893836      36.893836      36.893836    
   7590000   0.54713732    -7.7228314     -6.9021371      4.4156006      50218.233      36.893836      36.893836      36.893836    
   7600000   0.54558421    -7.7146549     -6.8962902      4.4598303      50218.233      36.893836      36.893836      36.893836    
   7610000   0.54271825    -7.7208101     -6.9067443      4.404401       50218.233      36.893836      36.893836      36.893836    
   7620000   0.5451798     -7.7176569     -6.8998988      4.4357625      50218.233      36.893836      36.893836      36.893836    
   7630000   0.54815423    -7.7154373     -6.8932176      4.4585117      50218.233      36.893836      36.893836      36.893836    
   7640000   0.54470009    -7.7187214     -6.9016829      4.4308774      50218.233      36.893836      36.893836      36.893836    
   7650000   0.54573976    -7.7147447     -6.8961467      4.4591062      50218.233      36.893836      36.893836      36.893836    
   7660000   0.54497071    -7.7186476     -6.9012031      4.4357262      50218.233      36.893836      36.893836      36.893836    
   7670000   0.54559058    -7.7221954     -6.9038212      4.406052       50218.233      36.893836      36.893836      36.893836    
   7680000   0.54511401    -7.716141      -6.8984816      4.4612629      50218.233      36.893836      36.893836      36.893836    
   7690000   0.54438232    -7.7219553     -6.9053935      4.4054997      50218.233      36.893836      36.893836      36.893836    
   7700000   0.54530353    -7.7229941     -6.9050505      4.3953265      50218.233      36.893836      36.893836      36.893836    
   7710000   0.54325578    -7.7171425     -6.9022705      4.431698       50218.233      36.893836      36.893836      36.893836    
   7720000   0.54379415    -7.7213619     -6.9056823      4.4045919      50218.233      36.893836      36.893836      36.893836    
   7730000   0.54426564    -7.7186299     -6.9022431      4.4280738      50218.233      36.893836      36.893836      36.893836    
   7740000   0.54331055    -7.7181867     -6.9032325      4.4219317      50218.233      36.893836      36.893836      36.893836    
   7750000   0.54616148    -7.7183449     -6.8991143      4.4357311      50218.233      36.893836      36.893836      36.893836    
   7760000   0.54509661    -7.7184842     -6.9008509      4.4341665      50218.233      36.893836      36.893836      36.893836    
   7770000   0.54476506    -7.718536      -6.9014         4.4384866      50218.233      36.893836      36.893836      36.893836    
   7780000   0.54508463    -7.7166777     -6.8990624      4.4438973      50218.233      36.893836      36.893836      36.893836    
   7790000   0.54685747    -7.7175229     -6.8972484      4.43831        50218.233      36.893836      36.893836      36.893836    
   7800000   0.54524042    -7.7165948     -6.8987458      4.4474714      50218.233      36.893836      36.893836      36.893836    
   7810000   0.54568351    -7.7147571     -6.8962435      4.4576098      50218.233      36.893836      36.893836      36.893836    
   7820000   0.54752685    -7.720678      -6.8993994      4.4218609      50218.233      36.893836      36.893836      36.893836    
   7830000   0.54385434    -7.7144813     -6.8987114      4.4611413      50218.233      36.893836      36.893836      36.893836    
   7840000   0.54380764    -7.7127392     -6.8970393      4.4588004      50218.233      36.893836      36.893836      36.893836    
   7850000   0.54586003    -7.7154369     -6.8966585      4.4685315      50218.233      36.893836      36.893836      36.893836    
   7860000   0.54585539    -7.7088184     -6.890047       4.505941       50218.233      36.893836      36.893836      36.893836    
   7870000   0.5453151     -7.7109934     -6.8930323      4.4823437      50218.233      36.893836      36.893836      36.893836    
   7880000   0.54424394    -7.7169573     -6.900603       4.4465292      50218.233      36.893836      36.893836      36.893836    
   7890000   0.54339497    -7.7144257     -6.8993448      4.4718333      50218.233      36.893836      36.893836      36.893836    
   7900000   0.54351665    -7.7148608     -6.8995974      4.4563674      50218.233      36.893836      36.893836      36.893836    
   7910000   0.54609501    -7.7150352     -6.8959044      4.4674987      50218.233      36.893836      36.893836      36.893836    
   7920000   0.54706366    -7.717106      -6.8965222      4.4444109      50218.233      36.893836      36.893836      36.893836    
   7930000   0.54587153    -7.7175492     -6.8987535      4.4426183      50218.233      36.893836      36.893836      36.893836    
   7940000   0.54446741    -7.7158691     -6.8991796      4.452847       50218.233      36.893836      36.893836      36.893836    
   7950000   0.54399899    -7.7184389     -6.9024521      4.4264108      50218.233      36.893836      36.893836      36.893836    
   7960000   0.54746623    -7.7128745     -6.8916869      4.467223       50218.233      36.893836      36.893836      36.893836    
   7970000   0.54871991    -7.7171525     -6.8940843      4.4479599      50218.233      36.893836      36.893836      36.893836    
   7980000   0.54871126    -7.715052      -6.8919968      4.4650224      50218.233      36.893836      36.893836      36.893836    
   7990000   0.54302404    -7.7093258     -6.8948013      4.4834155      50218.233      36.893836      36.893836      36.893836    
   8000000   0.5437766     -7.7163245     -6.9006711      4.4392634      50218.233      36.893836      36.893836      36.893836    
Loop time of 12948 on 5 procs for 8000000 steps with 70304 atoms

Performance: 533827.822 tau/day, 617.856 timesteps/s, 43.438 Matom-step/s
94.4% CPU use with 5 MPI tasks x 1 OpenMP threads

MPI task timing breakdown:
Section |  min time  |  avg time  |  max time  |%varavg| %total
---------------------------------------------------------------
Pair    | 4226.7     | 5115.6     | 5964.6     | 815.8 | 39.51
Neigh   | 41.07      | 44.33      | 47.089     |  29.4 |  0.34
Comm    | 1909.7     | 1932.9     | 1950.5     |  33.0 | 14.93
Output  | 0.14387    | 0.14834    | 0.1569     |   1.2 |  0.00
Modify  | 4383.5     | 5225.2     | 6134.6     | 822.3 | 40.36
Other   |            | 629.8      |            |       |  4.86

Nlocal:        14060.8 ave       14084 max       14046 min
Histogram: 1 1 1 0 0 1 0 0 0 1
Nghost:        18736.4 ave       18775 max       18708 min
Histogram: 2 0 1 0 0 0 0 1 0 1
Neighs:              0 ave           0 max           0 min
Histogram: 5 0 0 0 0 0 0 0 0 0

Total # of neighbors = 0
Ave neighs/atom = 0
Neighbor list builds = 1708971
Dangerous builds = 0
clear
OMP_NUM_THREADS environment is not set. Defaulting to 1 thread. (src/comm.cpp:98)
  using 1 OpenMP thread(s) per MPI task
package gpu 0
jump dms525.lmp

variable T equal 525
# T = 1000* (temp in LJ unit)
variable f equal 10000
log log.${T}
log log.525
