variable TLJ equal (${T}/1000)
variable TLJ equal (260/1000)
variable NCyle equal 10
variable iStep equal (${f})
variable iStep equal (10000)
variable dumpStep equal (${f}*100)
variable dumpStep equal (10000*100)
variable runStep equal (${f}*100*${NCyle})
variable runStep equal (10000*100*${NCyle})
variable runStep equal (10000*100*10)

units       lj
atom_style  atomic
dimension 3
boundary     p p p
pair_style  lj/cut 2.5
read_data  ../data/T${T}.dat
read_data  ../data/T260.dat
Reading data file ...
  orthogonal box = (0.97250269 0.97250269 0.97250269) to (37.866338 37.866338 37.866338)
  1 by 1 by 5 MPI processor grid
  reading atoms ...
  70304 atoms
  reading velocities ...
  70304 velocities
  read_data CPU = 0.212 seconds
change_box all triclinic
Changing box ...
  triclinic box = (0.97250269 0.97250269 0.97250269) to (37.866338 37.866338 37.866338) with tilt (0 0 0)
mass 1 1
mass 2 1
pair_modify shift yes
pair_coeff  1 1 1 1
pair_coeff  1 2 1.5 0.8
pair_coeff  2 2 0.5 0.88


timestep 0.01
thermo ${iStep}
thermo 10000
reset_timestep 0
thermo_style custom step temp pe etotal press vol lx ly lz
fix             1 all nvt temp ${TLJ}  ${TLJ}  0.1
fix             1 all nvt temp 0.26  ${TLJ}  0.1
fix             1 all nvt temp 0.26  0.26  0.1
thermo_modify flush yes

fix dsf all deform 1 xy  wiggle 0.5  ${f}   units box
fix dsf all deform 1 xy  wiggle 0.5  10000   units box
fix ps1 all ave/time 1 1 ${iStep} c_thermo_press[1] c_thermo_press[2]  c_thermo_press[3] c_thermo_press[4]  c_thermo_press[5] c_thermo_press[6]  file  stress.${T}
fix ps1 all ave/time 1 1 10000 c_thermo_press[1] c_thermo_press[2]  c_thermo_press[3] c_thermo_press[4]  c_thermo_press[5] c_thermo_press[6]  file  stress.${T}
fix ps1 all ave/time 1 1 10000 c_thermo_press[1] c_thermo_press[2]  c_thermo_press[3] c_thermo_press[4]  c_thermo_press[5] c_thermo_press[6]  file  stress.260
dump            1 all custom ${dumpStep} dump.${T} id type x y z
dump            1 all custom 1000000 dump.${T} id type x y z
dump            1 all custom 1000000 dump.260 id type x y z
dump_modify 1 sort id
fix nodrift all momentum 1  linear 1 1 1
fix com_seed all recenter INIT INIT INIT shift all
run ${runStep}
run 10000000
Generated 0 of 1 mixed pair_coeff terms from geometric mixing rule
Per MPI rank memory allocation (min/avg/max) = 8.916 | 8.92 | 8.925 Mbytes
   Step          Temp          PotEng         TotEng         Press          Volume           Lx             Ly             Lz      
         0   0.25969774    -8.2005087     -7.8109676      0.46562638     50218.233      36.893836      36.893836      36.893836    
     10000   0.25997485    -8.1921052     -7.8021485      0.52448865     50218.233      36.893836      36.893836      36.893836    
     20000   0.25981407    -8.1959248     -7.8062093      0.50555522     50218.233      36.893836      36.893836      36.893836    
     30000   0.26157916    -8.1944613     -7.8020981      0.5040363      50218.233      36.893836      36.893836      36.893836    
     40000   0.26109082    -8.1928466     -7.801216       0.52332799     50218.233      36.893836      36.893836      36.893836    
     50000   0.26083922    -8.1957663     -7.804513       0.49527921     50218.233      36.893836      36.893836      36.893836    
     60000   0.26166429    -8.1953387     -7.8028479      0.50832182     50218.233      36.893836      36.893836      36.893836    
     70000   0.26063418    -8.1950703     -7.8041245      0.50640625     50218.233      36.893836      36.893836      36.893836    
     80000   0.25948267    -8.1930747     -7.8038563      0.52132724     50218.233      36.893836      36.893836      36.893836    
     90000   0.26069787    -8.1953022     -7.804261       0.50241692     50218.233      36.893836      36.893836      36.893836    
    100000   0.25951555    -8.1946964     -7.8054286      0.50959703     50218.233      36.893836      36.893836      36.893836    
    110000   0.26159544    -8.1958516     -7.803464       0.51132425     50218.233      36.893836      36.893836      36.893836    
    120000   0.2597729     -8.1960494     -7.8063956      0.50041255     50218.233      36.893836      36.893836      36.893836    
    130000   0.25958422    -8.1923479     -7.8029772      0.53207945     50218.233      36.893836      36.893836      36.893836    
    140000   0.25928615    -8.1937839     -7.8048602      0.52310636     50218.233      36.893836      36.893836      36.893836    
    150000   0.26004196    -8.1940014     -7.803944       0.51271525     50218.233      36.893836      36.893836      36.893836    
    160000   0.26069744    -8.1919087     -7.8008682      0.53098453     50218.233      36.893836      36.893836      36.893836    
    170000   0.25983839    -8.1947275     -7.8049754      0.51164883     50218.233      36.893836      36.893836      36.893836    
    180000   0.26008877    -8.1913265     -7.8011989      0.53654287     50218.233      36.893836      36.893836      36.893836    
    190000   0.26121917    -8.1933927     -7.8015696      0.51626288     50218.233      36.893836      36.893836      36.893836    
    200000   0.2599687     -8.1919977     -7.8020502      0.53155362     50218.233      36.893836      36.893836      36.893836    
    210000   0.25904917    -8.1934421     -7.8048739      0.51991398     50218.233      36.893836      36.893836      36.893836    
    220000   0.25986024    -8.1930474     -7.8032626      0.51924316     50218.233      36.893836      36.893836      36.893836    
    230000   0.26028863    -8.1945447     -7.8041173      0.5123741      50218.233      36.893836      36.893836      36.893836    
    240000   0.26101991    -8.1934211     -7.8018968      0.51674273     50218.233      36.893836      36.893836      36.893836    
    250000   0.25918122    -8.1950909     -7.8063246      0.50201421     50218.233      36.893836      36.893836      36.893836    
    260000   0.26077442    -8.1953906     -7.8042345      0.49762068     50218.233      36.893836      36.893836      36.893836    
    270000   0.25880243    -8.1929906     -7.8047924      0.52093792     50218.233      36.893836      36.893836      36.893836    
    280000   0.25974653    -8.1926916     -7.8030773      0.52716568     50218.233      36.893836      36.893836      36.893836    
    290000   0.25974899    -8.1942176     -7.8045996      0.51695177     50218.233      36.893836      36.893836      36.893836    
    300000   0.25917184    -8.1939361     -7.8051839      0.51866284     50218.233      36.893836      36.893836      36.893836    
    310000   0.26040207    -8.1939211     -7.8033236      0.514589       50218.233      36.893836      36.893836      36.893836    
    320000   0.25997303    -8.1955381     -7.8055841      0.50648442     50218.233      36.893836      36.893836      36.893836    
    330000   0.25995159    -8.1931515     -7.8032297      0.51680623     50218.233      36.893836      36.893836      36.893836    
    340000   0.25948965    -8.1946476     -7.8054187      0.50514491     50218.233      36.893836      36.893836      36.893836    
    350000   0.25781273    -8.1943725     -7.8076589      0.50814344     50218.233      36.893836      36.893836      36.893836    
    360000   0.26004604    -8.1947398     -7.8046763      0.49777672     50218.233      36.893836      36.893836      36.893836    
    370000   0.25960783    -8.1940281     -7.8046219      0.51141555     50218.233      36.893836      36.893836      36.893836    
    380000   0.25881166    -8.1930562     -7.8048442      0.51285003     50218.233      36.893836      36.893836      36.893836    
    390000   0.2598387     -8.1926238     -7.8028713      0.52285645     50218.233      36.893836      36.893836      36.893836    
    400000   0.25982544    -8.1930783     -7.8033457      0.52186482     50218.233      36.893836      36.893836      36.893836    
    410000   0.26006358    -8.1947676     -7.8046778      0.50784257     50218.233      36.893836      36.893836      36.893836    
    420000   0.26067236    -8.1952951     -7.8042921      0.50150713     50218.233      36.893836      36.893836      36.893836    
    430000   0.25969496    -8.1940373     -7.8045003      0.51297175     50218.233      36.893836      36.893836      36.893836    
    440000   0.2594543     -8.1938345     -7.8046586      0.50684319     50218.233      36.893836      36.893836      36.893836    
    450000   0.26175314    -8.1937401     -7.801116       0.52311213     50218.233      36.893836      36.893836      36.893836    
    460000   0.25889876    -8.1948136     -7.806471       0.50409775     50218.233      36.893836      36.893836      36.893836    
    470000   0.2588134     -8.1948358     -7.8066212      0.50946065     50218.233      36.893836      36.893836      36.893836    
    480000   0.25979984    -8.1947043     -7.8050101      0.50376011     50218.233      36.893836      36.893836      36.893836    
    490000   0.26009324    -8.1952376     -7.8051033      0.51129389     50218.233      36.893836      36.893836      36.893836    
    500000   0.26017745    -8.1973496     -7.807089       0.49215193     50218.233      36.893836      36.893836      36.893836    
    510000   0.26000085    -8.1950264     -7.8050307      0.50530013     50218.233      36.893836      36.893836      36.893836    
    520000   0.26091011    -8.1948592     -7.8034996      0.50627972     50218.233      36.893836      36.893836      36.893836    
    530000   0.25956906    -8.1947499     -7.8054018      0.51148086     50218.233      36.893836      36.893836      36.893836    
    540000   0.25958276    -8.1924855     -7.8031169      0.51909114     50218.233      36.893836      36.893836      36.893836    
    550000   0.26135955    -8.1947952     -7.8027614      0.50647283     50218.233      36.893836      36.893836      36.893836    
    560000   0.2596693     -8.1949535     -7.805455       0.50285659     50218.233      36.893836      36.893836      36.893836    
    570000   0.26008212    -8.1918153     -7.8016977      0.533225       50218.233      36.893836      36.893836      36.893836    
    580000   0.25928107    -8.1931907     -7.8042746      0.51451319     50218.233      36.893836      36.893836      36.893836    
    590000   0.2587364     -8.1952495     -7.8071504      0.50377898     50218.233      36.893836      36.893836      36.893836    
    600000   0.25959701    -8.1926944     -7.8033044      0.51560381     50218.233      36.893836      36.893836      36.893836    
    610000   0.26138648    -8.1944269     -7.8023527      0.51197467     50218.233      36.893836      36.893836      36.893836    
    620000   0.26155895    -8.1959421     -7.8036093      0.50456924     50218.233      36.893836      36.893836      36.893836    
    630000   0.26084645    -8.1937755     -7.8025114      0.5210703      50218.233      36.893836      36.893836      36.893836    
    640000   0.25905935    -8.1950662     -7.8064827      0.50369003     50218.233      36.893836      36.893836      36.893836    
    650000   0.26004612    -8.1963289     -7.8062652      0.49836346     50218.233      36.893836      36.893836      36.893836    
    660000   0.26071163    -8.1932534     -7.8021915      0.51996344     50218.233      36.893836      36.893836      36.893836    
    670000   0.26032603    -8.1925071     -7.8020236      0.527121       50218.233      36.893836      36.893836      36.893836    
    680000   0.26041817    -8.1937039     -7.8030822      0.51313763     50218.233      36.893836      36.893836      36.893836    
    690000   0.26115757    -8.1934438     -7.801713       0.51500398     50218.233      36.893836      36.893836      36.893836    
    700000   0.25969558    -8.1948989     -7.8053611      0.50158434     50218.233      36.893836      36.893836      36.893836    
    710000   0.26042017    -8.1949102     -7.8042855      0.50454023     50218.233      36.893836      36.893836      36.893836    
    720000   0.25927782    -8.194106      -7.8051948      0.50839021     50218.233      36.893836      36.893836      36.893836    
    730000   0.2599779     -8.1931377     -7.8031764      0.51372835     50218.233      36.893836      36.893836      36.893836    
    740000   0.26017211    -8.193498      -7.8032454      0.52139609     50218.233      36.893836      36.893836      36.893836    
    750000   0.260324      -8.1939578     -7.8034774      0.51534769     50218.233      36.893836      36.893836      36.893836    
    760000   0.26053896    -8.1918163     -7.8010134      0.52392711     50218.233      36.893836      36.893836      36.893836    
    770000   0.26188456    -8.1930502     -7.800229       0.52200256     50218.233      36.893836      36.893836      36.893836    
    780000   0.25951376    -8.1937135     -7.8044484      0.52026632     50218.233      36.893836      36.893836      36.893836    
    790000   0.25992442    -8.1947013     -7.8048202      0.51189095     50218.233      36.893836      36.893836      36.893836    
    800000   0.26062665    -8.1925495     -7.8016151      0.52419777     50218.233      36.893836      36.893836      36.893836    
    810000   0.26054315    -8.1942892     -7.8034801      0.51747675     50218.233      36.893836      36.893836      36.893836    
    820000   0.26079601    -8.1946159     -7.8034275      0.50907794     50218.233      36.893836      36.893836      36.893836    
    830000   0.25992282    -8.1946048     -7.8047261      0.50402741     50218.233      36.893836      36.893836      36.893836    
    840000   0.25923249    -8.1960718     -7.8072286      0.50129366     50218.233      36.893836      36.893836      36.893836    
    850000   0.2597218     -8.1954672     -7.80589        0.49945436     50218.233      36.893836      36.893836      36.893836    
    860000   0.26038055    -8.1967886     -7.8062234      0.48879655     50218.233      36.893836      36.893836      36.893836    
    870000   0.26078574    -8.1954        -7.804227       0.50922971     50218.233      36.893836      36.893836      36.893836    
    880000   0.25925947    -8.1928468     -7.8039631      0.52891846     50218.233      36.893836      36.893836      36.893836    
    890000   0.25973185    -8.194653      -7.8050607      0.51185046     50218.233      36.893836      36.893836      36.893836    
    900000   0.25831405    -8.1936837     -7.8062181      0.50931934     50218.233      36.893836      36.893836      36.893836    
    910000   0.25842125    -8.1949433     -7.8073169      0.50455027     50218.233      36.893836      36.893836      36.893836    
    920000   0.25968993    -8.1939914     -7.8044621      0.50663697     50218.233      36.893836      36.893836      36.893836    
    930000   0.25979318    -8.1944349     -7.8047507      0.50085443     50218.233      36.893836      36.893836      36.893836    
    940000   0.26090056    -8.1949399     -7.8035946      0.50078093     50218.233      36.893836      36.893836      36.893836    
    950000   0.25885826    -8.1955557     -7.8072738      0.49800061     50218.233      36.893836      36.893836      36.893836    
    960000   0.26101104    -8.1945557     -7.8030447      0.51151711     50218.233      36.893836      36.893836      36.893836    
    970000   0.26067408    -8.1933343     -7.8023287      0.52064977     50218.233      36.893836      36.893836      36.893836    
    980000   0.26019313    -8.1953406     -7.8050564      0.50552451     50218.233      36.893836      36.893836      36.893836    
    990000   0.26013562    -8.1986772     -7.8084793      0.47959952     50218.233      36.893836      36.893836      36.893836    
   1000000   0.26064399    -8.1944275     -7.8034671      0.51531776     50218.233      36.893836      36.893836      36.893836    
   1010000   0.2597243     -8.1946688     -7.8050879      0.50353724     50218.233      36.893836      36.893836      36.893836    
   1020000   0.2593046     -8.1951388     -7.8061874      0.50293128     50218.233      36.893836      36.893836      36.893836    
   1030000   0.26052027    -8.1950434     -7.8042686      0.50645466     50218.233      36.893836      36.893836      36.893836    
   1040000   0.25954991    -8.1934752     -7.8041559      0.51079746     50218.233      36.893836      36.893836      36.893836    
   1050000   0.26006331    -8.1935777     -7.8034883      0.51547179     50218.233      36.893836      36.893836      36.893836    
   1060000   0.25942502    -8.1929623     -7.8038303      0.51832384     50218.233      36.893836      36.893836      36.893836    
   1070000   0.25887814    -8.1946346     -7.8063229      0.50633177     50218.233      36.893836      36.893836      36.893836    
   1080000   0.25891457    -8.1948814     -7.8065151      0.50686411     50218.233      36.893836      36.893836      36.893836    
   1090000   0.26037879    -8.1943388     -7.8037762      0.51355725     50218.233      36.893836      36.893836      36.893836    
   1100000   0.25975668    -8.195185      -7.8055555      0.50895871     50218.233      36.893836      36.893836      36.893836    
   1110000   0.25934978    -8.1926387     -7.8036195      0.52436677     50218.233      36.893836      36.893836      36.893836    
   1120000   0.25840618    -8.194355      -7.8067512      0.50870422     50218.233      36.893836      36.893836      36.893836    
   1130000   0.26092555    -8.192596      -7.8012132      0.52833352     50218.233      36.893836      36.893836      36.893836    
   1140000   0.25976658    -8.1957917     -7.8061473      0.49872047     50218.233      36.893836      36.893836      36.893836    
   1150000   0.26159219    -8.1945757     -7.802193       0.52207663     50218.233      36.893836      36.893836      36.893836    
   1160000   0.25889238    -8.1919786     -7.8036456      0.52483113     50218.233      36.893836      36.893836      36.893836    
   1170000   0.26076117    -8.194032      -7.8028958      0.51569044     50218.233      36.893836      36.893836      36.893836    
   1180000   0.25834424    -8.1918913     -7.8043805      0.53302892     50218.233      36.893836      36.893836      36.893836    
   1190000   0.25932394    -8.1944842     -7.8055039      0.50043558     50218.233      36.893836      36.893836      36.893836    
   1200000   0.25897377    -8.1940816     -7.8056265      0.50918139     50218.233      36.893836      36.893836      36.893836    
   1210000   0.25913473    -8.1932722     -7.8045756      0.52097105     50218.233      36.893836      36.893836      36.893836    
   1220000   0.25956894    -8.1930358     -7.8036879      0.51797692     50218.233      36.893836      36.893836      36.893836    
   1230000   0.25999601    -8.1952381     -7.8052496      0.50106172     50218.233      36.893836      36.893836      36.893836    
   1240000   0.26131325    -8.1924439     -7.8004796      0.52798577     50218.233      36.893836      36.893836      36.893836    
   1250000   0.25976557    -8.1940282     -7.8043854      0.51372199     50218.233      36.893836      36.893836      36.893836    
   1260000   0.26003417    -8.1961353     -7.8060896      0.48992087     50218.233      36.893836      36.893836      36.893836    
   1270000   0.26004307    -8.1936307     -7.8035716      0.50588448     50218.233      36.893836      36.893836      36.893836    
   1280000   0.25984059    -8.1930984     -7.8033431      0.52159015     50218.233      36.893836      36.893836      36.893836    
   1290000   0.25995402    -8.1922494     -7.8023239      0.5318754      50218.233      36.893836      36.893836      36.893836    
   1300000   0.26098486    -8.1937371     -7.8022654      0.51432523     50218.233      36.893836      36.893836      36.893836    
   1310000   0.2595498     -8.1929462     -7.8036271      0.52528568     50218.233      36.893836      36.893836      36.893836    
   1320000   0.25926696    -8.1913532     -7.8024583      0.52979006     50218.233      36.893836      36.893836      36.893836    
   1330000   0.26108123    -8.1909314     -7.7993151      0.5378913      50218.233      36.893836      36.893836      36.893836    
   1340000   0.25956996    -8.1932599     -7.8039105      0.52075019     50218.233      36.893836      36.893836      36.893836    
   1350000   0.25982369    -8.1938375     -7.8041075      0.50908681     50218.233      36.893836      36.893836      36.893836    
   1360000   0.26085405    -8.1953854     -7.8041099      0.50223339     50218.233      36.893836      36.893836      36.893836    
   1370000   0.26003833    -8.1928381     -7.8027862      0.52103512     50218.233      36.893836      36.893836      36.893836    
   1380000   0.25906682    -8.1937082     -7.8051135      0.51830914     50218.233      36.893836      36.893836      36.893836    
   1390000   0.25977273    -8.1924497     -7.8027962      0.52148901     50218.233      36.893836      36.893836      36.893836    
   1400000   0.25883094    -8.195404      -7.8071631      0.5006746      50218.233      36.893836      36.893836      36.893836    
   1410000   0.26028584    -8.1960007     -7.8055775      0.49584335     50218.233      36.893836      36.893836      36.893836    
   1420000   0.26036705    -8.1944654     -7.8039203      0.51058603     50218.233      36.893836      36.893836      36.893836    
   1430000   0.25953391    -8.1943942     -7.8050989      0.51233179     50218.233      36.893836      36.893836      36.893836    
   1440000   0.26082612    -8.1950961     -7.8038624      0.50118115     50218.233      36.893836      36.893836      36.893836    
   1450000   0.2608906     -8.193278      -7.8019477      0.50954312     50218.233      36.893836      36.893836      36.893836    
   1460000   0.25908144    -8.1949855     -7.8063688      0.50813653     50218.233      36.893836      36.893836      36.893836    
   1470000   0.2604204     -8.1966192     -7.8059941      0.49291629     50218.233      36.893836      36.893836      36.893836    
   1480000   0.25967934    -8.1943326     -7.8048191      0.50964166     50218.233      36.893836      36.893836      36.893836    
   1490000   0.25927918    -8.1923924     -7.8034791      0.52570241     50218.233      36.893836      36.893836      36.893836    
   1500000   0.25991743    -8.1953731     -7.8055025      0.50148302     50218.233      36.893836      36.893836      36.893836    
   1510000   0.26074401    -8.1961266     -7.8050161      0.49840074     50218.233      36.893836      36.893836      36.893836    
   1520000   0.25980746    -8.1968629     -7.8071573      0.48936797     50218.233      36.893836      36.893836      36.893836    
   1530000   0.25980909    -8.1937598     -7.8040517      0.51863073     50218.233      36.893836      36.893836      36.893836    
   1540000   0.26003278    -8.1961614     -7.8061178      0.4918792      50218.233      36.893836      36.893836      36.893836    
   1550000   0.2597815     -8.195071      -7.8054043      0.50432049     50218.233      36.893836      36.893836      36.893836    
   1560000   0.26019203    -8.195145      -7.8048625      0.50322084     50218.233      36.893836      36.893836      36.893836    
   1570000   0.26024808    -8.1936781     -7.8033115      0.5117038      50218.233      36.893836      36.893836      36.893836    
   1580000   0.25969171    -8.1949386     -7.8054066      0.50697104     50218.233      36.893836      36.893836      36.893836    
   1590000   0.26034457    -8.1938255     -7.8033142      0.51818064     50218.233      36.893836      36.893836      36.893836    
   1600000   0.26122242    -8.1929871     -7.8011591      0.52210357     50218.233      36.893836      36.893836      36.893836    
   1610000   0.26086805    -8.1957043     -7.8044078      0.50436762     50218.233      36.893836      36.893836      36.893836    
   1620000   0.25810389    -8.1921933     -7.805043       0.5223563      50218.233      36.893836      36.893836      36.893836    
   1630000   0.25944187    -8.1915012     -7.8023439      0.53543871     50218.233      36.893836      36.893836      36.893836    
   1640000   0.25968873    -8.1931699     -7.8036423      0.51654935     50218.233      36.893836      36.893836      36.893836    
   1650000   0.25874941    -8.194049      -7.8059304      0.50731835     50218.233      36.893836      36.893836      36.893836    
   1660000   0.26032006    -8.1928747     -7.8024002      0.52372311     50218.233      36.893836      36.893836      36.893836    
   1670000   0.25984763    -8.1926972     -7.8029313      0.52442149     50218.233      36.893836      36.893836      36.893836    
   1680000   0.26095377    -8.1920929     -7.8006678      0.520483       50218.233      36.893836      36.893836      36.893836    
   1690000   0.25948229    -8.1949852     -7.8057673      0.51027286     50218.233      36.893836      36.893836      36.893836    
   1700000   0.26017425    -8.1943098     -7.804054       0.51589661     50218.233      36.893836      36.893836      36.893836    
   1710000   0.25940444    -8.1934765     -7.8043754      0.51423578     50218.233      36.893836      36.893836      36.893836    
   1720000   0.25949907    -8.1956819     -7.8064388      0.49820141     50218.233      36.893836      36.893836      36.893836    
   1730000   0.25984309    -8.1934314     -7.8036723      0.51867146     50218.233      36.893836      36.893836      36.893836    
   1740000   0.26151108    -8.1923738     -7.8001128      0.5242565      50218.233      36.893836      36.893836      36.893836    
   1750000   0.25819318    -8.191581      -7.8042967      0.53325876     50218.233      36.893836      36.893836      36.893836    
   1760000   0.26030784    -8.1943776     -7.8039214      0.5086712      50218.233      36.893836      36.893836      36.893836    
   1770000   0.26069329    -8.1934344     -7.8024001      0.52231297     50218.233      36.893836      36.893836      36.893836    
   1780000   0.2604696     -8.1915868     -7.800888       0.53628343     50218.233      36.893836      36.893836      36.893836    
   1790000   0.26176449    -8.1944591     -7.801818       0.51435739     50218.233      36.893836      36.893836      36.893836    
   1800000   0.25892362    -8.1907269     -7.802347       0.54187692     50218.233      36.893836      36.893836      36.893836    
   1810000   0.25957722    -8.1934924     -7.8041321      0.51286034     50218.233      36.893836      36.893836      36.893836    
   1820000   0.25971108    -8.1934201     -7.8038591      0.51921071     50218.233      36.893836      36.893836      36.893836    
   1830000   0.25988178    -8.1926551     -7.802838       0.51784061     50218.233      36.893836      36.893836      36.893836    
   1840000   0.259639      -8.1929035     -7.8034505      0.52507334     50218.233      36.893836      36.893836      36.893836    
   1850000   0.2601492     -8.1933812     -7.803163       0.52442344     50218.233      36.893836      36.893836      36.893836    
   1860000   0.26019135    -8.1935334     -7.8032519      0.51270262     50218.233      36.893836      36.893836      36.893836    
   1870000   0.26002778    -8.1924734     -7.8024373      0.53221741     50218.233      36.893836      36.893836      36.893836    
   1880000   0.26065008    -8.1949498     -7.8039803      0.5122238      50218.233      36.893836      36.893836      36.893836    
   1890000   0.26047913    -8.1960489     -7.8053358      0.49788947     50218.233      36.893836      36.893836      36.893836    
   1900000   0.26079355    -8.1935437     -7.8023589      0.51664699     50218.233      36.893836      36.893836      36.893836    
   1910000   0.25931135    -8.194577      -7.8056155      0.50733662     50218.233      36.893836      36.893836      36.893836    
   1920000   0.2599927     -8.195112      -7.8051285      0.50608488     50218.233      36.893836      36.893836      36.893836    
   1930000   0.25927462    -8.1925663     -7.8036599      0.52885718     50218.233      36.893836      36.893836      36.893836    
   1940000   0.25983325    -8.1949207     -7.8051764      0.51227002     50218.233      36.893836      36.893836      36.893836    
   1950000   0.26037744    -8.1955393     -7.8049786      0.49119892     50218.233      36.893836      36.893836      36.893836    
   1960000   0.26001093    -8.1962423     -7.8062314      0.50054077     50218.233      36.893836      36.893836      36.893836    
   1970000   0.25927905    -8.1954123     -7.8064993      0.50459287     50218.233      36.893836      36.893836      36.893836    
   1980000   0.25933875    -8.1947782     -7.8057756      0.50169248     50218.233      36.893836      36.893836      36.893836    
   1990000   0.26065743    -8.1941772     -7.8031967      0.51269583     50218.233      36.893836      36.893836      36.893836    
   2000000   0.25932867    -8.1968263     -7.8078388      0.49689918     50218.233      36.893836      36.893836      36.893836    
   2010000   0.25853067    -8.1949317     -7.8071413      0.49735527     50218.233      36.893836      36.893836      36.893836    
   2020000   0.25817542    -8.1959901     -7.8087325      0.48856772     50218.233      36.893836      36.893836      36.893836    
   2030000   0.26139131    -8.1919135     -7.7998321      0.53229361     50218.233      36.893836      36.893836      36.893836    
   2040000   0.25980131    -8.1946881     -7.8049917      0.50448719     50218.233      36.893836      36.893836      36.893836    
   2050000   0.26049684    -8.1960016     -7.8052619      0.49611761     50218.233      36.893836      36.893836      36.893836    
   2060000   0.26051319    -8.1961826     -7.8054184      0.49096093     50218.233      36.893836      36.893836      36.893836    
   2070000   0.26146972    -8.1946012     -7.8024022      0.50796459     50218.233      36.893836      36.893836      36.893836    
   2080000   0.2586775     -8.1938399     -7.8058292      0.51235541     50218.233      36.893836      36.893836      36.893836    
   2090000   0.25884118    -8.1939421     -7.8056859      0.51139468     50218.233      36.893836      36.893836      36.893836    
   2100000   0.25939372    -8.1949199     -7.8058349      0.51043398     50218.233      36.893836      36.893836      36.893836    
   2110000   0.26056993    -8.1950002     -7.8041509      0.5059194      50218.233      36.893836      36.893836      36.893836    
   2120000   0.26018156    -8.1961338     -7.805867       0.50844297     50218.233      36.893836      36.893836      36.893836    
   2130000   0.25903889    -8.1953019     -7.8067491      0.49733084     50218.233      36.893836      36.893836      36.893836    
   2140000   0.26070461    -8.1934355     -7.8023841      0.5210321      50218.233      36.893836      36.893836      36.893836    
   2150000   0.25943133    -8.1933157     -7.8041743      0.5132462      50218.233      36.893836      36.893836      36.893836    
   2160000   0.25875492    -8.1942852     -7.8061583      0.51457407     50218.233      36.893836      36.893836      36.893836    
   2170000   0.26053264    -8.1947855     -7.8039921      0.50992868     50218.233      36.893836      36.893836      36.893836    
   2180000   0.25933915    -8.1943367     -7.8053335      0.50437764     50218.233      36.893836      36.893836      36.893836    
   2190000   0.25954913    -8.1936589     -7.8043407      0.51490583     50218.233      36.893836      36.893836      36.893836    
   2200000   0.26138613    -8.1949064     -7.8028328      0.50718801     50218.233      36.893836      36.893836      36.893836    
   2210000   0.26039593    -8.1936006     -7.8030123      0.51768317     50218.233      36.893836      36.893836      36.893836    
   2220000   0.26035059    -8.1950004     -7.8044801      0.50140374     50218.233      36.893836      36.893836      36.893836    
   2230000   0.25930238    -8.19445       -7.8055019      0.50676491     50218.233      36.893836      36.893836      36.893836    
   2240000   0.26001462    -8.1928176     -7.8028012      0.52763012     50218.233      36.893836      36.893836      36.893836    
   2250000   0.2610757     -8.1909857     -7.7993777      0.53134315     50218.233      36.893836      36.893836      36.893836    
   2260000   0.26046168    -8.1932997     -7.8026128      0.51560258     50218.233      36.893836      36.893836      36.893836    
   2270000   0.25961168    -8.1928725     -7.8034605      0.52438849     50218.233      36.893836      36.893836      36.893836    
   2280000   0.25894999    -8.1965463     -7.8081269      0.49734364     50218.233      36.893836      36.893836      36.893836    
   2290000   0.25922591    -8.1926863     -7.8038529      0.52692256     50218.233      36.893836      36.893836      36.893836    
   2300000   0.26031896    -8.1945373     -7.8040645      0.5067537      50218.233      36.893836      36.893836      36.893836    
   2310000   0.26069895    -8.1932321     -7.8021892      0.52231467     50218.233      36.893836      36.893836      36.893836    
   2320000   0.25903657    -8.1926406     -7.8040913      0.52318133     50218.233      36.893836      36.893836      36.893836    
   2330000   0.26042402    -8.1955405     -7.8049101      0.4965647      50218.233      36.893836      36.893836      36.893836    
   2340000   0.26024635    -8.1933158     -7.8029518      0.52530203     50218.233      36.893836      36.893836      36.893836    
   2350000   0.26094113    -8.1919353     -7.8005291      0.52824439     50218.233      36.893836      36.893836      36.893836    
   2360000   0.259243      -8.1926291     -7.8037702      0.51678704     50218.233      36.893836      36.893836      36.893836    
   2370000   0.25811488    -8.194915      -7.8077481      0.50585723     50218.233      36.893836      36.893836      36.893836    
   2380000   0.26008981    -8.1929806     -7.8028515      0.52686145     50218.233      36.893836      36.893836      36.893836    
   2390000   0.2592911     -8.1932515     -7.8043204      0.51714183     50218.233      36.893836      36.893836      36.893836    
   2400000   0.25919551    -8.1957994     -7.8070117      0.50330036     50218.233      36.893836      36.893836      36.893836    
   2410000   0.26088183    -8.1924618     -7.8011446      0.52194403     50218.233      36.893836      36.893836      36.893836    
   2420000   0.25978428    -8.1971926     -7.8075217      0.48484988     50218.233      36.893836      36.893836      36.893836    
   2430000   0.2594517     -8.1948758     -7.8057038      0.5086669      50218.233      36.893836      36.893836      36.893836    
   2440000   0.25967001    -8.1965243     -7.8070249      0.49392733     50218.233      36.893836      36.893836      36.893836    
   2450000   0.26010988    -8.1963142     -7.8061549      0.49610469     50218.233      36.893836      36.893836      36.893836    
   2460000   0.26049608    -8.194275      -7.8035364      0.49826552     50218.233      36.893836      36.893836      36.893836    
   2470000   0.26092326    -8.1946747     -7.8032954      0.50985932     50218.233      36.893836      36.893836      36.893836    
   2480000   0.25866378    -8.1963807     -7.8083905      0.48973159     50218.233      36.893836      36.893836      36.893836    
   2490000   0.25853015    -8.1959783     -7.8081886      0.49508605     50218.233      36.893836      36.893836      36.893836    
   2500000   0.25867307    -8.1950396     -7.8070355      0.50131283     50218.233      36.893836      36.893836      36.893836    
   2510000   0.26154331    -8.1955481     -7.8032387      0.50099689     50218.233      36.893836      36.893836      36.893836    
   2520000   0.26053313    -8.1942789     -7.8034848      0.50938281     50218.233      36.893836      36.893836      36.893836    
   2530000   0.2602552     -8.1941339     -7.8037567      0.51676548     50218.233      36.893836      36.893836      36.893836    
   2540000   0.26061019    -8.194487      -7.8035773      0.5113607      50218.233      36.893836      36.893836      36.893836    
   2550000   0.26037702    -8.1939383     -7.8033783      0.51039836     50218.233      36.893836      36.893836      36.893836    
   2560000   0.26015351    -8.1924517     -7.802227       0.52306307     50218.233      36.893836      36.893836      36.893836    
   2570000   0.26090598    -8.1947641     -7.8034107      0.51477779     50218.233      36.893836      36.893836      36.893836    
   2580000   0.26064769    -8.193848      -7.8028821      0.50991115     50218.233      36.893836      36.893836      36.893836    
   2590000   0.26100922    -8.1915291     -7.8000209      0.52637297     50218.233      36.893836      36.893836      36.893836    
   2600000   0.25916408    -8.1927534     -7.8040128      0.5176257      50218.233      36.893836      36.893836      36.893836    
   2610000   0.26009297    -8.1933796     -7.8032457      0.51618169     50218.233      36.893836      36.893836      36.893836    
   2620000   0.2598728     -8.1956268     -7.8058232      0.49897148     50218.233      36.893836      36.893836      36.893836    
   2630000   0.259668      -8.1934884     -7.8039919      0.50824382     50218.233      36.893836      36.893836      36.893836    
   2640000   0.25940271    -8.1936897     -7.8045912      0.51659393     50218.233      36.893836      36.893836      36.893836    
   2650000   0.25855898    -8.1950542     -7.8072213      0.50504736     50218.233      36.893836      36.893836      36.893836    
   2660000   0.25961653    -8.1933951     -7.8039759      0.51710481     50218.233      36.893836      36.893836      36.893836    
   2670000   0.2619083     -8.1934469     -7.80059        0.5257071      50218.233      36.893836      36.893836      36.893836    
   2680000   0.2610117     -8.1923128     -7.8008008      0.53470398     50218.233      36.893836      36.893836      36.893836    
   2690000   0.26057332    -8.1922617     -7.8014073      0.52731444     50218.233      36.893836      36.893836      36.893836    
   2700000   0.2612354     -8.1935499     -7.8017024      0.52343172     50218.233      36.893836      36.893836      36.893836    
   2710000   0.25954256    -8.1934049     -7.8040966      0.51935396     50218.233      36.893836      36.893836      36.893836    
   2720000   0.25987342    -8.1935342     -7.8037296      0.51891373     50218.233      36.893836      36.893836      36.893836    
   2730000   0.25912535    -8.1929649     -7.8042825      0.520062       50218.233      36.893836      36.893836      36.893836    
   2740000   0.25939097    -8.1961311     -7.8070502      0.49564105     50218.233      36.893836      36.893836      36.893836    
   2750000   0.26007489    -8.1935059     -7.8033991      0.51216382     50218.233      36.893836      36.893836      36.893836    
   2760000   0.26036712    -8.1918675     -7.8013224      0.52623128     50218.233      36.893836      36.893836      36.893836    
   2770000   0.25979965    -8.1943508     -7.8046568      0.50476917     50218.233      36.893836      36.893836      36.893836    
   2780000   0.25982963    -8.1937984     -7.8040595      0.51207455     50218.233      36.893836      36.893836      36.893836    
   2790000   0.25833967    -8.1937878     -7.8062838      0.51911761     50218.233      36.893836      36.893836      36.893836    
   2800000   0.26087389    -8.1933024     -7.8019971      0.52069836     50218.233      36.893836      36.893836      36.893836    
   2810000   0.26014077    -8.1921457     -7.8019401      0.52200152     50218.233      36.893836      36.893836      36.893836    
   2820000   0.25974161    -8.1934432     -7.8038363      0.51346291     50218.233      36.893836      36.893836      36.893836    
   2830000   0.25901327    -8.1944507     -7.8059364      0.51142765     50218.233      36.893836      36.893836      36.893836    
   2840000   0.26047653    -8.1944878     -7.8037786      0.5059154      50218.233      36.893836      36.893836      36.893836    
   2850000   0.26023386    -8.1938018     -7.8034565      0.52588005     50218.233      36.893836      36.893836      36.893836    
   2860000   0.25976838    -8.1939839     -7.8043369      0.51481225     50218.233      36.893836      36.893836      36.893836    
   2870000   0.25988833    -8.193672      -7.803845       0.51365949     50218.233      36.893836      36.893836      36.893836    
   2880000   0.26078787    -8.1937413     -7.802565       0.50995472     50218.233      36.893836      36.893836      36.893836    
   2890000   0.2612703     -8.1954513     -7.8035514      0.49820942     50218.233      36.893836      36.893836      36.893836    
   2900000   0.26016074    -8.1977632     -7.8075277      0.48683541     50218.233      36.893836      36.893836      36.893836    
   2910000   0.26024114    -8.1935206     -7.8031644      0.51879866     50218.233      36.893836      36.893836      36.893836    
   2920000   0.25915152    -8.1946026     -7.8058808      0.5062332      50218.233      36.893836      36.893836      36.893836    
   2930000   0.26064291    -8.1950459     -7.8040871      0.50815528     50218.233      36.893836      36.893836      36.893836    
   2940000   0.25955881    -8.1956587     -7.806326       0.50453246     50218.233      36.893836      36.893836      36.893836    
   2950000   0.2601246     -8.1936384     -7.803457       0.52155226     50218.233      36.893836      36.893836      36.893836    
   2960000   0.25969925    -8.1964535     -7.8069101      0.49583912     50218.233      36.893836      36.893836      36.893836    
   2970000   0.25959434    -8.1927981     -7.8034122      0.51756983     50218.233      36.893836      36.893836      36.893836    
   2980000   0.26009813    -8.1967673     -7.8066257      0.4902882      50218.233      36.893836      36.893836      36.893836    
   2990000   0.25804214    -8.193424      -7.8063663      0.5198938      50218.233      36.893836      36.893836      36.893836    
   3000000   0.26077877    -8.1941797     -7.8030171      0.51266534     50218.233      36.893836      36.893836      36.893836    
   3010000   0.25954261    -8.1962933     -7.8069849      0.49691829     50218.233      36.893836      36.893836      36.893836    
   3020000   0.26011744    -8.196641      -7.8064704      0.49327453     50218.233      36.893836      36.893836      36.893836    
   3030000   0.2605748     -8.1954979     -7.8046412      0.50409214     50218.233      36.893836      36.893836      36.893836    
   3040000   0.26177648    -8.195334      -7.8026748      0.50754236     50218.233      36.893836      36.893836      36.893836    
   3050000   0.26089614    -8.1937667     -7.8024281      0.51650721     50218.233      36.893836      36.893836      36.893836    
   3060000   0.25977087    -8.1942775     -7.8046267      0.50998204     50218.233      36.893836      36.893836      36.893836    
   3070000   0.26052989    -8.1965601     -7.8057708      0.49357586     50218.233      36.893836      36.893836      36.893836    
   3080000   0.26035243    -8.1931251     -7.802602       0.52381248     50218.233      36.893836      36.893836      36.893836    
   3090000   0.25988652    -8.1945463     -7.8047221      0.49951275     50218.233      36.893836      36.893836      36.893836    
   3100000   0.26024257    -8.1933286     -7.8029703      0.51294018     50218.233      36.893836      36.893836      36.893836    
   3110000   0.25994133    -8.1948794     -7.804973       0.50891052     50218.233      36.893836      36.893836      36.893836    
   3120000   0.25956137    -8.1934464     -7.8041099      0.52190563     50218.233      36.893836      36.893836      36.893836    
   3130000   0.2602908     -8.1910156     -7.800585       0.53901957     50218.233      36.893836      36.893836      36.893836    
   3140000   0.25983937    -8.1931416     -7.8033881      0.51833094     50218.233      36.893836      36.893836      36.893836    
   3150000   0.26016975    -8.1939631     -7.803714       0.51287827     50218.233      36.893836      36.893836      36.893836    
   3160000   0.25984655    -8.1948428     -7.8050786      0.50789752     50218.233      36.893836      36.893836      36.893836    
   3170000   0.25990705    -8.1942049     -7.8043498      0.50948861     50218.233      36.893836      36.893836      36.893836    
   3180000   0.25895497    -8.1944925     -7.8060655      0.51227607     50218.233      36.893836      36.893836      36.893836    
   3190000   0.25955987    -8.1913969     -7.8020626      0.53187143     50218.233      36.893836      36.893836      36.893836    
   3200000   0.25998315    -8.1948656     -7.8048964      0.49729332     50218.233      36.893836      36.893836      36.893836    
   3210000   0.25894181    -8.1959578     -7.8075506      0.49719445     50218.233      36.893836      36.893836      36.893836    
   3220000   0.26052695    -8.19355       -7.8027651      0.51858314     50218.233      36.893836      36.893836      36.893836    
   3230000   0.25870499    -8.1935728     -7.8055208      0.51732151     50218.233      36.893836      36.893836      36.893836    
   3240000   0.26057552    -8.1933857     -7.8025279      0.51481297     50218.233      36.893836      36.893836      36.893836    
   3250000   0.26097757    -8.1942319     -7.8027711      0.51519253     50218.233      36.893836      36.893836      36.893836    
   3260000   0.26086318    -8.1916981     -7.8004089      0.53808071     50218.233      36.893836      36.893836      36.893836    
   3270000   0.26058801    -8.1923709     -7.8014944      0.53312972     50218.233      36.893836      36.893836      36.893836    
   3280000   0.26152798    -8.1931646     -7.8008782      0.52525092     50218.233      36.893836      36.893836      36.893836    
   3290000   0.25881027    -8.1921634     -7.8039535      0.52234099     50218.233      36.893836      36.893836      36.893836    
   3300000   0.25983892    -8.192604      -7.8028512      0.5220981      50218.233      36.893836      36.893836      36.893836    
   3310000   0.26034522    -8.1913307     -7.8008185      0.53743953     50218.233      36.893836      36.893836      36.893836    
   3320000   0.25989945    -8.1913481     -7.8015045      0.53774055     50218.233      36.893836      36.893836      36.893836    
   3330000   0.26030918    -8.1928838     -7.8024256      0.52529415     50218.233      36.893836      36.893836      36.893836    
   3340000   0.26059004    -8.1944233     -7.8035438      0.5125194      50218.233      36.893836      36.893836      36.893836    
   3350000   0.26022242    -8.1930182     -7.8026901      0.51783237     50218.233      36.893836      36.893836      36.893836    
   3360000   0.25999056    -8.1924897     -7.8025094      0.52989604     50218.233      36.893836      36.893836      36.893836    
   3370000   0.26058223    -8.1942093     -7.8033415      0.51345373     50218.233      36.893836      36.893836      36.893836    
   3380000   0.26141068    -8.1938361     -7.8017257      0.51374842     50218.233      36.893836      36.893836      36.893836    
   3390000   0.25941452    -8.1926692     -7.803553       0.51834079     50218.233      36.893836      36.893836      36.893836    
   3400000   0.26053616    -8.1952455     -7.8044468      0.50019667     50218.233      36.893836      36.893836      36.893836    
   3410000   0.26015577    -8.193372      -7.8031439      0.51526219     50218.233      36.893836      36.893836      36.893836    
   3420000   0.26026083    -8.1956286     -7.8052429      0.5027989      50218.233      36.893836      36.893836      36.893836    
   3430000   0.26015437    -8.1946434     -7.8044174      0.51372734     50218.233      36.893836      36.893836      36.893836    
   3440000   0.25970649    -8.1960153     -7.8064611      0.5052547      50218.233      36.893836      36.893836      36.893836    
   3450000   0.25957008    -8.1936568     -7.8043072      0.51176269     50218.233      36.893836      36.893836      36.893836    
   3460000   0.26056074    -8.1911443     -7.8003088      0.53652712     50218.233      36.893836      36.893836      36.893836    
   3470000   0.2587985     -8.1934162     -7.805224       0.51020785     50218.233      36.893836      36.893836      36.893836    
   3480000   0.25895971    -8.1938299     -7.8053958      0.51211583     50218.233      36.893836      36.893836      36.893836    
   3490000   0.25879982    -8.1955243     -7.8073301      0.49771174     50218.233      36.893836      36.893836      36.893836    
   3500000   0.25776116    -8.1960753     -7.809439       0.49228708     50218.233      36.893836      36.893836      36.893836    
   3510000   0.25862199    -8.1955319     -7.8076044      0.50035981     50218.233      36.893836      36.893836      36.893836    
   3520000   0.26147846    -8.195838      -7.8036259      0.5019592      50218.233      36.893836      36.893836      36.893836    
   3530000   0.26048217    -8.1958911     -7.8051734      0.49666688     50218.233      36.893836      36.893836      36.893836    
   3540000   0.26024696    -8.1960695     -7.8057046      0.4943155      50218.233      36.893836      36.893836      36.893836    
   3550000   0.25953924    -8.1938551     -7.8045518      0.51203978     50218.233      36.893836      36.893836      36.893836    
   3560000   0.2575788     -8.1951327     -7.80877        0.48932973     50218.233      36.893836      36.893836      36.893836    
   3570000   0.25876805    -8.1952397     -7.8070931      0.50001992     50218.233      36.893836      36.893836      36.893836    
   3580000   0.25944501    -8.1942033     -7.8050414      0.50975357     50218.233      36.893836      36.893836      36.893836    
   3590000   0.25901923    -8.1967756     -7.8082523      0.4814858      50218.233      36.893836      36.893836      36.893836    
   3600000   0.25921772    -8.1939536     -7.8051325      0.52008918     50218.233      36.893836      36.893836      36.893836    
   3610000   0.26057063    -8.1954325     -7.8045821      0.50177812     50218.233      36.893836      36.893836      36.893836    
   3620000   0.25987592    -8.1938485     -7.8040401      0.52217454     50218.233      36.893836      36.893836      36.893836    
   3630000   0.26102098    -8.1942528     -7.8027269      0.51436563     50218.233      36.893836      36.893836      36.893836    
   3640000   0.25926333    -8.1952674     -7.8063779      0.50052528     50218.233      36.893836      36.893836      36.893836    
   3650000   0.25829189    -8.1948851     -7.8074528      0.50954283     50218.233      36.893836      36.893836      36.893836    
   3660000   0.25956312    -8.1931113     -7.8037722      0.51991886     50218.233      36.893836      36.893836      36.893836    
   3670000   0.26023475    -8.1941164     -7.8037698      0.51529648     50218.233      36.893836      36.893836      36.893836    
   3680000   0.26042088    -8.1949445     -7.8043188      0.50691878     50218.233      36.893836      36.893836      36.893836    
   3690000   0.25872788    -8.1965551     -7.8084688      0.49530861     50218.233      36.893836      36.893836      36.893836    
   3700000   0.25918182    -8.1926292     -7.803862       0.52021585     50218.233      36.893836      36.893836      36.893836    
   3710000   0.26044633    -8.1947093     -7.8040454      0.5049978      50218.233      36.893836      36.893836      36.893836    
   3720000   0.25994065    -8.1939031     -7.8039976      0.51958169     50218.233      36.893836      36.893836      36.893836    
   3730000   0.26156673    -8.1941269     -7.8017824      0.51916527     50218.233      36.893836      36.893836      36.893836    
   3740000   0.25978394    -8.1941986     -7.8045282      0.51775411     50218.233      36.893836      36.893836      36.893836    
   3750000   0.2599632     -8.194         -7.8040607      0.50614912     50218.233      36.893836      36.893836      36.893836    
   3760000   0.25853131    -8.1935161     -7.8057246      0.52095219     50218.233      36.893836      36.893836      36.893836    
   3770000   0.26023598    -8.1942416     -7.8038932      0.51210008     50218.233      36.893836      36.893836      36.893836    
   3780000   0.26041826    -8.1923043     -7.8016825      0.5231624      50218.233      36.893836      36.893836      36.893836    
   3790000   0.2602784     -8.193623      -7.8032109      0.51388047     50218.233      36.893836      36.893836      36.893836    
   3800000   0.26010537    -8.1915352     -7.8013827      0.52632959     50218.233      36.893836      36.893836      36.893836    
   3810000   0.26106334    -8.1972663     -7.8056769      0.48407923     50218.233      36.893836      36.893836      36.893836    
   3820000   0.26095599    -8.193267      -7.8018386      0.51750695     50218.233      36.893836      36.893836      36.893836    
   3830000   0.25908187    -8.1930621     -7.8044448      0.51417507     50218.233      36.893836      36.893836      36.893836    
   3840000   0.25978427    -8.1946372     -7.8049663      0.50753185     50218.233      36.893836      36.893836      36.893836    
   3850000   0.26044625    -8.1931895     -7.8025257      0.52436198     50218.233      36.893836      36.893836      36.893836    
   3860000   0.26017885    -8.1947394     -7.8044766      0.51502132     50218.233      36.893836      36.893836      36.893836    
   3870000   0.25965684    -8.1937038     -7.8042241      0.51619776     50218.233      36.893836      36.893836      36.893836    
   3880000   0.25921028    -8.1962618     -7.8074519      0.4858553      50218.233      36.893836      36.893836      36.893836    
   3890000   0.26115279    -8.19504       -7.8033164      0.50288279     50218.233      36.893836      36.893836      36.893836    
   3900000   0.26065846    -8.1954231     -7.804441       0.49987506     50218.233      36.893836      36.893836      36.893836    
   3910000   0.25936266    -8.1951757     -7.8061373      0.50821739     50218.233      36.893836      36.893836      36.893836    
   3920000   0.25787125    -8.1949557     -7.8081543      0.50621693     50218.233      36.893836      36.893836      36.893836    
   3930000   0.26083854    -8.194839      -7.8035867      0.50647732     50218.233      36.893836      36.893836      36.893836    
   3940000   0.25974774    -8.1934702     -7.8038541      0.5112492      50218.233      36.893836      36.893836      36.893836    
   3950000   0.25987094    -8.1953658     -7.805565       0.50217167     50218.233      36.893836      36.893836      36.893836    
   3960000   0.25895022    -8.1936082     -7.8051884      0.50921577     50218.233      36.893836      36.893836      36.893836    
   3970000   0.26115146    -8.1946787     -7.8029571      0.51453483     50218.233      36.893836      36.893836      36.893836    
   3980000   0.26022533    -8.1940954     -7.803763       0.50924412     50218.233      36.893836      36.893836      36.893836    
   3990000   0.26010213    -8.1950751     -7.8049274      0.50369026     50218.233      36.893836      36.893836      36.893836    
   4000000   0.26007974    -8.1956071     -7.805493       0.49518318     50218.233      36.893836      36.893836      36.893836    
   4010000   0.26060671    -8.1954868     -7.8045823      0.49823298     50218.233      36.893836      36.893836      36.893836    
   4020000   0.25885781    -8.1929748     -7.8046936      0.52195267     50218.233      36.893836      36.893836      36.893836    
   4030000   0.26104303    -8.1960176     -7.8044586      0.49631641     50218.233      36.893836      36.893836      36.893836    
   4040000   0.26012155    -8.196693      -7.8065162      0.49111457     50218.233      36.893836      36.893836      36.893836    
   4050000   0.26008357    -8.1958567     -7.8057369      0.49382184     50218.233      36.893836      36.893836      36.893836    
   4060000   0.25980863    -8.1973545     -7.8076471      0.49663658     50218.233      36.893836      36.893836      36.893836    
   4070000   0.25935719    -8.1947278     -7.8056975      0.50699327     50218.233      36.893836      36.893836      36.893836    
   4080000   0.25866508    -8.1941844     -7.8061923      0.5103582      50218.233      36.893836      36.893836      36.893836    
   4090000   0.26053297    -8.1970427     -7.8062488      0.49210359     50218.233      36.893836      36.893836      36.893836    
   4100000   0.25864032    -8.1930505     -7.8050955      0.51785464     50218.233      36.893836      36.893836      36.893836    
   4110000   0.26060254    -8.1934583     -7.80256        0.51866589     50218.233      36.893836      36.893836      36.893836    
   4120000   0.25977489    -8.1961456     -7.8064888      0.4935414      50218.233      36.893836      36.893836      36.893836    
   4130000   0.25863479    -8.1922516     -7.804305       0.52366776     50218.233      36.893836      36.893836      36.893836    
   4140000   0.25852402    -8.1952494     -7.8074689      0.50101876     50218.233      36.893836      36.893836      36.893836    
   4150000   0.25942703    -8.1920682     -7.8029332      0.52932663     50218.233      36.893836      36.893836      36.893836    
   4160000   0.26002047    -8.1934927     -7.8034675      0.52360964     50218.233      36.893836      36.893836      36.893836    
   4170000   0.26050691    -8.1929665     -7.8022117      0.52075143     50218.233      36.893836      36.893836      36.893836    
   4180000   0.26032788    -8.1949648     -7.8044786      0.50805895     50218.233      36.893836      36.893836      36.893836    
   4190000   0.26065166    -8.1944629     -7.803491       0.51044387     50218.233      36.893836      36.893836      36.893836    
   4200000   0.25978372    -8.194818      -7.805148       0.50929118     50218.233      36.893836      36.893836      36.893836    
   4210000   0.25906704    -8.1920774     -7.8034824      0.52739        50218.233      36.893836      36.893836      36.893836    
   4220000   0.2588377     -8.1950089     -7.8067579      0.51081715     50218.233      36.893836      36.893836      36.893836    
   4230000   0.25767121    -8.1927683     -7.8062669      0.51403962     50218.233      36.893836      36.893836      36.893836    
   4240000   0.25862373    -8.1943456     -7.8064155      0.51019119     50218.233      36.893836      36.893836      36.893836    
   4250000   0.26094277    -8.1932753     -7.8018667      0.52278142     50218.233      36.893836      36.893836      36.893836    
   4260000   0.25980326    -8.1950481     -7.8053488      0.5081722      50218.233      36.893836      36.893836      36.893836    
   4270000   0.26022847    -8.1933653     -7.8030282      0.51766296     50218.233      36.893836      36.893836      36.893836    
   4280000   0.25905394    -8.1929139     -7.8043385      0.52078472     50218.233      36.893836      36.893836      36.893836    
   4290000   0.26064951    -8.1935337     -7.802565       0.52077734     50218.233      36.893836      36.893836      36.893836    
   4300000   0.26082365    -8.1901859     -7.798956       0.54506219     50218.233      36.893836      36.893836      36.893836    
   4310000   0.26041124    -8.1926524     -7.8020411      0.52572286     50218.233      36.893836      36.893836      36.893836    
   4320000   0.26090847    -8.1947492     -7.8033921      0.50186203     50218.233      36.893836      36.893836      36.893836    
   4330000   0.26053059    -8.1940023     -7.803212       0.51027655     50218.233      36.893836      36.893836      36.893836    
   4340000   0.26014196    -8.1948446     -7.8046372      0.5125279      50218.233      36.893836      36.893836      36.893836    
   4350000   0.25945884    -8.1949866     -7.8058039      0.50627471     50218.233      36.893836      36.893836      36.893836    
   4360000   0.26015298    -8.1943319     -7.804108       0.511156       50218.233      36.893836      36.893836      36.893836    
   4370000   0.26026651    -8.1937875     -7.8033933      0.51726194     50218.233      36.893836      36.893836      36.893836    
   4380000   0.2596921     -8.1923563     -7.8028237      0.52322618     50218.233      36.893836      36.893836      36.893836    
   4390000   0.26086116    -8.1949622     -7.803676       0.50952156     50218.233      36.893836      36.893836      36.893836    
   4400000   0.25872233    -8.1938975     -7.8058196      0.5162713      50218.233      36.893836      36.893836      36.893836    
   4410000   0.25843736    -8.1938878     -7.8062373      0.51428815     50218.233      36.893836      36.893836      36.893836    
   4420000   0.26128167    -8.1943042     -7.8023873      0.51356575     50218.233      36.893836      36.893836      36.893836    
   4430000   0.26040262    -8.1928244     -7.8022261      0.52737183     50218.233      36.893836      36.893836      36.893836    
   4440000   0.26026848    -8.1965421     -7.8061449      0.4862961      50218.233      36.893836      36.893836      36.893836    
   4450000   0.26051059    -8.1959598     -7.8051995      0.4987208      50218.233      36.893836      36.893836      36.893836    
   4460000   0.2594614     -8.1953149     -7.8061283      0.50010051     50218.233      36.893836      36.893836      36.893836    
   4470000   0.25920686    -8.1958263     -7.8070216      0.49540297     50218.233      36.893836      36.893836      36.893836    
   4480000   0.25992314    -8.194196      -7.8043169      0.5092717      50218.233      36.893836      36.893836      36.893836    
   4490000   0.26087214    -8.1941282     -7.8028255      0.51244909     50218.233      36.893836      36.893836      36.893836    
   4500000   0.26120812    -8.1965494     -7.8047428      0.49473763     50218.233      36.893836      36.893836      36.893836    
   4510000   0.26016445    -8.1960941     -7.805853       0.49615238     50218.233      36.893836      36.893836      36.893836    
   4520000   0.26094955    -8.194055      -7.8026363      0.51630334     50218.233      36.893836      36.893836      36.893836    
   4530000   0.26108454    -8.195684      -7.8040628      0.49683656     50218.233      36.893836      36.893836      36.893836    
   4540000   0.26028029    -8.1962481     -7.8058332      0.50408494     50218.233      36.893836      36.893836      36.893836    
   4550000   0.26049747    -8.1929688     -7.8022281      0.51619303     50218.233      36.893836      36.893836      36.893836    
   4560000   0.25866278    -8.1930227     -7.8050341      0.52349332     50218.233      36.893836      36.893836      36.893836    
   4570000   0.25987746    -8.1940762     -7.8042655      0.51247979     50218.233      36.893836      36.893836      36.893836    
   4580000   0.25975786    -8.1961517     -7.8065205      0.49428227     50218.233      36.893836      36.893836      36.893836    
   4590000   0.25784481    -8.1936883     -7.8069266      0.51182024     50218.233      36.893836      36.893836      36.893836    
   4600000   0.26019886    -8.1928195     -7.8025268      0.52572692     50218.233      36.893836      36.893836      36.893836    
   4610000   0.25907624    -8.1948988     -7.80629        0.4999098      50218.233      36.893836      36.893836      36.893836    
   4620000   0.25990099    -8.19351       -7.803664       0.51791921     50218.233      36.893836      36.893836      36.893836    
   4630000   0.2599377     -8.1954626     -7.8055616      0.4986157      50218.233      36.893836      36.893836      36.893836    
   4640000   0.25886486    -8.1946014     -7.8063096      0.50625138     50218.233      36.893836      36.893836      36.893836    
   4650000   0.26122753    -8.19532       -7.8034843      0.50652051     50218.233      36.893836      36.893836      36.893836    
   4660000   0.26054243    -8.1937192     -7.8029112      0.52176873     50218.233      36.893836      36.893836      36.893836    
   4670000   0.25766015    -8.1930335     -7.8065487      0.52260244     50218.233      36.893836      36.893836      36.893836    
   4680000   0.25987396    -8.1933777     -7.8035723      0.51623881     50218.233      36.893836      36.893836      36.893836    
   4690000   0.25949649    -8.195166      -7.8059268      0.51191807     50218.233      36.893836      36.893836      36.893836    
   4700000   0.26017461    -8.1935821     -7.8033257      0.51148008     50218.233      36.893836      36.893836      36.893836    
   4710000   0.26124527    -8.19324       -7.8013776      0.52284086     50218.233      36.893836      36.893836      36.893836    
   4720000   0.25879398    -8.1919678     -7.8037823      0.52084915     50218.233      36.893836      36.893836      36.893836    
   4730000   0.26063947    -8.1913976     -7.800444       0.53976284     50218.233      36.893836      36.893836      36.893836    
   4740000   0.25844439    -8.1939848     -7.8063238      0.51098793     50218.233      36.893836      36.893836      36.893836    
   4750000   0.25966344    -8.1950809     -7.8055913      0.50351677     50218.233      36.893836      36.893836      36.893836    
   4760000   0.26014007    -8.1943293     -7.8041247      0.50239283     50218.233      36.893836      36.893836      36.893836    
   4770000   0.26005521    -8.192865      -7.8027877      0.51670795     50218.233      36.893836      36.893836      36.893836    
   4780000   0.25899223    -8.1941683     -7.8056854      0.51413202     50218.233      36.893836      36.893836      36.893836    
   4790000   0.26083065    -8.1950287     -7.8037882      0.50179756     50218.233      36.893836      36.893836      36.893836    
   4800000   0.25975387    -8.1942188     -7.8045936      0.51966218     50218.233      36.893836      36.893836      36.893836    
   4810000   0.26064205    -8.1954621     -7.8045046      0.50900107     50218.233      36.893836      36.893836      36.893836    
   4820000   0.26081087    -8.1957957     -7.804585       0.49868192     50218.233      36.893836      36.893836      36.893836    
   4830000   0.2598003     -8.1938033     -7.8041084      0.50967568     50218.233      36.893836      36.893836      36.893836    
   4840000   0.26047991    -8.192703      -7.8019887      0.52468809     50218.233      36.893836      36.893836      36.893836    
   4850000   0.25990476    -8.1935518     -7.8037003      0.51217313     50218.233      36.893836      36.893836      36.893836    
   4860000   0.25887162    -8.1947562     -7.8064543      0.49875441     50218.233      36.893836      36.893836      36.893836    
   4870000   0.26100059    -8.1941372     -7.8026419      0.51487772     50218.233      36.893836      36.893836      36.893836    
   4880000   0.25927119    -8.1939053     -7.8050041      0.51612452     50218.233      36.893836      36.893836      36.893836    
   4890000   0.26041484    -8.1940554     -7.8034387      0.51332863     50218.233      36.893836      36.893836      36.893836    
   4900000   0.26016466    -8.192726      -7.8024845      0.52476296     50218.233      36.893836      36.893836      36.893836    
   4910000   0.25946417    -8.1930307     -7.80384        0.51641217     50218.233      36.893836      36.893836      36.893836    
   4920000   0.26068903    -8.1942316     -7.8032037      0.50942559     50218.233      36.893836      36.893836      36.893836    
   4930000   0.26019424    -8.1937613     -7.8034755      0.51098135     50218.233      36.893836      36.893836      36.893836    
   4940000   0.25921169    -8.1928846     -7.8040726      0.51779176     50218.233      36.893836      36.893836      36.893836    
   4950000   0.26070192    -8.1934321     -7.8023847      0.51532088     50218.233      36.893836      36.893836      36.893836    
   4960000   0.26005117    -8.1955138     -7.8054426      0.49688161     50218.233      36.893836      36.893836      36.893836    
   4970000   0.25951639    -8.1924933     -7.8032243      0.52213564     50218.233      36.893836      36.893836      36.893836    
   4980000   0.2582928     -8.1960408     -7.8086071      0.49243137     50218.233      36.893836      36.893836      36.893836    
   4990000   0.2607553     -8.1957847     -7.8046573      0.49844109     50218.233      36.893836      36.893836      36.893836    
   5000000   0.26100135    -8.1947801     -7.8032836      0.50332666     50218.233      36.893836      36.893836      36.893836    
   5010000   0.25998368    -8.1955675     -7.8055975      0.50287014     50218.233      36.893836      36.893836      36.893836    
   5020000   0.26039117    -8.1956372     -7.805056       0.49040204     50218.233      36.893836      36.893836      36.893836    
   5030000   0.261661      -8.1973232     -7.8048373      0.49360943     50218.233      36.893836      36.893836      36.893836    
   5040000   0.26112162    -8.1954046     -7.8037277      0.49984549     50218.233      36.893836      36.893836      36.893836    
   5050000   0.26217322    -8.1957007     -7.8024465      0.50680221     50218.233      36.893836      36.893836      36.893836    
   5060000   0.26046712    -8.1950561     -7.804361       0.50656038     50218.233      36.893836      36.893836      36.893836    
   5070000   0.26157524    -8.1955136     -7.8031563      0.49113009     50218.233      36.893836      36.893836      36.893836    
   5080000   0.25945178    -8.194897      -7.8057249      0.51412896     50218.233      36.893836      36.893836      36.893836    
   5090000   0.25989913    -8.1963458     -7.8065027      0.49404477     50218.233      36.893836      36.893836      36.893836    
   5100000   0.26073691    -8.1962473     -7.8051475      0.4981479      50218.233      36.893836      36.893836      36.893836    
   5110000   0.25870469    -8.1952291     -7.8071776      0.50129624     50218.233      36.893836      36.893836      36.893836    
   5120000   0.25870999    -8.1954237     -7.8073642      0.49094789     50218.233      36.893836      36.893836      36.893836    
   5130000   0.25948657    -8.1938345     -7.8046101      0.51332734     50218.233      36.893836      36.893836      36.893836    
   5140000   0.26030056    -8.1944259     -7.8039806      0.51235369     50218.233      36.893836      36.893836      36.893836    
   5150000   0.26052403    -8.1944212     -7.8036407      0.50798725     50218.233      36.893836      36.893836      36.893836    
   5160000   0.26130872    -8.1945825     -7.802625       0.5106205      50218.233      36.893836      36.893836      36.893836    
   5170000   0.25994813    -8.1936335     -7.8037169      0.52010925     50218.233      36.893836      36.893836      36.893836    
   5180000   0.25940256    -8.1919376     -7.8028393      0.52695711     50218.233      36.893836      36.893836      36.893836    
   5190000   0.2589467     -8.1948865     -7.806472       0.51127796     50218.233      36.893836      36.893836      36.893836    
   5200000   0.25954732    -8.192967      -7.8036515      0.51854214     50218.233      36.893836      36.893836      36.893836    
   5210000   0.26060294    -8.192366      -7.8014671      0.52376806     50218.233      36.893836      36.893836      36.893836    
   5220000   0.26022762    -8.1949807     -7.8046448      0.51139982     50218.233      36.893836      36.893836      36.893836    
   5230000   0.26043415    -8.1934933     -7.8028476      0.52155613     50218.233      36.893836      36.893836      36.893836    
   5240000   0.26004842    -8.1933377     -7.8032706      0.52590096     50218.233      36.893836      36.893836      36.893836    
   5250000   0.26010665    -8.192189      -7.8020346      0.51964772     50218.233      36.893836      36.893836      36.893836    
   5260000   0.25903224    -8.1938651     -7.8053223      0.51127033     50218.233      36.893836      36.893836      36.893836    
   5270000   0.26014663    -8.1922398     -7.8020254      0.53087738     50218.233      36.893836      36.893836      36.893836    
   5280000   0.25996554    -8.1923655     -7.8024227      0.52396696     50218.233      36.893836      36.893836      36.893836    
   5290000   0.25973367    -8.1912218     -7.8016269      0.5299126      50218.233      36.893836      36.893836      36.893836    
   5300000   0.26054337    -8.1944449     -7.8036354      0.51346232     50218.233      36.893836      36.893836      36.893836    
   5310000   0.25975942    -8.1936485     -7.8040149      0.51279817     50218.233      36.893836      36.893836      36.893836    
   5320000   0.26012085    -8.1930585     -7.8028827      0.52576781     50218.233      36.893836      36.893836      36.893836    
   5330000   0.26054734    -8.1934972     -7.8026818      0.50854506     50218.233      36.893836      36.893836      36.893836    
   5340000   0.25993727    -8.1935858     -7.8036854      0.5194271      50218.233      36.893836      36.893836      36.893836    
   5350000   0.25997749    -8.1938057     -7.8038451      0.51616861     50218.233      36.893836      36.893836      36.893836    
   5360000   0.26124129    -8.1933755     -7.8015191      0.51806726     50218.233      36.893836      36.893836      36.893836    
   5370000   0.25920902    -8.1944707     -7.8056627      0.50241216     50218.233      36.893836      36.893836      36.893836    
   5380000   0.26038364    -8.1958696     -7.8052997      0.49825155     50218.233      36.893836      36.893836      36.893836    
   5390000   0.26042466    -8.1947465     -7.8041151      0.50459334     50218.233      36.893836      36.893836      36.893836    
   5400000   0.26053064    -8.1916134     -7.800823       0.54000547     50218.233      36.893836      36.893836      36.893836    
   5410000   0.25900001    -8.1922005     -7.803706       0.51848591     50218.233      36.893836      36.893836      36.893836    
   5420000   0.25847359    -8.1942082     -7.8065034      0.51121402     50218.233      36.893836      36.893836      36.893836    
   5430000   0.2596578     -8.1944918     -7.8050106      0.50323062     50218.233      36.893836      36.893836      36.893836    
   5440000   0.26015034    -8.1927068     -7.8024868      0.52349292     50218.233      36.893836      36.893836      36.893836    
   5450000   0.26026526    -8.1961852     -7.8057929      0.49239957     50218.233      36.893836      36.893836      36.893836    
   5460000   0.25919334    -8.1950971     -7.8063126      0.50268678     50218.233      36.893836      36.893836      36.893836    
   5470000   0.26021146    -8.1971365     -7.8068249      0.49263531     50218.233      36.893836      36.893836      36.893836    
   5480000   0.25958314    -8.1949911     -7.8056219      0.51265348     50218.233      36.893836      36.893836      36.893836    
   5490000   0.25974983    -8.1938199     -7.8042007      0.51215159     50218.233      36.893836      36.893836      36.893836    
   5500000   0.25805967    -8.195673      -7.808589       0.49120058     50218.233      36.893836      36.893836      36.893836    
   5510000   0.25924921    -8.1944774     -7.8056091      0.50643813     50218.233      36.893836      36.893836      36.893836    
   5520000   0.25829608    -8.1937703     -7.8063317      0.51940981     50218.233      36.893836      36.893836      36.893836    
   5530000   0.25948355    -8.195728      -7.8065082      0.50497058     50218.233      36.893836      36.893836      36.893836    
   5540000   0.25999322    -8.1953843     -7.8054         0.50541839     50218.233      36.893836      36.893836      36.893836    
   5550000   0.26043077    -8.1955813     -7.8049407      0.50022861     50218.233      36.893836      36.893836      36.893836    
   5560000   0.26068865    -8.194994      -7.8039666      0.50436674     50218.233      36.893836      36.893836      36.893836    
   5570000   0.26066709    -8.1938772     -7.8028822      0.51689471     50218.233      36.893836      36.893836      36.893836    
   5580000   0.25911054    -8.1917829     -7.8031227      0.51873951     50218.233      36.893836      36.893836      36.893836    
   5590000   0.25984427    -8.1944316     -7.8046708      0.51165661     50218.233      36.893836      36.893836      36.893836    
   5600000   0.26068933    -8.1926763     -7.8016479      0.51675696     50218.233      36.893836      36.893836      36.893836    
   5610000   0.2602214     -8.1958786     -7.805552       0.50125248     50218.233      36.893836      36.893836      36.893836    
   5620000   0.2609918     -8.1927258     -7.8012436      0.51810164     50218.233      36.893836      36.893836      36.893836    
   5630000   0.26087418    -8.1934401     -7.8021344      0.51939575     50218.233      36.893836      36.893836      36.893836    
   5640000   0.25927971    -8.1934662     -7.8045521      0.52047014     50218.233      36.893836      36.893836      36.893836    
   5650000   0.25983597    -8.1932427     -7.8034943      0.52643351     50218.233      36.893836      36.893836      36.893836    
   5660000   0.258885      -8.1913174     -7.8029954      0.52789437     50218.233      36.893836      36.893836      36.893836    
   5670000   0.25896384    -8.1924216     -7.8039814      0.52684975     50218.233      36.893836      36.893836      36.893836    
   5680000   0.25898592    -8.1952413     -7.8067679      0.50526609     50218.233      36.893836      36.893836      36.893836    
   5690000   0.25989104    -8.19391       -7.804079       0.50770198     50218.233      36.893836      36.893836      36.893836    
   5700000   0.25986667    -8.1933463     -7.8035518      0.51920664     50218.233      36.893836      36.893836      36.893836    
   5710000   0.25839491    -8.1941469     -7.80656        0.51994152     50218.233      36.893836      36.893836      36.893836    
   5720000   0.26106962    -8.1943928     -7.8027939      0.50677297     50218.233      36.893836      36.893836      36.893836    
   5730000   0.26113013    -8.1921852     -7.8004956      0.53447164     50218.233      36.893836      36.893836      36.893836    
   5740000   0.26005321    -8.1939036     -7.8038294      0.51786188     50218.233      36.893836      36.893836      36.893836    
   5750000   0.26047915    -8.1925725     -7.8018593      0.52412367     50218.233      36.893836      36.893836      36.893836    
   5760000   0.26042095    -8.1940391     -7.8034133      0.50471564     50218.233      36.893836      36.893836      36.893836    
   5770000   0.25936478    -8.1941289     -7.8050873      0.51152928     50218.233      36.893836      36.893836      36.893836    
   5780000   0.26053877    -8.1924625     -7.8016599      0.52170271     50218.233      36.893836      36.893836      36.893836    
   5790000   0.25987161    -8.1912816     -7.8014798      0.54083169     50218.233      36.893836      36.893836      36.893836    
   5800000   0.25862673    -8.1944292     -7.8064946      0.50547572     50218.233      36.893836      36.893836      36.893836    
   5810000   0.2602667     -8.1919232     -7.8015288      0.52457758     50218.233      36.893836      36.893836      36.893836    
   5820000   0.25927247    -8.1917297     -7.8028266      0.5297575      50218.233      36.893836      36.893836      36.893836    
   5830000   0.25957724    -8.1928053     -7.803445       0.52244962     50218.233      36.893836      36.893836      36.893836    
   5840000   0.26067414    -8.1942561     -7.8032504      0.5114895      50218.233      36.893836      36.893836      36.893836    
   5850000   0.259058      -8.1931008     -7.8045193      0.51351195     50218.233      36.893836      36.893836      36.893836    
   5860000   0.25991511    -8.1963666     -7.8064995      0.49797846     50218.233      36.893836      36.893836      36.893836    
   5870000   0.25977054    -8.1932362     -7.803586       0.51840579     50218.233      36.893836      36.893836      36.893836    
   5880000   0.25944026    -8.1952604     -7.8061055      0.50422149     50218.233      36.893836      36.893836      36.893836    
   5890000   0.25994424    -8.194082      -7.8041712      0.50597977     50218.233      36.893836      36.893836      36.893836    
   5900000   0.25974156    -8.1963562     -7.8067494      0.49731966     50218.233      36.893836      36.893836      36.893836    
   5910000   0.25995826    -8.1949613     -7.8050294      0.50736069     50218.233      36.893836      36.893836      36.893836    
   5920000   0.26085717    -8.1940138     -7.8027336      0.5109657      50218.233      36.893836      36.893836      36.893836    
   5930000   0.26107933    -8.1937966     -7.8021832      0.51839935     50218.233      36.893836      36.893836      36.893836    
   5940000   0.26058632    -8.1953992     -7.8045253      0.49191455     50218.233      36.893836      36.893836      36.893836    
   5950000   0.26124692    -8.1944292     -7.8025644      0.51510974     50218.233      36.893836      36.893836      36.893836    
   5960000   0.26045904    -8.196944      -7.806261       0.49160892     50218.233      36.893836      36.893836      36.893836    
   5970000   0.26074547    -8.1942171     -7.8031044      0.51512069     50218.233      36.893836      36.893836      36.893836    
   5980000   0.2599687     -8.1952294     -7.8052819      0.50429591     50218.233      36.893836      36.893836      36.893836    
   5990000   0.26011201    -8.1962552     -7.8060927      0.49531045     50218.233      36.893836      36.893836      36.893836    
   6000000   0.25982336    -8.1942706     -7.8045411      0.51494645     50218.233      36.893836      36.893836      36.893836    
   6010000   0.25996971    -8.1963921     -7.806443       0.49749173     50218.233      36.893836      36.893836      36.893836    
   6020000   0.26097509    -8.1944975     -7.8030404      0.51396157     50218.233      36.893836      36.893836      36.893836    
   6030000   0.25975197    -8.1950523     -7.8054299      0.50576856     50218.233      36.893836      36.893836      36.893836    
   6040000   0.25899067    -8.1932396     -7.8047591      0.51478436     50218.233      36.893836      36.893836      36.893836    
   6050000   0.26054438    -8.1945303     -7.8037192      0.51486008     50218.233      36.893836      36.893836      36.893836    
   6060000   0.2597882     -8.1930211     -7.8033443      0.51947829     50218.233      36.893836      36.893836      36.893836    
   6070000   0.25985774    -8.1945076     -7.8047265      0.50688888     50218.233      36.893836      36.893836      36.893836    
   6080000   0.26027854    -8.1944956     -7.8040833      0.50968099     50218.233      36.893836      36.893836      36.893836    
   6090000   0.25997848    -8.1935543     -7.8035922      0.52345229     50218.233      36.893836      36.893836      36.893836    
   6100000   0.26004959    -8.1961473     -7.8060784      0.50348757     50218.233      36.893836      36.893836      36.893836    
   6110000   0.26008296    -8.1939159     -7.803797       0.51307798     50218.233      36.893836      36.893836      36.893836    
   6120000   0.26008538    -8.1922291     -7.8021065      0.53348443     50218.233      36.893836      36.893836      36.893836    
   6130000   0.25922517    -8.1934369     -7.8046047      0.51440079     50218.233      36.893836      36.893836      36.893836    
   6140000   0.26020115    -8.1940643     -7.8037681      0.5131189      50218.233      36.893836      36.893836      36.893836    
   6150000   0.26029325    -8.1957927     -7.8053584      0.50513526     50218.233      36.893836      36.893836      36.893836    
   6160000   0.26039038    -8.1935048     -7.8029248      0.51840624     50218.233      36.893836      36.893836      36.893836    
   6170000   0.26044751    -8.1916883     -7.8010226      0.5286964      50218.233      36.893836      36.893836      36.893836    
   6180000   0.25868916    -8.1940058     -7.8059775      0.51667491     50218.233      36.893836      36.893836      36.893836    
   6190000   0.25928887    -8.192557      -7.8036292      0.51705972     50218.233      36.893836      36.893836      36.893836    
   6200000   0.2602624     -8.1943936     -7.8040056      0.50872424     50218.233      36.893836      36.893836      36.893836    
   6210000   0.26039003    -8.1945468     -7.8039673      0.50539372     50218.233      36.893836      36.893836      36.893836    
   6220000   0.26051599    -8.1940197     -7.8032513      0.50700692     50218.233      36.893836      36.893836      36.893836    
   6230000   0.25972702    -8.1944331     -7.8048481      0.51446059     50218.233      36.893836      36.893836      36.893836    
   6240000   0.25932618    -8.1921633     -7.8031796      0.52344975     50218.233      36.893836      36.893836      36.893836    
   6250000   0.25986865    -8.1955043     -7.8057069      0.50196917     50218.233      36.893836      36.893836      36.893836    
   6260000   0.26053173    -8.1930927     -7.8023007      0.51729043     50218.233      36.893836      36.893836      36.893836    
   6270000   0.25940194    -8.1924487     -7.8033513      0.52049757     50218.233      36.893836      36.893836      36.893836    
   6280000   0.26014514    -8.1919257     -7.8017135      0.53136727     50218.233      36.893836      36.893836      36.893836    
   6290000   0.26037775    -8.1918992     -7.8013381      0.53465651     50218.233      36.893836      36.893836      36.893836    
   6300000   0.26041747    -8.1937215     -7.8031009      0.51635242     50218.233      36.893836      36.893836      36.893836    
   6310000   0.25916519    -8.1940423     -7.8053         0.5125315      50218.233      36.893836      36.893836      36.893836    
   6320000   0.25854198    -8.1948351     -7.8070277      0.50230675     50218.233      36.893836      36.893836      36.893836    
   6330000   0.25868254    -8.193956      -7.8059377      0.51356769     50218.233      36.893836      36.893836      36.893836    
   6340000   0.25983713    -8.1929565     -7.8032063      0.51921768     50218.233      36.893836      36.893836      36.893836    
   6350000   0.26022214    -8.193104      -7.8027764      0.52185081     50218.233      36.893836      36.893836      36.893836    
   6360000   0.2601045     -8.193728      -7.8035768      0.51774708     50218.233      36.893836      36.893836      36.893836    
   6370000   0.26153001    -8.1926456     -7.8003561      0.52103124     50218.233      36.893836      36.893836      36.893836    
   6380000   0.25995598    -8.1929735     -7.803045       0.52415408     50218.233      36.893836      36.893836      36.893836    
   6390000   0.2596277     -8.1940261     -7.8045901      0.5134496      50218.233      36.893836      36.893836      36.893836    
   6400000   0.2598151     -8.1932909     -7.8035738      0.52257381     50218.233      36.893836      36.893836      36.893836    
   6410000   0.25980456    -8.1936633     -7.803962       0.51626112     50218.233      36.893836      36.893836      36.893836    
   6420000   0.26045659    -8.1926311     -7.8019518      0.52139026     50218.233      36.893836      36.893836      36.893836    
   6430000   0.26061532    -8.1962113     -7.8052939      0.4984749      50218.233      36.893836      36.893836      36.893836    
   6440000   0.26075346    -8.1930899     -7.8019652      0.52270701     50218.233      36.893836      36.893836      36.893836    
   6450000   0.26071073    -8.1931832     -7.8021226      0.51742258     50218.233      36.893836      36.893836      36.893836    
   6460000   0.2600281     -8.1963245     -7.8062879      0.50033474     50218.233      36.893836      36.893836      36.893836    
   6470000   0.25968485    -8.1943038     -7.8047821      0.51226334     50218.233      36.893836      36.893836      36.893836    
   6480000   0.26100641    -8.1945418     -7.8030378      0.51297721     50218.233      36.893836      36.893836      36.893836    
   6490000   0.26007185    -8.1947253     -7.8046231      0.4998878      50218.233      36.893836      36.893836      36.893836    
   6500000   0.25982904    -8.196147      -7.8064089      0.49381669     50218.233      36.893836      36.893836      36.893836    
   6510000   0.26058553    -8.1940557     -7.8031829      0.51513878     50218.233      36.893836      36.893836      36.893836    
   6520000   0.25818072    -8.1940606     -7.806795       0.50373741     50218.233      36.893836      36.893836      36.893836    
   6530000   0.2603598     -8.193937      -7.8034029      0.51979033     50218.233      36.893836      36.893836      36.893836    
   6540000   0.2611186     -8.1939526     -7.8022803      0.51046997     50218.233      36.893836      36.893836      36.893836    
   6550000   0.26058485    -8.1953195     -7.8044477      0.51761013     50218.233      36.893836      36.893836      36.893836    
   6560000   0.2595642     -8.1947056     -7.8053648      0.50355279     50218.233      36.893836      36.893836      36.893836    
   6570000   0.25984889    -8.1941805     -7.8044127      0.52060655     50218.233      36.893836      36.893836      36.893836    
   6580000   0.25907553    -8.1944311     -7.8058233      0.50638051     50218.233      36.893836      36.893836      36.893836    
   6590000   0.25834951    -8.1963424     -7.8088236      0.49016112     50218.233      36.893836      36.893836      36.893836    
   6600000   0.25956116    -8.1949865     -7.8056503      0.49821235     50218.233      36.893836      36.893836      36.893836    
   6610000   0.26036254    -8.1952331     -7.8046948      0.5074153      50218.233      36.893836      36.893836      36.893836    
   6620000   0.25935159    -8.1946492     -7.8056274      0.50968969     50218.233      36.893836      36.893836      36.893836    
   6630000   0.2580657     -8.1954943     -7.8084012      0.49899112     50218.233      36.893836      36.893836      36.893836    
   6640000   0.25988302    -8.1924654     -7.8026464      0.52474528     50218.233      36.893836      36.893836      36.893836    
   6650000   0.25888577    -8.1931894     -7.8048663      0.51467821     50218.233      36.893836      36.893836      36.893836    
   6660000   0.26053402    -8.1931638     -7.8023684      0.52000729     50218.233      36.893836      36.893836      36.893836    
   6670000   0.25868736    -8.1927757     -7.8047502      0.52482068     50218.233      36.893836      36.893836      36.893836    
   6680000   0.25923617    -8.1952572     -7.8064084      0.50170142     50218.233      36.893836      36.893836      36.893836    
   6690000   0.2600575     -8.1935497     -7.803469       0.51651158     50218.233      36.893836      36.893836      36.893836    
   6700000   0.2587045     -8.1935829     -7.8055317      0.50776413     50218.233      36.893836      36.893836      36.893836    
   6710000   0.25866341    -8.1930578     -7.8050682      0.51883287     50218.233      36.893836      36.893836      36.893836    
   6720000   0.26199704    -8.1953711     -7.8023811      0.50015323     50218.233      36.893836      36.893836      36.893836    
   6730000   0.26067071    -8.1938936     -7.8028931      0.51906679     50218.233      36.893836      36.893836      36.893836    
   6740000   0.26110561    -8.1934761     -7.8018233      0.52751179     50218.233      36.893836      36.893836      36.893836    
   6750000   0.25956897    -8.1951845     -7.8058365      0.50116696     50218.233      36.893836      36.893836      36.893836    
   6760000   0.26014542    -8.1932818     -7.8030692      0.52473064     50218.233      36.893836      36.893836      36.893836    
   6770000   0.25867999    -8.1934582     -7.8054437      0.51211108     50218.233      36.893836      36.893836      36.893836    
   6780000   0.25899912    -8.191419      -7.8029258      0.53349772     50218.233      36.893836      36.893836      36.893836    
   6790000   0.26034421    -8.1964234     -7.8059126      0.50043221     50218.233      36.893836      36.893836      36.893836    
   6800000   0.25966576    -8.1954215     -7.8059284      0.49607682     50218.233      36.893836      36.893836      36.893836    
   6810000   0.26108268    -8.1954756     -7.8038572      0.50302624     50218.233      36.893836      36.893836      36.893836    
   6820000   0.26090256    -8.1932696     -7.8019213      0.52324129     50218.233      36.893836      36.893836      36.893836    
   6830000   0.26140918    -8.193527      -7.8014188      0.51900936     50218.233      36.893836      36.893836      36.893836    
   6840000   0.25927096    -8.1947928     -7.8058918      0.50494009     50218.233      36.893836      36.893836      36.893836    
   6850000   0.26027801    -8.1955201     -7.8051086      0.50544776     50218.233      36.893836      36.893836      36.893836    
   6860000   0.26100776    -8.1935204     -7.8020144      0.51688625     50218.233      36.893836      36.893836      36.893836    
   6870000   0.25946801    -8.1927762     -7.8035797      0.52390405     50218.233      36.893836      36.893836      36.893836    
   6880000   0.26083397    -8.1939359     -7.8026905      0.50803742     50218.233      36.893836      36.893836      36.893836    
   6890000   0.26062761    -8.1931624     -7.8022265      0.51596678     50218.233      36.893836      36.893836      36.893836    
   6900000   0.26011599    -8.1938483     -7.8036799      0.51051802     50218.233      36.893836      36.893836      36.893836    
   6910000   0.26077429    -8.1928312     -7.8016753      0.52827512     50218.233      36.893836      36.893836      36.893836    
   6920000   0.26021485    -8.1935707     -7.803254       0.5136393      50218.233      36.893836      36.893836      36.893836    
   6930000   0.25935818    -8.1947846     -7.8057528      0.50341663     50218.233      36.893836      36.893836      36.893836    
   6940000   0.25872134    -8.196678      -7.8086015      0.48871291     50218.233      36.893836      36.893836      36.893836    
   6950000   0.2619917     -8.1949061     -7.8019241      0.50973509     50218.233      36.893836      36.893836      36.893836    
   6960000   0.26009075    -8.1984764     -7.8083458      0.48016122     50218.233      36.893836      36.893836      36.893836    
   6970000   0.26097018    -8.1944205     -7.8029708      0.51204457     50218.233      36.893836      36.893836      36.893836    
   6980000   0.2608472     -8.1922155     -7.8009503      0.52750542     50218.233      36.893836      36.893836      36.893836    
   6990000   0.26150047    -8.1946104     -7.8023653      0.50788871     50218.233      36.893836      36.893836      36.893836    
   7000000   0.26006955    -8.1950487     -7.8049499      0.50780312     50218.233      36.893836      36.893836      36.893836    
   7010000   0.25901394    -8.193036      -7.8045207      0.5174743      50218.233      36.893836      36.893836      36.893836    
   7020000   0.26180161    -8.193224      -7.8005271      0.52452401     50218.233      36.893836      36.893836      36.893836    
   7030000   0.25996498    -8.1945933     -7.8046514      0.50614461     50218.233      36.893836      36.893836      36.893836    
   7040000   0.25897345    -8.1952027     -7.8067481      0.50143341     50218.233      36.893836      36.893836      36.893836    
   7050000   0.25966478    -8.1945198     -7.8050281      0.50725494     50218.233      36.893836      36.893836      36.893836    
   7060000   0.26087124    -8.1947139     -7.8034126      0.50949993     50218.233      36.893836      36.893836      36.893836    
   7070000   0.25921159    -8.196622      -7.8078102      0.49522089     50218.233      36.893836      36.893836      36.893836    
   7080000   0.25989497    -8.1957094     -7.8058725      0.49758773     50218.233      36.893836      36.893836      36.893836    
   7090000   0.26100899    -8.1976239     -7.806116       0.48783967     50218.233      36.893836      36.893836      36.893836    
   7100000   0.25946722    -8.1935059     -7.8043106      0.51260052     50218.233      36.893836      36.893836      36.893836    
   7110000   0.26030314    -8.1932142     -7.802765       0.52130405     50218.233      36.893836      36.893836      36.893836    
   7120000   0.26081436    -8.1961622     -7.8049462      0.50216233     50218.233      36.893836      36.893836      36.893836    
   7130000   0.25936104    -8.1952694     -7.8062333      0.50202487     50218.233      36.893836      36.893836      36.893836    
   7140000   0.25825646    -8.1932127     -7.8058335      0.51777541     50218.233      36.893836      36.893836      36.893836    
   7150000   0.26020348    -8.1938582     -7.8035586      0.51458123     50218.233      36.893836      36.893836      36.893836    
   7160000   0.26045335    -8.1940196     -7.8033451      0.51202249     50218.233      36.893836      36.893836      36.893836    
   7170000   0.25897354    -8.1918542     -7.8033994      0.53079389     50218.233      36.893836      36.893836      36.893836    
   7180000   0.2615696     -8.1937639     -7.8014151      0.51005646     50218.233      36.893836      36.893836      36.893836    
   7190000   0.25992031    -8.1954514     -7.8055765      0.50810296     50218.233      36.893836      36.893836      36.893836    
   7200000   0.26020561    -8.1959979     -7.805695       0.50199476     50218.233      36.893836      36.893836      36.893836    
   7210000   0.25946883    -8.1934119     -7.8042142      0.52068296     50218.233      36.893836      36.893836      36.893836    
   7220000   0.25951818    -8.1935286     -7.8042568      0.51466265     50218.233      36.893836      36.893836      36.893836    
   7230000   0.2605835     -8.1950552     -7.8041855      0.50062926     50218.233      36.893836      36.893836      36.893836    
   7240000   0.26044521    -8.192862      -7.8021998      0.52348032     50218.233      36.893836      36.893836      36.893836    
   7250000   0.26114825    -8.1956988     -7.803982       0.49946892     50218.233      36.893836      36.893836      36.893836    
   7260000   0.26014229    -8.1923494     -7.8021415      0.53300508     50218.233      36.893836      36.893836      36.893836    
   7270000   0.25865522    -8.1907943     -7.8028169      0.54416104     50218.233      36.893836      36.893836      36.893836    
   7280000   0.26132221    -8.1944626     -7.8024849      0.50320156     50218.233      36.893836      36.893836      36.893836    
   7290000   0.26079628    -8.1940369     -7.802848       0.51000935     50218.233      36.893836      36.893836      36.893836    
   7300000   0.26017341    -8.1932597     -7.8030051      0.5198333      50218.233      36.893836      36.893836      36.893836    
   7310000   0.25979652    -8.194308      -7.8046187      0.50965422     50218.233      36.893836      36.893836      36.893836    
   7320000   0.25870875    -8.1913566     -7.803299       0.53394682     50218.233      36.893836      36.893836      36.893836    
   7330000   0.25916957    -8.1929758     -7.804227       0.51952374     50218.233      36.893836      36.893836      36.893836    
   7340000   0.25985045    -8.1948438     -7.8050737      0.50248485     50218.233      36.893836      36.893836      36.893836    
   7350000   0.25995621    -8.1953662     -7.8054375      0.50911294     50218.233      36.893836      36.893836      36.893836    
   7360000   0.26051068    -8.1948477     -7.8040872      0.50299966     50218.233      36.893836      36.893836      36.893836    
   7370000   0.2604674     -8.1952274     -7.8045318      0.51104309     50218.233      36.893836      36.893836      36.893836    
   7380000   0.26031511    -8.1947493     -7.8042822      0.50330385     50218.233      36.893836      36.893836      36.893836    
   7390000   0.260776      -8.1917382     -7.8005798      0.53742011     50218.233      36.893836      36.893836      36.893836    
   7400000   0.26119275    -8.1951602     -7.8033766      0.51308437     50218.233      36.893836      36.893836      36.893836    
   7410000   0.26095956    -8.1940367     -7.8026029      0.51592118     50218.233      36.893836      36.893836      36.893836    
   7420000   0.26124627    -8.1936483     -7.8017844      0.52213664     50218.233      36.893836      36.893836      36.893836    
   7430000   0.26086247    -8.195261      -7.8039729      0.51040209     50218.233      36.893836      36.893836      36.893836    
   7440000   0.26070305    -8.1931998     -7.8021508      0.51695414     50218.233      36.893836      36.893836      36.893836    
   7450000   0.25878237    -8.1958012     -7.8076332      0.48805836     50218.233      36.893836      36.893836      36.893836    
   7460000   0.25750359    -8.1950724     -7.8088225      0.50106356     50218.233      36.893836      36.893836      36.893836    
   7470000   0.25947274    -8.1962093     -7.8070057      0.49569123     50218.233      36.893836      36.893836      36.893836    
   7480000   0.2595338     -8.1959205     -7.8066253      0.50134275     50218.233      36.893836      36.893836      36.893836    
   7490000   0.25953167    -8.1960231     -7.8067311      0.49886635     50218.233      36.893836      36.893836      36.893836    
   7500000   0.25986687    -8.1957616     -7.8059669      0.49631145     50218.233      36.893836      36.893836      36.893836    
   7510000   0.2592681     -8.196217      -7.8073203      0.4945114      50218.233      36.893836      36.893836      36.893836    
   7520000   0.26094199    -8.1941848     -7.8027774      0.51227418     50218.233      36.893836      36.893836      36.893836    
   7530000   0.26006317    -8.1945832     -7.8044939      0.50529671     50218.233      36.893836      36.893836      36.893836    
   7540000   0.2589717     -8.1925205     -7.8040685      0.51980513     50218.233      36.893836      36.893836      36.893836    
   7550000   0.26085311    -8.1944307     -7.8031566      0.50429833     50218.233      36.893836      36.893836      36.893836    
   7560000   0.26113253    -8.1930672     -7.801374       0.51755366     50218.233      36.893836      36.893836      36.893836    
   7570000   0.25986902    -8.196753      -7.806955       0.49507345     50218.233      36.893836      36.893836      36.893836    
   7580000   0.25899721    -8.1941786     -7.8056883      0.51369605     50218.233      36.893836      36.893836      36.893836    
   7590000   0.25991548    -8.1946822     -7.8048145      0.50829141     50218.233      36.893836      36.893836      36.893836    
   7600000   0.26069235    -8.19665       -7.8056171      0.48355339     50218.233      36.893836      36.893836      36.893836    
   7610000   0.26199006    -8.194445      -7.8014655      0.51354203     50218.233      36.893836      36.893836      36.893836    
   7620000   0.25910542    -8.1935183     -7.8048657      0.51373702     50218.233      36.893836      36.893836      36.893836    
   7630000   0.25951163    -8.1948779     -7.805616       0.50974029     50218.233      36.893836      36.893836      36.893836    
   7640000   0.26048789    -8.1957631     -7.8050369      0.49140574     50218.233      36.893836      36.893836      36.893836    
   7650000   0.25896365    -8.1923114     -7.8038715      0.51961486     50218.233      36.893836      36.893836      36.893836    
   7660000   0.26072503    -8.1936946     -7.8026127      0.51785973     50218.233      36.893836      36.893836      36.893836    
   7670000   0.26005865    -8.195687      -7.8056045      0.49904495     50218.233      36.893836      36.893836      36.893836    
   7680000   0.2607181     -8.1912985     -7.8002269      0.53223586     50218.233      36.893836      36.893836      36.893836    
   7690000   0.25953397    -8.1947561     -7.8054607      0.50769868     50218.233      36.893836      36.893836      36.893836    
   7700000   0.26127117    -8.191862      -7.7999609      0.53270164     50218.233      36.893836      36.893836      36.893836    
   7710000   0.26085772    -8.1921514     -7.8008704      0.5296169      50218.233      36.893836      36.893836      36.893836    
   7720000   0.26154894    -8.1922195     -7.7999016      0.52809074     50218.233      36.893836      36.893836      36.893836    
   7730000   0.26061429    -8.1937555     -7.8028397      0.51636918     50218.233      36.893836      36.893836      36.893836    
   7740000   0.26078612    -8.194011      -7.8028374      0.51285093     50218.233      36.893836      36.893836      36.893836    
   7750000   0.25958265    -8.1917856     -7.8024171      0.52899074     50218.233      36.893836      36.893836      36.893836    
   7760000   0.25910075    -8.195222      -7.8065764      0.50856441     50218.233      36.893836      36.893836      36.893836    
   7770000   0.2597576     -8.1922602     -7.8026294      0.51821856     50218.233      36.893836      36.893836      36.893836    
   7780000   0.25949638    -8.1928727     -7.8036336      0.52407951     50218.233      36.893836      36.893836      36.893836    
   7790000   0.26085772    -8.1907638     -7.7994828      0.53229063     50218.233      36.893836      36.893836      36.893836    
   7800000   0.26021929    -8.1936971     -7.8033737      0.50893138     50218.233      36.893836      36.893836      36.893836    
   7810000   0.25952684    -8.1940237     -7.804739       0.5084901      50218.233      36.893836      36.893836      36.893836    
   7820000   0.25928585    -8.1947146     -7.8057913      0.50835259     50218.233      36.893836      36.893836      36.893836    
   7830000   0.25975819    -8.1934698     -7.8038381      0.51630352     50218.233      36.893836      36.893836      36.893836    
   7840000   0.2594584     -8.1942447     -7.8050627      0.50292632     50218.233      36.893836      36.893836      36.893836    
   7850000   0.26012861    -8.1954408     -7.8052534      0.50376456     50218.233      36.893836      36.893836      36.893836    
   7860000   0.26180828    -8.1938275     -7.8011206      0.51588161     50218.233      36.893836      36.893836      36.893836    
   7870000   0.26016141    -8.1927483     -7.8025117      0.52509391     50218.233      36.893836      36.893836      36.893836    
   7880000   0.25929463    -8.1931627     -7.8042263      0.51995549     50218.233      36.893836      36.893836      36.893836    
   7890000   0.25973324    -8.1942229     -7.8046286      0.50736963     50218.233      36.893836      36.893836      36.893836    
   7900000   0.26098553    -8.1928576     -7.8013848      0.52044209     50218.233      36.893836      36.893836      36.893836    
   7910000   0.25923011    -8.1946834     -7.8058438      0.496112       50218.233      36.893836      36.893836      36.893836    
   7920000   0.26087461    -8.1934386     -7.8021322      0.52349627     50218.233      36.893836      36.893836      36.893836    
   7930000   0.26112731    -8.1948828     -7.8031974      0.51186346     50218.233      36.893836      36.893836      36.893836    
   7940000   0.2598748     -8.1937976     -7.8039909      0.51345557     50218.233      36.893836      36.893836      36.893836    
   7950000   0.26173894    -8.1972308     -7.804628       0.49770235     50218.233      36.893836      36.893836      36.893836    
   7960000   0.25946617    -8.1941588     -7.804965       0.50767565     50218.233      36.893836      36.893836      36.893836    
   7970000   0.25970626    -8.193898      -7.8043442      0.50934273     50218.233      36.893836      36.893836      36.893836    
   7980000   0.25917629    -8.196076      -7.807317       0.49009253     50218.233      36.893836      36.893836      36.893836    
   7990000   0.26018034    -8.1966847     -7.8064197      0.48766852     50218.233      36.893836      36.893836      36.893836    
   8000000   0.26116441    -8.1947612     -7.8030202      0.51237679     50218.233      36.893836      36.893836      36.893836    
   8010000   0.25935081    -8.1940425     -7.8050218      0.50943642     50218.233      36.893836      36.893836      36.893836    
   8020000   0.26084288    -8.1957671     -7.8045083      0.50054475     50218.233      36.893836      36.893836      36.893836    
   8030000   0.25772337    -8.1956426     -7.809063       0.49948829     50218.233      36.893836      36.893836      36.893836    
   8040000   0.25893434    -8.1966532     -7.8082572      0.48406415     50218.233      36.893836      36.893836      36.893836    
   8050000   0.2611614     -8.1946517     -7.8029152      0.50994597     50218.233      36.893836      36.893836      36.893836    
   8060000   0.26028973    -8.1935888     -7.8031597      0.51738881     50218.233      36.893836      36.893836      36.893836    
   8070000   0.25910223    -8.1942752     -7.8056274      0.50556874     50218.233      36.893836      36.893836      36.893836    
   8080000   0.25960494    -8.194305      -7.8049031      0.50354469     50218.233      36.893836      36.893836      36.893836    
   8090000   0.2603125     -8.1951044     -7.8046412      0.50014542     50218.233      36.893836      36.893836      36.893836    
   8100000   0.26090223    -8.1946146     -7.8032669      0.5048267      50218.233      36.893836      36.893836      36.893836    
   8110000   0.2600542     -8.1939757     -7.8038999      0.51727525     50218.233      36.893836      36.893836      36.893836    
   8120000   0.25970684    -8.1934927     -7.803938       0.51004549     50218.233      36.893836      36.893836      36.893836    
   8130000   0.2590252     -8.1929593     -7.804427       0.51636171     50218.233      36.893836      36.893836      36.893836    
   8140000   0.25804613    -8.1939476     -7.8068839      0.51041929     50218.233      36.893836      36.893836      36.893836    
   8150000   0.25979159    -8.196585      -7.8069032      0.49493192     50218.233      36.893836      36.893836      36.893836    
   8160000   0.2619241     -8.1952512     -7.8023706      0.50937995     50218.233      36.893836      36.893836      36.893836    
   8170000   0.26143962    -8.1939061     -7.8017522      0.51532974     50218.233      36.893836      36.893836      36.893836    
   8180000   0.25921897    -8.193676      -7.8048531      0.51703154     50218.233      36.893836      36.893836      36.893836    
   8190000   0.26020188    -8.1954522     -7.805155       0.50199326     50218.233      36.893836      36.893836      36.893836    
   8200000   0.25866048    -8.1930743     -7.8050891      0.5179109      50218.233      36.893836      36.893836      36.893836    
   8210000   0.26082231    -8.1956492     -7.8044213      0.50694034     50218.233      36.893836      36.893836      36.893836    
   8220000   0.25958078    -8.1937131     -7.8043475      0.51216951     50218.233      36.893836      36.893836      36.893836    
   8230000   0.25998849    -8.1930537     -7.8030766      0.52096267     50218.233      36.893836      36.893836      36.893836    
   8240000   0.25905804    -8.1929583     -7.8043768      0.51886614     50218.233      36.893836      36.893836      36.893836    
   8250000   0.25962068    -8.1927245     -7.803299       0.52470526     50218.233      36.893836      36.893836      36.893836    
   8260000   0.26113882    -8.1913731     -7.7996704      0.52885389     50218.233      36.893836      36.893836      36.893836    
   8270000   0.26074096    -8.1925424     -7.8014365      0.5227616      50218.233      36.893836      36.893836      36.893836    
   8280000   0.26021813    -8.1935612     -7.8032396      0.51607359     50218.233      36.893836      36.893836      36.893836    
   8290000   0.26028614    -8.1919715     -7.8015479      0.5282808      50218.233      36.893836      36.893836      36.893836    
   8300000   0.25964693    -8.1932722     -7.8038074      0.51641005     50218.233      36.893836      36.893836      36.893836    
   8310000   0.26108333    -8.1944682     -7.8028488      0.51091114     50218.233      36.893836      36.893836      36.893836    
   8320000   0.26010309    -8.1943899     -7.8042408      0.51119901     50218.233      36.893836      36.893836      36.893836    
   8330000   0.25974138    -8.1947964     -7.8051899      0.50514851     50218.233      36.893836      36.893836      36.893836    
   8340000   0.25989738    -8.1954639     -7.8056234      0.5065363      50218.233      36.893836      36.893836      36.893836    
   8350000   0.26086523    -8.194812      -7.8035197      0.50953505     50218.233      36.893836      36.893836      36.893836    
   8360000   0.26183252    -8.1936936     -7.8009505      0.52107667     50218.233      36.893836      36.893836      36.893836    
   8370000   0.25993855    -8.1940783     -7.804176       0.50795205     50218.233      36.893836      36.893836      36.893836    
   8380000   0.25951478    -8.1946953     -7.8054287      0.50531814     50218.233      36.893836      36.893836      36.893836    
   8390000   0.26070639    -8.1941837     -7.8031296      0.51620804     50218.233      36.893836      36.893836      36.893836    
   8400000   0.26083057    -8.1951104     -7.8038701      0.5080981      50218.233      36.893836      36.893836      36.893836    
   8410000   0.25965523    -8.1950158     -7.8055385      0.5063309      50218.233      36.893836      36.893836      36.893836    
   8420000   0.26069839    -8.1958451     -7.8048031      0.5058909      50218.233      36.893836      36.893836      36.893836    
   8430000   0.26034657    -8.1954381     -7.8049238      0.50328698     50218.233      36.893836      36.893836      36.893836    
   8440000   0.25993936    -8.1943501     -7.8044466      0.50896063     50218.233      36.893836      36.893836      36.893836    
   8450000   0.26019719    -8.1954756     -7.8051854      0.49903084     50218.233      36.893836      36.893836      36.893836    
   8460000   0.26196043    -8.1940611     -7.8011261      0.51678273     50218.233      36.893836      36.893836      36.893836    
   8470000   0.25990057    -8.1926279     -7.8027826      0.51840687     50218.233      36.893836      36.893836      36.893836    
   8480000   0.25984835    -8.195045      -7.805278       0.50745866     50218.233      36.893836      36.893836      36.893836    
   8490000   0.25970307    -8.1937536     -7.8042045      0.51436322     50218.233      36.893836      36.893836      36.893836    
   8500000   0.26114374    -8.1950501     -7.8033401      0.50685642     50218.233      36.893836      36.893836      36.893836    
   8510000   0.26038488    -8.1972524     -7.8066806      0.48714766     50218.233      36.893836      36.893836      36.893836    
   8520000   0.25907776    -8.1931055     -7.8044944      0.51568783     50218.233      36.893836      36.893836      36.893836    
   8530000   0.26103537    -8.1939263     -7.8023788      0.51715522     50218.233      36.893836      36.893836      36.893836    
   8540000   0.25945577    -8.1939052     -7.8047271      0.50907462     50218.233      36.893836      36.893836      36.893836    
   8550000   0.25953842    -8.1950692     -7.8057671      0.50871253     50218.233      36.893836      36.893836      36.893836    
   8560000   0.25973502    -8.196108      -7.806511       0.49793372     50218.233      36.893836      36.893836      36.893836    
   8570000   0.26058546    -8.1930095     -7.8021369      0.51910867     50218.233      36.893836      36.893836      36.893836    
   8580000   0.25914938    -8.1936739     -7.8049554      0.50575109     50218.233      36.893836      36.893836      36.893836    
   8590000   0.26006203    -8.1937386     -7.8036511      0.5077278      50218.233      36.893836      36.893836      36.893836    
   8600000   0.25976532    -8.1923473     -7.8027049      0.5219515      50218.233      36.893836      36.893836      36.893836    
   8610000   0.2608501     -8.1944867     -7.8032172      0.50651855     50218.233      36.893836      36.893836      36.893836    
   8620000   0.25994505    -8.1929701     -7.803058       0.51600233     50218.233      36.893836      36.893836      36.893836    
   8630000   0.25933984    -8.1946732     -7.805669       0.50787141     50218.233      36.893836      36.893836      36.893836    
   8640000   0.25942726    -8.1941524     -7.805017       0.50818624     50218.233      36.893836      36.893836      36.893836    
   8650000   0.25994106    -8.1938075     -7.8039014      0.51533155     50218.233      36.893836      36.893836      36.893836    
   8660000   0.25993228    -8.1940705     -7.8041776      0.52028676     50218.233      36.893836      36.893836      36.893836    
   8670000   0.26025306    -8.1930132     -7.8026392      0.52527258     50218.233      36.893836      36.893836      36.893836    
   8680000   0.26136583    -8.1940748     -7.8020316      0.51824885     50218.233      36.893836      36.893836      36.893836    
   8690000   0.25955948    -8.1936083     -7.8042746      0.5181127      50218.233      36.893836      36.893836      36.893836    
   8700000   0.26030994    -8.1946779     -7.8042185      0.50951653     50218.233      36.893836      36.893836      36.893836    
   8710000   0.26248523    -8.1934692     -7.799747       0.52001712     50218.233      36.893836      36.893836      36.893836    
   8720000   0.25927484    -8.1960555     -7.8071487      0.50006855     50218.233      36.893836      36.893836      36.893836    
   8730000   0.25912001    -8.1946382     -7.8059637      0.51041455     50218.233      36.893836      36.893836      36.893836    
   8740000   0.25868613    -8.1952527     -7.807229       0.50699148     50218.233      36.893836      36.893836      36.893836    
   8750000   0.25967962    -8.1921482     -7.8026343      0.52879615     50218.233      36.893836      36.893836      36.893836    
   8760000   0.25923476    -8.193984      -7.8051374      0.5151144      50218.233      36.893836      36.893836      36.893836    
   8770000   0.26096016    -8.1931787     -7.801744       0.51200117     50218.233      36.893836      36.893836      36.893836    
   8780000   0.25911873    -8.1939511     -7.8052785      0.51614869     50218.233      36.893836      36.893836      36.893836    
   8790000   0.26092942    -8.1947671     -7.8033786      0.50893187     50218.233      36.893836      36.893836      36.893836    
   8800000   0.25959438    -8.1957609     -7.8063748      0.4947051      50218.233      36.893836      36.893836      36.893836    
   8810000   0.26016198    -8.1930248     -7.8027874      0.52598432     50218.233      36.893836      36.893836      36.893836    
   8820000   0.25962678    -8.1927927     -7.803358       0.51738461     50218.233      36.893836      36.893836      36.893836    
   8830000   0.26160155    -8.1934592     -7.8010625      0.53083199     50218.233      36.893836      36.893836      36.893836    
   8840000   0.26064233    -8.1918808     -7.8009229      0.52974096     50218.233      36.893836      36.893836      36.893836    
   8850000   0.25973967    -8.1932162     -7.8036122      0.5151432      50218.233      36.893836      36.893836      36.893836    
   8860000   0.25920811    -8.1937958     -7.8049892      0.50930211     50218.233      36.893836      36.893836      36.893836    
   8870000   0.26042562    -8.1958274     -7.8051946      0.49633514     50218.233      36.893836      36.893836      36.893836    
   8880000   0.26143971    -8.1930044     -7.8008504      0.52810366     50218.233      36.893836      36.893836      36.893836    
   8890000   0.26038406    -8.1952533     -7.8046827      0.5062895      50218.233      36.893836      36.893836      36.893836    
   8900000   0.26039729    -8.1944288     -7.8038385      0.51623916     50218.233      36.893836      36.893836      36.893836    
   8910000   0.25866652    -8.1952154     -7.8072212      0.49938733     50218.233      36.893836      36.893836      36.893836    
   8920000   0.25898355    -8.1916132     -7.8031434      0.52879995     50218.233      36.893836      36.893836      36.893836    
   8930000   0.25995411    -8.1945771     -7.8046515      0.51252538     50218.233      36.893836      36.893836      36.893836    
   8940000   0.25972963    -8.1943779     -7.804789       0.50898007     50218.233      36.893836      36.893836      36.893836    
   8950000   0.26016812    -8.1968211     -7.8065745      0.49359425     50218.233      36.893836      36.893836      36.893836    
   8960000   0.26024637    -8.1965816     -7.8062176      0.49270748     50218.233      36.893836      36.893836      36.893836    
   8970000   0.25931536    -8.1957091     -7.8067415      0.49468207     50218.233      36.893836      36.893836      36.893836    
   8980000   0.2599908     -8.1962187     -7.806238       0.50067803     50218.233      36.893836      36.893836      36.893836    
   8990000   0.26011453    -8.1922806     -7.8021143      0.5359051      50218.233      36.893836      36.893836      36.893836    
   9000000   0.25906905    -8.1946632     -7.8060651      0.51201314     50218.233      36.893836      36.893836      36.893836    
   9010000   0.26081207    -8.1941313     -7.8029188      0.5208439      50218.233      36.893836      36.893836      36.893836    
   9020000   0.2599101     -8.1979036     -7.8080439      0.48637169     50218.233      36.893836      36.893836      36.893836    
   9030000   0.25926115    -8.1935764     -7.8046902      0.51553556     50218.233      36.893836      36.893836      36.893836    
   9040000   0.26020548    -8.1945381     -7.8042354      0.50333039     50218.233      36.893836      36.893836      36.893836    
   9050000   0.25875945    -8.1955357     -7.8074021      0.50018752     50218.233      36.893836      36.893836      36.893836    
   9060000   0.2617374     -8.1947567     -7.8021562      0.51191775     50218.233      36.893836      36.893836      36.893836    
   9070000   0.25973164    -8.1967074     -7.8071155      0.49975667     50218.233      36.893836      36.893836      36.893836    
   9080000   0.26023306    -8.1941869     -7.8038429      0.5096532      50218.233      36.893836      36.893836      36.893836    
   9090000   0.25921686    -8.1942377     -7.8054179      0.50524489     50218.233      36.893836      36.893836      36.893836    
   9100000   0.25987155    -8.1935676     -7.8037658      0.51551548     50218.233      36.893836      36.893836      36.893836    
   9110000   0.26019413    -8.1928167     -7.8025311      0.51866885     50218.233      36.893836      36.893836      36.893836    
   9120000   0.26079532    -8.1950628     -7.8038754      0.51180492     50218.233      36.893836      36.893836      36.893836    
   9130000   0.25997763    -8.1923616     -7.8024007      0.52105299     50218.233      36.893836      36.893836      36.893836    
   9140000   0.25926271    -8.1945666     -7.8056781      0.50664593     50218.233      36.893836      36.893836      36.893836    
   9150000   0.2611283     -8.1924918     -7.8008049      0.52804753     50218.233      36.893836      36.893836      36.893836    
   9160000   0.25952886    -8.1920601     -7.8027724      0.53140172     50218.233      36.893836      36.893836      36.893836    
   9170000   0.25968788    -8.1922221     -7.8026958      0.52491254     50218.233      36.893836      36.893836      36.893836    
   9180000   0.2607624     -8.1924775     -7.8013394      0.52764866     50218.233      36.893836      36.893836      36.893836    
   9190000   0.26002762    -8.193849      -7.8038131      0.52231        50218.233      36.893836      36.893836      36.893836    
   9200000   0.2606838     -8.1925326     -7.8015125      0.52208399     50218.233      36.893836      36.893836      36.893836    
   9210000   0.26098444    -8.1923391     -7.800868       0.52969894     50218.233      36.893836      36.893836      36.893836    
   9220000   0.26043032    -8.1928709     -7.802231       0.52469686     50218.233      36.893836      36.893836      36.893836    
   9230000   0.25896802    -8.1931549     -7.8047084      0.52342663     50218.233      36.893836      36.893836      36.893836    
   9240000   0.26093036    -8.1941788     -7.8027888      0.5182925      50218.233      36.893836      36.893836      36.893836    
   9250000   0.26171213    -8.196294      -7.8037314      0.50105435     50218.233      36.893836      36.893836      36.893836    
   9260000   0.26008344    -8.1952378     -7.8051182      0.50787327     50218.233      36.893836      36.893836      36.893836    
   9270000   0.25889128    -8.1935267     -7.8051953      0.51925195     50218.233      36.893836      36.893836      36.893836    
   9280000   0.25879606    -8.1930976     -7.8049091      0.5232406      50218.233      36.893836      36.893836      36.893836    
   9290000   0.25997891    -8.1932221     -7.8032593      0.51490551     50218.233      36.893836      36.893836      36.893836    
   9300000   0.26093622    -8.194015      -7.8026162      0.50893028     50218.233      36.893836      36.893836      36.893836    
   9310000   0.26114917    -8.1917969     -7.8000787      0.5336092      50218.233      36.893836      36.893836      36.893836    
   9320000   0.26020254    -8.194209      -7.8039107      0.51372267     50218.233      36.893836      36.893836      36.893836    
   9330000   0.26073593    -8.1945929     -7.8034945      0.51546164     50218.233      36.893836      36.893836      36.893836    
   9340000   0.26125187    -8.195416      -7.8035437      0.50382443     50218.233      36.893836      36.893836      36.893836    
   9350000   0.25863732    -8.1944673     -7.8065169      0.50531033     50218.233      36.893836      36.893836      36.893836    
   9360000   0.25995882    -8.1951128     -7.8051801      0.5102268      50218.233      36.893836      36.893836      36.893836    
   9370000   0.26015899    -8.1947463     -7.8045134      0.5077535      50218.233      36.893836      36.893836      36.893836    
   9380000   0.25988437    -8.1926108     -7.8027897      0.51976287     50218.233      36.893836      36.893836      36.893836    
   9390000   0.25946009    -8.193286      -7.8041014      0.51673563     50218.233      36.893836      36.893836      36.893836    
   9400000   0.25788151    -8.1963345     -7.8095177      0.48537822     50218.233      36.893836      36.893836      36.893836    
   9410000   0.26133821    -8.1947803     -7.8027786      0.50253879     50218.233      36.893836      36.893836      36.893836    
   9420000   0.25979474    -8.1940305     -7.8043439      0.50961792     50218.233      36.893836      36.893836      36.893836    
   9430000   0.26091336    -8.1949833     -7.8036188      0.50765196     50218.233      36.893836      36.893836      36.893836    
   9440000   0.25962201    -8.1944366     -7.8050091      0.50454795     50218.233      36.893836      36.893836      36.893836    
   9450000   0.26153113    -8.1959185     -7.8036274      0.49544316     50218.233      36.893836      36.893836      36.893836    
   9460000   0.25949483    -8.1958818     -7.8066451      0.50299366     50218.233      36.893836      36.893836      36.893836    
   9470000   0.26051955    -8.1937177     -7.8029439      0.51302677     50218.233      36.893836      36.893836      36.893836    
   9480000   0.25995596    -8.1972217     -7.8072933      0.48461013     50218.233      36.893836      36.893836      36.893836    
   9490000   0.26017851    -8.194988      -7.8047258      0.50118175     50218.233      36.893836      36.893836      36.893836    
   9500000   0.26016274    -8.1965585     -7.80632        0.49478487     50218.233      36.893836      36.893836      36.893836    
   9510000   0.26100192    -8.1938364     -7.8023391      0.51754413     50218.233      36.893836      36.893836      36.893836    
   9520000   0.26012887    -8.1954899     -7.8053021      0.50010564     50218.233      36.893836      36.893836      36.893836    
   9530000   0.26034368    -8.1958478     -7.8053379      0.49493619     50218.233      36.893836      36.893836      36.893836    
   9540000   0.25926542    -8.1951593     -7.8062667      0.49788066     50218.233      36.893836      36.893836      36.893836    
   9550000   0.26023846    -8.1950002     -7.8046481      0.50540895     50218.233      36.893836      36.893836      36.893836    
   9560000   0.25952164    -8.1962804     -7.8070035      0.49308986     50218.233      36.893836      36.893836      36.893836    
   9570000   0.26026575    -8.1967262     -7.8063331      0.49905054     50218.233      36.893836      36.893836      36.893836    
   9580000   0.260123      -8.1957724     -7.8055935      0.48912311     50218.233      36.893836      36.893836      36.893836    
   9590000   0.25897637    -8.1946345     -7.8061755      0.5018687      50218.233      36.893836      36.893836      36.893836    
   9600000   0.2607194     -8.1952977     -7.8042241      0.50148211     50218.233      36.893836      36.893836      36.893836    
   9610000   0.25983986    -8.1949829     -7.8052287      0.50552726     50218.233      36.893836      36.893836      36.893836    
   9620000   0.25971732    -8.1938705     -7.8043         0.51666452     50218.233      36.893836      36.893836      36.893836    
   9630000   0.25780753    -8.1941907     -7.8074849      0.50998517     50218.233      36.893836      36.893836      36.893836    
   9640000   0.26000284    -8.1938138     -7.8038151      0.51748997     50218.233      36.893836      36.893836      36.893836    
   9650000   0.25900251    -8.1948445     -7.8063463      0.50450199     50218.233      36.893836      36.893836      36.893836    
   9660000   0.26165488    -8.1937636     -7.8012869      0.52703985     50218.233      36.893836      36.893836      36.893836    
   9670000   0.26042624    -8.1943887     -7.8037549      0.50518791     50218.233      36.893836      36.893836      36.893836    
   9680000   0.26011636    -8.193471      -7.803302       0.5119937      50218.233      36.893836      36.893836      36.893836    
   9690000   0.26022715    -8.1942289     -7.8038937      0.51652227     50218.233      36.893836      36.893836      36.893836    
   9700000   0.25973809    -8.1938788     -7.8042772      0.50542045     50218.233      36.893836      36.893836      36.893836    
   9710000   0.25961259    -8.1908738     -7.8014604      0.53789664     50218.233      36.893836      36.893836      36.893836    
   9720000   0.26018467    -8.1916101     -7.8013386      0.53444126     50218.233      36.893836      36.893836      36.893836    
   9730000   0.26122994    -8.1936993     -7.8018599      0.50987703     50218.233      36.893836      36.893836      36.893836    
   9740000   0.25978259    -8.1945463     -7.804878       0.50953639     50218.233      36.893836      36.893836      36.893836    
   9750000   0.26136755    -8.1938294     -7.8017836      0.51393182     50218.233      36.893836      36.893836      36.893836    
   9760000   0.25976076    -8.1938673     -7.8042317      0.51752015     50218.233      36.893836      36.893836      36.893836    
   9770000   0.25793722    -8.1933299     -7.8064295      0.52012365     50218.233      36.893836      36.893836      36.893836    
   9780000   0.26084516    -8.192463      -7.8012008      0.5252026      50218.233      36.893836      36.893836      36.893836    
   9790000   0.26107159    -8.1942695     -7.8026677      0.5128566      50218.233      36.893836      36.893836      36.893836    
   9800000   0.26029102    -8.1938227     -7.8033917      0.51339431     50218.233      36.893836      36.893836      36.893836    
   9810000   0.25939494    -8.1934141     -7.8043272      0.51938433     50218.233      36.893836      36.893836      36.893836    
   9820000   0.25943803    -8.1953375     -7.806186       0.50090593     50218.233      36.893836      36.893836      36.893836    
   9830000   0.25924618    -8.1951429     -7.8062792      0.49919854     50218.233      36.893836      36.893836      36.893836    
   9840000   0.25992199    -8.1910399     -7.8011624      0.53644742     50218.233      36.893836      36.893836      36.893836    
   9850000   0.26016058    -8.1947159     -7.8044805      0.50498003     50218.233      36.893836      36.893836      36.893836    
   9860000   0.25852135    -8.1953811     -7.8076046      0.49661166     50218.233      36.893836      36.893836      36.893836    
   9870000   0.25980329    -8.1937509     -7.8040515      0.51381304     50218.233      36.893836      36.893836      36.893836    
   9880000   0.25974464    -8.194816      -7.8052046      0.5046868      50218.233      36.893836      36.893836      36.893836    
   9890000   0.26016821    -8.1934359     -7.8031891      0.513941       50218.233      36.893836      36.893836      36.893836    
   9900000   0.26043469    -8.192929      -7.8022825      0.51812808     50218.233      36.893836      36.893836      36.893836    
   9910000   0.26043608    -8.194504      -7.8038555      0.51148347     50218.233      36.893836      36.893836      36.893836    
   9920000   0.26029618    -8.1947461     -7.8043074      0.50735978     50218.233      36.893836      36.893836      36.893836    
   9930000   0.26033471    -8.1929061     -7.8024096      0.5151739      50218.233      36.893836      36.893836      36.893836    
   9940000   0.26096983    -8.1937718     -7.8023226      0.52418625     50218.233      36.893836      36.893836      36.893836    
   9950000   0.26107666    -8.1958        -7.8041906      0.49905779     50218.233      36.893836      36.893836      36.893836    
   9960000   0.26091104    -8.1953149     -7.803954       0.50443351     50218.233      36.893836      36.893836      36.893836    
   9970000   0.25947786    -8.19459       -7.8053787      0.51042376     50218.233      36.893836      36.893836      36.893836    
   9980000   0.25961551    -8.1930153     -7.8035976      0.51905863     50218.233      36.893836      36.893836      36.893836    
   9990000   0.26027326    -8.1935805     -7.8031761      0.51564385     50218.233      36.893836      36.893836      36.893836    
  10000000   0.2611171     -8.1954604     -7.8037903      0.50267149     50218.233      36.893836      36.893836      36.893836    
Loop time of 15473.3 on 5 procs for 10000000 steps with 70304 atoms

Performance: 558381.741 tau/day, 646.275 timesteps/s, 45.436 Matom-step/s
94.0% CPU use with 5 MPI tasks x 1 OpenMP threads

MPI task timing breakdown:
Section |  min time  |  avg time  |  max time  |%varavg| %total
---------------------------------------------------------------
Pair    | 5351.6     | 5841.6     | 6652.1     | 692.7 | 37.75
Neigh   | 39.789     | 42.276     | 47.854     |  45.0 |  0.27
Comm    | 2204.2     | 2280.7     | 2376.7     | 143.6 | 14.74
Output  | 0.18108    | 0.18709    | 0.19811    |   1.4 |  0.00
Modify  | 5640       | 6505.9     | 6969.7     | 661.3 | 42.05
Other   |            | 802.7      |            |       |  5.19

Nlocal:        14060.8 ave       14134 max       14018 min
Histogram: 2 0 0 1 1 0 0 0 0 1
Nghost:          18742 ave       18787 max       18712 min
Histogram: 2 1 0 0 0 0 0 0 1 1
Neighs:              0 ave           0 max           0 min
Histogram: 5 0 0 0 0 0 0 0 0 0

Total # of neighbors = 0
Ave neighs/atom = 0
Neighbor list builds = 1504028
Dangerous builds = 0
clear
OMP_NUM_THREADS environment is not set. Defaulting to 1 thread. (src/comm.cpp:98)
  using 1 OpenMP thread(s) per MPI task
package gpu 0
jump dms550.lmp

variable T equal 550
# T = 1000* (temp in LJ unit)
variable f equal 10000
log log.${T}
log log.550
