variable TLJ equal (${T}/1000)
variable TLJ equal (555/1000)
variable NCyle equal 8
variable iStep equal (${f})
variable iStep equal (10000)
variable dumpStep equal (${f}*100)
variable dumpStep equal (10000*100)
variable runStep equal (${f}*100*${NCyle})
variable runStep equal (10000*100*${NCyle})
variable runStep equal (10000*100*8)

units       lj
atom_style  atomic
dimension 3
boundary     p p p
pair_style  lj/cut 2.5
read_data  ../data/T${T}.dat
read_data  ../data/T555.dat
Reading data file ...
  orthogonal box = (0.97250269 0.97250269 0.97250269) to (37.866338 37.866338 37.866338)
  1 by 1 by 5 MPI processor grid
  reading atoms ...
  70304 atoms
  reading velocities ...
  70304 velocities
  read_data CPU = 0.253 seconds
change_box all triclinic
Changing box ...
  triclinic box = (0.97250269 0.97250269 0.97250269) to (37.866338 37.866338 37.866338) with tilt (0 0 0)
mass 1 1
mass 2 1
pair_modify shift yes
pair_coeff  1 1 1 1
pair_coeff  1 2 1.5 0.8
pair_coeff  2 2 0.5 0.88


timestep 0.01
thermo ${iStep}
thermo 10000
reset_timestep 0
thermo_style custom step temp pe etotal press vol lx ly lz
fix             1 all nvt temp ${TLJ}  ${TLJ}  0.1
fix             1 all nvt temp 0.555  ${TLJ}  0.1
fix             1 all nvt temp 0.555  0.555  0.1
thermo_modify flush yes

fix dsf all deform 1 xy  wiggle 0.5  ${f}   units box
fix dsf all deform 1 xy  wiggle 0.5  10000   units box
fix ps1 all ave/time 1 1 ${iStep} c_thermo_press[1] c_thermo_press[2]  c_thermo_press[3] c_thermo_press[4]  c_thermo_press[5] c_thermo_press[6]  file  stress.${T}
fix ps1 all ave/time 1 1 10000 c_thermo_press[1] c_thermo_press[2]  c_thermo_press[3] c_thermo_press[4]  c_thermo_press[5] c_thermo_press[6]  file  stress.${T}
fix ps1 all ave/time 1 1 10000 c_thermo_press[1] c_thermo_press[2]  c_thermo_press[3] c_thermo_press[4]  c_thermo_press[5] c_thermo_press[6]  file  stress.555
dump            1 all custom ${dumpStep} dump.${T} id type x y z
dump            1 all custom 1000000 dump.${T} id type x y z
dump            1 all custom 1000000 dump.555 id type x y z
dump_modify 1 sort id
fix nodrift all momentum 1  linear 1 1 1
fix com_seed all recenter INIT INIT INIT shift all
run ${runStep}
run 8000000
Generated 0 of 1 mixed pair_coeff terms from geometric mixing rule
Per MPI rank memory allocation (min/avg/max) = 6.661 | 8.465 | 8.919 Mbytes
   Step          Temp          PotEng         TotEng         Press          Volume           Lx             Ly             Lz      
         0   0.55686359    -7.7034096     -6.8681261      4.5572707      50218.233      36.893836      36.893836      36.893836    
     10000   0.55745837    -7.7006865     -6.8645109      4.562759       50218.233      36.893836      36.893836      36.893836    
     20000   0.55785039    -7.6985209     -6.8617573      4.6012914      50218.233      36.893836      36.893836      36.893836    
     30000   0.55449957    -7.6943672     -6.8626297      4.6191645      50218.233      36.893836      36.893836      36.893836    
     40000   0.55618231    -7.699367      -6.8651054      4.5804404      50218.233      36.893836      36.893836      36.893836    
     50000   0.55622602    -7.6985288     -6.8642017      4.5942279      50218.233      36.893836      36.893836      36.893836    
     60000   0.55604841    -7.6958225     -6.8617617      4.6114147      50218.233      36.893836      36.893836      36.893836    
     70000   0.55439335    -7.6927535     -6.8611753      4.6247746      50218.233      36.893836      36.893836      36.893836    
     80000   0.5554434     -7.6990511     -6.8658979      4.5799439      50218.233      36.893836      36.893836      36.893836    
     90000   0.55438189    -7.7020345     -6.8704734      4.5652345      50218.233      36.893836      36.893836      36.893836    
    100000   0.55263922    -7.6981709     -6.8692239      4.5965101      50218.233      36.893836      36.893836      36.893836    
    110000   0.55650519    -7.6957253     -6.8609794      4.6009813      50218.233      36.893836      36.893836      36.893836    
    120000   0.55570059    -7.6989276     -6.8653886      4.5833239      50218.233      36.893836      36.893836      36.893836    
    130000   0.55298643    -7.6972283     -6.8677604      4.6004899      50218.233      36.893836      36.893836      36.893836    
    140000   0.55860679    -7.6894735     -6.8515753      4.6562233      50218.233      36.893836      36.893836      36.893836    
    150000   0.55552296    -7.6926066     -6.859334       4.6400532      50218.233      36.893836      36.893836      36.893836    
    160000   0.55526579    -7.6942177     -6.8613308      4.6272133      50218.233      36.893836      36.893836      36.893836    
    170000   0.55696575    -7.6923592     -6.8569224      4.6335083      50218.233      36.893836      36.893836      36.893836    
    180000   0.55446682    -7.6940887     -6.8624004      4.6279047      50218.233      36.893836      36.893836      36.893836    
    190000   0.55890534    -7.693212      -6.854866       4.6417397      50218.233      36.893836      36.893836      36.893836    
    200000   0.55344936    -7.6914895     -6.8613273      4.6450585      50218.233      36.893836      36.893836      36.893836    
    210000   0.55518179    -7.6928336     -6.8600728      4.6461758      50218.233      36.893836      36.893836      36.893836    
    220000   0.55323125    -7.68945       -6.859615       4.6660436      50218.233      36.893836      36.893836      36.893836    
    230000   0.55530457    -7.6943078     -6.8613628      4.6289135      50218.233      36.893836      36.893836      36.893836    
    240000   0.55459348    -7.6925271     -6.8606487      4.6337396      50218.233      36.893836      36.893836      36.893836    
    250000   0.5546961     -7.6891523     -6.85712        4.6709842      50218.233      36.893836      36.893836      36.893836    
    260000   0.55537025    -7.6941209     -6.8610774      4.6136744      50218.233      36.893836      36.893836      36.893836    
    270000   0.55641652    -7.6899168     -6.8553039      4.6377118      50218.233      36.893836      36.893836      36.893836    
    280000   0.5531563     -7.689416      -6.8596934      4.6526083      50218.233      36.893836      36.893836      36.893836    
    290000   0.55688044    -7.6924231     -6.8571143      4.63004        50218.233      36.893836      36.893836      36.893836    
    300000   0.55452443    -7.6955565     -6.8637817      4.615767       50218.233      36.893836      36.893836      36.893836    
    310000   0.55391319    -7.6970064     -6.8661484      4.6106669      50218.233      36.893836      36.893836      36.893836    
    320000   0.55602288    -7.6915674     -6.8575449      4.6352644      50218.233      36.893836      36.893836      36.893836    
    330000   0.55199788    -7.6935831     -6.865598       4.6105403      50218.233      36.893836      36.893836      36.893836    
    340000   0.55358389    -7.6902825     -6.8599185      4.6387284      50218.233      36.893836      36.893836      36.893836    
    350000   0.55566312    -7.6926515     -6.8591687      4.6301058      50218.233      36.893836      36.893836      36.893836    
    360000   0.55287134    -7.6927728     -6.8634776      4.6316369      50218.233      36.893836      36.893836      36.893836    
    370000   0.55305656    -7.6961952     -6.8666221      4.6058879      50218.233      36.893836      36.893836      36.893836    
    380000   0.55512109    -7.6940731     -6.8614034      4.6365131      50218.233      36.893836      36.893836      36.893836    
    390000   0.55753472    -7.6961231     -6.8598329      4.6035685      50218.233      36.893836      36.893836      36.893836    
    400000   0.55563382    -7.6871647     -6.8537259      4.6726634      50218.233      36.893836      36.893836      36.893836    
    410000   0.55668147    -7.6927077     -6.8576973      4.6355976      50218.233      36.893836      36.893836      36.893836    
    420000   0.55292366    -7.6908837     -6.86151        4.6528431      50218.233      36.893836      36.893836      36.893836    
    430000   0.5580751     -7.68819       -6.8510893      4.6728369      50218.233      36.893836      36.893836      36.893836    
    440000   0.5556327     -7.6951545     -6.8617173      4.621056       50218.233      36.893836      36.893836      36.893836    
    450000   0.55354717    -7.6932369     -6.862928       4.6181841      50218.233      36.893836      36.893836      36.893836    
    460000   0.55451663    -7.692808      -6.8610449      4.6483453      50218.233      36.893836      36.893836      36.893836    
    470000   0.55534242    -7.6867792     -6.8537774      4.685414       50218.233      36.893836      36.893836      36.893836    
    480000   0.55505343    -7.6945267     -6.8619584      4.6251667      50218.233      36.893836      36.893836      36.893836    
    490000   0.55811071    -7.6915776     -6.8544234      4.6406924      50218.233      36.893836      36.893836      36.893836    
    500000   0.55360718    -7.695449      -6.8650501      4.5995881      50218.233      36.893836      36.893836      36.893836    
    510000   0.55385958    -7.692213      -6.8614354      4.6269871      50218.233      36.893836      36.893836      36.893836    
    520000   0.55626597    -7.6940917     -6.8597046      4.6184502      50218.233      36.893836      36.893836      36.893836    
    530000   0.55524104    -7.694651      -6.8618013      4.6090445      50218.233      36.893836      36.893836      36.893836    
    540000   0.55579113    -7.6930178     -6.8593429      4.6261739      50218.233      36.893836      36.893836      36.893836    
    550000   0.55416395    -7.6917844     -6.8605503      4.6461682      50218.233      36.893836      36.893836      36.893836    
    560000   0.55437918    -7.6913581     -6.8598012      4.6410349      50218.233      36.893836      36.893836      36.893836    
    570000   0.5544175     -7.6931654     -6.861551       4.6293588      50218.233      36.893836      36.893836      36.893836    
    580000   0.55598841    -7.6883765     -6.8544058      4.6597222      50218.233      36.893836      36.893836      36.893836    
    590000   0.55629418    -7.6969059     -6.8624765      4.5913544      50218.233      36.893836      36.893836      36.893836    
    600000   0.55506154    -7.6931609     -6.8605805      4.628533       50218.233      36.893836      36.893836      36.893836    
    610000   0.55358453    -7.6942907     -6.8639257      4.6192606      50218.233      36.893836      36.893836      36.893836    
    620000   0.55418091    -7.6951694     -6.8639099      4.6268316      50218.233      36.893836      36.893836      36.893836    
    630000   0.55631587    -7.6958455     -6.8613836      4.6096448      50218.233      36.893836      36.893836      36.893836    
    640000   0.55353904    -7.6909461     -6.8606494      4.6394581      50218.233      36.893836      36.893836      36.893836    
    650000   0.55509285    -7.6979637     -6.8653363      4.5945182      50218.233      36.893836      36.893836      36.893836    
    660000   0.55521085    -7.6949973     -6.8621928      4.612537       50218.233      36.893836      36.893836      36.893836    
    670000   0.55378824    -7.6926217     -6.8619511      4.6350689      50218.233      36.893836      36.893836      36.893836    
    680000   0.55410926    -7.6973711     -6.866219       4.6108         50218.233      36.893836      36.893836      36.893836    
    690000   0.55097616    -7.6971881     -6.8707356      4.5999008      50218.233      36.893836      36.893836      36.893836    
    700000   0.55290409    -7.691897      -6.8625526      4.6317405      50218.233      36.893836      36.893836      36.893836    
    710000   0.55531067    -7.6897899     -6.8568358      4.6575595      50218.233      36.893836      36.893836      36.893836    
    720000   0.5575929     -7.6934679     -6.8570904      4.6280649      50218.233      36.893836      36.893836      36.893836    
    730000   0.5560043     -7.6926001     -6.8586055      4.649187       50218.233      36.893836      36.893836      36.893836    
    740000   0.55451715    -7.6916971     -6.8599333      4.6440205      50218.233      36.893836      36.893836      36.893836    
    750000   0.55523643    -7.689152      -6.8563092      4.6576582      50218.233      36.893836      36.893836      36.893836    
    760000   0.55517128    -7.6901944     -6.8574493      4.6594773      50218.233      36.893836      36.893836      36.893836    
    770000   0.55405152    -7.6908227     -6.8597573      4.6363966      50218.233      36.893836      36.893836      36.893836    
    780000   0.55284844    -7.692447      -6.8631862      4.631623       50218.233      36.893836      36.893836      36.893836    
    790000   0.5540138     -7.6907334     -6.8597246      4.6569308      50218.233      36.893836      36.893836      36.893836    
    800000   0.55550802    -7.6930995     -6.8598493      4.6470151      50218.233      36.893836      36.893836      36.893836    
    810000   0.55670514    -7.6947714     -6.8597256      4.6331256      50218.233      36.893836      36.893836      36.893836    
    820000   0.55081579    -7.6944995     -6.8682875      4.617579       50218.233      36.893836      36.893836      36.893836    
    830000   0.5556962     -7.6912461     -6.8577137      4.6609247      50218.233      36.893836      36.893836      36.893836    
    840000   0.55555818    -7.6937607     -6.8604353      4.6300371      50218.233      36.893836      36.893836      36.893836    
    850000   0.55378959    -7.6914735     -6.8608009      4.6465666      50218.233      36.893836      36.893836      36.893836    
    860000   0.55682958    -7.6924341     -6.8572016      4.6383395      50218.233      36.893836      36.893836      36.893836    
    870000   0.55372646    -7.6869238     -6.8563459      4.6765035      50218.233      36.893836      36.893836      36.893836    
    880000   0.55559792    -7.6961645     -6.8627795      4.6105416      50218.233      36.893836      36.893836      36.893836    
    890000   0.5552987     -7.6928831     -6.8599469      4.6370014      50218.233      36.893836      36.893836      36.893836    
    900000   0.55416489    -7.6928244     -6.8615889      4.625691       50218.233      36.893836      36.893836      36.893836    
    910000   0.55538711    -7.6938741     -6.8608053      4.6267957      50218.233      36.893836      36.893836      36.893836    
    920000   0.55302795    -7.6894321     -6.859902       4.6522589      50218.233      36.893836      36.893836      36.893836    
    930000   0.55411851    -7.6883304     -6.8571645      4.6536778      50218.233      36.893836      36.893836      36.893836    
    940000   0.55628948    -7.6896653     -6.855243       4.6684344      50218.233      36.893836      36.893836      36.893836    
    950000   0.55625218    -7.6935693     -6.8592029      4.6146896      50218.233      36.893836      36.893836      36.893836    
    960000   0.55391777    -7.6912905     -6.8604257      4.6509046      50218.233      36.893836      36.893836      36.893836    
    970000   0.5533365     -7.6888817     -6.8588887      4.6706265      50218.233      36.893836      36.893836      36.893836    
    980000   0.55271827    -7.6897931     -6.8607275      4.649139       50218.233      36.893836      36.893836      36.893836    
    990000   0.5521919     -7.6907853     -6.8625092      4.6480361      50218.233      36.893836      36.893836      36.893836    
   1000000   0.55282731    -7.6927302     -6.863501       4.6369009      50218.233      36.893836      36.893836      36.893836    
   1010000   0.55473939    -7.6963579     -6.8642606      4.6146447      50218.233      36.893836      36.893836      36.893836    
   1020000   0.55661134    -7.6932307     -6.8583255      4.6297756      50218.233      36.893836      36.893836      36.893836    
   1030000   0.5536405     -7.6893988     -6.8589499      4.6604268      50218.233      36.893836      36.893836      36.893836    
   1040000   0.55367999    -7.6903078     -6.8597996      4.6455758      50218.233      36.893836      36.893836      36.893836    
   1050000   0.55633674    -7.6920316     -6.8575384      4.6261734      50218.233      36.893836      36.893836      36.893836    
   1060000   0.55354307    -7.6912076     -6.8609048      4.6418465      50218.233      36.893836      36.893836      36.893836    
   1070000   0.55693392    -7.6928704     -6.8574814      4.6565122      50218.233      36.893836      36.893836      36.893836    
   1080000   0.55473867    -7.6913039     -6.8592077      4.6300116      50218.233      36.893836      36.893836      36.893836    
   1090000   0.55202973    -7.6892586     -6.8612258      4.646106       50218.233      36.893836      36.893836      36.893836    
   1100000   0.55362866    -7.6888892     -6.858458       4.6746788      50218.233      36.893836      36.893836      36.893836    
   1110000   0.55571877    -7.6922196     -6.8586533      4.632999       50218.233      36.893836      36.893836      36.893836    
   1120000   0.55441012    -7.6922493     -6.860646       4.6360408      50218.233      36.893836      36.893836      36.893836    
   1130000   0.55231907    -7.6939726     -6.8655058      4.6145827      50218.233      36.893836      36.893836      36.893836    
   1140000   0.5537693     -7.6881329     -6.8574907      4.6596713      50218.233      36.893836      36.893836      36.893836    
   1150000   0.55457795    -7.6917887     -6.8599336      4.6363867      50218.233      36.893836      36.893836      36.893836    
   1160000   0.55507653    -7.6897795     -6.8571765      4.6446067      50218.233      36.893836      36.893836      36.893836    
   1170000   0.55503856    -7.6917996     -6.8592536      4.640678       50218.233      36.893836      36.893836      36.893836    
   1180000   0.55500724    -7.6959503     -6.8634513      4.6057491      50218.233      36.893836      36.893836      36.893836    
   1190000   0.5546525     -7.691226      -6.8592591      4.638781       50218.233      36.893836      36.893836      36.893836    
   1200000   0.55588731    -7.6917804     -6.8579613      4.6312756      50218.233      36.893836      36.893836      36.893836    
   1210000   0.55707809    -7.6948198     -6.8592145      4.6187501      50218.233      36.893836      36.893836      36.893836    
   1220000   0.55522787    -7.6918738     -6.8590438      4.6332359      50218.233      36.893836      36.893836      36.893836    
   1230000   0.55634285    -7.6901367     -6.8556343      4.6609216      50218.233      36.893836      36.893836      36.893836    
   1240000   0.54888845    -7.6931924     -6.8698715      4.6295635      50218.233      36.893836      36.893836      36.893836    
   1250000   0.55157891    -7.6893116     -6.861955       4.6427913      50218.233      36.893836      36.893836      36.893836    
   1260000   0.55334018    -7.6928501     -6.8628517      4.6204023      50218.233      36.893836      36.893836      36.893836    
   1270000   0.55278317    -7.6923969     -6.8632339      4.6334662      50218.233      36.893836      36.893836      36.893836    
   1280000   0.55474616    -7.6953105     -6.863203       4.6025544      50218.233      36.893836      36.893836      36.893836    
   1290000   0.55523427    -7.6943987     -6.8615592      4.6283338      50218.233      36.893836      36.893836      36.893836    
   1300000   0.55149326    -7.6924304     -6.8652023      4.6326182      50218.233      36.893836      36.893836      36.893836    
   1310000   0.55440518    -7.6947322     -6.8631363      4.6214394      50218.233      36.893836      36.893836      36.893836    
   1320000   0.55687373    -7.694018      -6.8587193      4.6220411      50218.233      36.893836      36.893836      36.893836    
   1330000   0.55546876    -7.6906459     -6.8574546      4.6532872      50218.233      36.893836      36.893836      36.893836    
   1340000   0.55584998    -7.6935345     -6.8597714      4.6125968      50218.233      36.893836      36.893836      36.893836    
   1350000   0.55660786    -7.6949323     -6.8600324      4.6096674      50218.233      36.893836      36.893836      36.893836    
   1360000   0.55424364    -7.6912337     -6.85988        4.6478858      50218.233      36.893836      36.893836      36.893836    
   1370000   0.55747609    -7.693358      -6.8571558      4.6334999      50218.233      36.893836      36.893836      36.893836    
   1380000   0.55194536    -7.6938266     -6.8659203      4.6398578      50218.233      36.893836      36.893836      36.893836    
   1390000   0.55364465    -7.6913797     -6.8609245      4.6402156      50218.233      36.893836      36.893836      36.893836    
   1400000   0.55098016    -7.6974269     -6.8709684      4.5920695      50218.233      36.893836      36.893836      36.893836    
   1410000   0.55351099    -7.6912134     -6.8609588      4.6300988      50218.233      36.893836      36.893836      36.893836    
   1420000   0.55360677    -7.6972485     -6.8668501      4.602296       50218.233      36.893836      36.893836      36.893836    
   1430000   0.55541755    -7.6931928     -6.8600783      4.6289647      50218.233      36.893836      36.893836      36.893836    
   1440000   0.55416882    -7.6894926     -6.8582512      4.6538273      50218.233      36.893836      36.893836      36.893836    
   1450000   0.55865304    -7.6902709     -6.8523033      4.6571757      50218.233      36.893836      36.893836      36.893836    
   1460000   0.55579609    -7.6898734     -6.8561911      4.6499924      50218.233      36.893836      36.893836      36.893836    
   1470000   0.55517208    -7.6913455     -6.8585992      4.6438445      50218.233      36.893836      36.893836      36.893836    
   1480000   0.55452831    -7.6949884     -6.8632077      4.6153387      50218.233      36.893836      36.893836      36.893836    
   1490000   0.55523936    -7.6855724     -6.8527252      4.6797532      50218.233      36.893836      36.893836      36.893836    
   1500000   0.5540831     -7.6945771     -6.8634642      4.6100522      50218.233      36.893836      36.893836      36.893836    
   1510000   0.55374293    -7.6914467     -6.8608442      4.653094       50218.233      36.893836      36.893836      36.893836    
   1520000   0.55300796    -7.6890004     -6.8595003      4.6671879      50218.233      36.893836      36.893836      36.893836    
   1530000   0.55926464    -7.6966701     -6.8577851      4.6142318      50218.233      36.893836      36.893836      36.893836    
   1540000   0.55522119    -7.6961809     -6.863361       4.6049251      50218.233      36.893836      36.893836      36.893836    
   1550000   0.55643914    -7.6954852     -6.8608384      4.6127676      50218.233      36.893836      36.893836      36.893836    
   1560000   0.5552703     -7.6943394     -6.8614458      4.6220003      50218.233      36.893836      36.893836      36.893836    
   1570000   0.55512047    -7.6948892     -6.8622203      4.6213197      50218.233      36.893836      36.893836      36.893836    
   1580000   0.55119038    -7.6923972     -6.8656234      4.6384175      50218.233      36.893836      36.893836      36.893836    
   1590000   0.55437955    -7.6915251     -6.8599676      4.644296       50218.233      36.893836      36.893836      36.893836    
   1600000   0.55763549    -7.6930729     -6.8566316      4.6294451      50218.233      36.893836      36.893836      36.893836    
   1610000   0.55592295    -7.6922571     -6.8583846      4.6441577      50218.233      36.893836      36.893836      36.893836    
   1620000   0.55373689    -7.6886301     -6.8580366      4.6671336      50218.233      36.893836      36.893836      36.893836    
   1630000   0.5573636     -7.6907101     -6.8546766      4.6521363      50218.233      36.893836      36.893836      36.893836    
   1640000   0.55521356    -7.6907479     -6.8579394      4.6574915      50218.233      36.893836      36.893836      36.893836    
   1650000   0.55580703    -7.697992      -6.8642933      4.6000159      50218.233      36.893836      36.893836      36.893836    
   1660000   0.55700687    -7.6927583     -6.8572599      4.645351       50218.233      36.893836      36.893836      36.893836    
   1670000   0.55808042    -7.6943131     -6.8572044      4.6141783      50218.233      36.893836      36.893836      36.893836    
   1680000   0.55213599    -7.6971099     -6.8689177      4.6082184      50218.233      36.893836      36.893836      36.893836    
   1690000   0.55542816    -7.6947195     -6.8615891      4.6263861      50218.233      36.893836      36.893836      36.893836    
   1700000   0.55298387    -7.6962744     -6.8668104      4.6057609      50218.233      36.893836      36.893836      36.893836    
   1710000   0.55337016    -7.6924911     -6.8624477      4.6378565      50218.233      36.893836      36.893836      36.893836    
   1720000   0.5547749     -7.6879043     -6.8557537      4.6657722      50218.233      36.893836      36.893836      36.893836    
   1730000   0.55126778    -7.6926489     -6.865759       4.6223055      50218.233      36.893836      36.893836      36.893836    
   1740000   0.55422473    -7.6958327     -6.8645075      4.6214602      50218.233      36.893836      36.893836      36.893836    
   1750000   0.55678481    -7.6940439     -6.8588785      4.6357786      50218.233      36.893836      36.893836      36.893836    
   1760000   0.55598231    -7.6927619     -6.8588003      4.6358533      50218.233      36.893836      36.893836      36.893836    
   1770000   0.55542373    -7.6964121     -6.8632884      4.608716       50218.233      36.893836      36.893836      36.893836    
   1780000   0.55808176    -7.6943149     -6.8572041      4.6208883      50218.233      36.893836      36.893836      36.893836    
   1790000   0.55507399    -7.6979075     -6.8653084      4.5987566      50218.233      36.893836      36.893836      36.893836    
   1800000   0.55342892    -7.6918166     -6.8616851      4.6376944      50218.233      36.893836      36.893836      36.893836    
   1810000   0.55365084    -7.6935217     -6.8630573      4.624124       50218.233      36.893836      36.893836      36.893836    
   1820000   0.55616248    -7.6914024     -6.8571705      4.6560898      50218.233      36.893836      36.893836      36.893836    
   1830000   0.55348351    -7.6946703     -6.8644569      4.6074982      50218.233      36.893836      36.893836      36.893836    
   1840000   0.55550075    -7.6941087     -6.8608694      4.6253777      50218.233      36.893836      36.893836      36.893836    
   1850000   0.55403142    -7.6955203     -6.864485       4.6178366      50218.233      36.893836      36.893836      36.893836    
   1860000   0.55344941    -7.6961177     -6.8659554      4.6073952      50218.233      36.893836      36.893836      36.893836    
   1870000   0.55578786    -7.6940863     -6.8604164      4.6350527      50218.233      36.893836      36.893836      36.893836    
   1880000   0.55703774    -7.6947002     -6.8591555      4.6079187      50218.233      36.893836      36.893836      36.893836    
   1890000   0.55723911    -7.6960993     -6.8602525      4.6071819      50218.233      36.893836      36.893836      36.893836    
   1900000   0.55535428    -7.6931994     -6.8601798      4.6410555      50218.233      36.893836      36.893836      36.893836    
   1910000   0.5573714     -7.6955658     -6.8595206      4.6154829      50218.233      36.893836      36.893836      36.893836    
   1920000   0.5576307     -7.6968086     -6.8603744      4.6037438      50218.233      36.893836      36.893836      36.893836    
   1930000   0.55506643    -7.6996267     -6.8670389      4.5780836      50218.233      36.893836      36.893836      36.893836    
   1940000   0.55545932    -7.6957888     -6.8626117      4.616004       50218.233      36.893836      36.893836      36.893836    
   1950000   0.55529237    -7.6955628     -6.8626361      4.6142638      50218.233      36.893836      36.893836      36.893836    
   1960000   0.55621592    -7.6981301     -6.863818       4.5839008      50218.233      36.893836      36.893836      36.893836    
   1970000   0.55278295    -7.6930581     -6.8638955      4.635127       50218.233      36.893836      36.893836      36.893836    
   1980000   0.55743425    -7.6902188     -6.8540793      4.6645718      50218.233      36.893836      36.893836      36.893836    
   1990000   0.55383867    -7.6955623     -6.8648161      4.6229382      50218.233      36.893836      36.893836      36.893836    
   2000000   0.55409313    -7.6949436     -6.8638158      4.6220561      50218.233      36.893836      36.893836      36.893836    
   2010000   0.55873065    -7.6955577     -6.8574737      4.622428       50218.233      36.893836      36.893836      36.893836    
   2020000   0.55398415    -7.6986984     -6.867734       4.6002216      50218.233      36.893836      36.893836      36.893836    
   2030000   0.55332919    -7.6975257     -6.8675438      4.6006242      50218.233      36.893836      36.893836      36.893836    
   2040000   0.55933861    -7.6993652     -6.8603692      4.5969194      50218.233      36.893836      36.893836      36.893836    
   2050000   0.55317067    -7.6905723     -6.8608281      4.6520753      50218.233      36.893836      36.893836      36.893836    
   2060000   0.55864011    -7.6964337     -6.8584854      4.6085992      50218.233      36.893836      36.893836      36.893836    
   2070000   0.55443123    -7.6882098     -6.8565748      4.6498109      50218.233      36.893836      36.893836      36.893836    
   2080000   0.55299377    -7.6960848     -6.866606       4.6072739      50218.233      36.893836      36.893836      36.893836    
   2090000   0.55597628    -7.6940265     -6.860074       4.6276923      50218.233      36.893836      36.893836      36.893836    
   2100000   0.5561298     -7.6933505     -6.8591677      4.6382323      50218.233      36.893836      36.893836      36.893836    
   2110000   0.55540294    -7.6912017     -6.8581091      4.6545742      50218.233      36.893836      36.893836      36.893836    
   2120000   0.5513469     -7.6940671     -6.8670585      4.6331224      50218.233      36.893836      36.893836      36.893836    
   2130000   0.55574029    -7.6957526     -6.862154       4.6104183      50218.233      36.893836      36.893836      36.893836    
   2140000   0.55517938    -7.6973852     -6.8646279      4.6041953      50218.233      36.893836      36.893836      36.893836    
   2150000   0.55807888    -7.6944554     -6.857349       4.6320919      50218.233      36.893836      36.893836      36.893836    
   2160000   0.55363609    -7.6914773     -6.861035       4.6370881      50218.233      36.893836      36.893836      36.893836    
   2170000   0.55592212    -7.6887697     -6.8548984      4.671422       50218.233      36.893836      36.893836      36.893836    
   2180000   0.5532693     -7.6944184     -6.8645263      4.6361808      50218.233      36.893836      36.893836      36.893836    
   2190000   0.55528666    -7.6939262     -6.8610081      4.6340528      50218.233      36.893836      36.893836      36.893836    
   2200000   0.55442799    -7.6898523     -6.8582221      4.6486992      50218.233      36.893836      36.893836      36.893836    
   2210000   0.55526394    -7.6940325     -6.8611485      4.6221         50218.233      36.893836      36.893836      36.893836    
   2220000   0.55439169    -7.6947821     -6.8632064      4.6243202      50218.233      36.893836      36.893836      36.893836    
   2230000   0.55487338    -7.6936245     -6.8613263      4.6336351      50218.233      36.893836      36.893836      36.893836    
   2240000   0.55536939    -7.6886011     -6.8555589      4.6638029      50218.233      36.893836      36.893836      36.893836    
   2250000   0.55296328    -7.6970347     -6.8676016      4.6058901      50218.233      36.893836      36.893836      36.893836    
   2260000   0.5573561     -7.6929058     -6.8568836      4.6442479      50218.233      36.893836      36.893836      36.893836    
   2270000   0.5553646     -7.6925499     -6.8595148      4.6259699      50218.233      36.893836      36.893836      36.893836    
   2280000   0.55596222    -7.6914955     -6.857564       4.6499453      50218.233      36.893836      36.893836      36.893836    
   2290000   0.55783846    -7.6927304     -6.8559846      4.6389661      50218.233      36.893836      36.893836      36.893836    
   2300000   0.55509974    -7.6972686     -6.8646309      4.6154695      50218.233      36.893836      36.893836      36.893836    
   2310000   0.55303369    -7.6918848     -6.8623461      4.6329666      50218.233      36.893836      36.893836      36.893836    
   2320000   0.557399      -7.6896105     -6.8535239      4.6602991      50218.233      36.893836      36.893836      36.893836    
   2330000   0.55657374    -7.6923613     -6.8575126      4.6411952      50218.233      36.893836      36.893836      36.893836    
   2340000   0.55493431    -7.6944391     -6.8620494      4.6304439      50218.233      36.893836      36.893836      36.893836    
   2350000   0.55487943    -7.6902818     -6.8579745      4.6555306      50218.233      36.893836      36.893836      36.893836    
   2360000   0.55434983    -7.6948966     -6.8633836      4.6222736      50218.233      36.893836      36.893836      36.893836    
   2370000   0.55521144    -7.6912021     -6.8583967      4.6505626      50218.233      36.893836      36.893836      36.893836    
   2380000   0.55354876    -7.6927184     -6.8624071      4.6335584      50218.233      36.893836      36.893836      36.893836    
   2390000   0.55417832    -7.6894581     -6.8582024      4.6549535      50218.233      36.893836      36.893836      36.893836    
   2400000   0.55586065    -7.6914487     -6.8576696      4.6522404      50218.233      36.893836      36.893836      36.893836    
   2410000   0.55282284    -7.695059      -6.8658365      4.6176578      50218.233      36.893836      36.893836      36.893836    
   2420000   0.5563291     -7.6989171     -6.8644354      4.5875758      50218.233      36.893836      36.893836      36.893836    
   2430000   0.55506648    -7.6916612     -6.8590733      4.6567309      50218.233      36.893836      36.893836      36.893836    
   2440000   0.55410683    -7.6960426     -6.8648942      4.616004       50218.233      36.893836      36.893836      36.893836    
   2450000   0.5571542     -7.6959569     -6.8602375      4.6266021      50218.233      36.893836      36.893836      36.893836    
   2460000   0.55616699    -7.6929231     -6.8586845      4.6396888      50218.233      36.893836      36.893836      36.893836    
   2470000   0.55371655    -7.698388      -6.867825       4.593671       50218.233      36.893836      36.893836      36.893836    
   2480000   0.55412941    -7.6892189     -6.8580367      4.6629852      50218.233      36.893836      36.893836      36.893836    
   2490000   0.55604469    -7.6914012     -6.8573461      4.6476386      50218.233      36.893836      36.893836      36.893836    
   2500000   0.55443031    -7.6882806     -6.856647       4.6697464      50218.233      36.893836      36.893836      36.893836    
   2510000   0.55651142    -7.690953      -6.8561977      4.6385397      50218.233      36.893836      36.893836      36.893836    
   2520000   0.55604969    -7.6903529     -6.8562902      4.6653429      50218.233      36.893836      36.893836      36.893836    
   2530000   0.55632249    -7.6916323     -6.8571604      4.6486226      50218.233      36.893836      36.893836      36.893836    
   2540000   0.55580145    -7.691375      -6.8576847      4.6482755      50218.233      36.893836      36.893836      36.893836    
   2550000   0.55226091    -7.6932328     -6.8648532      4.6279311      50218.233      36.893836      36.893836      36.893836    
   2560000   0.5531256     -7.6935764     -6.8638998      4.6276131      50218.233      36.893836      36.893836      36.893836    
   2570000   0.55711572    -7.6909961     -6.8553344      4.6532084      50218.233      36.893836      36.893836      36.893836    
   2580000   0.55597578    -7.6925742     -6.8586224      4.6385519      50218.233      36.893836      36.893836      36.893836    
   2590000   0.55422061    -7.6929205     -6.8616014      4.640033       50218.233      36.893836      36.893836      36.893836    
   2600000   0.55397902    -7.6887735     -6.8578168      4.6611479      50218.233      36.893836      36.893836      36.893836    
   2610000   0.55302382    -7.6902676     -6.8607437      4.6573057      50218.233      36.893836      36.893836      36.893836    
   2620000   0.55311182    -7.6913731     -6.8617172      4.6403505      50218.233      36.893836      36.893836      36.893836    
   2630000   0.55769241    -7.6871511     -6.8506243      4.6744269      50218.233      36.893836      36.893836      36.893836    
   2640000   0.55374464    -7.6862038     -6.8555987      4.6832054      50218.233      36.893836      36.893836      36.893836    
   2650000   0.55553894    -7.6889535     -6.8556569      4.6665492      50218.233      36.893836      36.893836      36.893836    
   2660000   0.55630541    -7.6961905     -6.8617442      4.6065464      50218.233      36.893836      36.893836      36.893836    
   2670000   0.55466958    -7.6890563     -6.8570638      4.6625512      50218.233      36.893836      36.893836      36.893836    
   2680000   0.5561184     -7.694184      -6.8600183      4.6395454      50218.233      36.893836      36.893836      36.893836    
   2690000   0.55771163    -7.6886814     -6.8521258      4.6559676      50218.233      36.893836      36.893836      36.893836    
   2700000   0.55541446    -7.6908301     -6.8577203      4.6393793      50218.233      36.893836      36.893836      36.893836    
   2710000   0.55018185    -7.6919947     -6.8667336      4.6291994      50218.233      36.893836      36.893836      36.893836    
   2720000   0.55542186    -7.6874969     -6.854376       4.6698701      50218.233      36.893836      36.893836      36.893836    
   2730000   0.55691261    -7.6936293     -6.8582723      4.644035       50218.233      36.893836      36.893836      36.893836    
   2740000   0.55559076    -7.6901396     -6.8567653      4.6524565      50218.233      36.893836      36.893836      36.893836    
   2750000   0.55622677    -7.6856784     -6.8513501      4.6821951      50218.233      36.893836      36.893836      36.893836    
   2760000   0.55368884    -7.6907068     -6.8601854      4.6405578      50218.233      36.893836      36.893836      36.893836    
   2770000   0.55303195    -7.6907292     -6.8611931      4.643723       50218.233      36.893836      36.893836      36.893836    
   2780000   0.55574414    -7.6885908     -6.8549864      4.6504578      50218.233      36.893836      36.893836      36.893836    
   2790000   0.55486905    -7.6866605     -6.8543687      4.6730239      50218.233      36.893836      36.893836      36.893836    
   2800000   0.55611498    -7.6929996     -6.858839       4.6263436      50218.233      36.893836      36.893836      36.893836    
   2810000   0.55535863    -7.6940592     -6.8610331      4.6320902      50218.233      36.893836      36.893836      36.893836    
   2820000   0.555286      -7.692469      -6.8595519      4.6368428      50218.233      36.893836      36.893836      36.893836    
   2830000   0.55592545    -7.6953534     -6.8614771      4.6182295      50218.233      36.893836      36.893836      36.893836    
   2840000   0.55255821    -7.6924823     -6.8636568      4.6301783      50218.233      36.893836      36.893836      36.893836    
   2850000   0.55748445    -7.6908698     -6.8546551      4.653594       50218.233      36.893836      36.893836      36.893836    
   2860000   0.55743265    -7.6913595     -6.8552225      4.6323333      50218.233      36.893836      36.893836      36.893836    
   2870000   0.55332085    -7.688366      -6.8583965      4.663438       50218.233      36.893836      36.893836      36.893836    
   2880000   0.55723716    -7.6904712     -6.8546274      4.6503246      50218.233      36.893836      36.893836      36.893836    
   2890000   0.5563505     -7.6875719     -6.853058       4.6727155      50218.233      36.893836      36.893836      36.893836    
   2900000   0.55315608    -7.6910816     -6.8613593      4.6369304      50218.233      36.893836      36.893836      36.893836    
   2910000   0.55153459    -7.6926879     -6.8653978      4.6305336      50218.233      36.893836      36.893836      36.893836    
   2920000   0.55720592    -7.6901643     -6.8543673      4.6467724      50218.233      36.893836      36.893836      36.893836    
   2930000   0.5559296     -7.69133       -6.8574475      4.6412814      50218.233      36.893836      36.893836      36.893836    
   2940000   0.55185237    -7.694415      -6.8666482      4.6249681      50218.233      36.893836      36.893836      36.893836    
   2950000   0.55560463    -7.6934155     -6.8600204      4.6322729      50218.233      36.893836      36.893836      36.893836    
   2960000   0.55710976    -7.688078      -6.8524252      4.6659276      50218.233      36.893836      36.893836      36.893836    
   2970000   0.55686012    -7.6951431     -6.8598649      4.6244928      50218.233      36.893836      36.893836      36.893836    
   2980000   0.55653753    -7.6965475     -6.8617531      4.6142712      50218.233      36.893836      36.893836      36.893836    
   2990000   0.55332976    -7.6905922     -6.8606094      4.6354851      50218.233      36.893836      36.893836      36.893836    
   3000000   0.55554854    -7.6915119     -6.8582009      4.6435354      50218.233      36.893836      36.893836      36.893836    
   3010000   0.55153816    -7.6953393     -6.8680438      4.6215325      50218.233      36.893836      36.893836      36.893836    
   3020000   0.55459233    -7.6982463     -6.8663696      4.6008994      50218.233      36.893836      36.893836      36.893836    
   3030000   0.55557697    -7.6971565     -6.8638029      4.6074198      50218.233      36.893836      36.893836      36.893836    
   3040000   0.55489106    -7.6917749     -6.8594501      4.6404517      50218.233      36.893836      36.893836      36.893836    
   3050000   0.55781224    -7.6949621     -6.8582556      4.6275933      50218.233      36.893836      36.893836      36.893836    
   3060000   0.55343602    -7.6918474     -6.8617052      4.6527677      50218.233      36.893836      36.893836      36.893836    
   3070000   0.55900502    -7.6905445     -6.8520489      4.663624       50218.233      36.893836      36.893836      36.893836    
   3080000   0.5550248     -7.6898096     -6.8572843      4.6660568      50218.233      36.893836      36.893836      36.893836    
   3090000   0.55445876    -7.6898957     -6.8582194      4.6731762      50218.233      36.893836      36.893836      36.893836    
   3100000   0.55571366    -7.692921      -6.8593624      4.6409888      50218.233      36.893836      36.893836      36.893836    
   3110000   0.55441018    -7.6919991     -6.8603957      4.6371917      50218.233      36.893836      36.893836      36.893836    
   3120000   0.55532898    -7.691485      -6.8585034      4.6390484      50218.233      36.893836      36.893836      36.893836    
   3130000   0.55449621    -7.6928653     -6.8611328      4.6304773      50218.233      36.893836      36.893836      36.893836    
   3140000   0.55435427    -7.6916473     -6.8601277      4.6373121      50218.233      36.893836      36.893836      36.893836    
   3150000   0.55463724    -7.6942096     -6.8622656      4.633167       50218.233      36.893836      36.893836      36.893836    
   3160000   0.55790165    -7.6923825     -6.8555419      4.6449748      50218.233      36.893836      36.893836      36.893836    
   3170000   0.55521646    -7.6962036     -6.8633907      4.6294047      50218.233      36.893836      36.893836      36.893836    
   3180000   0.5559608     -7.6924394     -6.8585101      4.6486972      50218.233      36.893836      36.893836      36.893836    
   3190000   0.55477566    -7.6900078     -6.8578562      4.6605051      50218.233      36.893836      36.893836      36.893836    
   3200000   0.55626277    -7.690422      -6.8560397      4.6583315      50218.233      36.893836      36.893836      36.893836    
   3210000   0.55389728    -7.6872083     -6.8563742      4.6753386      50218.233      36.893836      36.893836      36.893836    
   3220000   0.55635423    -7.6929104     -6.8583909      4.6349319      50218.233      36.893836      36.893836      36.893836    
   3230000   0.55155436    -7.686875      -6.8595553      4.664861       50218.233      36.893836      36.893836      36.893836    
   3240000   0.55136051    -7.6903663     -6.8633373      4.6509233      50218.233      36.893836      36.893836      36.893836    
   3250000   0.55724932    -7.6904423     -6.8545802      4.6602875      50218.233      36.893836      36.893836      36.893836    
   3260000   0.55755681    -7.6889071     -6.8525838      4.6663234      50218.233      36.893836      36.893836      36.893836    
   3270000   0.55301092    -7.696925      -6.8674205      4.5973         50218.233      36.893836      36.893836      36.893836    
   3280000   0.55589059    -7.6955529     -6.8617289      4.6323618      50218.233      36.893836      36.893836      36.893836    
   3290000   0.55477491    -7.6917341     -6.8595836      4.6425577      50218.233      36.893836      36.893836      36.893836    
   3300000   0.55750172    -7.6941861     -6.8579454      4.6312952      50218.233      36.893836      36.893836      36.893836    
   3310000   0.55713504    -7.6924755     -6.8567849      4.6400906      50218.233      36.893836      36.893836      36.893836    
   3320000   0.55340307    -7.6928384     -6.8627456      4.6255143      50218.233      36.893836      36.893836      36.893836    
   3330000   0.55616355    -7.6947222     -6.8604888      4.6192114      50218.233      36.893836      36.893836      36.893836    
   3340000   0.55423122    -7.6891655     -6.8578305      4.6764599      50218.233      36.893836      36.893836      36.893836    
   3350000   0.55628711    -7.6949192     -6.8605004      4.6210718      50218.233      36.893836      36.893836      36.893836    
   3360000   0.55411431    -7.6930116     -6.861852       4.6226832      50218.233      36.893836      36.893836      36.893836    
   3370000   0.55589541    -7.6901458     -6.8563146      4.656338       50218.233      36.893836      36.893836      36.893836    
   3380000   0.55872117    -7.694092      -6.8560221      4.6302145      50218.233      36.893836      36.893836      36.893836    
   3390000   0.55662898    -7.6898089     -6.8548773      4.6588368      50218.233      36.893836      36.893836      36.893836    
   3400000   0.55455185    -7.6933062     -6.8614902      4.6343345      50218.233      36.893836      36.893836      36.893836    
   3410000   0.5544606     -7.6904586     -6.8587795      4.6609757      50218.233      36.893836      36.893836      36.893836    
   3420000   0.55540527    -7.6943429     -6.8612469      4.6250195      50218.233      36.893836      36.893836      36.893836    
   3430000   0.55485443    -7.6936066     -6.8613368      4.6312027      50218.233      36.893836      36.893836      36.893836    
   3440000   0.55554059    -7.688469      -6.85517        4.6776292      50218.233      36.893836      36.893836      36.893836    
   3450000   0.55722395    -7.6926833     -6.8568593      4.6442588      50218.233      36.893836      36.893836      36.893836    
   3460000   0.55487694    -7.6921857     -6.8598821      4.6414336      50218.233      36.893836      36.893836      36.893836    
   3470000   0.55871204    -7.69408       -6.8560239      4.6202586      50218.233      36.893836      36.893836      36.893836    
   3480000   0.55514683    -7.6967037     -6.8639953      4.5999328      50218.233      36.893836      36.893836      36.893836    
   3490000   0.55517822    -7.6969829     -6.8642274      4.5982294      50218.233      36.893836      36.893836      36.893836    
   3500000   0.55555236    -7.691956      -6.8586393      4.6426895      50218.233      36.893836      36.893836      36.893836    
   3510000   0.55672357    -7.6919525     -6.8568791      4.6505414      50218.233      36.893836      36.893836      36.893836    
   3520000   0.55537051    -7.6930057     -6.8599617      4.6351498      50218.233      36.893836      36.893836      36.893836    
   3530000   0.55304135    -7.6956275     -6.8660773      4.6106703      50218.233      36.893836      36.893836      36.893836    
   3540000   0.55480752    -7.6952567     -6.8630573      4.6189245      50218.233      36.893836      36.893836      36.893836    
   3550000   0.55314132    -7.6939419     -6.8642418      4.6257046      50218.233      36.893836      36.893836      36.893836    
   3560000   0.55607834    -7.696733      -6.8626273      4.6058643      50218.233      36.893836      36.893836      36.893836    
   3570000   0.55422914    -7.6937882     -6.8624563      4.6410697      50218.233      36.893836      36.893836      36.893836    
   3580000   0.55252812    -7.7005147     -6.8717343      4.5733578      50218.233      36.893836      36.893836      36.893836    
   3590000   0.55354995    -7.6962659     -6.8659528      4.6087623      50218.233      36.893836      36.893836      36.893836    
   3600000   0.55803182    -7.697586      -6.8605502      4.6034093      50218.233      36.893836      36.893836      36.893836    
   3610000   0.55674593    -7.6939474     -6.8588404      4.6202977      50218.233      36.893836      36.893836      36.893836    
   3620000   0.55471582    -7.6912972     -6.8592353      4.6481249      50218.233      36.893836      36.893836      36.893836    
   3630000   0.55504065    -7.6928761     -6.860327       4.6221171      50218.233      36.893836      36.893836      36.893836    
   3640000   0.55660343    -7.6989482     -6.8640549      4.5785384      50218.233      36.893836      36.893836      36.893836    
   3650000   0.55875549    -7.6946872     -6.8565658      4.6198469      50218.233      36.893836      36.893836      36.893836    
   3660000   0.55562309    -7.6915342     -6.8581114      4.6323073      50218.233      36.893836      36.893836      36.893836    
   3670000   0.55624518    -7.6964608     -6.8621049      4.6023481      50218.233      36.893836      36.893836      36.893836    
   3680000   0.5553833     -7.6939012     -6.8608381      4.6221505      50218.233      36.893836      36.893836      36.893836    
   3690000   0.55656832    -7.6934185     -6.8585779      4.6294395      50218.233      36.893836      36.893836      36.893836    
   3700000   0.55761494    -7.6926478     -6.8562373      4.6461559      50218.233      36.893836      36.893836      36.893836    
   3710000   0.55355418    -7.6903007     -6.8599812      4.6442193      50218.233      36.893836      36.893836      36.893836    
   3720000   0.55632912    -7.6905857     -6.8561039      4.6421986      50218.233      36.893836      36.893836      36.893836    
   3730000   0.5547082     -7.6927632     -6.8607128      4.6264017      50218.233      36.893836      36.893836      36.893836    
   3740000   0.55396787    -7.6958533     -6.8649133      4.6179565      50218.233      36.893836      36.893836      36.893836    
   3750000   0.55816305    -7.6897122     -6.8524796      4.6562569      50218.233      36.893836      36.893836      36.893836    
   3760000   0.55393308    -7.6979836     -6.8670958      4.602091       50218.233      36.893836      36.893836      36.893836    
   3770000   0.55600997    -7.6934024     -6.8593993      4.6399969      50218.233      36.893836      36.893836      36.893836    
   3780000   0.55468138    -7.6951502     -6.86314        4.6185739      50218.233      36.893836      36.893836      36.893836    
   3790000   0.55277623    -7.6919636     -6.8628111      4.6354835      50218.233      36.893836      36.893836      36.893836    
   3800000   0.55243929    -7.6942666     -6.8656195      4.6203617      50218.233      36.893836      36.893836      36.893836    
   3810000   0.55455146    -7.6944549     -6.8626395      4.6238539      50218.233      36.893836      36.893836      36.893836    
   3820000   0.55139225    -7.6903022     -6.8632255      4.6461642      50218.233      36.893836      36.893836      36.893836    
   3830000   0.55529693    -7.6949823     -6.8620488      4.6119547      50218.233      36.893836      36.893836      36.893836    
   3840000   0.55303559    -7.6924326     -6.862891       4.6299273      50218.233      36.893836      36.893836      36.893836    
   3850000   0.55462314    -7.6960868     -6.8641639      4.6132102      50218.233      36.893836      36.893836      36.893836    
   3860000   0.55588653    -7.6943306     -6.8605127      4.6239274      50218.233      36.893836      36.893836      36.893836    
   3870000   0.55324762    -7.6973201     -6.8674605      4.6008195      50218.233      36.893836      36.893836      36.893836    
   3880000   0.55677102    -7.6958341     -6.8606895      4.6068259      50218.233      36.893836      36.893836      36.893836    
   3890000   0.5554052     -7.6944977     -6.8614017      4.6188915      50218.233      36.893836      36.893836      36.893836    
   3900000   0.55142305    -7.6881864     -6.8610636      4.6671466      50218.233      36.893836      36.893836      36.893836    
   3910000   0.55489159    -7.6930112     -6.8606857      4.6322835      50218.233      36.893836      36.893836      36.893836    
   3920000   0.55506172    -7.6919675     -6.8593867      4.6512058      50218.233      36.893836      36.893836      36.893836    
   3930000   0.55526074    -7.6921885     -6.8593092      4.6279907      50218.233      36.893836      36.893836      36.893836    
   3940000   0.55527592    -7.6910204     -6.8581184      4.6405526      50218.233      36.893836      36.893836      36.893836    
   3950000   0.55543325    -7.6940205     -6.8608825      4.6244884      50218.233      36.893836      36.893836      36.893836    
   3960000   0.55503977    -7.6931313     -6.8605835      4.6396498      50218.233      36.893836      36.893836      36.893836    
   3970000   0.55191865    -7.6948525     -6.8669863      4.6253521      50218.233      36.893836      36.893836      36.893836    
   3980000   0.5552749     -7.6964745     -6.863574       4.6084279      50218.233      36.893836      36.893836      36.893836    
   3990000   0.55777447    -7.6949599     -6.8583101      4.6216576      50218.233      36.893836      36.893836      36.893836    
   4000000   0.55926687    -7.6939627     -6.8550743      4.6390592      50218.233      36.893836      36.893836      36.893836    
   4010000   0.55295574    -7.6924202     -6.8629984      4.6407549      50218.233      36.893836      36.893836      36.893836    
   4020000   0.55667912    -7.6953564     -6.8603496      4.6183001      50218.233      36.893836      36.893836      36.893836    
   4030000   0.55465558    -7.6947048     -6.8627333      4.6150286      50218.233      36.893836      36.893836      36.893836    
   4040000   0.55394928    -7.6919293     -6.8610172      4.6436412      50218.233      36.893836      36.893836      36.893836    
   4050000   0.55781651    -7.6955677     -6.8588548      4.628063       50218.233      36.893836      36.893836      36.893836    
   4060000   0.5553961     -7.6967628     -6.8636805      4.6158282      50218.233      36.893836      36.893836      36.893836    
   4070000   0.55273554    -7.6958233     -6.8667318      4.614759       50218.233      36.893836      36.893836      36.893836    
   4080000   0.55700765    -7.6956268     -6.8601272      4.618412       50218.233      36.893836      36.893836      36.893836    
   4090000   0.55863703    -7.6883058     -6.8503622      4.681848       50218.233      36.893836      36.893836      36.893836    
   4100000   0.5549855     -7.6872247     -6.8547583      4.6795429      50218.233      36.893836      36.893836      36.893836    
   4110000   0.55453664    -7.6930807     -6.8612875      4.6293695      50218.233      36.893836      36.893836      36.893836    
   4120000   0.55350373    -7.6962912     -6.8660474      4.6077501      50218.233      36.893836      36.893836      36.893836    
   4130000   0.55497       -7.6925679     -6.8601248      4.6317541      50218.233      36.893836      36.893836      36.893836    
   4140000   0.55404272    -7.6914889     -6.8604366      4.6397975      50218.233      36.893836      36.893836      36.893836    
   4150000   0.55619828    -7.6904543     -6.8561688      4.6348112      50218.233      36.893836      36.893836      36.893836    
   4160000   0.55615191    -7.6924676     -6.8582516      4.6342941      50218.233      36.893836      36.893836      36.893836    
   4170000   0.55418447    -7.6969097     -6.8656448      4.612244       50218.233      36.893836      36.893836      36.893836    
   4180000   0.55175142    -7.6904332     -6.8628179      4.6554464      50218.233      36.893836      36.893836      36.893836    
   4190000   0.55570693    -7.6927843     -6.8592358      4.6319661      50218.233      36.893836      36.893836      36.893836    
   4200000   0.5546009     -7.6951018     -6.8632123      4.61722        50218.233      36.893836      36.893836      36.893836    
   4210000   0.55113213    -7.6939707     -6.8672843      4.6166958      50218.233      36.893836      36.893836      36.893836    
   4220000   0.55609541    -7.6982278     -6.8640966      4.5944443      50218.233      36.893836      36.893836      36.893836    
   4230000   0.55284105    -7.6907755     -6.8615258      4.654363       50218.233      36.893836      36.893836      36.893836    
   4240000   0.55758167    -7.6931459     -6.8567852      4.6265559      50218.233      36.893836      36.893836      36.893836    
   4250000   0.55303823    -7.6992886     -6.8697431      4.5908949      50218.233      36.893836      36.893836      36.893836    
   4260000   0.55671291    -7.6974431     -6.8623856      4.6140394      50218.233      36.893836      36.893836      36.893836    
   4270000   0.55453399    -7.6941522     -6.8623631      4.6313654      50218.233      36.893836      36.893836      36.893836    
   4280000   0.5544924     -7.6919081     -6.8601813      4.6432201      50218.233      36.893836      36.893836      36.893836    
   4290000   0.5556425     -7.6965104     -6.8630585      4.6076929      50218.233      36.893836      36.893836      36.893836    
   4300000   0.55536206    -7.7005967     -6.8675654      4.5759608      50218.233      36.893836      36.893836      36.893836    
   4310000   0.55220226    -7.6908333     -6.8625417      4.6477389      50218.233      36.893836      36.893836      36.893836    
   4320000   0.55324462    -7.6913975     -6.8615423      4.6322806      50218.233      36.893836      36.893836      36.893836    
   4330000   0.5525486     -7.6949567     -6.8661456      4.6031622      50218.233      36.893836      36.893836      36.893836    
   4340000   0.5536309     -7.6966765     -6.866242       4.595845       50218.233      36.893836      36.893836      36.893836    
   4350000   0.55441532    -7.6951826     -6.8635714      4.6126422      50218.233      36.893836      36.893836      36.893836    
   4360000   0.55469577    -7.6951934     -6.8631616      4.6226701      50218.233      36.893836      36.893836      36.893836    
   4370000   0.55723645    -7.6945044     -6.8586616      4.6232798      50218.233      36.893836      36.893836      36.893836    
   4380000   0.55619746    -7.693623      -6.8593387      4.632879       50218.233      36.893836      36.893836      36.893836    
   4390000   0.55778031    -7.6913888     -6.8547302      4.6466621      50218.233      36.893836      36.893836      36.893836    
   4400000   0.55538979    -7.6927393     -6.8596665      4.6340201      50218.233      36.893836      36.893836      36.893836    
   4410000   0.55619099    -7.6924944     -6.8582197      4.6294835      50218.233      36.893836      36.893836      36.893836    
   4420000   0.55451171    -7.6954111     -6.8636554      4.6123822      50218.233      36.893836      36.893836      36.893836    
   4430000   0.55453246    -7.6956346     -6.8638477      4.6176876      50218.233      36.893836      36.893836      36.893836    
   4440000   0.55734938    -7.6924025     -6.8563903      4.6417168      50218.233      36.893836      36.893836      36.893836    
   4450000   0.55491223    -7.6957344     -6.8633779      4.6082116      50218.233      36.893836      36.893836      36.893836    
   4460000   0.55254202    -7.6964801     -6.8676788      4.6053851      50218.233      36.893836      36.893836      36.893836    
   4470000   0.55497938    -7.6962784     -6.8638212      4.6109319      50218.233      36.893836      36.893836      36.893836    
   4480000   0.55475805    -7.6924145     -6.8602892      4.6306442      50218.233      36.893836      36.893836      36.893836    
   4490000   0.55547157    -7.6970042     -6.8638087      4.5947845      50218.233      36.893836      36.893836      36.893836    
   4500000   0.55491688    -7.6968923     -6.8645288      4.6117009      50218.233      36.893836      36.893836      36.893836    
   4510000   0.55411939    -7.6937649     -6.8625976      4.6317641      50218.233      36.893836      36.893836      36.893836    
   4520000   0.55415506    -7.6992588     -6.868038       4.5778267      50218.233      36.893836      36.893836      36.893836    
   4530000   0.55674136    -7.6973439     -6.8622437      4.5971476      50218.233      36.893836      36.893836      36.893836    
   4540000   0.55519071    -7.690876      -6.8581018      4.642894       50218.233      36.893836      36.893836      36.893836    
   4550000   0.55559012    -7.6949057     -6.8615323      4.6159818      50218.233      36.893836      36.893836      36.893836    
   4560000   0.55182163    -7.6965158     -6.8687951      4.598545       50218.233      36.893836      36.893836      36.893836    
   4570000   0.55528803    -7.6961273     -6.8632071      4.6101573      50218.233      36.893836      36.893836      36.893836    
   4580000   0.55445682    -7.6922096     -6.8605362      4.633849       50218.233      36.893836      36.893836      36.893836    
   4590000   0.55425633    -7.6948673     -6.8634946      4.6231833      50218.233      36.893836      36.893836      36.893836    
   4600000   0.55432745    -7.6921872     -6.8607078      4.6345578      50218.233      36.893836      36.893836      36.893836    
   4610000   0.55929065    -7.698544      -6.8596199      4.6019778      50218.233      36.893836      36.893836      36.893836    
   4620000   0.55554479    -7.6907362     -6.8574309      4.663924       50218.233      36.893836      36.893836      36.893836    
   4630000   0.55313571    -7.6957702     -6.8660785      4.6060657      50218.233      36.893836      36.893836      36.893836    
   4640000   0.55751821    -7.6936887     -6.8574232      4.635551       50218.233      36.893836      36.893836      36.893836    
   4650000   0.55391593    -7.6938595     -6.8629974      4.6256725      50218.233      36.893836      36.893836      36.893836    
   4660000   0.55424473    -7.6950112     -6.8636559      4.6173402      50218.233      36.893836      36.893836      36.893836    
   4670000   0.55425452    -7.6915944     -6.8602245      4.6416378      50218.233      36.893836      36.893836      36.893836    
   4680000   0.55577818    -7.6926751     -6.8590197      4.638299       50218.233      36.893836      36.893836      36.893836    
   4690000   0.5546526     -7.6910585     -6.8590914      4.6438268      50218.233      36.893836      36.893836      36.893836    
   4700000   0.55444697    -7.6918438     -6.8601852      4.6461557      50218.233      36.893836      36.893836      36.893836    
   4710000   0.55569355    -7.6886324     -6.855104       4.6691443      50218.233      36.893836      36.893836      36.893836    
   4720000   0.55471618    -7.6885783     -6.8565158      4.6662818      50218.233      36.893836      36.893836      36.893836    
   4730000   0.55433332    -7.6916559     -6.8601678      4.6385811      50218.233      36.893836      36.893836      36.893836    
   4740000   0.55396653    -7.6883998     -6.8574618      4.6694687      50218.233      36.893836      36.893836      36.893836    
   4750000   0.55476657    -7.6896559     -6.8575178      4.6667972      50218.233      36.893836      36.893836      36.893836    
   4760000   0.55163159    -7.692594      -6.8651584      4.6312835      50218.233      36.893836      36.893836      36.893836    
   4770000   0.55802649    -7.6900763     -6.8530485      4.6660008      50218.233      36.893836      36.893836      36.893836    
   4780000   0.55413815    -7.6940322     -6.8628368      4.6200772      50218.233      36.893836      36.893836      36.893836    
   4790000   0.55576793    -7.690572      -6.856932       4.6566059      50218.233      36.893836      36.893836      36.893836    
   4800000   0.55648423    -7.6942721     -6.8595576      4.6309021      50218.233      36.893836      36.893836      36.893836    
   4810000   0.5516519     -7.6929536     -6.8654875      4.6366228      50218.233      36.893836      36.893836      36.893836    
   4820000   0.55655766    -7.6939925     -6.8591679      4.6299371      50218.233      36.893836      36.893836      36.893836    
   4830000   0.55623108    -7.7008514     -6.8665166      4.5709711      50218.233      36.893836      36.893836      36.893836    
   4840000   0.55334201    -7.6964662     -6.866465       4.6047449      50218.233      36.893836      36.893836      36.893836    
   4850000   0.55600098    -7.6952028     -6.8612131      4.6136897      50218.233      36.893836      36.893836      36.893836    
   4860000   0.55363773    -7.6920158     -6.861571       4.6472244      50218.233      36.893836      36.893836      36.893836    
   4870000   0.555505      -7.6943146     -6.8610689      4.6302227      50218.233      36.893836      36.893836      36.893836    
   4880000   0.55583638    -7.6947597     -6.861017       4.6211247      50218.233      36.893836      36.893836      36.893836    
   4890000   0.55616935    -7.6919858     -6.8577436      4.6451496      50218.233      36.893836      36.893836      36.893836    
   4900000   0.55522777    -7.6925558     -6.859726       4.6459551      50218.233      36.893836      36.893836      36.893836    
   4910000   0.55459036    -7.6963481     -6.8644744      4.6053712      50218.233      36.893836      36.893836      36.893836    
   4920000   0.55267274    -7.6941661     -6.8651688      4.6213559      50218.233      36.893836      36.893836      36.893836    
   4930000   0.55248246    -7.6968668     -6.8681549      4.6010394      50218.233      36.893836      36.893836      36.893836    
   4940000   0.55287538    -7.6939046     -6.8646033      4.6219513      50218.233      36.893836      36.893836      36.893836    
   4950000   0.55108894    -7.6952693     -6.8686477      4.6107807      50218.233      36.893836      36.893836      36.893836    
   4960000   0.55432736    -7.6917529     -6.8602736      4.6376791      50218.233      36.893836      36.893836      36.893836    
   4970000   0.55495419    -7.6924809     -6.8600614      4.6374247      50218.233      36.893836      36.893836      36.893836    
   4980000   0.55359503    -7.6925571     -6.8621764      4.6334012      50218.233      36.893836      36.893836      36.893836    
   4990000   0.55881482    -7.6897615     -6.8515512      4.6538595      50218.233      36.893836      36.893836      36.893836    
   5000000   0.55409032    -7.6913844     -6.8602608      4.6470218      50218.233      36.893836      36.893836      36.893836    
   5010000   0.55585455    -7.6912459     -6.857476       4.6355314      50218.233      36.893836      36.893836      36.893836    
   5020000   0.5539892     -7.6933969     -6.8624249      4.6143549      50218.233      36.893836      36.893836      36.893836    
   5030000   0.55607304    -7.6926266     -6.8585289      4.6372029      50218.233      36.893836      36.893836      36.893836    
   5040000   0.55607614    -7.6936144     -6.859512       4.6274713      50218.233      36.893836      36.893836      36.893836    
   5050000   0.55623104    -7.6915249     -6.8571902      4.646105       50218.233      36.893836      36.893836      36.893836    
   5060000   0.55657662    -7.6927395     -6.8578864      4.6520071      50218.233      36.893836      36.893836      36.893836    
   5070000   0.55413638    -7.6932785     -6.8620857      4.6326875      50218.233      36.893836      36.893836      36.893836    
   5080000   0.55582858    -7.6911481     -6.8574171      4.6462812      50218.233      36.893836      36.893836      36.893836    
   5090000   0.55387523    -7.692732      -6.861931       4.6149881      50218.233      36.893836      36.893836      36.893836    
   5100000   0.55470885    -7.6921556     -6.8601041      4.6377097      50218.233      36.893836      36.893836      36.893836    
   5110000   0.55607306    -7.6888906     -6.8547928      4.6784344      50218.233      36.893836      36.893836      36.893836    
   5120000   0.55737193    -7.6902934     -6.8542474      4.6562631      50218.233      36.893836      36.893836      36.893836    
   5130000   0.55335251    -7.6880574     -6.8580405      4.6584476      50218.233      36.893836      36.893836      36.893836    
   5140000   0.55542024    -7.6925991     -6.8594806      4.6386037      50218.233      36.893836      36.893836      36.893836    
   5150000   0.55563102    -7.6908685     -6.8574338      4.6553884      50218.233      36.893836      36.893836      36.893836    
   5160000   0.55629681    -7.6952808     -6.8608475      4.6096775      50218.233      36.893836      36.893836      36.893836    
   5170000   0.55601792    -7.6952111     -6.8611961      4.6049193      50218.233      36.893836      36.893836      36.893836    
   5180000   0.55527242    -7.6926396     -6.8597428      4.6387087      50218.233      36.893836      36.893836      36.893836    
   5190000   0.55512252    -7.6907129     -6.8580409      4.6383504      50218.233      36.893836      36.893836      36.893836    
   5200000   0.55604144    -7.689246      -6.8551957      4.6625507      50218.233      36.893836      36.893836      36.893836    
   5210000   0.5546339     -7.6905562     -6.8586172      4.6521625      50218.233      36.893836      36.893836      36.893836    
   5220000   0.55517144    -7.6903216     -6.8575762      4.6409579      50218.233      36.893836      36.893836      36.893836    
   5230000   0.5545653     -7.6934797     -6.8616436      4.6262193      50218.233      36.893836      36.893836      36.893836    
   5240000   0.55648774    -7.6879086     -6.8531889      4.6595318      50218.233      36.893836      36.893836      36.893836    
   5250000   0.5562792     -7.6960547     -6.8616477      4.6096675      50218.233      36.893836      36.893836      36.893836    
   5260000   0.5550847     -7.6901496     -6.8575344      4.6458478      50218.233      36.893836      36.893836      36.893836    
   5270000   0.55588782    -7.6928853     -6.8590654      4.6432489      50218.233      36.893836      36.893836      36.893836    
   5280000   0.55681086    -7.6939912     -6.8587868      4.6168475      50218.233      36.893836      36.893836      36.893836    
   5290000   0.55602798    -7.6875476     -6.8535175      4.6806443      50218.233      36.893836      36.893836      36.893836    
   5300000   0.55342767    -7.6916127     -6.861483       4.6503027      50218.233      36.893836      36.893836      36.893836    
   5310000   0.55649481    -7.6883495     -6.8536192      4.6595243      50218.233      36.893836      36.893836      36.893836    
   5320000   0.55741424    -7.6974323     -6.8613229      4.595818       50218.233      36.893836      36.893836      36.893836    
   5330000   0.55613971    -7.6960498     -6.8618521      4.6034211      50218.233      36.893836      36.893836      36.893836    
   5340000   0.5538811     -7.6877455     -6.8569356      4.6683414      50218.233      36.893836      36.893836      36.893836    
   5350000   0.55453257    -7.6890174     -6.8572304      4.6681182      50218.233      36.893836      36.893836      36.893836    
   5360000   0.55349049    -7.6906827     -6.8604588      4.6644757      50218.233      36.893836      36.893836      36.893836    
   5370000   0.55421693    -7.6893346     -6.858021       4.665413       50218.233      36.893836      36.893836      36.893836    
   5380000   0.55529413    -7.688038      -6.8551086      4.6726018      50218.233      36.893836      36.893836      36.893836    
   5390000   0.55490293    -7.6879073     -6.8555648      4.6677333      50218.233      36.893836      36.893836      36.893836    
   5400000   0.5512598     -7.6907343     -6.8638564      4.6338312      50218.233      36.893836      36.893836      36.893836    
   5410000   0.55728783    -7.6848831     -6.8489632      4.6827569      50218.233      36.893836      36.893836      36.893836    
   5420000   0.55651432    -7.6898128     -6.8550532      4.6488832      50218.233      36.893836      36.893836      36.893836    
   5430000   0.55340703    -7.6876845     -6.8575858      4.6697207      50218.233      36.893836      36.893836      36.893836    
   5440000   0.55485321    -7.6929688     -6.8607009      4.635907       50218.233      36.893836      36.893836      36.893836    
   5450000   0.55296865    -7.6903216     -6.8608804      4.6462538      50218.233      36.893836      36.893836      36.893836    
   5460000   0.55521865    -7.6913037     -6.8584876      4.631743       50218.233      36.893836      36.893836      36.893836    
   5470000   0.55705417    -7.6909918     -6.8554225      4.6422501      50218.233      36.893836      36.893836      36.893836    
   5480000   0.5565769     -7.6826982     -6.8478447      4.7128679      50218.233      36.893836      36.893836      36.893836    
   5490000   0.55461188    -7.6866776     -6.8547716      4.6758359      50218.233      36.893836      36.893836      36.893836    
   5500000   0.55440664    -7.6928917     -6.8612936      4.6139882      50218.233      36.893836      36.893836      36.893836    
   5510000   0.55613308    -7.692307      -6.8581192      4.638971       50218.233      36.893836      36.893836      36.893836    
   5520000   0.55535503    -7.6887551     -6.8557344      4.6616774      50218.233      36.893836      36.893836      36.893836    
   5530000   0.55179676    -7.6960976     -6.8684143      4.5825986      50218.233      36.893836      36.893836      36.893836    
   5540000   0.55457292    -7.695068      -6.8632205      4.608927       50218.233      36.893836      36.893836      36.893836    
   5550000   0.5571366     -7.6983977     -6.8627046      4.6002753      50218.233      36.893836      36.893836      36.893836    
   5560000   0.55525942    -7.6895235     -6.8566462      4.6549163      50218.233      36.893836      36.893836      36.893836    
   5570000   0.55533319    -7.6938227     -6.8608347      4.6247398      50218.233      36.893836      36.893836      36.893836    
   5580000   0.55477491    -7.6931348     -6.8609843      4.6240863      50218.233      36.893836      36.893836      36.893836    
   5590000   0.55462481    -7.6929017     -6.8609763      4.6257197      50218.233      36.893836      36.893836      36.893836    
   5600000   0.55754838    -7.6959863     -6.8596757      4.6252559      50218.233      36.893836      36.893836      36.893836    
   5610000   0.55642498    -7.693058      -6.8584324      4.6479885      50218.233      36.893836      36.893836      36.893836    
   5620000   0.55626857    -7.6863382     -6.8519472      4.6873585      50218.233      36.893836      36.893836      36.893836    
   5630000   0.55262804    -7.6944772     -6.865547       4.6123222      50218.233      36.893836      36.893836      36.893836    
   5640000   0.55156244    -7.6944842     -6.8671524      4.6154466      50218.233      36.893836      36.893836      36.893836    
   5650000   0.55157442    -7.6889219     -6.861572       4.6471305      50218.233      36.893836      36.893836      36.893836    
   5660000   0.55572779    -7.6928566     -6.8592768      4.6230546      50218.233      36.893836      36.893836      36.893836    
   5670000   0.55677381    -7.6891117     -6.8539628      4.6548222      50218.233      36.893836      36.893836      36.893836    
   5680000   0.55508786    -7.6897892     -6.8571692      4.6511391      50218.233      36.893836      36.893836      36.893836    
   5690000   0.55377128    -7.6917705     -6.8611253      4.6330431      50218.233      36.893836      36.893836      36.893836    
   5700000   0.55644405    -7.6886509     -6.8539967      4.6642864      50218.233      36.893836      36.893836      36.893836    
   5710000   0.55247945    -7.6970123     -6.8683049      4.5951632      50218.233      36.893836      36.893836      36.893836    
   5720000   0.55294563    -7.6902123     -6.8608057      4.6529991      50218.233      36.893836      36.893836      36.893836    
   5730000   0.55132093    -7.6900712     -6.8631016      4.6505633      50218.233      36.893836      36.893836      36.893836    
   5740000   0.5539547     -7.6866675     -6.8557473      4.683738       50218.233      36.893836      36.893836      36.893836    
   5750000   0.55768139    -7.6911281     -6.8546179      4.6647792      50218.233      36.893836      36.893836      36.893836    
   5760000   0.55663929    -7.6885447     -6.8535977      4.6625327      50218.233      36.893836      36.893836      36.893836    
   5770000   0.55687923    -7.6909583     -6.8556513      4.6426195      50218.233      36.893836      36.893836      36.893836    
   5780000   0.55551464    -7.6904027     -6.8571426      4.6512994      50218.233      36.893836      36.893836      36.893836    
   5790000   0.55584655    -7.6924329     -6.8586749      4.6447574      50218.233      36.893836      36.893836      36.893836    
   5800000   0.55428035    -7.692194      -6.8607853      4.6436139      50218.233      36.893836      36.893836      36.893836    
   5810000   0.55444536    -7.6917297     -6.8600735      4.6405679      50218.233      36.893836      36.893836      36.893836    
   5820000   0.55462953    -7.6946901     -6.8627577      4.6132825      50218.233      36.893836      36.893836      36.893836    
   5830000   0.55377042    -7.6915975     -6.8609537      4.6420061      50218.233      36.893836      36.893836      36.893836    
   5840000   0.55005358    -7.6939663     -6.8688977      4.6164337      50218.233      36.893836      36.893836      36.893836    
   5850000   0.55276303    -7.691734      -6.8626013      4.6380663      50218.233      36.893836      36.893836      36.893836    
   5860000   0.55799059    -7.6939186     -6.8569446      4.6291759      50218.233      36.893836      36.893836      36.893836    
   5870000   0.55200578    -7.6909039     -6.862907       4.6438388      50218.233      36.893836      36.893836      36.893836    
   5880000   0.5561369     -7.6895841     -6.8553906      4.6628826      50218.233      36.893836      36.893836      36.893836    
   5890000   0.55474698    -7.6974232     -6.8653145      4.5940281      50218.233      36.893836      36.893836      36.893836    
   5900000   0.55369069    -7.6930554     -6.8625312      4.6409434      50218.233      36.893836      36.893836      36.893836    
   5910000   0.55322114    -7.6944794     -6.8646595      4.6102307      50218.233      36.893836      36.893836      36.893836    
   5920000   0.55710355    -7.6923398     -6.8566964      4.6330993      50218.233      36.893836      36.893836      36.893836    
   5930000   0.55785672    -7.6969617     -6.8601886      4.5975895      50218.233      36.893836      36.893836      36.893836    
   5940000   0.55421949    -7.6916935     -6.8603761      4.6393661      50218.233      36.893836      36.893836      36.893836    
   5950000   0.55620968    -7.6954585     -6.8611558      4.6151165      50218.233      36.893836      36.893836      36.893836    
   5960000   0.5552223     -7.6946048     -6.8617832      4.623704       50218.233      36.893836      36.893836      36.893836    
   5970000   0.5529734     -7.6994029     -6.8699546      4.5878719      50218.233      36.893836      36.893836      36.893836    
   5980000   0.55559826    -7.6920778     -6.8586923      4.6451091      50218.233      36.893836      36.893836      36.893836    
   5990000   0.55249852    -7.6928292     -6.8640932      4.6357139      50218.233      36.893836      36.893836      36.893836    
   6000000   0.55575251    -7.692972      -6.8593551      4.6388228      50218.233      36.893836      36.893836      36.893836    
   6010000   0.55502702    -7.6981918     -6.8656632      4.6022712      50218.233      36.893836      36.893836      36.893836    
   6020000   0.5523519     -7.6972232     -6.8687072      4.597391       50218.233      36.893836      36.893836      36.893836    
   6030000   0.55293169    -7.6963541     -6.8669683      4.5983435      50218.233      36.893836      36.893836      36.893836    
   6040000   0.55428491    -7.6980761     -6.8666605      4.6026623      50218.233      36.893836      36.893836      36.893836    
   6050000   0.5542959     -7.6876154     -6.8561834      4.6746203      50218.233      36.893836      36.893836      36.893836    
   6060000   0.55239256    -7.6888536     -6.8602766      4.6562945      50218.233      36.893836      36.893836      36.893836    
   6070000   0.55450185    -7.6949012     -6.8631603      4.6278624      50218.233      36.893836      36.893836      36.893836    
   6080000   0.55330889    -7.6952582     -6.8653067      4.5988664      50218.233      36.893836      36.893836      36.893836    
   6090000   0.55738995    -7.6951607     -6.8590876      4.6232259      50218.233      36.893836      36.893836      36.893836    
   6100000   0.54998043    -7.6921504     -6.8671915      4.6239383      50218.233      36.893836      36.893836      36.893836    
   6110000   0.55494407    -7.6945052     -6.862101       4.6231991      50218.233      36.893836      36.893836      36.893836    
   6120000   0.55286767    -7.6950028     -6.8657131      4.6226399      50218.233      36.893836      36.893836      36.893836    
   6130000   0.55584886    -7.6925271     -6.8587657      4.6386794      50218.233      36.893836      36.893836      36.893836    
   6140000   0.55446426    -7.6898216     -6.858137       4.6653628      50218.233      36.893836      36.893836      36.893836    
   6150000   0.55481703    -7.6909763     -6.8587625      4.6468077      50218.233      36.893836      36.893836      36.893836    
   6160000   0.55158279    -7.6910715     -6.8637091      4.6375239      50218.233      36.893836      36.893836      36.893836    
   6170000   0.55374884    -7.69649       -6.8658785      4.6030186      50218.233      36.893836      36.893836      36.893836    
   6180000   0.55620089    -7.6937185     -6.859429       4.6283336      50218.233      36.893836      36.893836      36.893836    
   6190000   0.55225107    -7.6902859     -6.8619211      4.6503433      50218.233      36.893836      36.893836      36.893836    
   6200000   0.55549177    -7.6908968     -6.857671       4.6485899      50218.233      36.893836      36.893836      36.893836    
   6210000   0.55491972    -7.6903049     -6.8579372      4.6576329      50218.233      36.893836      36.893836      36.893836    
   6220000   0.55638784    -7.6962337     -6.8616638      4.618319       50218.233      36.893836      36.893836      36.893836    
   6230000   0.55278972    -7.694282      -6.8651093      4.6184842      50218.233      36.893836      36.893836      36.893836    
   6240000   0.55506542    -7.6915312     -6.858945       4.6378574      50218.233      36.893836      36.893836      36.893836    
   6250000   0.55464637    -7.6942744     -6.8623167      4.6199668      50218.233      36.893836      36.893836      36.893836    
   6260000   0.55287111    -7.6908356     -6.8615408      4.6600419      50218.233      36.893836      36.893836      36.893836    
   6270000   0.5518981     -7.68911       -6.8612747      4.6564725      50218.233      36.893836      36.893836      36.893836    
   6280000   0.55670372    -7.690274      -6.8552303      4.6575798      50218.233      36.893836      36.893836      36.893836    
   6290000   0.55431142    -7.6932964     -6.8618411      4.6367647      50218.233      36.893836      36.893836      36.893836    
   6300000   0.55585082    -7.6877665     -6.8540021      4.6622144      50218.233      36.893836      36.893836      36.893836    
   6310000   0.55307664    -7.6890807     -6.8594775      4.6640968      50218.233      36.893836      36.893836      36.893836    
   6320000   0.555226      -7.6958638     -6.8630366      4.614893       50218.233      36.893836      36.893836      36.893836    
   6330000   0.55373402    -7.6946577     -6.8640685      4.6170494      50218.233      36.893836      36.893836      36.893836    
   6340000   0.55521168    -7.6933514     -6.8605457      4.6413114      50218.233      36.893836      36.893836      36.893836    
   6350000   0.55306942    -7.6925592     -6.8629668      4.6354414      50218.233      36.893836      36.893836      36.893836    
   6360000   0.55631016    -7.6904406     -6.8559872      4.6409691      50218.233      36.893836      36.893836      36.893836    
   6370000   0.55370283    -7.695033      -6.8644905      4.6153216      50218.233      36.893836      36.893836      36.893836    
   6380000   0.55258879    -7.6920922     -6.8632208      4.6426387      50218.233      36.893836      36.893836      36.893836    
   6390000   0.55411896    -7.6991261     -6.8679595      4.5746301      50218.233      36.893836      36.893836      36.893836    
   6400000   0.556054      -7.6944415     -6.8603723      4.6299548      50218.233      36.893836      36.893836      36.893836    
   6410000   0.55593088    -7.6989667     -6.8650823      4.5881873      50218.233      36.893836      36.893836      36.893836    
   6420000   0.55417094    -7.6961592     -6.8649146      4.6058088      50218.233      36.893836      36.893836      36.893836    
   6430000   0.55553247    -7.6916367     -6.8583499      4.636465       50218.233      36.893836      36.893836      36.893836    
   6440000   0.55219763    -7.6907926     -6.862508       4.6481284      50218.233      36.893836      36.893836      36.893836    
   6450000   0.55588111    -7.6932546     -6.8594448      4.6318975      50218.233      36.893836      36.893836      36.893836    
   6460000   0.55440182    -7.6968919     -6.865301       4.5936009      50218.233      36.893836      36.893836      36.893836    
   6470000   0.55533587    -7.6912342     -6.8582422      4.6576543      50218.233      36.893836      36.893836      36.893836    
   6480000   0.55453007    -7.6903117     -6.8585285      4.643267       50218.233      36.893836      36.893836      36.893836    
   6490000   0.55518857    -7.6915455     -6.8587745      4.6496786      50218.233      36.893836      36.893836      36.893836    
   6500000   0.55177208    -7.6930497     -6.8654034      4.6321337      50218.233      36.893836      36.893836      36.893836    
   6510000   0.55649221    -7.6918552     -6.8571288      4.6451203      50218.233      36.893836      36.893836      36.893836    
   6520000   0.55765374    -7.6904369     -6.8539682      4.6491778      50218.233      36.893836      36.893836      36.893836    
   6530000   0.55614308    -7.6880362     -6.8538335      4.6717321      50218.233      36.893836      36.893836      36.893836    
   6540000   0.55551631    -7.6917533     -6.8584907      4.6516842      50218.233      36.893836      36.893836      36.893836    
   6550000   0.55587643    -7.6964023     -6.8625995      4.618692       50218.233      36.893836      36.893836      36.893836    
   6560000   0.55176344    -7.69986       -6.8722266      4.5712654      50218.233      36.893836      36.893836      36.893836    
   6570000   0.55580649    -7.6911857     -6.8574878      4.6438544      50218.233      36.893836      36.893836      36.893836    
   6580000   0.55700952    -7.6924911     -6.8569887      4.6436811      50218.233      36.893836      36.893836      36.893836    
   6590000   0.55781319    -7.6937654     -6.8570576      4.6390983      50218.233      36.893836      36.893836      36.893836    
   6600000   0.55450052    -7.6981934     -6.8664544      4.5948109      50218.233      36.893836      36.893836      36.893836    
   6610000   0.55332451    -7.6896849     -6.85971        4.6607682      50218.233      36.893836      36.893836      36.893836    
   6620000   0.55766429    -7.6968242     -6.8603397      4.6145585      50218.233      36.893836      36.893836      36.893836    
   6630000   0.55465817    -7.6917886     -6.8598132      4.6469088      50218.233      36.893836      36.893836      36.893836    
   6640000   0.55614157    -7.6926461     -6.8584456      4.6468723      50218.233      36.893836      36.893836      36.893836    
   6650000   0.5543346     -7.6943553     -6.8628652      4.6160892      50218.233      36.893836      36.893836      36.893836    
   6660000   0.55252965    -7.6904167     -6.861634       4.6514584      50218.233      36.893836      36.893836      36.893836    
   6670000   0.55468872    -7.6947331     -6.8627118      4.6180922      50218.233      36.893836      36.893836      36.893836    
   6680000   0.55314886    -7.6906416     -6.8609301      4.6468241      50218.233      36.893836      36.893836      36.893836    
   6690000   0.55684496    -7.6929738     -6.8577182      4.632768       50218.233      36.893836      36.893836      36.893836    
   6700000   0.55589052    -7.6906883     -6.8568644      4.6393791      50218.233      36.893836      36.893836      36.893836    
   6710000   0.55220998    -7.6901852     -6.8618821      4.6432642      50218.233      36.893836      36.893836      36.893836    
   6720000   0.55518048    -7.6981632     -6.8654044      4.5928947      50218.233      36.893836      36.893836      36.893836    
   6730000   0.55583333    -7.68699       -6.8532519      4.6854378      50218.233      36.893836      36.893836      36.893836    
   6740000   0.55746663    -7.694371      -6.8581829      4.6360682      50218.233      36.893836      36.893836      36.893836    
   6750000   0.55536411    -7.6922673     -6.859233       4.6410691      50218.233      36.893836      36.893836      36.893836    
   6760000   0.55704039    -7.6911378     -6.8555891      4.6456394      50218.233      36.893836      36.893836      36.893836    
   6770000   0.55417883    -7.6902155     -6.858959       4.6393322      50218.233      36.893836      36.893836      36.893836    
   6780000   0.55627475    -7.6911148     -6.8567145      4.6512305      50218.233      36.893836      36.893836      36.893836    
   6790000   0.55466704    -7.6921993     -6.8602106      4.6411009      50218.233      36.893836      36.893836      36.893836    
   6800000   0.55420501    -7.6931888     -6.8618931      4.6297218      50218.233      36.893836      36.893836      36.893836    
   6810000   0.55311637    -7.68929       -6.8596273      4.6636161      50218.233      36.893836      36.893836      36.893836    
   6820000   0.5551504     -7.6888205     -6.8561068      4.6599956      50218.233      36.893836      36.893836      36.893836    
   6830000   0.55649953    -7.6918096     -6.8570722      4.6284473      50218.233      36.893836      36.893836      36.893836    
   6840000   0.55562153    -7.6916712     -6.8582508      4.6306275      50218.233      36.893836      36.893836      36.893836    
   6850000   0.55530887    -7.6980446     -6.8650931      4.5937811      50218.233      36.893836      36.893836      36.893836    
   6860000   0.55502511    -7.6931439     -6.860618       4.6299811      50218.233      36.893836      36.893836      36.893836    
   6870000   0.55598257    -7.6896206     -6.8556586      4.662217       50218.233      36.893836      36.893836      36.893836    
   6880000   0.55464204    -7.6914583     -6.8595071      4.6368852      50218.233      36.893836      36.893836      36.893836    
   6890000   0.55488267    -7.6922863     -6.8599742      4.6411764      50218.233      36.893836      36.893836      36.893836    
   6900000   0.55256571    -7.6888401     -6.8600034      4.6560496      50218.233      36.893836      36.893836      36.893836    
   6910000   0.55694468    -7.6949475     -6.8595423      4.618332       50218.233      36.893836      36.893836      36.893836    
   6920000   0.55463902    -7.692033      -6.8600863      4.6440904      50218.233      36.893836      36.893836      36.893836    
   6930000   0.55832183    -7.6939394     -6.8564686      4.6260575      50218.233      36.893836      36.893836      36.893836    
   6940000   0.55593255    -7.6921341     -6.8582472      4.6328192      50218.233      36.893836      36.893836      36.893836    
   6950000   0.55496931    -7.6967487     -6.8643066      4.5970806      50218.233      36.893836      36.893836      36.893836    
   6960000   0.55678873    -7.6948366     -6.8596654      4.6216436      50218.233      36.893836      36.893836      36.893836    
   6970000   0.55484059    -7.6915958     -6.8593467      4.6523654      50218.233      36.893836      36.893836      36.893836    
   6980000   0.55663723    -7.6938995     -6.8589556      4.6338782      50218.233      36.893836      36.893836      36.893836    
   6990000   0.55658316    -7.6996328     -6.86477        4.6002628      50218.233      36.893836      36.893836      36.893836    
   7000000   0.55768301    -7.6933768     -6.8568642      4.6374969      50218.233      36.893836      36.893836      36.893836    
   7010000   0.55284211    -7.6929034     -6.863652       4.63665        50218.233      36.893836      36.893836      36.893836    
   7020000   0.55373979    -7.6974842     -6.8668863      4.603653       50218.233      36.893836      36.893836      36.893836    
   7030000   0.55553825    -7.6934081     -6.8601126      4.626259       50218.233      36.893836      36.893836      36.893836    
   7040000   0.5534498     -7.6940146     -6.8638517      4.6158253      50218.233      36.893836      36.893836      36.893836    
   7050000   0.55625015    -7.6929513     -6.858588       4.6318966      50218.233      36.893836      36.893836      36.893836    
   7060000   0.55244142    -7.6934863     -6.864836       4.6176284      50218.233      36.893836      36.893836      36.893836    
   7070000   0.55201161    -7.6954543     -6.8674486      4.5932466      50218.233      36.893836      36.893836      36.893836    
   7080000   0.55638266    -7.6918522     -6.8572901      4.6469018      50218.233      36.893836      36.893836      36.893836    
   7090000   0.55387439    -7.6989041     -6.8681043      4.5924856      50218.233      36.893836      36.893836      36.893836    
   7100000   0.55565691    -7.6988558     -6.8653823      4.5987252      50218.233      36.893836      36.893836      36.893836    
   7110000   0.55543044    -7.6948001     -6.8616663      4.6175278      50218.233      36.893836      36.893836      36.893836    
   7120000   0.5552182     -7.6979515     -6.865136       4.5985609      50218.233      36.893836      36.893836      36.893836    
   7130000   0.5547636     -7.6996213     -6.8674878      4.5833778      50218.233      36.893836      36.893836      36.893836    
   7140000   0.55470314    -7.700163      -6.8681201      4.5898914      50218.233      36.893836      36.893836      36.893836    
   7150000   0.55471343    -7.69582       -6.8637617      4.6174752      50218.233      36.893836      36.893836      36.893836    
   7160000   0.55831619    -7.6966455     -6.8591831      4.6214114      50218.233      36.893836      36.893836      36.893836    
   7170000   0.5571154     -7.6973943     -6.8617331      4.5995172      50218.233      36.893836      36.893836      36.893836    
   7180000   0.55119443    -7.6967151     -6.8699353      4.6006149      50218.233      36.893836      36.893836      36.893836    
   7190000   0.55203099    -7.6966473     -6.8686126      4.6060919      50218.233      36.893836      36.893836      36.893836    
   7200000   0.55409696    -7.6990243     -6.8678907      4.5831367      50218.233      36.893836      36.893836      36.893836    
   7210000   0.55425206    -7.6967175     -6.8653513      4.6103677      50218.233      36.893836      36.893836      36.893836    
   7220000   0.55453113    -7.6926966     -6.8609118      4.6420036      50218.233      36.893836      36.893836      36.893836    
   7230000   0.55675412    -7.6989648     -6.8638455      4.5949648      50218.233      36.893836      36.893836      36.893836    
   7240000   0.55396791    -7.6978779     -6.8669379      4.5952924      50218.233      36.893836      36.893836      36.893836    
   7250000   0.55503024    -7.6974552     -6.8649217      4.5881355      50218.233      36.893836      36.893836      36.893836    
   7260000   0.55403677    -7.6934477     -6.8624043      4.6288956      50218.233      36.893836      36.893836      36.893836    
   7270000   0.55289578    -7.6966195     -6.8672876      4.6056491      50218.233      36.893836      36.893836      36.893836    
   7280000   0.55324488    -7.6983979     -6.8685424      4.5953414      50218.233      36.893836      36.893836      36.893836    
   7290000   0.5542677     -7.696579      -6.8651893      4.6047124      50218.233      36.893836      36.893836      36.893836    
   7300000   0.55431592    -7.6951964     -6.8637343      4.6187472      50218.233      36.893836      36.893836      36.893836    
   7310000   0.55439738    -7.6984154     -6.8668312      4.5886361      50218.233      36.893836      36.893836      36.893836    
   7320000   0.5558364     -7.6927176     -6.8589748      4.6328724      50218.233      36.893836      36.893836      36.893836    
   7330000   0.55430334    -7.699804      -6.8683608      4.5753674      50218.233      36.893836      36.893836      36.893836    
   7340000   0.55654911    -7.6985673     -6.8637555      4.5868405      50218.233      36.893836      36.893836      36.893836    
   7350000   0.55286363    -7.6981991     -6.8689154      4.5922113      50218.233      36.893836      36.893836      36.893836    
   7360000   0.55549938    -7.6981693     -6.8649321      4.5966102      50218.233      36.893836      36.893836      36.893836    
   7370000   0.5548514     -7.6953839     -6.8631187      4.5971963      50218.233      36.893836      36.893836      36.893836    
   7380000   0.55212814    -7.6946906     -6.8665102      4.6124163      50218.233      36.893836      36.893836      36.893836    
   7390000   0.55717005    -7.6936611     -6.8579179      4.6370517      50218.233      36.893836      36.893836      36.893836    
   7400000   0.55549196    -7.6992242     -6.8659981      4.5784485      50218.233      36.893836      36.893836      36.893836    
   7410000   0.55556302    -7.697096      -6.8637634      4.5957523      50218.233      36.893836      36.893836      36.893836    
   7420000   0.55617078    -7.7000227     -6.8657784      4.5905711      50218.233      36.893836      36.893836      36.893836    
   7430000   0.55696351    -7.6964323     -6.8609989      4.6124961      50218.233      36.893836      36.893836      36.893836    
   7440000   0.55564631    -7.697913      -6.8644553      4.6062668      50218.233      36.893836      36.893836      36.893836    
   7450000   0.55693089    -7.6906671     -6.8552826      4.648127       50218.233      36.893836      36.893836      36.893836    
   7460000   0.55772194    -7.6892925     -6.8527215      4.6655155      50218.233      36.893836      36.893836      36.893836    
   7470000   0.55625133    -7.6930139     -6.8586488      4.6370647      50218.233      36.893836      36.893836      36.893836    
   7480000   0.5558777     -7.6913033     -6.8574986      4.6535964      50218.233      36.893836      36.893836      36.893836    
   7490000   0.55340054    -7.6888094     -6.8587204      4.6640217      50218.233      36.893836      36.893836      36.893836    
   7500000   0.55483782    -7.6906467     -6.8584018      4.6375172      50218.233      36.893836      36.893836      36.893836    
   7510000   0.55720841    -7.6970205     -6.8612198      4.5976742      50218.233      36.893836      36.893836      36.893836    
   7520000   0.55384203    -7.688433      -6.8576818      4.6632595      50218.233      36.893836      36.893836      36.893836    
   7530000   0.55711551    -7.6882947     -6.8526333      4.6644196      50218.233      36.893836      36.893836      36.893836    
   7540000   0.55341304    -7.6885242     -6.8584164      4.6681025      50218.233      36.893836      36.893836      36.893836    
   7550000   0.55019069    -7.6914686     -6.8661943      4.6395757      50218.233      36.893836      36.893836      36.893836    
   7560000   0.55352886    -7.6888101     -6.8585286      4.6562441      50218.233      36.893836      36.893836      36.893836    
   7570000   0.55539555    -7.693328      -6.8602465      4.6296846      50218.233      36.893836      36.893836      36.893836    
   7580000   0.55574138    -7.6900347     -6.8564345      4.6443142      50218.233      36.893836      36.893836      36.893836    
   7590000   0.55302536    -7.6925482     -6.863022       4.6467599      50218.233      36.893836      36.893836      36.893836    
   7600000   0.55522461    -7.6937913     -6.8609662      4.6314521      50218.233      36.893836      36.893836      36.893836    
   7610000   0.55742606    -7.6990975     -6.8629703      4.5904914      50218.233      36.893836      36.893836      36.893836    
   7620000   0.557977      -7.6893432     -6.8523896      4.6684029      50218.233      36.893836      36.893836      36.893836    
   7630000   0.55333259    -7.6964838     -6.8664967      4.6005581      50218.233      36.893836      36.893836      36.893836    
   7640000   0.5543956     -7.6950214     -6.8634398      4.6223102      50218.233      36.893836      36.893836      36.893836    
   7650000   0.55590301    -7.6973912     -6.8635485      4.6050585      50218.233      36.893836      36.893836      36.893836    
   7660000   0.55827313    -7.6966742     -6.8592764      4.6218623      50218.233      36.893836      36.893836      36.893836    
   7670000   0.55431687    -7.69379       -6.8623265      4.6262706      50218.233      36.893836      36.893836      36.893836    
   7680000   0.55647412    -7.6992857     -6.8645864      4.5809845      50218.233      36.893836      36.893836      36.893836    
   7690000   0.55287095    -7.6971389     -6.8678443      4.5969184      50218.233      36.893836      36.893836      36.893836    
   7700000   0.55363132    -7.6969491     -6.8665139      4.589836       50218.233      36.893836      36.893836      36.893836    
   7710000   0.55605487    -7.6980808     -6.8640104      4.5933723      50218.233      36.893836      36.893836      36.893836    
   7720000   0.55558276    -7.6935785     -6.8602162      4.6232623      50218.233      36.893836      36.893836      36.893836    
   7730000   0.55536842    -7.694403      -6.8613622      4.6124113      50218.233      36.893836      36.893836      36.893836    
   7740000   0.5562498     -7.6932876     -6.8589248      4.6282995      50218.233      36.893836      36.893836      36.893836    
   7750000   0.55498543    -7.6904619     -6.8579956      4.6509488      50218.233      36.893836      36.893836      36.893836    
   7760000   0.55552532    -7.690343      -6.8570669      4.6437581      50218.233      36.893836      36.893836      36.893836    
   7770000   0.55582601    -7.6963134     -6.8625863      4.6055008      50218.233      36.893836      36.893836      36.893836    
   7780000   0.55780184    -7.7014708     -6.8647799      4.5675392      50218.233      36.893836      36.893836      36.893836    
   7790000   0.55141004    -7.6943443     -6.867241       4.6175137      50218.233      36.893836      36.893836      36.893836    
   7800000   0.55599178    -7.6898426     -6.8558668      4.6550178      50218.233      36.893836      36.893836      36.893836    
   7810000   0.55426085    -7.6980046     -6.8666252      4.5984117      50218.233      36.893836      36.893836      36.893836    
   7820000   0.55606315    -7.696431      -6.8623481      4.6139577      50218.233      36.893836      36.893836      36.893836    
   7830000   0.5555666     -7.6935844     -6.8602463      4.6266162      50218.233      36.893836      36.893836      36.893836    
   7840000   0.55348557    -7.6968317     -6.8666151      4.6064978      50218.233      36.893836      36.893836      36.893836    
   7850000   0.55383667    -7.6967543     -6.8660111      4.6122822      50218.233      36.893836      36.893836      36.893836    
   7860000   0.55538327    -7.6907059     -6.8576428      4.6416446      50218.233      36.893836      36.893836      36.893836    
   7870000   0.55275032    -7.697451      -6.8683373      4.5723557      50218.233      36.893836      36.893836      36.893836    
   7880000   0.55359281    -7.6937971     -6.8634197      4.6205591      50218.233      36.893836      36.893836      36.893836    
   7890000   0.5524469     -7.6963764     -6.8677179      4.6056028      50218.233      36.893836      36.893836      36.893836    
   7900000   0.5563934     -7.6946469     -6.8600687      4.6240906      50218.233      36.893836      36.893836      36.893836    
   7910000   0.55794242    -7.6913344     -6.8544327      4.6476242      50218.233      36.893836      36.893836      36.893836    
   7920000   0.55346812    -7.69223       -6.8620397      4.6406336      50218.233      36.893836      36.893836      36.893836    
   7930000   0.55444799    -7.6933039     -6.8616437      4.6434159      50218.233      36.893836      36.893836      36.893836    
   7940000   0.55282793    -7.6923385     -6.8631085      4.6379231      50218.233      36.893836      36.893836      36.893836    
   7950000   0.55489016    -7.6933286     -6.8610052      4.6309999      50218.233      36.893836      36.893836      36.893836    
   7960000   0.55503957    -7.6946299     -6.8620824      4.6199282      50218.233      36.893836      36.893836      36.893836    
   7970000   0.5547848     -7.6971127     -6.8649474      4.5996864      50218.233      36.893836      36.893836      36.893836    
   7980000   0.55653883    -7.699596      -6.8647996      4.5917507      50218.233      36.893836      36.893836      36.893836    
   7990000   0.55514325    -7.6987264     -6.8660233      4.5928793      50218.233      36.893836      36.893836      36.893836    
   8000000   0.55496209    -7.6965083     -6.864077       4.6066466      50218.233      36.893836      36.893836      36.893836    
Loop time of 12873.2 on 5 procs for 8000000 steps with 70304 atoms

Performance: 536930.875 tau/day, 621.448 timesteps/s, 43.690 Matom-step/s
94.5% CPU use with 5 MPI tasks x 1 OpenMP threads

MPI task timing breakdown:
Section |  min time  |  avg time  |  max time  |%varavg| %total
---------------------------------------------------------------
Pair    | 4220.4     | 4849.5     | 5653.8     | 708.5 | 37.67
Neigh   | 46.991     | 52.028     | 54.339     |  35.8 |  0.40
Comm    | 1993.5     | 2016.4     | 2036.3     |  31.4 | 15.66
Output  | 0.14529    | 0.15114    | 0.16038    |   1.3 |  0.00
Modify  | 4449.7     | 5232.9     | 5871.2     | 683.8 | 40.65
Other   |            | 722.2      |            |       |  5.61

Nlocal:        14060.8 ave       14086 max       14024 min
Histogram: 1 1 0 0 0 0 0 0 1 2
Nghost:        18741.4 ave       18837 max       18676 min
Histogram: 1 1 0 1 1 0 0 0 0 1
Neighs:              0 ave           0 max           0 min
Histogram: 5 0 0 0 0 0 0 0 0 0

Total # of neighbors = 0
Ave neighs/atom = 0
Neighbor list builds = 1732501
Dangerous builds = 0
clear
OMP_NUM_THREADS environment is not set. Defaulting to 1 thread. (src/comm.cpp:98)
  using 1 OpenMP thread(s) per MPI task
package gpu 0
jump dms535.lmp

variable T equal 535
# T = 1000* (temp in LJ unit)
variable f equal 10000
log log.${T}
log log.535
