variable TLJ equal (${T}/1000)
variable TLJ equal (360/1000)
variable NCyle equal 10
variable iStep equal (${f})
variable iStep equal (10000)
variable dumpStep equal (${f}*100)
variable dumpStep equal (10000*100)
variable runStep equal (${f}*100*${NCyle})
variable runStep equal (10000*100*${NCyle})
variable runStep equal (10000*100*10)

units       lj
atom_style  atomic
dimension 3
boundary     p p p
pair_style  lj/cut 2.5
read_data  ../data/T${T}.dat
read_data  ../data/T360.dat
Reading data file ...
  orthogonal box = (0.97250269 0.97250269 0.97250269) to (37.866338 37.866338 37.866338)
  1 by 1 by 5 MPI processor grid
  reading atoms ...
  70304 atoms
  reading velocities ...
  70304 velocities
  read_data CPU = 0.210 seconds
change_box all triclinic
Changing box ...
  triclinic box = (0.97250269 0.97250269 0.97250269) to (37.866338 37.866338 37.866338) with tilt (0 0 0)
mass 1 1
mass 2 1
pair_modify shift yes
pair_coeff  1 1 1 1
pair_coeff  1 2 1.5 0.8
pair_coeff  2 2 0.5 0.88


timestep 0.01
thermo ${iStep}
thermo 10000
reset_timestep 0
thermo_style custom step temp pe etotal press vol lx ly lz
fix             1 all nvt temp ${TLJ}  ${TLJ}  0.1
fix             1 all nvt temp 0.36  ${TLJ}  0.1
fix             1 all nvt temp 0.36  0.36  0.1
thermo_modify flush yes

fix dsf all deform 1 xy  wiggle 0.5  ${f}   units box
fix dsf all deform 1 xy  wiggle 0.5  10000   units box
fix ps1 all ave/time 1 1 ${iStep} c_thermo_press[1] c_thermo_press[2]  c_thermo_press[3] c_thermo_press[4]  c_thermo_press[5] c_thermo_press[6]  file  stress.${T}
fix ps1 all ave/time 1 1 10000 c_thermo_press[1] c_thermo_press[2]  c_thermo_press[3] c_thermo_press[4]  c_thermo_press[5] c_thermo_press[6]  file  stress.${T}
fix ps1 all ave/time 1 1 10000 c_thermo_press[1] c_thermo_press[2]  c_thermo_press[3] c_thermo_press[4]  c_thermo_press[5] c_thermo_press[6]  file  stress.360
dump            1 all custom ${dumpStep} dump.${T} id type x y z
dump            1 all custom 1000000 dump.${T} id type x y z
dump            1 all custom 1000000 dump.360 id type x y z
dump_modify 1 sort id
fix nodrift all momentum 1  linear 1 1 1
fix com_seed all recenter INIT INIT INIT shift all
run ${runStep}
run 10000000
Generated 0 of 1 mixed pair_coeff terms from geometric mixing rule
Per MPI rank memory allocation (min/avg/max) = 8.915 | 8.918 | 8.921 Mbytes
   Step          Temp          PotEng         TotEng         Press          Volume           Lx             Ly             Lz      
         0   0.35912937    -8.0525643     -7.5138779      1.7071269      50218.233      36.893836      36.893836      36.893836    
     10000   0.35917359    -8.0494666     -7.5107138      1.7317717      50218.233      36.893836      36.893836      36.893836    
     20000   0.35861644    -8.0501423     -7.5122253      1.7228101      50218.233      36.893836      36.893836      36.893836    
     30000   0.35906966    -8.0492945     -7.5106977      1.7266889      50218.233      36.893836      36.893836      36.893836    
     40000   0.36012301    -8.0476581     -7.5074813      1.7429696      50218.233      36.893836      36.893836      36.893836    
     50000   0.36128173    -8.0487364     -7.5068215      1.7341815      50218.233      36.893836      36.893836      36.893836    
     60000   0.36012259    -8.0507184     -7.5105422      1.7134552      50218.233      36.893836      36.893836      36.893836    
     70000   0.35920563    -8.0474108     -7.5086101      1.7421287      50218.233      36.893836      36.893836      36.893836    
     80000   0.36071463    -8.0472409     -7.5061767      1.7454343      50218.233      36.893836      36.893836      36.893836    
     90000   0.36068796    -8.0493854     -7.5083611      1.7342958      50218.233      36.893836      36.893836      36.893836    
    100000   0.36043422    -8.0495529     -7.5089093      1.7287841      50218.233      36.893836      36.893836      36.893836    
    110000   0.35895457    -8.0499592     -7.511535       1.7193039      50218.233      36.893836      36.893836      36.893836    
    120000   0.35961961    -8.0477744     -7.5083527      1.7345761      50218.233      36.893836      36.893836      36.893836    
    130000   0.35939635    -8.0457387     -7.5066519      1.751765       50218.233      36.893836      36.893836      36.893836    
    140000   0.36030632    -8.04785       -7.5073982      1.7410035      50218.233      36.893836      36.893836      36.893836    
    150000   0.35987175    -8.0481609     -7.508361       1.7337843      50218.233      36.893836      36.893836      36.893836    
    160000   0.35930048    -8.0492273     -7.5102843      1.7286357      50218.233      36.893836      36.893836      36.893836    
    170000   0.35831765    -8.0451843     -7.5077155      1.7583928      50218.233      36.893836      36.893836      36.893836    
    180000   0.36246038    -8.0488758     -7.5051929      1.7361522      50218.233      36.893836      36.893836      36.893836    
    190000   0.3593325     -8.047325      -7.508334       1.7394178      50218.233      36.893836      36.893836      36.893836    
    200000   0.35888366    -8.0477735     -7.5094557      1.7344059      50218.233      36.893836      36.893836      36.893836    
    210000   0.35943217    -8.0488534     -7.5097129      1.7337199      50218.233      36.893836      36.893836      36.893836    
    220000   0.36028564    -8.0473611     -7.5069403      1.7421978      50218.233      36.893836      36.893836      36.893836    
    230000   0.3601427     -8.0451049     -7.5048986      1.763668       50218.233      36.893836      36.893836      36.893836    
    240000   0.36278241    -8.0485144     -7.5043485      1.7456905      50218.233      36.893836      36.893836      36.893836    
    250000   0.36000419    -8.0462174     -7.5062188      1.7557604      50218.233      36.893836      36.893836      36.893836    
    260000   0.36195399    -8.0465174     -7.5035941      1.7496024      50218.233      36.893836      36.893836      36.893836    
    270000   0.35800819    -8.0454745     -7.5084698      1.7640811      50218.233      36.893836      36.893836      36.893836    
    280000   0.36253657    -8.0494082     -7.5056111      1.732895       50218.233      36.893836      36.893836      36.893836    
    290000   0.36130667    -8.0446509     -7.5026986      1.762683       50218.233      36.893836      36.893836      36.893836    
    300000   0.36038347    -8.0481965     -7.507629       1.7330988      50218.233      36.893836      36.893836      36.893836    
    310000   0.35877441    -8.046569      -7.5084151      1.7583885      50218.233      36.893836      36.893836      36.893836    
    320000   0.3592601     -8.0480795     -7.509197       1.7387158      50218.233      36.893836      36.893836      36.893836    
    330000   0.3605869     -8.0498319     -7.5089593      1.7255434      50218.233      36.893836      36.893836      36.893836    
    340000   0.36047976    -8.046901      -7.5061891      1.7430417      50218.233      36.893836      36.893836      36.893836    
    350000   0.36007483    -8.0511977     -7.5110931      1.7099106      50218.233      36.893836      36.893836      36.893836    
    360000   0.36161934    -8.0464714     -7.5040501      1.746863       50218.233      36.893836      36.893836      36.893836    
    370000   0.36068921    -8.047647      -7.5066209      1.7368597      50218.233      36.893836      36.893836      36.893836    
    380000   0.36211301    -8.0464179     -7.5032562      1.7553672      50218.233      36.893836      36.893836      36.893836    
    390000   0.36095742    -8.0494446     -7.5080161      1.7331358      50218.233      36.893836      36.893836      36.893836    
    400000   0.36007145    -8.046768      -7.5066685      1.7571313      50218.233      36.893836      36.893836      36.893836    
    410000   0.36086504    -8.0500853     -7.5087954      1.7185425      50218.233      36.893836      36.893836      36.893836    
    420000   0.35949029    -8.0489973     -7.5097695      1.7337531      50218.233      36.893836      36.893836      36.893836    
    430000   0.36138083    -8.0497882     -7.5077247      1.7252042      50218.233      36.893836      36.893836      36.893836    
    440000   0.36062683    -8.0472796     -7.5063471      1.749426       50218.233      36.893836      36.893836      36.893836    
    450000   0.36017861    -8.0492141     -7.5089539      1.7299019      50218.233      36.893836      36.893836      36.893836    
    460000   0.3599464     -8.0488387     -7.5089268      1.7290521      50218.233      36.893836      36.893836      36.893836    
    470000   0.357991      -8.0467967     -7.5098178      1.7392731      50218.233      36.893836      36.893836      36.893836    
    480000   0.36064585    -8.0489836     -7.5080225      1.727173       50218.233      36.893836      36.893836      36.893836    
    490000   0.35889425    -8.0488137     -7.51048        1.7292736      50218.233      36.893836      36.893836      36.893836    
    500000   0.36097542    -8.0507525     -7.5092971      1.7160739      50218.233      36.893836      36.893836      36.893836    
    510000   0.35833226    -8.0509297     -7.5134389      1.7167205      50218.233      36.893836      36.893836      36.893836    
    520000   0.36151281    -8.0490814     -7.50682        1.7297745      50218.233      36.893836      36.893836      36.893836    
    530000   0.35844575    -8.0467741     -7.5091131      1.747918       50218.233      36.893836      36.893836      36.893836    
    540000   0.36111633    -8.0485552     -7.5068884      1.7344365      50218.233      36.893836      36.893836      36.893836    
    550000   0.36030564    -8.050448      -7.5099972      1.7100558      50218.233      36.893836      36.893836      36.893836    
    560000   0.35950435    -8.0484728     -7.5092239      1.7298475      50218.233      36.893836      36.893836      36.893836    
    570000   0.36145896    -8.0491352     -7.5069545      1.734367       50218.233      36.893836      36.893836      36.893836    
    580000   0.36040273    -8.0484513     -7.5078549      1.7324218      50218.233      36.893836      36.893836      36.893836    
    590000   0.35761118    -8.0489667     -7.5125575      1.736211       50218.233      36.893836      36.893836      36.893836    
    600000   0.36012183    -8.0481975     -7.5080225      1.7303395      50218.233      36.893836      36.893836      36.893836    
    610000   0.36014242    -8.0481825     -7.5079766      1.7440215      50218.233      36.893836      36.893836      36.893836    
    620000   0.36223806    -8.0483825     -7.5050332      1.7378847      50218.233      36.893836      36.893836      36.893836    
    630000   0.36068573    -8.0479712     -7.5069503      1.7498446      50218.233      36.893836      36.893836      36.893836    
    640000   0.36081647    -8.0473884     -7.5061714      1.7465706      50218.233      36.893836      36.893836      36.893836    
    650000   0.36030453    -8.0485708     -7.5081217      1.7350829      50218.233      36.893836      36.893836      36.893836    
    660000   0.36161491    -8.0476489     -7.5052342      1.7403698      50218.233      36.893836      36.893836      36.893836    
    670000   0.35991922    -8.0472355     -7.5073644      1.7468616      50218.233      36.893836      36.893836      36.893836    
    680000   0.36050592    -8.0500902     -7.509339       1.7252916      50218.233      36.893836      36.893836      36.893836    
    690000   0.36077726    -8.0454603     -7.5043021      1.7622346      50218.233      36.893836      36.893836      36.893836    
    700000   0.35889735    -8.0450632     -7.5067248      1.7590998      50218.233      36.893836      36.893836      36.893836    
    710000   0.3595666     -8.049845      -7.5105028      1.7363592      50218.233      36.893836      36.893836      36.893836    
    720000   0.36101696    -8.043934      -7.5024162      1.7713358      50218.233      36.893836      36.893836      36.893836    
    730000   0.36090858    -8.0496797     -7.5083245      1.7323424      50218.233      36.893836      36.893836      36.893836    
    740000   0.36027397    -8.0438462     -7.503443       1.7675803      50218.233      36.893836      36.893836      36.893836    
    750000   0.35959003    -8.0473508     -7.5079734      1.7305323      50218.233      36.893836      36.893836      36.893836    
    760000   0.35888081    -8.0468323     -7.5085188      1.7530679      50218.233      36.893836      36.893836      36.893836    
    770000   0.36262429    -8.0460077     -7.502079       1.7579594      50218.233      36.893836      36.893836      36.893836    
    780000   0.35902699    -8.0510901     -7.5125573      1.7121239      50218.233      36.893836      36.893836      36.893836    
    790000   0.36086676    -8.0489689     -7.5076765      1.7327842      50218.233      36.893836      36.893836      36.893836    
    800000   0.3600892     -8.0461706     -7.5060445      1.7604712      50218.233      36.893836      36.893836      36.893836    
    810000   0.35970008    -8.0442273     -7.5046848      1.7705922      50218.233      36.893836      36.893836      36.893836    
    820000   0.36000253    -8.0506846     -7.5106885      1.7205434      50218.233      36.893836      36.893836      36.893836    
    830000   0.36209046    -8.047779      -7.5046511      1.735186       50218.233      36.893836      36.893836      36.893836    
    840000   0.35922386    -8.0481808     -7.5093527      1.7360896      50218.233      36.893836      36.893836      36.893836    
    850000   0.36145103    -8.0499443     -7.5077755      1.7243025      50218.233      36.893836      36.893836      36.893836    
    860000   0.36070405    -8.0463965     -7.5053482      1.7485054      50218.233      36.893836      36.893836      36.893836    
    870000   0.36110445    -8.0486091     -7.5069602      1.7308604      50218.233      36.893836      36.893836      36.893836    
    880000   0.35977619    -8.0459671     -7.5063105      1.7474061      50218.233      36.893836      36.893836      36.893836    
    890000   0.35990926    -8.0486823     -7.5088261      1.7362198      50218.233      36.893836      36.893836      36.893836    
    900000   0.36209461    -8.0470519     -7.5039178      1.7546268      50218.233      36.893836      36.893836      36.893836    
    910000   0.36195412    -8.0459622     -7.5030387      1.7488325      50218.233      36.893836      36.893836      36.893836    
    920000   0.3616134     -8.050192      -7.5077796      1.7255211      50218.233      36.893836      36.893836      36.893836    
    930000   0.35994752    -8.0508256     -7.510912       1.7179766      50218.233      36.893836      36.893836      36.893836    
    940000   0.35860635    -8.0475704     -7.5096685      1.7381508      50218.233      36.893836      36.893836      36.893836    
    950000   0.36039062    -8.0447777     -7.5041994      1.7612264      50218.233      36.893836      36.893836      36.893836    
    960000   0.36037645    -8.0469373     -7.5063803      1.7420598      50218.233      36.893836      36.893836      36.893836    
    970000   0.36112764    -8.0477722     -7.5060884      1.7515077      50218.233      36.893836      36.893836      36.893836    
    980000   0.36071432    -8.0491255     -7.5080617      1.7332766      50218.233      36.893836      36.893836      36.893836    
    990000   0.35958898    -8.0489155     -7.5095397      1.7322539      50218.233      36.893836      36.893836      36.893836    
   1000000   0.35981174    -8.0493076     -7.5095977      1.7306148      50218.233      36.893836      36.893836      36.893836    
   1010000   0.35761021    -8.0481697     -7.511762       1.7391975      50218.233      36.893836      36.893836      36.893836    
   1020000   0.35966081    -8.0466608     -7.5071773      1.7499716      50218.233      36.893836      36.893836      36.893836    
   1030000   0.35959763    -8.0507184     -7.5113296      1.7170365      50218.233      36.893836      36.893836      36.893836    
   1040000   0.36053717    -8.0475888     -7.5067907      1.7453972      50218.233      36.893836      36.893836      36.893836    
   1050000   0.3592391     -8.0491802     -7.5103293      1.7180343      50218.233      36.893836      36.893836      36.893836    
   1060000   0.36039933    -8.0500716     -7.5094802      1.7205939      50218.233      36.893836      36.893836      36.893836    
   1070000   0.3607577     -8.04437       -7.5032411      1.7533953      50218.233      36.893836      36.893836      36.893836    
   1080000   0.36219503    -8.0454627     -7.5021779      1.7583497      50218.233      36.893836      36.893836      36.893836    
   1090000   0.36116167    -8.0511358     -7.509401       1.7188667      50218.233      36.893836      36.893836      36.893836    
   1100000   0.35815251    -8.0480627     -7.5108416      1.7355522      50218.233      36.893836      36.893836      36.893836    
   1110000   0.35885198    -8.0477861     -7.5095158      1.7331623      50218.233      36.893836      36.893836      36.893836    
   1120000   0.36052402    -8.0484482     -7.5076698      1.7219783      50218.233      36.893836      36.893836      36.893836    
   1130000   0.36095992    -8.047289      -7.5058568      1.7382835      50218.233      36.893836      36.893836      36.893836    
   1140000   0.36004833    -8.0501497     -7.5100849      1.7204342      50218.233      36.893836      36.893836      36.893836    
   1150000   0.36010589    -8.0501702     -7.5100191      1.7219165      50218.233      36.893836      36.893836      36.893836    
   1160000   0.36064279    -8.0469909     -7.5060345      1.7542494      50218.233      36.893836      36.893836      36.893836    
   1170000   0.36049983    -8.0447291     -7.5039871      1.767459       50218.233      36.893836      36.893836      36.893836    
   1180000   0.36062501    -8.0457298     -7.5048         1.7555502      50218.233      36.893836      36.893836      36.893836    
   1190000   0.36053901    -8.0475714     -7.5067706      1.7420194      50218.233      36.893836      36.893836      36.893836    
   1200000   0.35870434    -8.0494865     -7.5114377      1.7236844      50218.233      36.893836      36.893836      36.893836    
   1210000   0.36077612    -8.0475448     -7.5063883      1.7481037      50218.233      36.893836      36.893836      36.893836    
   1220000   0.35726014    -8.0469828     -7.5111002      1.7483127      50218.233      36.893836      36.893836      36.893836    
   1230000   0.36010218    -8.0477086     -7.507563       1.7405862      50218.233      36.893836      36.893836      36.893836    
   1240000   0.35988988    -8.0462002     -7.506373       1.7530755      50218.233      36.893836      36.893836      36.893836    
   1250000   0.36026237    -8.0481512     -7.5077653      1.7171066      50218.233      36.893836      36.893836      36.893836    
   1260000   0.35722148    -8.0482323     -7.5124077      1.7312624      50218.233      36.893836      36.893836      36.893836    
   1270000   0.35986426    -8.0460018     -7.5062131      1.7516781      50218.233      36.893836      36.893836      36.893836    
   1280000   0.36040327    -8.0476889     -7.5070917      1.7396843      50218.233      36.893836      36.893836      36.893836    
   1290000   0.35891385    -8.0482559     -7.5098928      1.7324917      50218.233      36.893836      36.893836      36.893836    
   1300000   0.35946738    -8.0451516     -7.5059582      1.7547453      50218.233      36.893836      36.893836      36.893836    
   1310000   0.35812575    -8.0457267     -7.5085458      1.7507421      50218.233      36.893836      36.893836      36.893836    
   1320000   0.35791559    -8.0510527     -7.514187       1.7210587      50218.233      36.893836      36.893836      36.893836    
   1330000   0.36015525    -8.04567       -7.5054448      1.7509767      50218.233      36.893836      36.893836      36.893836    
   1340000   0.36159586    -8.0471131     -7.504727       1.7516265      50218.233      36.893836      36.893836      36.893836    
   1350000   0.36065038    -8.0511251     -7.5101572      1.7173124      50218.233      36.893836      36.893836      36.893836    
   1360000   0.36102066    -8.0489643     -7.507441       1.7339688      50218.233      36.893836      36.893836      36.893836    
   1370000   0.35933476    -8.0448592     -7.5058647      1.7591357      50218.233      36.893836      36.893836      36.893836    
   1380000   0.35923643    -8.04695       -7.508103       1.7469339      50218.233      36.893836      36.893836      36.893836    
   1390000   0.36110101    -8.0471574     -7.5055136      1.7456995      50218.233      36.893836      36.893836      36.893836    
   1400000   0.36053056    -8.0500187     -7.5092305      1.7261437      50218.233      36.893836      36.893836      36.893836    
   1410000   0.36073938    -8.0514644     -7.5103631      1.7079596      50218.233      36.893836      36.893836      36.893836    
   1420000   0.36093198    -8.0487828     -7.5073926      1.7256494      50218.233      36.893836      36.893836      36.893836    
   1430000   0.36105078    -8.0471838     -7.5056153      1.7453995      50218.233      36.893836      36.893836      36.893836    
   1440000   0.36044404    -8.0480518     -7.5073934      1.7320843      50218.233      36.893836      36.893836      36.893836    
   1450000   0.3584889     -8.0509905     -7.5132648      1.7107244      50218.233      36.893836      36.893836      36.893836    
   1460000   0.35832754    -8.0482977     -7.510814       1.7236944      50218.233      36.893836      36.893836      36.893836    
   1470000   0.35792805    -8.0506109     -7.5137264      1.7149897      50218.233      36.893836      36.893836      36.893836    
   1480000   0.35965408    -8.0464076     -7.5069342      1.7484497      50218.233      36.893836      36.893836      36.893836    
   1490000   0.35821751    -8.0485018     -7.5111832      1.7240317      50218.233      36.893836      36.893836      36.893836    
   1500000   0.3586989     -8.0497549     -7.5117142      1.7145234      50218.233      36.893836      36.893836      36.893836    
   1510000   0.35881816    -8.0500176     -7.511798       1.7240796      50218.233      36.893836      36.893836      36.893836    
   1520000   0.35942266    -8.0493943     -7.510268       1.7259296      50218.233      36.893836      36.893836      36.893836    
   1530000   0.36055899    -8.0486763     -7.5078455      1.7314931      50218.233      36.893836      36.893836      36.893836    
   1540000   0.35909836    -8.0448147     -7.5061749      1.7601139      50218.233      36.893836      36.893836      36.893836    
   1550000   0.35896122    -8.0510585     -7.5126244      1.7101993      50218.233      36.893836      36.893836      36.893836    
   1560000   0.36020382    -8.0508005     -7.5105025      1.7159403      50218.233      36.893836      36.893836      36.893836    
   1570000   0.36054356    -8.0498738     -7.5090662      1.7186277      50218.233      36.893836      36.893836      36.893836    
   1580000   0.35845077    -8.0482346     -7.5105661      1.7287208      50218.233      36.893836      36.893836      36.893836    
   1590000   0.35902548    -8.048713      -7.5101825      1.7254601      50218.233      36.893836      36.893836      36.893836    
   1600000   0.35880933    -8.046844      -7.5086377      1.7382838      50218.233      36.893836      36.893836      36.893836    
   1610000   0.36098011    -8.0490962     -7.5076338      1.7275184      50218.233      36.893836      36.893836      36.893836    
   1620000   0.36179937    -8.050121      -7.5074297      1.7176902      50218.233      36.893836      36.893836      36.893836    
   1630000   0.3592443     -8.0474909     -7.5086321      1.7420185      50218.233      36.893836      36.893836      36.893836    
   1640000   0.35966644    -8.0471324     -7.5076404      1.7388992      50218.233      36.893836      36.893836      36.893836    
   1650000   0.35836433    -8.048163      -7.5106241      1.7322335      50218.233      36.893836      36.893836      36.893836    
   1660000   0.35972098    -8.0483219     -7.5087481      1.7299519      50218.233      36.893836      36.893836      36.893836    
   1670000   0.35715648    -8.0462543     -7.5105272      1.7314847      50218.233      36.893836      36.893836      36.893836    
   1680000   0.36104519    -8.0475156     -7.5059556      1.746938       50218.233      36.893836      36.893836      36.893836    
   1690000   0.36036621    -8.04925       -7.5087084      1.7244893      50218.233      36.893836      36.893836      36.893836    
   1700000   0.35975081    -8.0462515     -7.5066329      1.7448401      50218.233      36.893836      36.893836      36.893836    
   1710000   0.36037458    -8.0475864     -7.5070322      1.7410306      50218.233      36.893836      36.893836      36.893836    
   1720000   0.35977363    -8.047288      -7.5076352      1.7448508      50218.233      36.893836      36.893836      36.893836    
   1730000   0.36038079    -8.0482806     -7.5077171      1.7324605      50218.233      36.893836      36.893836      36.893836    
   1740000   0.36213227    -8.0479545     -7.5047638      1.7422971      50218.233      36.893836      36.893836      36.893836    
   1750000   0.36168226    -8.0465616     -7.5040459      1.7510754      50218.233      36.893836      36.893836      36.893836    
   1760000   0.36083291    -8.0508944     -7.5096527      1.7069819      50218.233      36.893836      36.893836      36.893836    
   1770000   0.35923516    -8.0467122     -7.5078672      1.7409146      50218.233      36.893836      36.893836      36.893836    
   1780000   0.36033285    -8.0469717     -7.5064802      1.7404876      50218.233      36.893836      36.893836      36.893836    
   1790000   0.36025556    -8.0475687     -7.507193       1.742149       50218.233      36.893836      36.893836      36.893836    
   1800000   0.3605021     -8.0483441     -7.5075987      1.7309246      50218.233      36.893836      36.893836      36.893836    
   1810000   0.35992907    -8.0466777     -7.5067918      1.7545463      50218.233      36.893836      36.893836      36.893836    
   1820000   0.36194961    -8.0448372     -7.5019205      1.7640685      50218.233      36.893836      36.893836      36.893836    
   1830000   0.36045711    -8.0461263     -7.5054483      1.7482333      50218.233      36.893836      36.893836      36.893836    
   1840000   0.36116985    -8.0467687     -7.5050216      1.7430243      50218.233      36.893836      36.893836      36.893836    
   1850000   0.36055307    -8.046943      -7.5061211      1.7522372      50218.233      36.893836      36.893836      36.893836    
   1860000   0.36200055    -8.046294      -7.5033009      1.7544228      50218.233      36.893836      36.893836      36.893836    
   1870000   0.35940621    -8.0458688     -7.5067671      1.7572231      50218.233      36.893836      36.893836      36.893836    
   1880000   0.35905601    -8.0466459     -7.5080695      1.7459938      50218.233      36.893836      36.893836      36.893836    
   1890000   0.35996613    -8.0495321     -7.5095905      1.7211707      50218.233      36.893836      36.893836      36.893836    
   1900000   0.35984685    -8.0456687     -7.5059061      1.7417064      50218.233      36.893836      36.893836      36.893836    
   1910000   0.36050155    -8.0468564     -7.5061118      1.7347802      50218.233      36.893836      36.893836      36.893836    
   1920000   0.35904482    -8.0491157     -7.5105561      1.7245776      50218.233      36.893836      36.893836      36.893836    
   1930000   0.36034683    -8.0465351     -7.5060225      1.744478       50218.233      36.893836      36.893836      36.893836    
   1940000   0.35928422    -8.0451003     -7.5061816      1.7591338      50218.233      36.893836      36.893836      36.893836    
   1950000   0.35955284    -8.0481438     -7.5088222      1.7345469      50218.233      36.893836      36.893836      36.893836    
   1960000   0.35774596    -8.0491804     -7.5125691      1.7222539      50218.233      36.893836      36.893836      36.893836    
   1970000   0.35994736    -8.0468227     -7.5069094      1.7424073      50218.233      36.893836      36.893836      36.893836    
   1980000   0.35837766    -8.0519013     -7.5143424      1.7032303      50218.233      36.893836      36.893836      36.893836    
   1990000   0.35979851    -8.0496681     -7.509978       1.7197914      50218.233      36.893836      36.893836      36.893836    
   2000000   0.36187146    -8.0476732     -7.5048737      1.7423057      50218.233      36.893836      36.893836      36.893836    
   2010000   0.36092931    -8.048744      -7.5073577      1.7296346      50218.233      36.893836      36.893836      36.893836    
   2020000   0.35987191    -8.0495421     -7.509742       1.7195206      50218.233      36.893836      36.893836      36.893836    
   2030000   0.35880522    -8.0501171     -7.5119169      1.7213772      50218.233      36.893836      36.893836      36.893836    
   2040000   0.35987495    -8.0495585     -7.5097537      1.7303295      50218.233      36.893836      36.893836      36.893836    
   2050000   0.35775841    -8.0483611     -7.5117312      1.7242963      50218.233      36.893836      36.893836      36.893836    
   2060000   0.35780881    -8.0516488     -7.5149432      1.7133337      50218.233      36.893836      36.893836      36.893836    
   2070000   0.36029069    -8.0487415     -7.5083132      1.7254039      50218.233      36.893836      36.893836      36.893836    
   2080000   0.35981402    -8.0482295     -7.5085162      1.7376562      50218.233      36.893836      36.893836      36.893836    
   2090000   0.3595058     -8.0473501     -7.5080991      1.7409703      50218.233      36.893836      36.893836      36.893836    
   2100000   0.36008582    -8.0503174     -7.5101963      1.714146       50218.233      36.893836      36.893836      36.893836    
   2110000   0.36058438    -8.0492595     -7.5083907      1.7275453      50218.233      36.893836      36.893836      36.893836    
   2120000   0.36038652    -8.0451177     -7.5045457      1.7647544      50218.233      36.893836      36.893836      36.893836    
   2130000   0.35904259    -8.0444943     -7.5059381      1.7587762      50218.233      36.893836      36.893836      36.893836    
   2140000   0.35886635    -8.046422      -7.5081301      1.7485712      50218.233      36.893836      36.893836      36.893836    
   2150000   0.35922405    -8.0484374     -7.509609       1.7342073      50218.233      36.893836      36.893836      36.893836    
   2160000   0.36218264    -8.0444342     -7.501168       1.7736363      50218.233      36.893836      36.893836      36.893836    
   2170000   0.36014662    -8.0499943     -7.5097821      1.7249661      50218.233      36.893836      36.893836      36.893836    
   2180000   0.36027523    -8.04786       -7.5074548      1.73698        50218.233      36.893836      36.893836      36.893836    
   2190000   0.35918122    -8.0478427     -7.5090785      1.7358646      50218.233      36.893836      36.893836      36.893836    
   2200000   0.36013271    -8.0469059     -7.5067145      1.7436404      50218.233      36.893836      36.893836      36.893836    
   2210000   0.36009143    -8.0494517     -7.5093222      1.733219       50218.233      36.893836      36.893836      36.893836    
   2220000   0.35897829    -8.0480454     -7.5095856      1.7324577      50218.233      36.893836      36.893836      36.893836    
   2230000   0.36079055    -8.0472953     -7.5061172      1.7492333      50218.233      36.893836      36.893836      36.893836    
   2240000   0.36161985    -8.0454324     -7.5030103      1.7669174      50218.233      36.893836      36.893836      36.893836    
   2250000   0.36132378    -8.048694      -7.506716       1.7294873      50218.233      36.893836      36.893836      36.893836    
   2260000   0.35877349    -8.0479207     -7.5097681      1.7422803      50218.233      36.893836      36.893836      36.893836    
   2270000   0.35978827    -8.0467007     -7.507026       1.7480422      50218.233      36.893836      36.893836      36.893836    
   2280000   0.35746958    -8.0463254     -7.5101286      1.7537754      50218.233      36.893836      36.893836      36.893836    
   2290000   0.35966579    -8.0445734     -7.5050824      1.7678681      50218.233      36.893836      36.893836      36.893836    
   2300000   0.36048054    -8.046141      -7.5054279      1.7534256      50218.233      36.893836      36.893836      36.893836    
   2310000   0.35798806    -8.0478995     -7.510925       1.7453121      50218.233      36.893836      36.893836      36.893836    
   2320000   0.35936687    -8.0486942     -7.5096515      1.7246223      50218.233      36.893836      36.893836      36.893836    
   2330000   0.35979615    -8.0474287     -7.5077422      1.7363675      50218.233      36.893836      36.893836      36.893836    
   2340000   0.35870772    -8.0482545     -7.5102006      1.7388987      50218.233      36.893836      36.893836      36.893836    
   2350000   0.36027163    -8.0480486     -7.5076489      1.7393905      50218.233      36.893836      36.893836      36.893836    
   2360000   0.35959261    -8.049987      -7.5106058      1.7185818      50218.233      36.893836      36.893836      36.893836    
   2370000   0.35901986    -8.0456929     -7.5071707      1.7545911      50218.233      36.893836      36.893836      36.893836    
   2380000   0.36122877    -8.0488016     -7.5069662      1.7315399      50218.233      36.893836      36.893836      36.893836    
   2390000   0.3605886     -8.0479809     -7.5071056      1.7419531      50218.233      36.893836      36.893836      36.893836    
   2400000   0.35876577    -8.0499431     -7.5118021      1.7235184      50218.233      36.893836      36.893836      36.893836    
   2410000   0.35759481    -8.0489218     -7.5125372      1.7367507      50218.233      36.893836      36.893836      36.893836    
   2420000   0.36079789    -8.0482299     -7.5070407      1.741146       50218.233      36.893836      36.893836      36.893836    
   2430000   0.35904729    -8.0480757     -7.5095124      1.7330019      50218.233      36.893836      36.893836      36.893836    
   2440000   0.35955274    -8.0497725     -7.510451       1.7225228      50218.233      36.893836      36.893836      36.893836    
   2450000   0.3598111     -8.0457435     -7.5060346      1.7487901      50218.233      36.893836      36.893836      36.893836    
   2460000   0.35851582    -8.0500586     -7.5122926      1.71907        50218.233      36.893836      36.893836      36.893836    
   2470000   0.3602378     -8.0491612     -7.5088122      1.7266603      50218.233      36.893836      36.893836      36.893836    
   2480000   0.36244933    -8.0481438     -7.5044776      1.7402747      50218.233      36.893836      36.893836      36.893836    
   2490000   0.35879262    -8.0493391     -7.5111578      1.7321476      50218.233      36.893836      36.893836      36.893836    
   2500000   0.35989129    -8.0482354     -7.5084062      1.7431573      50218.233      36.893836      36.893836      36.893836    
   2510000   0.36075349    -8.0489919     -7.5078694      1.7302534      50218.233      36.893836      36.893836      36.893836    
   2520000   0.3611441     -8.045948      -7.5042395      1.7564596      50218.233      36.893836      36.893836      36.893836    
   2530000   0.35903688    -8.0500245     -7.5114768      1.7144338      50218.233      36.893836      36.893836      36.893836    
   2540000   0.35962803    -8.0491522     -7.5097178      1.7245734      50218.233      36.893836      36.893836      36.893836    
   2550000   0.36019652    -8.0463094     -7.5060223      1.7446443      50218.233      36.893836      36.893836      36.893836    
   2560000   0.35960992    -8.049887      -7.5104798      1.7168772      50218.233      36.893836      36.893836      36.893836    
   2570000   0.36012662    -8.050402      -7.5102197      1.7187503      50218.233      36.893836      36.893836      36.893836    
   2580000   0.36107157    -8.0511663     -7.5095667      1.71264        50218.233      36.893836      36.893836      36.893836    
   2590000   0.35987582    -8.0497809     -7.5099749      1.7273794      50218.233      36.893836      36.893836      36.893836    
   2600000   0.35929091    -8.0480615     -7.5091328      1.7515172      50218.233      36.893836      36.893836      36.893836    
   2610000   0.35963639    -8.0457613     -7.5063144      1.7476835      50218.233      36.893836      36.893836      36.893836    
   2620000   0.3591241     -8.0480804     -7.509402       1.7335148      50218.233      36.893836      36.893836      36.893836    
   2630000   0.36219645    -8.0472283     -7.5039413      1.7374401      50218.233      36.893836      36.893836      36.893836    
   2640000   0.35851843    -8.048419      -7.510649       1.7415794      50218.233      36.893836      36.893836      36.893836    
   2650000   0.3620434     -8.0489053     -7.5058479      1.7337984      50218.233      36.893836      36.893836      36.893836    
   2660000   0.35957762    -8.0482679     -7.5089091      1.7329948      50218.233      36.893836      36.893836      36.893836    
   2670000   0.35967616    -8.0461151     -7.5066085      1.7536839      50218.233      36.893836      36.893836      36.893836    
   2680000   0.35923706    -8.047309      -7.508461       1.7443718      50218.233      36.893836      36.893836      36.893836    
   2690000   0.3607139     -8.0474444     -7.5063813      1.7421184      50218.233      36.893836      36.893836      36.893836    
   2700000   0.36015708    -8.0465249     -7.5062969      1.7472168      50218.233      36.893836      36.893836      36.893836    
   2710000   0.3602209     -8.0478228     -7.5074992      1.7457814      50218.233      36.893836      36.893836      36.893836    
   2720000   0.35991887    -8.0470591     -7.5071884      1.7405208      50218.233      36.893836      36.893836      36.893836    
   2730000   0.35900823    -8.0450734     -7.5065687      1.7623436      50218.233      36.893836      36.893836      36.893836    
   2740000   0.35858404    -8.0468022     -7.5089337      1.7445377      50218.233      36.893836      36.893836      36.893836    
   2750000   0.35961921    -8.0481413     -7.5087202      1.73275        50218.233      36.893836      36.893836      36.893836    
   2760000   0.35988955    -8.0474402     -7.5076136      1.7387673      50218.233      36.893836      36.893836      36.893836    
   2770000   0.3609574     -8.0471112     -7.5056828      1.7442359      50218.233      36.893836      36.893836      36.893836    
   2780000   0.35991392    -8.0483769     -7.5085137      1.7348181      50218.233      36.893836      36.893836      36.893836    
   2790000   0.36053924    -8.0499165     -7.5091153      1.7200404      50218.233      36.893836      36.893836      36.893836    
   2800000   0.36031547    -8.0491954     -7.5087299      1.7347998      50218.233      36.893836      36.893836      36.893836    
   2810000   0.35954186    -8.0484231     -7.509118       1.7299156      50218.233      36.893836      36.893836      36.893836    
   2820000   0.36153901    -8.050357      -7.5080562      1.7266929      50218.233      36.893836      36.893836      36.893836    
   2830000   0.35894498    -8.0471502     -7.5087404      1.7447276      50218.233      36.893836      36.893836      36.893836    
   2840000   0.35909832    -8.0451603     -7.5065204      1.7680808      50218.233      36.893836      36.893836      36.893836    
   2850000   0.36123525    -8.0489761     -7.5071309      1.7379644      50218.233      36.893836      36.893836      36.893836    
   2860000   0.3592374     -8.0463341     -7.5074856      1.7510448      50218.233      36.893836      36.893836      36.893836    
   2870000   0.36056626    -8.0471318     -7.5062901      1.7430915      50218.233      36.893836      36.893836      36.893836    
   2880000   0.36019461    -8.0469442     -7.5066599      1.750187       50218.233      36.893836      36.893836      36.893836    
   2890000   0.359532      -8.0500667     -7.5107763      1.7221905      50218.233      36.893836      36.893836      36.893836    
   2900000   0.36060824    -8.0464576     -7.5055529      1.7518073      50218.233      36.893836      36.893836      36.893836    
   2910000   0.36032427    -8.0449387     -7.50446        1.7567642      50218.233      36.893836      36.893836      36.893836    
   2920000   0.35888558    -8.0483985     -7.5100778      1.7375729      50218.233      36.893836      36.893836      36.893836    
   2930000   0.36004181    -8.0472276     -7.5071725      1.7419224      50218.233      36.893836      36.893836      36.893836    
   2940000   0.3603064     -8.0520637     -7.5116118      1.7154202      50218.233      36.893836      36.893836      36.893836    
   2950000   0.3622601     -8.0492491     -7.5058667      1.7342804      50218.233      36.893836      36.893836      36.893836    
   2960000   0.36082877    -8.0493694     -7.508134       1.7303928      50218.233      36.893836      36.893836      36.893836    
   2970000   0.35947643    -8.0491027     -7.5098957      1.7256861      50218.233      36.893836      36.893836      36.893836    
   2980000   0.35958769    -8.049769      -7.5103951      1.7298425      50218.233      36.893836      36.893836      36.893836    
   2990000   0.36083287    -8.0482385     -7.5069969      1.7415582      50218.233      36.893836      36.893836      36.893836    
   3000000   0.36226677    -8.0498932     -7.5065008      1.7280733      50218.233      36.893836      36.893836      36.893836    
   3010000   0.35939855    -8.0503067     -7.5112165      1.7151772      50218.233      36.893836      36.893836      36.893836    
   3020000   0.35853101    -8.0479705     -7.5101816      1.7430475      50218.233      36.893836      36.893836      36.893836    
   3030000   0.35977036    -8.0505527     -7.5109049      1.7231097      50218.233      36.893836      36.893836      36.893836    
   3040000   0.36043451    -8.0493291     -7.508685       1.7334242      50218.233      36.893836      36.893836      36.893836    
   3050000   0.35915243    -8.0510296     -7.5123086      1.7178278      50218.233      36.893836      36.893836      36.893836    
   3060000   0.36152568    -8.0492012     -7.5069204      1.7281622      50218.233      36.893836      36.893836      36.893836    
   3070000   0.36057189    -8.0481355     -7.5072853      1.7434996      50218.233      36.893836      36.893836      36.893836    
   3080000   0.35842372    -8.049231      -7.5116031      1.725302       50218.233      36.893836      36.893836      36.893836    
   3090000   0.35924938    -8.0480422     -7.5091758      1.7425902      50218.233      36.893836      36.893836      36.893836    
   3100000   0.360178      -8.0470523     -7.506793       1.7452562      50218.233      36.893836      36.893836      36.893836    
   3110000   0.3612847     -8.0496922     -7.5077729      1.7273815      50218.233      36.893836      36.893836      36.893836    
   3120000   0.3588829     -8.0477        -7.5093833      1.7382032      50218.233      36.893836      36.893836      36.893836    
   3130000   0.36070012    -8.0491289     -7.5080864      1.7246073      50218.233      36.893836      36.893836      36.893836    
   3140000   0.36017297    -8.0492973     -7.5090455      1.7244759      50218.233      36.893836      36.893836      36.893836    
   3150000   0.36225946    -8.0480137     -7.5046322      1.7493869      50218.233      36.893836      36.893836      36.893836    
   3160000   0.35989187    -8.0474174     -7.5075873      1.7401877      50218.233      36.893836      36.893836      36.893836    
   3170000   0.36152003    -8.0512737     -7.5090014      1.7126016      50218.233      36.893836      36.893836      36.893836    
   3180000   0.36125475    -8.0467363     -7.5048618      1.7502359      50218.233      36.893836      36.893836      36.893836    
   3190000   0.35943517    -8.0483349     -7.5091899      1.7425422      50218.233      36.893836      36.893836      36.893836    
   3200000   0.35964663    -8.0477927     -7.5083304      1.7443002      50218.233      36.893836      36.893836      36.893836    
   3210000   0.3600561     -8.0455708     -7.5054943      1.7625921      50218.233      36.893836      36.893836      36.893836    
   3220000   0.35979093    -8.0474251     -7.5077464      1.7473628      50218.233      36.893836      36.893836      36.893836    
   3230000   0.35990801    -8.0473804     -7.507526       1.755013       50218.233      36.893836      36.893836      36.893836    
   3240000   0.36073786    -8.0474777     -7.5063786      1.7478521      50218.233      36.893836      36.893836      36.893836    
   3250000   0.35970919    -8.0480703     -7.5085142      1.7404564      50218.233      36.893836      36.893836      36.893836    
   3260000   0.35975003    -8.0479649     -7.5083475      1.7412176      50218.233      36.893836      36.893836      36.893836    
   3270000   0.35950055    -8.0490187     -7.5097756      1.7303431      50218.233      36.893836      36.893836      36.893836    
   3280000   0.36208861    -8.0493275     -7.5062024      1.7323953      50218.233      36.893836      36.893836      36.893836    
   3290000   0.36055643    -8.0443017     -7.5034747      1.7654054      50218.233      36.893836      36.893836      36.893836    
   3300000   0.36053742    -8.0515867     -7.5107883      1.7159966      50218.233      36.893836      36.893836      36.893836    
   3310000   0.35852399    -8.0484531     -7.5106747      1.7330119      50218.233      36.893836      36.893836      36.893836    
   3320000   0.36058718    -8.0482742     -7.5074012      1.7378378      50218.233      36.893836      36.893836      36.893836    
   3330000   0.36150609    -8.0497271     -7.5074757      1.7225423      50218.233      36.893836      36.893836      36.893836    
   3340000   0.36060814    -8.0486587     -7.5077541      1.7446169      50218.233      36.893836      36.893836      36.893836    
   3350000   0.35675016    -8.0481193     -7.5130016      1.7346563      50218.233      36.893836      36.893836      36.893836    
   3360000   0.35948117    -8.0470817     -7.5078676      1.7472564      50218.233      36.893836      36.893836      36.893836    
   3370000   0.36072911    -8.0497426     -7.5086566      1.7342621      50218.233      36.893836      36.893836      36.893836    
   3380000   0.36118451    -8.0465181     -7.504749       1.754249       50218.233      36.893836      36.893836      36.893836    
   3390000   0.35958201    -8.0507306     -7.5113653      1.7219266      50218.233      36.893836      36.893836      36.893836    
   3400000   0.36119452    -8.0479996     -7.5062155      1.7465692      50218.233      36.893836      36.893836      36.893836    
   3410000   0.36203713    -8.0491539     -7.5061059      1.7399738      50218.233      36.893836      36.893836      36.893836    
   3420000   0.36119788    -8.0476185     -7.5058294      1.7440146      50218.233      36.893836      36.893836      36.893836    
   3430000   0.35988197    -8.0472211     -7.5074058      1.7439973      50218.233      36.893836      36.893836      36.893836    
   3440000   0.3605293     -8.0505191     -7.5097329      1.7159801      50218.233      36.893836      36.893836      36.893836    
   3450000   0.36031671    -8.0490514     -7.5085841      1.7333326      50218.233      36.893836      36.893836      36.893836    
   3460000   0.35851012    -8.0498744     -7.5121169      1.7224812      50218.233      36.893836      36.893836      36.893836    
   3470000   0.36046153    -8.0474432     -7.5067586      1.7433262      50218.233      36.893836      36.893836      36.893836    
   3480000   0.35909016    -8.0450728     -7.5064452      1.7637114      50218.233      36.893836      36.893836      36.893836    
   3490000   0.36062352    -8.0498489     -7.5089214      1.7296504      50218.233      36.893836      36.893836      36.893836    
   3500000   0.36151696    -8.0465394     -7.5042717      1.7565488      50218.233      36.893836      36.893836      36.893836    
   3510000   0.36204155    -8.0489351     -7.5058805      1.7341167      50218.233      36.893836      36.893836      36.893836    
   3520000   0.35995917    -8.0498449     -7.5099139      1.7243975      50218.233      36.893836      36.893836      36.893836    
   3530000   0.36035023    -8.0476002     -7.5070825      1.7502475      50218.233      36.893836      36.893836      36.893836    
   3540000   0.35993687    -8.0466832     -7.5067855      1.7436601      50218.233      36.893836      36.893836      36.893836    
   3550000   0.35915296    -8.0487555     -7.5100337      1.7400963      50218.233      36.893836      36.893836      36.893836    
   3560000   0.36092729    -8.0479314     -7.5065481      1.7464126      50218.233      36.893836      36.893836      36.893836    
   3570000   0.36024484    -8.0499719     -7.5096123      1.7224569      50218.233      36.893836      36.893836      36.893836    
   3580000   0.36051768    -8.0486232     -7.5078544      1.7346806      50218.233      36.893836      36.893836      36.893836    
   3590000   0.36036592    -8.049004      -7.5084628      1.7289577      50218.233      36.893836      36.893836      36.893836    
   3600000   0.36005737    -8.0461947     -7.5061164      1.7457977      50218.233      36.893836      36.893836      36.893836    
   3610000   0.36095701    -8.0486939     -7.5072661      1.7296869      50218.233      36.893836      36.893836      36.893836    
   3620000   0.36002059    -8.0488942     -7.508871       1.7414943      50218.233      36.893836      36.893836      36.893836    
   3630000   0.36023848    -8.0513805     -7.5110305      1.714429       50218.233      36.893836      36.893836      36.893836    
   3640000   0.35873746    -8.0447194     -7.5066208      1.7620734      50218.233      36.893836      36.893836      36.893836    
   3650000   0.36005802    -8.0471329     -7.5070536      1.7342465      50218.233      36.893836      36.893836      36.893836    
   3660000   0.3586687     -8.046423      -7.5084276      1.7412954      50218.233      36.893836      36.893836      36.893836    
   3670000   0.36025156    -8.0451499     -7.5047802      1.758426       50218.233      36.893836      36.893836      36.893836    
   3680000   0.3599861     -8.0477566     -7.5077851      1.7378663      50218.233      36.893836      36.893836      36.893836    
   3690000   0.35773714    -8.0483281     -7.5117301      1.7351318      50218.233      36.893836      36.893836      36.893836    
   3700000   0.35972441    -8.0488193     -7.5092404      1.7320635      50218.233      36.893836      36.893836      36.893836    
   3710000   0.36007078    -8.0471        -7.5070016      1.7450467      50218.233      36.893836      36.893836      36.893836    
   3720000   0.35960748    -8.046993      -7.5075895      1.7479345      50218.233      36.893836      36.893836      36.893836    
   3730000   0.36057949    -8.0485546     -7.5076931      1.7354813      50218.233      36.893836      36.893836      36.893836    
   3740000   0.36011783    -8.0461368     -7.5059677      1.7552166      50218.233      36.893836      36.893836      36.893836    
   3750000   0.36169726    -8.04846       -7.5059219      1.730243       50218.233      36.893836      36.893836      36.893836    
   3760000   0.36018249    -8.0467569     -7.5064908      1.740093       50218.233      36.893836      36.893836      36.893836    
   3770000   0.36096576    -8.0441385     -7.5026976      1.7640334      50218.233      36.893836      36.893836      36.893836    
   3780000   0.35883471    -8.0479809     -7.5097365      1.7374381      50218.233      36.893836      36.893836      36.893836    
   3790000   0.36075878    -8.0442989     -7.5031684      1.7683208      50218.233      36.893836      36.893836      36.893836    
   3800000   0.36179956    -8.0497947     -7.5071031      1.7269338      50218.233      36.893836      36.893836      36.893836    
   3810000   0.36016433    -8.0454826     -7.5052438      1.7575763      50218.233      36.893836      36.893836      36.893836    
   3820000   0.35997463    -8.048354      -7.5083998      1.7422453      50218.233      36.893836      36.893836      36.893836    
   3830000   0.36033962    -8.0484872     -7.5079855      1.7320878      50218.233      36.893836      36.893836      36.893836    
   3840000   0.36074218    -8.0449384     -7.5038328      1.7581776      50218.233      36.893836      36.893836      36.893836    
   3850000   0.36062622    -8.050993      -7.5100613      1.718513       50218.233      36.893836      36.893836      36.893836    
   3860000   0.36085099    -8.0491681     -7.5078993      1.7308462      50218.233      36.893836      36.893836      36.893836    
   3870000   0.3609229     -8.0483501     -7.5069735      1.7459973      50218.233      36.893836      36.893836      36.893836    
   3880000   0.35891148    -8.0468659     -7.5085063      1.7525667      50218.233      36.893836      36.893836      36.893836    
   3890000   0.35979074    -8.0460366     -7.5063581      1.7555117      50218.233      36.893836      36.893836      36.893836    
   3900000   0.36021739    -8.0473837     -7.5070653      1.7427159      50218.233      36.893836      36.893836      36.893836    
   3910000   0.36018216    -8.0494965     -7.509231       1.7242238      50218.233      36.893836      36.893836      36.893836    
   3920000   0.35914541    -8.0505127     -7.5118022      1.7122168      50218.233      36.893836      36.893836      36.893836    
   3930000   0.36040507    -8.0481751     -7.5075752      1.7409725      50218.233      36.893836      36.893836      36.893836    
   3940000   0.36127288    -8.0496512     -7.5077496      1.722734       50218.233      36.893836      36.893836      36.893836    
   3950000   0.36091397    -8.0462614     -7.5048982      1.7622358      50218.233      36.893836      36.893836      36.893836    
   3960000   0.35935637    -8.048012      -7.5089851      1.7418158      50218.233      36.893836      36.893836      36.893836    
   3970000   0.36007136    -8.0470142     -7.5069148      1.7424107      50218.233      36.893836      36.893836      36.893836    
   3980000   0.36194594    -8.0498525     -7.5069414      1.728488       50218.233      36.893836      36.893836      36.893836    
   3990000   0.35871086    -8.0484456     -7.510387       1.7388345      50218.233      36.893836      36.893836      36.893836    
   4000000   0.35914057    -8.0518617     -7.5131585      1.7074884      50218.233      36.893836      36.893836      36.893836    
   4010000   0.36187169    -8.0472845     -7.5044847      1.7389244      50218.233      36.893836      36.893836      36.893836    
   4020000   0.36143471    -8.0463625     -7.5042181      1.7510257      50218.233      36.893836      36.893836      36.893836    
   4030000   0.35966707    -8.0494861     -7.5099932      1.7221688      50218.233      36.893836      36.893836      36.893836    
   4040000   0.35927945    -8.0506197     -7.5117082      1.7183372      50218.233      36.893836      36.893836      36.893836    
   4050000   0.35939131    -8.0493        -7.5102207      1.7183489      50218.233      36.893836      36.893836      36.893836    
   4060000   0.35828341    -8.0467066     -7.5092891      1.7413655      50218.233      36.893836      36.893836      36.893836    
   4070000   0.35947249    -8.0499869     -7.5107858      1.7278468      50218.233      36.893836      36.893836      36.893836    
   4080000   0.35881782    -8.0511804     -7.5129613      1.7096486      50218.233      36.893836      36.893836      36.893836    
   4090000   0.35954483    -8.0451361     -7.5058265      1.7548641      50218.233      36.893836      36.893836      36.893836    
   4100000   0.35899031    -8.0468037     -7.5083259      1.7467054      50218.233      36.893836      36.893836      36.893836    
   4110000   0.35976632    -8.0486429     -7.5090011      1.7427261      50218.233      36.893836      36.893836      36.893836    
   4120000   0.35778359    -8.0480691     -7.5114013      1.7348095      50218.233      36.893836      36.893836      36.893836    
   4130000   0.3590932     -8.0455449     -7.5069127      1.7656319      50218.233      36.893836      36.893836      36.893836    
   4140000   0.36004395    -8.0498258     -7.5097676      1.726928       50218.233      36.893836      36.893836      36.893836    
   4150000   0.3614242     -8.0447478     -7.5026192      1.7671576      50218.233      36.893836      36.893836      36.893836    
   4160000   0.36050748    -8.047598      -7.5068444      1.7482781      50218.233      36.893836      36.893836      36.893836    
   4170000   0.36020393    -8.0513387     -7.5110405      1.7157975      50218.233      36.893836      36.893836      36.893836    
   4180000   0.35970851    -8.0474461     -7.507891       1.7435403      50218.233      36.893836      36.893836      36.893836    
   4190000   0.36073555    -8.0455178     -7.5044222      1.7586951      50218.233      36.893836      36.893836      36.893836    
   4200000   0.3601004     -8.0478241     -7.5076812      1.7398095      50218.233      36.893836      36.893836      36.893836    
   4210000   0.35882143    -8.0470409     -7.5088164      1.74202        50218.233      36.893836      36.893836      36.893836    
   4220000   0.35849722    -8.0481145     -7.5103764      1.7215175      50218.233      36.893836      36.893836      36.893836    
   4230000   0.3581111     -8.0466089     -7.5094498      1.7534974      50218.233      36.893836      36.893836      36.893836    
   4240000   0.35889734    -8.0485307     -7.5101923      1.7239055      50218.233      36.893836      36.893836      36.893836    
   4250000   0.36004083    -8.0465854     -7.5065318      1.7486035      50218.233      36.893836      36.893836      36.893836    
   4260000   0.35956594    -8.0476294     -7.5082882      1.7461072      50218.233      36.893836      36.893836      36.893836    
   4270000   0.36142316    -8.0483805     -7.5062534      1.7375738      50218.233      36.893836      36.893836      36.893836    
   4280000   0.35818528    -8.0449518     -7.5076815      1.7547768      50218.233      36.893836      36.893836      36.893836    
   4290000   0.36131878    -8.0463571     -7.5043866      1.75068        50218.233      36.893836      36.893836      36.893836    
   4300000   0.36109301    -8.0466913     -7.5050595      1.7441976      50218.233      36.893836      36.893836      36.893836    
   4310000   0.35876263    -8.0498684     -7.5117322      1.7153719      50218.233      36.893836      36.893836      36.893836    
   4320000   0.35936246    -8.0504091     -7.5113731      1.7149674      50218.233      36.893836      36.893836      36.893836    
   4330000   0.36057472    -8.0483055     -7.5074511      1.7363243      50218.233      36.893836      36.893836      36.893836    
   4340000   0.36111632    -8.0460666     -7.5043998      1.7467215      50218.233      36.893836      36.893836      36.893836    
   4350000   0.35935975    -8.0477797     -7.5087478      1.7354292      50218.233      36.893836      36.893836      36.893836    
   4360000   0.35884827    -8.0482876     -7.5100229      1.7359452      50218.233      36.893836      36.893836      36.893836    
   4370000   0.35869069    -8.0486695     -7.5106411      1.7418625      50218.233      36.893836      36.893836      36.893836    
   4380000   0.3582149     -8.0508955     -7.5135808      1.7106974      50218.233      36.893836      36.893836      36.893836    
   4390000   0.35913751    -8.0492906     -7.510592       1.7360161      50218.233      36.893836      36.893836      36.893836    
   4400000   0.35897608    -8.04639       -7.5079336      1.7514805      50218.233      36.893836      36.893836      36.893836    
   4410000   0.35967464    -8.0472732     -7.5077689      1.7456597      50218.233      36.893836      36.893836      36.893836    
   4420000   0.36079288    -8.049219      -7.5080374      1.7272021      50218.233      36.893836      36.893836      36.893836    
   4430000   0.36052132    -8.0481407     -7.5073664      1.7328453      50218.233      36.893836      36.893836      36.893836    
   4440000   0.35877577    -8.0503209     -7.5121649      1.719114       50218.233      36.893836      36.893836      36.893836    
   4450000   0.36236333    -8.0495371     -7.5059998      1.7293187      50218.233      36.893836      36.893836      36.893836    
   4460000   0.35853115    -8.0506003     -7.5128113      1.7183992      50218.233      36.893836      36.893836      36.893836    
   4470000   0.36047808    -8.0474403     -7.5067309      1.7376536      50218.233      36.893836      36.893836      36.893836    
   4480000   0.35918913    -8.0493268     -7.5105507      1.7223006      50218.233      36.893836      36.893836      36.893836    
   4490000   0.36014855    -8.0501484     -7.5099332      1.7154848      50218.233      36.893836      36.893836      36.893836    
   4500000   0.35892414    -8.0487419     -7.5103634      1.7343577      50218.233      36.893836      36.893836      36.893836    
   4510000   0.36059218    -8.0471085     -7.506228       1.7495241      50218.233      36.893836      36.893836      36.893836    
   4520000   0.35928251    -8.0500241     -7.511108       1.7170001      50218.233      36.893836      36.893836      36.893836    
   4530000   0.35952316    -8.0467803     -7.5075032      1.7479379      50218.233      36.893836      36.893836      36.893836    
   4540000   0.35883221    -8.0457193     -7.5074786      1.7444607      50218.233      36.893836      36.893836      36.893836    
   4550000   0.35916585    -8.0511468     -7.5124057      1.7117786      50218.233      36.893836      36.893836      36.893836    
   4560000   0.35940028    -8.0504554     -7.5113626      1.7210196      50218.233      36.893836      36.893836      36.893836    
   4570000   0.36240312    -8.0465385     -7.5029415      1.7474227      50218.233      36.893836      36.893836      36.893836    
   4580000   0.3590873     -8.0491252     -7.5105019      1.7271265      50218.233      36.893836      36.893836      36.893836    
   4590000   0.35976547    -8.0486965     -7.5090559      1.7343315      50218.233      36.893836      36.893836      36.893836    
   4600000   0.35833237    -8.046454      -7.5089631      1.7507446      50218.233      36.893836      36.893836      36.893836    
   4610000   0.35935716    -8.0498095     -7.5107814      1.7276527      50218.233      36.893836      36.893836      36.893836    
   4620000   0.35983983    -8.0466609     -7.5069088      1.7547867      50218.233      36.893836      36.893836      36.893836    
   4630000   0.36067346    -8.0482542     -7.5072517      1.7401901      50218.233      36.893836      36.893836      36.893836    
   4640000   0.35932986    -8.0474787     -7.5084916      1.7419429      50218.233      36.893836      36.893836      36.893836    
   4650000   0.35871974    -8.0472339     -7.5091619      1.7418709      50218.233      36.893836      36.893836      36.893836    
   4660000   0.35885588    -8.0469155     -7.5086393      1.7392317      50218.233      36.893836      36.893836      36.893836    
   4670000   0.35821182    -8.048848      -7.5115379      1.7241259      50218.233      36.893836      36.893836      36.893836    
   4680000   0.36091497    -8.0486422     -7.5072774      1.7328425      50218.233      36.893836      36.893836      36.893836    
   4690000   0.35888646    -8.0472366     -7.5089146      1.7364734      50218.233      36.893836      36.893836      36.893836    
   4700000   0.35771398    -8.0493179     -7.5127545      1.7256653      50218.233      36.893836      36.893836      36.893836    
   4710000   0.36127304    -8.0468126     -7.5049107      1.7408302      50218.233      36.893836      36.893836      36.893836    
   4720000   0.35938375    -8.0491891     -7.5101211      1.7290515      50218.233      36.893836      36.893836      36.893836    
   4730000   0.35840669    -8.0457604     -7.508158       1.752556       50218.233      36.893836      36.893836      36.893836    
   4740000   0.36007727    -8.0491466     -7.5090384      1.7213015      50218.233      36.893836      36.893836      36.893836    
   4750000   0.36054248    -8.0471752     -7.5063691      1.7385267      50218.233      36.893836      36.893836      36.893836    
   4760000   0.36139677    -8.0503262     -7.5082387      1.7224209      50218.233      36.893836      36.893836      36.893836    
   4770000   0.36015306    -8.0488944     -7.5086725      1.7279111      50218.233      36.893836      36.893836      36.893836    
   4780000   0.36003995    -8.0497589     -7.5097067      1.7345855      50218.233      36.893836      36.893836      36.893836    
   4790000   0.35902151    -8.0460577     -7.5075331      1.7446439      50218.233      36.893836      36.893836      36.893836    
   4800000   0.35981618    -8.0486846     -7.508968       1.7273099      50218.233      36.893836      36.893836      36.893836    
   4810000   0.35994392    -8.0482479     -7.5083397      1.7327129      50218.233      36.893836      36.893836      36.893836    
   4820000   0.36204718    -8.048793      -7.50573        1.7402735      50218.233      36.893836      36.893836      36.893836    
   4830000   0.36087       -8.0481246     -7.5068273      1.7390619      50218.233      36.893836      36.893836      36.893836    
   4840000   0.36036092    -8.0453232     -7.5047895      1.7550129      50218.233      36.893836      36.893836      36.893836    
   4850000   0.36070706    -8.0457513     -7.5046985      1.7468253      50218.233      36.893836      36.893836      36.893836    
   4860000   0.36024344    -8.0468092     -7.5064517      1.7483703      50218.233      36.893836      36.893836      36.893836    
   4870000   0.36067128    -8.0467676     -7.5057683      1.7460785      50218.233      36.893836      36.893836      36.893836    
   4880000   0.35955015    -8.0474842     -7.5081666      1.7470137      50218.233      36.893836      36.893836      36.893836    
   4890000   0.35988697    -8.0480929     -7.5082701      1.7378653      50218.233      36.893836      36.893836      36.893836    
   4900000   0.35905985    -8.048109      -7.5095269      1.7374202      50218.233      36.893836      36.893836      36.893836    
   4910000   0.35955601    -8.0469682     -7.5076419      1.7434747      50218.233      36.893836      36.893836      36.893836    
   4920000   0.36226507    -8.0497102     -7.5063203      1.724588       50218.233      36.893836      36.893836      36.893836    
   4930000   0.35921432    -8.0480529     -7.5092391      1.7392768      50218.233      36.893836      36.893836      36.893836    
   4940000   0.36126692    -8.0497534     -7.5078607      1.7282493      50218.233      36.893836      36.893836      36.893836    
   4950000   0.36160841    -8.0491152     -7.5067103      1.7351877      50218.233      36.893836      36.893836      36.893836    
   4960000   0.35851593    -8.0491205     -7.5113542      1.7352924      50218.233      36.893836      36.893836      36.893836    
   4970000   0.3594433     -8.0495155     -7.5103583      1.7236806      50218.233      36.893836      36.893836      36.893836    
   4980000   0.35808828    -8.0517932     -7.5146684      1.7105622      50218.233      36.893836      36.893836      36.893836    
   4990000   0.35952847    -8.0493238     -7.5100387      1.7207596      50218.233      36.893836      36.893836      36.893836    
   5000000   0.35924674    -8.050659      -7.5117966      1.71756        50218.233      36.893836      36.893836      36.893836    
   5010000   0.35948078    -8.0457659     -7.5065524      1.7563174      50218.233      36.893836      36.893836      36.893836    
   5020000   0.3600754     -8.048357      -7.5082515      1.7412708      50218.233      36.893836      36.893836      36.893836    
   5030000   0.36010437    -8.0485277     -7.5083788      1.7299395      50218.233      36.893836      36.893836      36.893836    
   5040000   0.35964134    -8.0514126     -7.5119583      1.7044061      50218.233      36.893836      36.893836      36.893836    
   5050000   0.36024347    -8.0486451     -7.5082876      1.7411341      50218.233      36.893836      36.893836      36.893836    
   5060000   0.35675213    -8.0465848     -7.5114642      1.7420167      50218.233      36.893836      36.893836      36.893836    
   5070000   0.35998174    -8.0492756     -7.5093106      1.7354043      50218.233      36.893836      36.893836      36.893836    
   5080000   0.35960387    -8.04742       -7.5080219      1.7411612      50218.233      36.893836      36.893836      36.893836    
   5090000   0.35953577    -8.0513665     -7.5120705      1.7175364      50218.233      36.893836      36.893836      36.893836    
   5100000   0.35933972    -8.0463236     -7.5073217      1.7499219      50218.233      36.893836      36.893836      36.893836    
   5110000   0.36150095    -8.0441112     -7.5018675      1.772675       50218.233      36.893836      36.893836      36.893836    
   5120000   0.36071723    -8.0495556     -7.5084875      1.7191057      50218.233      36.893836      36.893836      36.893836    
   5130000   0.35934857    -8.0507697     -7.5117545      1.7136765      50218.233      36.893836      36.893836      36.893836    
   5140000   0.36041154    -8.0465852     -7.5059756      1.7467083      50218.233      36.893836      36.893836      36.893836    
   5150000   0.35927301    -8.050065      -7.5111632      1.7288871      50218.233      36.893836      36.893836      36.893836    
   5160000   0.3606703     -8.0475505     -7.5065527      1.7434487      50218.233      36.893836      36.893836      36.893836    
   5170000   0.36056392    -8.0466218     -7.5057836      1.7495857      50218.233      36.893836      36.893836      36.893836    
   5180000   0.36182786    -8.0487035     -7.5059694      1.7406583      50218.233      36.893836      36.893836      36.893836    
   5190000   0.36007784    -8.0483873     -7.5082782      1.7424001      50218.233      36.893836      36.893836      36.893836    
   5200000   0.35817498    -8.0474698     -7.510215       1.7352467      50218.233      36.893836      36.893836      36.893836    
   5210000   0.35783186    -8.0465668     -7.5098266      1.7425043      50218.233      36.893836      36.893836      36.893836    
   5220000   0.35970217    -8.0465221     -7.5069766      1.748722       50218.233      36.893836      36.893836      36.893836    
   5230000   0.35995616    -8.0492039     -7.5092773      1.7318972      50218.233      36.893836      36.893836      36.893836    
   5240000   0.35725307    -8.0435915     -7.5077195      1.7686558      50218.233      36.893836      36.893836      36.893836    
   5250000   0.35929648    -8.0449265     -7.5059894      1.7582706      50218.233      36.893836      36.893836      36.893836    
   5260000   0.35946897    -8.0487035     -7.5095078      1.7309662      50218.233      36.893836      36.893836      36.893836    
   5270000   0.36045071    -8.0463564     -7.505688       1.7519313      50218.233      36.893836      36.893836      36.893836    
   5280000   0.36037313    -8.0450215     -7.5044695      1.7707166      50218.233      36.893836      36.893836      36.893836    
   5290000   0.36073067    -8.0495391     -7.5084508      1.7304888      50218.233      36.893836      36.893836      36.893836    
   5300000   0.35989163    -8.0476715     -7.5078418      1.7418286      50218.233      36.893836      36.893836      36.893836    
   5310000   0.36143417    -8.0461971     -7.5040535      1.7581538      50218.233      36.893836      36.893836      36.893836    
   5320000   0.36092636    -8.0441463     -7.5027645      1.7667518      50218.233      36.893836      36.893836      36.893836    
   5330000   0.36248777    -8.0478754     -7.5041514      1.7453178      50218.233      36.893836      36.893836      36.893836    
   5340000   0.35985383    -8.0498955     -7.5101224      1.7182654      50218.233      36.893836      36.893836      36.893836    
   5350000   0.36020998    -8.0494555     -7.5091482      1.7287813      50218.233      36.893836      36.893836      36.893836    
   5360000   0.35797328    -8.0453462     -7.5083939      1.7457133      50218.233      36.893836      36.893836      36.893836    
   5370000   0.36008433    -8.0503568     -7.510238       1.7221         50218.233      36.893836      36.893836      36.893836    
   5380000   0.36011115    -8.0484762     -7.5083171      1.7410487      50218.233      36.893836      36.893836      36.893836    
   5390000   0.36054905    -8.0479506     -7.5071348      1.7379621      50218.233      36.893836      36.893836      36.893836    
   5400000   0.36111532    -8.0507043     -7.509039       1.7207754      50218.233      36.893836      36.893836      36.893836    
   5410000   0.36127136    -8.0482914     -7.506392       1.7476252      50218.233      36.893836      36.893836      36.893836    
   5420000   0.36181351    -8.051206      -7.5084934      1.7205492      50218.233      36.893836      36.893836      36.893836    
   5430000   0.35822029    -8.0474691     -7.5101463      1.7382917      50218.233      36.893836      36.893836      36.893836    
   5440000   0.358796      -8.0454149     -7.5072285      1.7594274      50218.233      36.893836      36.893836      36.893836    
   5450000   0.35902765    -8.0511249     -7.5125911      1.7109793      50218.233      36.893836      36.893836      36.893836    
   5460000   0.35910986    -8.0478626     -7.5092054      1.7374505      50218.233      36.893836      36.893836      36.893836    
   5470000   0.35986188    -8.0459885     -7.5062034      1.7552666      50218.233      36.893836      36.893836      36.893836    
   5480000   0.35952375    -8.0464399     -7.507162       1.7513953      50218.233      36.893836      36.893836      36.893836    
   5490000   0.35967787    -8.0483892     -7.50888        1.7286099      50218.233      36.893836      36.893836      36.893836    
   5500000   0.35939996    -8.0475126     -7.5084204      1.7457436      50218.233      36.893836      36.893836      36.893836    
   5510000   0.36007561    -8.049518      -7.5094123      1.7315449      50218.233      36.893836      36.893836      36.893836    
   5520000   0.35982934    -8.0496799     -7.5099436      1.7283993      50218.233      36.893836      36.893836      36.893836    
   5530000   0.35929886    -8.0467573     -7.5078166      1.7413522      50218.233      36.893836      36.893836      36.893836    
   5540000   0.35951541    -8.0509197     -7.5116542      1.7243791      50218.233      36.893836      36.893836      36.893836    
   5550000   0.36061375    -8.0475757     -7.5066628      1.7297854      50218.233      36.893836      36.893836      36.893836    
   5560000   0.36104806    -8.0517369     -7.5101725      1.7145153      50218.233      36.893836      36.893836      36.893836    
   5570000   0.35818298    -8.0493487     -7.5120818      1.7266245      50218.233      36.893836      36.893836      36.893836    
   5580000   0.36023748    -8.045949      -7.5056004      1.7495171      50218.233      36.893836      36.893836      36.893836    
   5590000   0.35901881    -8.045608      -7.5070874      1.7634966      50218.233      36.893836      36.893836      36.893836    
   5600000   0.35960368    -8.0486536     -7.5092557      1.7293664      50218.233      36.893836      36.893836      36.893836    
   5610000   0.36085642    -8.0468501     -7.5055732      1.7464599      50218.233      36.893836      36.893836      36.893836    
   5620000   0.36154799    -8.0502076     -7.5078933      1.7218934      50218.233      36.893836      36.893836      36.893836    
   5630000   0.35769287    -8.0464874     -7.5099558      1.7441459      50218.233      36.893836      36.893836      36.893836    
   5640000   0.35974535    -8.0497214     -7.5101111      1.7248385      50218.233      36.893836      36.893836      36.893836    
   5650000   0.35988831    -8.0479452     -7.5081204      1.7459017      50218.233      36.893836      36.893836      36.893836    
   5660000   0.3617425     -8.0470919     -7.5044859      1.7500742      50218.233      36.893836      36.893836      36.893836    
   5670000   0.35829785    -8.0498281     -7.512389       1.7169705      50218.233      36.893836      36.893836      36.893836    
   5680000   0.35883374    -8.0462407     -7.5079977      1.749998       50218.233      36.893836      36.893836      36.893836    
   5690000   0.36004074    -8.0473799     -7.5073264      1.7418078      50218.233      36.893836      36.893836      36.893836    
   5700000   0.36232226    -8.0484197     -7.504944       1.7412903      50218.233      36.893836      36.893836      36.893836    
   5710000   0.35734953    -8.0487468     -7.5127302      1.7319764      50218.233      36.893836      36.893836      36.893836    
   5720000   0.35856708    -8.0481896     -7.5103467      1.7313572      50218.233      36.893836      36.893836      36.893836    
   5730000   0.36037007    -8.0467801     -7.5062327      1.7435536      50218.233      36.893836      36.893836      36.893836    
   5740000   0.36146537    -8.0476701     -7.5054797      1.7430465      50218.233      36.893836      36.893836      36.893836    
   5750000   0.35927626    -8.0471054     -7.5081987      1.7415514      50218.233      36.893836      36.893836      36.893836    
   5760000   0.35804094    -8.0441231     -7.5070693      1.7662558      50218.233      36.893836      36.893836      36.893836    
   5770000   0.36113059    -8.0474209     -7.5057327      1.7461481      50218.233      36.893836      36.893836      36.893836    
   5780000   0.35867966    -8.04683       -7.5088182      1.7525016      50218.233      36.893836      36.893836      36.893836    
   5790000   0.36072683    -8.0467947     -7.5057121      1.7524443      50218.233      36.893836      36.893836      36.893836    
   5800000   0.35938935    -8.0457497     -7.5066733      1.7521113      50218.233      36.893836      36.893836      36.893836    
   5810000   0.35963328    -8.048813      -7.5093708      1.7390986      50218.233      36.893836      36.893836      36.893836    
   5820000   0.35960688    -8.0467942     -7.5073915      1.7377946      50218.233      36.893836      36.893836      36.893836    
   5830000   0.36021813    -8.0489907     -7.5086712      1.730823       50218.233      36.893836      36.893836      36.893836    
   5840000   0.3594591     -8.0473578     -7.5081769      1.7425695      50218.233      36.893836      36.893836      36.893836    
   5850000   0.36013573    -8.0480206     -7.5078247      1.7357666      50218.233      36.893836      36.893836      36.893836    
   5860000   0.3615946     -8.0497454     -7.5073612      1.7266556      50218.233      36.893836      36.893836      36.893836    
   5870000   0.35850836    -8.0477393     -7.5099845      1.7480579      50218.233      36.893836      36.893836      36.893836    
   5880000   0.35848607    -8.0507972     -7.5130757      1.7137439      50218.233      36.893836      36.893836      36.893836    
   5890000   0.36124925    -8.0488729     -7.5070068      1.7355115      50218.233      36.893836      36.893836      36.893836    
   5900000   0.35983889    -8.0479008     -7.5081502      1.7379843      50218.233      36.893836      36.893836      36.893836    
   5910000   0.3605663     -8.0465673     -7.5057255      1.752678       50218.233      36.893836      36.893836      36.893836    
   5920000   0.35877055    -8.0474374     -7.5092892      1.7486638      50218.233      36.893836      36.893836      36.893836    
   5930000   0.35964925    -8.0466561     -7.5071899      1.7427331      50218.233      36.893836      36.893836      36.893836    
   5940000   0.36028749    -8.0480081     -7.5075846      1.7295678      50218.233      36.893836      36.893836      36.893836    
   5950000   0.36038249    -8.0474903     -7.5069243      1.7471493      50218.233      36.893836      36.893836      36.893836    
   5960000   0.36007161    -8.0484041     -7.5083043      1.737471       50218.233      36.893836      36.893836      36.893836    
   5970000   0.36004168    -8.0500308     -7.5099759      1.7250827      50218.233      36.893836      36.893836      36.893836    
   5980000   0.36063808    -8.0456926     -7.5047432      1.7569349      50218.233      36.893836      36.893836      36.893836    
   5990000   0.36020821    -8.0486495     -7.5083449      1.7241643      50218.233      36.893836      36.893836      36.893836    
   6000000   0.36077193    -8.0469564     -7.5058062      1.746585       50218.233      36.893836      36.893836      36.893836    
   6010000   0.36074186    -8.0517817     -7.5106766      1.7108252      50218.233      36.893836      36.893836      36.893836    
   6020000   0.36098925    -8.0494653     -7.5079891      1.7394109      50218.233      36.893836      36.893836      36.893836    
   6030000   0.36182758    -8.0473609     -7.5046272      1.7480049      50218.233      36.893836      36.893836      36.893836    
   6040000   0.36084577    -8.0480234     -7.5067624      1.7450027      50218.233      36.893836      36.893836      36.893836    
   6050000   0.36098087    -8.0504175     -7.5089539      1.7239945      50218.233      36.893836      36.893836      36.893836    
   6060000   0.35909433    -8.0466552     -7.5080214      1.7459017      50218.233      36.893836      36.893836      36.893836    
   6070000   0.35859395    -8.0489237     -7.5110405      1.7310408      50218.233      36.893836      36.893836      36.893836    
   6080000   0.3569648     -8.0499887     -7.5145491      1.718926       50218.233      36.893836      36.893836      36.893836    
   6090000   0.36058988    -8.0501809     -7.5093038      1.7205593      50218.233      36.893836      36.893836      36.893836    
   6100000   0.36026592    -8.0487498     -7.5083586      1.7322155      50218.233      36.893836      36.893836      36.893836    
   6110000   0.36153259    -8.0478795     -7.5055884      1.7442617      50218.233      36.893836      36.893836      36.893836    
   6120000   0.35975556    -8.0456496     -7.506024       1.7613788      50218.233      36.893836      36.893836      36.893836    
   6130000   0.35990373    -8.0464983     -7.5066504      1.7560955      50218.233      36.893836      36.893836      36.893836    
   6140000   0.35769872    -8.0490642     -7.5125238      1.7310912      50218.233      36.893836      36.893836      36.893836    
   6150000   0.36085308    -8.0472204     -7.5059485      1.7454483      50218.233      36.893836      36.893836      36.893836    
   6160000   0.35916223    -8.0442108     -7.5054751      1.7665031      50218.233      36.893836      36.893836      36.893836    
   6170000   0.36046103    -8.0496636     -7.5089797      1.7244835      50218.233      36.893836      36.893836      36.893836    
   6180000   0.36049471    -8.0449033     -7.504169       1.7618736      50218.233      36.893836      36.893836      36.893836    
   6190000   0.35884189    -8.0468973     -7.5086422      1.7474655      50218.233      36.893836      36.893836      36.893836    
   6200000   0.35908426    -8.0499182     -7.5112995      1.72038        50218.233      36.893836      36.893836      36.893836    
   6210000   0.35816792    -8.0457785     -7.5085343      1.7511127      50218.233      36.893836      36.893836      36.893836    
   6220000   0.36192776    -8.0473404     -7.5044565      1.7411714      50218.233      36.893836      36.893836      36.893836    
   6230000   0.35989648    -8.0462745     -7.5064375      1.7516692      50218.233      36.893836      36.893836      36.893836    
   6240000   0.35860194    -8.0468713     -7.5089761      1.7459938      50218.233      36.893836      36.893836      36.893836    
   6250000   0.35878821    -8.0479713     -7.5097966      1.7418836      50218.233      36.893836      36.893836      36.893836    
   6260000   0.3614109     -8.045761      -7.5036524      1.7518511      50218.233      36.893836      36.893836      36.893836    
   6270000   0.35909628    -8.0457815     -7.5071448      1.7548329      50218.233      36.893836      36.893836      36.893836    
   6280000   0.3609193     -8.045565      -7.5041938      1.7663798      50218.233      36.893836      36.893836      36.893836    
   6290000   0.3604746     -8.0454154     -7.5047112      1.7528285      50218.233      36.893836      36.893836      36.893836    
   6300000   0.36084484    -8.0489509     -7.5076913      1.7269631      50218.233      36.893836      36.893836      36.893836    
   6310000   0.35979894    -8.0495548     -7.5098641      1.7295613      50218.233      36.893836      36.893836      36.893836    
   6320000   0.35835304    -8.0462788     -7.5087569      1.7478154      50218.233      36.893836      36.893836      36.893836    
   6330000   0.35978943    -8.0466909     -7.5070144      1.7578108      50218.233      36.893836      36.893836      36.893836    
   6340000   0.3591482     -8.0489271     -7.5102124      1.7382842      50218.233      36.893836      36.893836      36.893836    
   6350000   0.3595997     -8.0469253     -7.5075334      1.7466229      50218.233      36.893836      36.893836      36.893836    
   6360000   0.35962787    -8.048134      -7.5086999      1.7396503      50218.233      36.893836      36.893836      36.893836    
   6370000   0.35876902    -8.0476958     -7.5095499      1.7405602      50218.233      36.893836      36.893836      36.893836    
   6380000   0.36022175    -8.0483951     -7.5080702      1.7335691      50218.233      36.893836      36.893836      36.893836    
   6390000   0.3603637     -8.0471053     -7.5065674      1.7377725      50218.233      36.893836      36.893836      36.893836    
   6400000   0.36062392    -8.0493069     -7.5083787      1.7241798      50218.233      36.893836      36.893836      36.893836    
   6410000   0.35889207    -8.0457312     -7.5074008      1.758581       50218.233      36.893836      36.893836      36.893836    
   6420000   0.36049108    -8.0474794     -7.5067505      1.7474583      50218.233      36.893836      36.893836      36.893836    
   6430000   0.35996002    -8.048272      -7.5083396      1.7471481      50218.233      36.893836      36.893836      36.893836    
   6440000   0.35887883    -8.0475016     -7.509191       1.7394218      50218.233      36.893836      36.893836      36.893836    
   6450000   0.36055734    -8.0487881     -7.5079598      1.7320411      50218.233      36.893836      36.893836      36.893836    
   6460000   0.35793835    -8.0515188     -7.5146189      1.7014258      50218.233      36.893836      36.893836      36.893836    
   6470000   0.36071736    -8.048637      -7.5075687      1.7325451      50218.233      36.893836      36.893836      36.893836    
   6480000   0.35985439    -8.0513744     -7.5116005      1.7077465      50218.233      36.893836      36.893836      36.893836    
   6490000   0.3591071     -8.0491238     -7.5104708      1.7189491      50218.233      36.893836      36.893836      36.893836    
   6500000   0.36060702    -8.0499855     -7.5090826      1.7206852      50218.233      36.893836      36.893836      36.893836    
   6510000   0.36023602    -8.04752       -7.5071737      1.7446402      50218.233      36.893836      36.893836      36.893836    
   6520000   0.35930447    -8.0522174     -7.5132684      1.7016197      50218.233      36.893836      36.893836      36.893836    
   6530000   0.36127934    -8.047668      -7.5057567      1.7351463      50218.233      36.893836      36.893836      36.893836    
   6540000   0.35918492    -8.0451293     -7.5063596      1.7531411      50218.233      36.893836      36.893836      36.893836    
   6550000   0.35920727    -8.0492859     -7.5104827      1.7339817      50218.233      36.893836      36.893836      36.893836    
   6560000   0.35835344    -8.0499379     -7.5124154      1.7287262      50218.233      36.893836      36.893836      36.893836    
   6570000   0.35918327    -8.0485625     -7.5097953      1.7272805      50218.233      36.893836      36.893836      36.893836    
   6580000   0.36039652    -8.0508111     -7.510224       1.7156712      50218.233      36.893836      36.893836      36.893836    
   6590000   0.36040812    -8.0507869     -7.5101824      1.7207647      50218.233      36.893836      36.893836      36.893836    
   6600000   0.35962267    -8.046192      -7.5067657      1.738395       50218.233      36.893836      36.893836      36.893836    
   6610000   0.36004146    -8.0511309     -7.5110764      1.7182435      50218.233      36.893836      36.893836      36.893836    
   6620000   0.3584922     -8.0478385     -7.5101078      1.7382295      50218.233      36.893836      36.893836      36.893836    
   6630000   0.35945412    -8.0491526     -7.5099791      1.7287771      50218.233      36.893836      36.893836      36.893836    
   6640000   0.36009635    -8.049542      -7.5094052      1.7279834      50218.233      36.893836      36.893836      36.893836    
   6650000   0.36000534    -8.0456982     -7.5056978      1.7500774      50218.233      36.893836      36.893836      36.893836    
   6660000   0.36031448    -8.0464612     -7.5059971      1.7452455      50218.233      36.893836      36.893836      36.893836    
   6670000   0.35991739    -8.0463351     -7.5064667      1.751064       50218.233      36.893836      36.893836      36.893836    
   6680000   0.35838701    -8.0486419     -7.511069       1.7282248      50218.233      36.893836      36.893836      36.893836    
   6690000   0.35911106    -8.0489508     -7.5102918      1.7293075      50218.233      36.893836      36.893836      36.893836    
   6700000   0.36076783    -8.0459703     -7.5048262      1.7540117      50218.233      36.893836      36.893836      36.893836    
   6710000   0.35818344    -8.044848      -7.5075805      1.7580805      50218.233      36.893836      36.893836      36.893836    
   6720000   0.36062581    -8.0503625     -7.5094314      1.729401       50218.233      36.893836      36.893836      36.893836    
   6730000   0.35988149    -8.0469524     -7.5071378      1.7515563      50218.233      36.893836      36.893836      36.893836    
   6740000   0.35994686    -8.0484768     -7.5085642      1.7327098      50218.233      36.893836      36.893836      36.893836    
   6750000   0.36102492    -8.0449648     -7.5034351      1.761469       50218.233      36.893836      36.893836      36.893836    
   6760000   0.35937042    -8.0480126     -7.5089646      1.7355166      50218.233      36.893836      36.893836      36.893836    
   6770000   0.36008436    -8.0454622     -7.5053434      1.7648789      50218.233      36.893836      36.893836      36.893836    
   6780000   0.35982506    -8.0501097     -7.5103798      1.7189467      50218.233      36.893836      36.893836      36.893836    
   6790000   0.36058443    -8.0443616     -7.5034926      1.7727419      50218.233      36.893836      36.893836      36.893836    
   6800000   0.36076328    -8.0495048     -7.5083676      1.7333404      50218.233      36.893836      36.893836      36.893836    
   6810000   0.35919384    -8.0455898     -7.5068067      1.7542208      50218.233      36.893836      36.893836      36.893836    
   6820000   0.35966578    -8.0479579     -7.5084669      1.7383728      50218.233      36.893836      36.893836      36.893836    
   6830000   0.35926794    -8.0448573     -7.5059631      1.7510138      50218.233      36.893836      36.893836      36.893836    
   6840000   0.3609952     -8.0489818     -7.5074967      1.7345028      50218.233      36.893836      36.893836      36.893836    
   6850000   0.35913065    -8.0476475     -7.5089592      1.7425955      50218.233      36.893836      36.893836      36.893836    
   6860000   0.36221995    -8.0505013     -7.5071791      1.7157765      50218.233      36.893836      36.893836      36.893836    
   6870000   0.36181895    -8.0457395     -7.5030188      1.7520368      50218.233      36.893836      36.893836      36.893836    
   6880000   0.35884043    -8.0487588     -7.5105058      1.7280136      50218.233      36.893836      36.893836      36.893836    
   6890000   0.36024589    -8.0457618     -7.5054006      1.7521741      50218.233      36.893836      36.893836      36.893836    
   6900000   0.35955498    -8.047032      -7.5077072      1.7557181      50218.233      36.893836      36.893836      36.893836    
   6910000   0.35889996    -8.0480553     -7.509713       1.7336135      50218.233      36.893836      36.893836      36.893836    
   6920000   0.3598065     -8.0478679     -7.5081659      1.7434495      50218.233      36.893836      36.893836      36.893836    
   6930000   0.35890663    -8.050266      -7.5119137      1.7221949      50218.233      36.893836      36.893836      36.893836    
   6940000   0.36048513    -8.0468237     -7.5061037      1.7478508      50218.233      36.893836      36.893836      36.893836    
   6950000   0.36032298    -8.0471843     -7.5067075      1.7432798      50218.233      36.893836      36.893836      36.893836    
   6960000   0.3601131     -8.0474299     -7.5072679      1.7397269      50218.233      36.893836      36.893836      36.893836    
   6970000   0.36153922    -8.0481785     -7.5058774      1.730805       50218.233      36.893836      36.893836      36.893836    
   6980000   0.35938057    -8.0478816     -7.5088185      1.7355948      50218.233      36.893836      36.893836      36.893836    
   6990000   0.36039856    -8.0477475     -7.5071574      1.7362688      50218.233      36.893836      36.893836      36.893836    
   7000000   0.35982861    -8.0482919     -7.5085567      1.7447105      50218.233      36.893836      36.893836      36.893836    
   7010000   0.36007712    -8.0456453     -7.5055373      1.7520434      50218.233      36.893836      36.893836      36.893836    
   7020000   0.35888742    -8.0493655     -7.511042       1.7206327      50218.233      36.893836      36.893836      36.893836    
   7030000   0.35864936    -8.0511044     -7.513138       1.7125502      50218.233      36.893836      36.893836      36.893836    
   7040000   0.36001755    -8.0486273     -7.5086086      1.7295541      50218.233      36.893836      36.893836      36.893836    
   7050000   0.35961992    -8.0461773     -7.5067551      1.7504995      50218.233      36.893836      36.893836      36.893836    
   7060000   0.36084399    -8.0491559     -7.5078976      1.7279543      50218.233      36.893836      36.893836      36.893836    
   7070000   0.35891433    -8.0486389     -7.510275       1.7299824      50218.233      36.893836      36.893836      36.893836    
   7080000   0.36066743    -8.0491192     -7.5081257      1.7326678      50218.233      36.893836      36.893836      36.893836    
   7090000   0.3585646     -8.0486336     -7.5107943      1.7258009      50218.233      36.893836      36.893836      36.893836    
   7100000   0.36062577    -8.0454221     -7.5044912      1.7540152      50218.233      36.893836      36.893836      36.893836    
   7110000   0.35919093    -8.0473582     -7.5085795      1.751024       50218.233      36.893836      36.893836      36.893836    
   7120000   0.36013043    -8.0474188     -7.5072308      1.7542046      50218.233      36.893836      36.893836      36.893836    
   7130000   0.36078635    -8.0473593     -7.5061875      1.7447058      50218.233      36.893836      36.893836      36.893836    
   7140000   0.35938162    -8.0505424     -7.5114776      1.710778       50218.233      36.893836      36.893836      36.893836    
   7150000   0.36092656    -8.0465009     -7.5051188      1.7485421      50218.233      36.893836      36.893836      36.893836    
   7160000   0.35886534    -8.0474511     -7.5091607      1.7432423      50218.233      36.893836      36.893836      36.893836    
   7170000   0.35793293    -8.0460787     -7.5091869      1.7464358      50218.233      36.893836      36.893836      36.893836    
   7180000   0.36055451    -8.0465127     -7.5056886      1.7493991      50218.233      36.893836      36.893836      36.893836    
   7190000   0.3600417     -8.0488917     -7.5088369      1.7376254      50218.233      36.893836      36.893836      36.893836    
   7200000   0.35928954    -8.0454028     -7.5064762      1.7532084      50218.233      36.893836      36.893836      36.893836    
   7210000   0.36175867    -8.0443851     -7.5017548      1.7675866      50218.233      36.893836      36.893836      36.893836    
   7220000   0.357845      -8.0511374     -7.5143775      1.7132763      50218.233      36.893836      36.893836      36.893836    
   7230000   0.3591509     -8.0475741     -7.5088554      1.7300457      50218.233      36.893836      36.893836      36.893836    
   7240000   0.36129398    -8.0497662     -7.507833       1.7237594      50218.233      36.893836      36.893836      36.893836    
   7250000   0.35929109    -8.0447405     -7.5058116      1.7588812      50218.233      36.893836      36.893836      36.893836    
   7260000   0.35923566    -8.0444047     -7.5055589      1.7578692      50218.233      36.893836      36.893836      36.893836    
   7270000   0.3587912     -8.0503707     -7.5121916      1.7150946      50218.233      36.893836      36.893836      36.893836    
   7280000   0.36004471    -8.0462814     -7.506222       1.7453146      50218.233      36.893836      36.893836      36.893836    
   7290000   0.36030769    -8.0474128     -7.506959       1.7448287      50218.233      36.893836      36.893836      36.893836    
   7300000   0.35829523    -8.0457405     -7.5083053      1.7533903      50218.233      36.893836      36.893836      36.893836    
   7310000   0.35923971    -8.045361      -7.5065091      1.7590656      50218.233      36.893836      36.893836      36.893836    
   7320000   0.36038641    -8.0492893     -7.5087173      1.7238051      50218.233      36.893836      36.893836      36.893836    
   7330000   0.3588588     -8.0477815     -7.509501       1.7328521      50218.233      36.893836      36.893836      36.893836    
   7340000   0.35983592    -8.0470194     -7.5072732      1.7302531      50218.233      36.893836      36.893836      36.893836    
   7350000   0.36163667    -8.0478103     -7.505363       1.7391427      50218.233      36.893836      36.893836      36.893836    
   7360000   0.35943196    -8.0478834     -7.5087432      1.7400374      50218.233      36.893836      36.893836      36.893836    
   7370000   0.36157708    -8.0484896     -7.5061317      1.7347592      50218.233      36.893836      36.893836      36.893836    
   7380000   0.36247993    -8.0481916     -7.5044794      1.7407906      50218.233      36.893836      36.893836      36.893836    
   7390000   0.36118164    -8.0476419     -7.5058771      1.7405514      50218.233      36.893836      36.893836      36.893836    
   7400000   0.36031896    -8.0466008     -7.5061301      1.7527212      50218.233      36.893836      36.893836      36.893836    
   7410000   0.35847277    -8.0471763     -7.5094748      1.7360095      50218.233      36.893836      36.893836      36.893836    
   7420000   0.36090673    -8.0492855     -7.5079331      1.7309536      50218.233      36.893836      36.893836      36.893836    
   7430000   0.36056475    -8.0482911     -7.5074517      1.7349067      50218.233      36.893836      36.893836      36.893836    
   7440000   0.35998995    -8.0499158     -7.5099385      1.7260257      50218.233      36.893836      36.893836      36.893836    
   7450000   0.36042416    -8.0467554     -7.5061269      1.7480739      50218.233      36.893836      36.893836      36.893836    
   7460000   0.36052131    -8.0480188     -7.5072445      1.7401968      50218.233      36.893836      36.893836      36.893836    
   7470000   0.36031281    -8.0511976     -7.5107361      1.7088135      50218.233      36.893836      36.893836      36.893836    
   7480000   0.36066364    -8.0479163     -7.5069286      1.7332238      50218.233      36.893836      36.893836      36.893836    
   7490000   0.35997728    -8.0489445     -7.5089863      1.7339184      50218.233      36.893836      36.893836      36.893836    
   7500000   0.35907784    -8.0478853     -7.5092762      1.7434553      50218.233      36.893836      36.893836      36.893836    
   7510000   0.36006681    -8.0491989     -7.5091064      1.7299682      50218.233      36.893836      36.893836      36.893836    
   7520000   0.36219469    -8.049662      -7.5063777      1.7270605      50218.233      36.893836      36.893836      36.893836    
   7530000   0.35986644    -8.050292      -7.5105         1.7138361      50218.233      36.893836      36.893836      36.893836    
   7540000   0.36131002    -8.0496088     -7.5076514      1.7264581      50218.233      36.893836      36.893836      36.893836    
   7550000   0.36093962    -8.046677      -7.5052753      1.7471688      50218.233      36.893836      36.893836      36.893836    
   7560000   0.36055275    -8.0487379     -7.5079165      1.7323723      50218.233      36.893836      36.893836      36.893836    
   7570000   0.35853221    -8.0509198     -7.5131291      1.7224573      50218.233      36.893836      36.893836      36.893836    
   7580000   0.36054801    -8.0458935     -7.5050791      1.7576223      50218.233      36.893836      36.893836      36.893836    
   7590000   0.35832542    -8.0518194     -7.5143389      1.7069725      50218.233      36.893836      36.893836      36.893836    
   7600000   0.36089338    -8.0468698     -7.5055374      1.7545883      50218.233      36.893836      36.893836      36.893836    
   7610000   0.35839579    -8.0511511     -7.5135651      1.7108495      50218.233      36.893836      36.893836      36.893836    
   7620000   0.35999836    -8.0466362     -7.5066463      1.751707       50218.233      36.893836      36.893836      36.893836    
   7630000   0.35875547    -8.0468985     -7.5087729      1.7441457      50218.233      36.893836      36.893836      36.893836    
   7640000   0.36007334    -8.0476174     -7.5075151      1.7381054      50218.233      36.893836      36.893836      36.893836    
   7650000   0.3592843     -8.0497084     -7.5107896      1.7230513      50218.233      36.893836      36.893836      36.893836    
   7660000   0.36292544    -8.0479092     -7.5035288      1.7348492      50218.233      36.893836      36.893836      36.893836    
   7670000   0.35936119    -8.0468195     -7.5077853      1.7488766      50218.233      36.893836      36.893836      36.893836    
   7680000   0.3595484     -8.044862      -7.5055471      1.7611245      50218.233      36.893836      36.893836      36.893836    
   7690000   0.36071756    -8.0478761     -7.5068075      1.7316708      50218.233      36.893836      36.893836      36.893836    
   7700000   0.36058799    -8.0458625     -7.5049882      1.7658557      50218.233      36.893836      36.893836      36.893836    
   7710000   0.35914943    -8.047039      -7.5083226      1.7473096      50218.233      36.893836      36.893836      36.893836    
   7720000   0.35918229    -8.0479787     -7.509213       1.7312534      50218.233      36.893836      36.893836      36.893836    
   7730000   0.35966442    -8.0473792     -7.5078903      1.7468563      50218.233      36.893836      36.893836      36.893836    
   7740000   0.36043415    -8.049883      -7.5092394      1.729204       50218.233      36.893836      36.893836      36.893836    
   7750000   0.35715331    -8.0496266     -7.5139043      1.722096       50218.233      36.893836      36.893836      36.893836    
   7760000   0.35914485    -8.0475549     -7.5088452      1.7494502      50218.233      36.893836      36.893836      36.893836    
   7770000   0.36229233    -8.0465902     -7.5031595      1.7544593      50218.233      36.893836      36.893836      36.893836    
   7780000   0.35804599    -8.0456168     -7.5085554      1.7480452      50218.233      36.893836      36.893836      36.893836    
   7790000   0.36250248    -8.0482757     -7.5045297      1.7398493      50218.233      36.893836      36.893836      36.893836    
   7800000   0.359925      -8.0509884     -7.5111086      1.7027875      50218.233      36.893836      36.893836      36.893836    
   7810000   0.35948988    -8.0456148     -7.5063877      1.7559746      50218.233      36.893836      36.893836      36.893836    
   7820000   0.35979366    -8.0445478     -7.504865       1.7680615      50218.233      36.893836      36.893836      36.893836    
   7830000   0.35726489    -8.0481413     -7.5122516      1.7359049      50218.233      36.893836      36.893836      36.893836    
   7840000   0.36011088    -8.0473737     -7.5072151      1.7400068      50218.233      36.893836      36.893836      36.893836    
   7850000   0.36023753    -8.0463579     -7.5060093      1.7540501      50218.233      36.893836      36.893836      36.893836    
   7860000   0.36151855    -8.0479481     -7.505678       1.7412872      50218.233      36.893836      36.893836      36.893836    
   7870000   0.36168053    -8.0494949     -7.5069818      1.7382048      50218.233      36.893836      36.893836      36.893836    
   7880000   0.36081217    -8.0477832     -7.5065727      1.7367706      50218.233      36.893836      36.893836      36.893836    
   7890000   0.36045987    -8.0487572     -7.5080751      1.7340814      50218.233      36.893836      36.893836      36.893836    
   7900000   0.35993091    -8.0468977     -7.507009       1.7440064      50218.233      36.893836      36.893836      36.893836    
   7910000   0.35977617    -8.047475      -7.5078185      1.7435197      50218.233      36.893836      36.893836      36.893836    
   7920000   0.36170896    -8.0518666     -7.5093109      1.7155242      50218.233      36.893836      36.893836      36.893836    
   7930000   0.36050027    -8.0506277     -7.509885       1.7193742      50218.233      36.893836      36.893836      36.893836    
   7940000   0.36024587    -8.0465624     -7.5062013      1.7480487      50218.233      36.893836      36.893836      36.893836    
   7950000   0.36072785    -8.0486916     -7.5076075      1.7376408      50218.233      36.893836      36.893836      36.893836    
   7960000   0.35853647    -8.0480337     -7.5102366      1.7369619      50218.233      36.893836      36.893836      36.893836    
   7970000   0.3596904     -8.0487542     -7.5092263      1.7250936      50218.233      36.893836      36.893836      36.893836    
   7980000   0.35886252    -8.051752      -7.5134658      1.7046872      50218.233      36.893836      36.893836      36.893836    
   7990000   0.35935064    -8.0495785     -7.5105602      1.7280031      50218.233      36.893836      36.893836      36.893836    
   8000000   0.35982007    -8.0483671     -7.5086446      1.7290059      50218.233      36.893836      36.893836      36.893836    
   8010000   0.35926442    -8.0500003     -7.5111114      1.720974       50218.233      36.893836      36.893836      36.893836    
   8020000   0.3604964     -8.0522121     -7.5114751      1.7140725      50218.233      36.893836      36.893836      36.893836    
   8030000   0.36072831    -8.0472661     -7.5061813      1.7490837      50218.233      36.893836      36.893836      36.893836    
   8040000   0.36061983    -8.046362      -7.50544        1.7476575      50218.233      36.893836      36.893836      36.893836    
   8050000   0.35997594    -8.0503847     -7.5104285      1.7223877      50218.233      36.893836      36.893836      36.893836    
   8060000   0.36088733    -8.0490774     -7.5077542      1.7317821      50218.233      36.893836      36.893836      36.893836    
   8070000   0.35885717    -8.0470107     -7.5087326      1.7402134      50218.233      36.893836      36.893836      36.893836    
   8080000   0.35904243    -8.046444      -7.507888       1.7487146      50218.233      36.893836      36.893836      36.893836    
   8090000   0.36243814    -8.0470375     -7.503388       1.7425645      50218.233      36.893836      36.893836      36.893836    
   8100000   0.36067332    -8.051129      -7.5101267      1.7144156      50218.233      36.893836      36.893836      36.893836    
   8110000   0.36078103    -8.0467993     -7.5056355      1.744463       50218.233      36.893836      36.893836      36.893836    
   8120000   0.35769929    -8.04892       -7.5123787      1.7222006      50218.233      36.893836      36.893836      36.893836    
   8130000   0.35984361    -8.0495183     -7.5097605      1.7303161      50218.233      36.893836      36.893836      36.893836    
   8140000   0.35870796    -8.047591      -7.5095367      1.7415031      50218.233      36.893836      36.893836      36.893836    
   8150000   0.36028329    -8.0488952     -7.508478       1.7344847      50218.233      36.893836      36.893836      36.893836    
   8160000   0.36170238    -8.0476991     -7.5051533      1.7396796      50218.233      36.893836      36.893836      36.893836    
   8170000   0.35848368    -8.0498749     -7.512157       1.7264628      50218.233      36.893836      36.893836      36.893836    
   8180000   0.36042391    -8.0484041     -7.5077759      1.7383559      50218.233      36.893836      36.893836      36.893836    
   8190000   0.36160345    -8.0459314     -7.5035339      1.7560712      50218.233      36.893836      36.893836      36.893836    
   8200000   0.36147026    -8.0497475     -7.5075498      1.7262103      50218.233      36.893836      36.893836      36.893836    
   8210000   0.35796699    -8.0450187     -7.5080759      1.7601227      50218.233      36.893836      36.893836      36.893836    
   8220000   0.35912848    -8.0494755     -7.5107904      1.7355825      50218.233      36.893836      36.893836      36.893836    
   8230000   0.36014833    -8.0483694     -7.5081546      1.7452421      50218.233      36.893836      36.893836      36.893836    
   8240000   0.36127169    -8.0466736     -7.5047738      1.7443621      50218.233      36.893836      36.893836      36.893836    
   8250000   0.36093233    -8.0475709     -7.5061801      1.7530227      50218.233      36.893836      36.893836      36.893836    
   8260000   0.35824833    -8.0470707     -7.5097059      1.7497526      50218.233      36.893836      36.893836      36.893836    
   8270000   0.36088882    -8.0455846     -7.504259       1.7504308      50218.233      36.893836      36.893836      36.893836    
   8280000   0.35993193    -8.0473486     -7.5074584      1.7436353      50218.233      36.893836      36.893836      36.893836    
   8290000   0.36021699    -8.0463768     -7.506059       1.7446483      50218.233      36.893836      36.893836      36.893836    
   8300000   0.36083931    -8.0464758     -7.5052246      1.7498537      50218.233      36.893836      36.893836      36.893836    
   8310000   0.35926911    -8.0485186     -7.5096226      1.7298499      50218.233      36.893836      36.893836      36.893836    
   8320000   0.35997534    -8.0480797     -7.5081243      1.7340885      50218.233      36.893836      36.893836      36.893836    
   8330000   0.36178225    -8.0482824     -7.5056168      1.7293855      50218.233      36.893836      36.893836      36.893836    
   8340000   0.36220035    -8.0501136     -7.5068208      1.7164445      50218.233      36.893836      36.893836      36.893836    
   8350000   0.36076014    -8.0468809     -7.5057483      1.7398913      50218.233      36.893836      36.893836      36.893836    
   8360000   0.35937393    -8.0488208     -7.5097676      1.7305257      50218.233      36.893836      36.893836      36.893836    
   8370000   0.36093245    -8.0472486     -7.5058576      1.7350431      50218.233      36.893836      36.893836      36.893836    
   8380000   0.35844377    -8.05          -7.512342       1.7140514      50218.233      36.893836      36.893836      36.893836    
   8390000   0.36024882    -8.0467226     -7.5063571      1.7385545      50218.233      36.893836      36.893836      36.893836    
   8400000   0.36132564    -8.0479986     -7.5060179      1.7432334      50218.233      36.893836      36.893836      36.893836    
   8410000   0.35971363    -8.0466978     -7.507135       1.7500649      50218.233      36.893836      36.893836      36.893836    
   8420000   0.36026463    -8.0489721     -7.5085828      1.7201995      50218.233      36.893836      36.893836      36.893836    
   8430000   0.36085268    -8.0476164     -7.5063451      1.7404924      50218.233      36.893836      36.893836      36.893836    
   8440000   0.35782604    -8.0500807     -7.5133493      1.7205409      50218.233      36.893836      36.893836      36.893836    
   8450000   0.36006746    -8.0520982     -7.5120047      1.708817       50218.233      36.893836      36.893836      36.893836    
   8460000   0.3598549     -8.0495155     -7.5097408      1.7209396      50218.233      36.893836      36.893836      36.893836    
   8470000   0.35890862    -8.0496523     -7.511297       1.7136213      50218.233      36.893836      36.893836      36.893836    
   8480000   0.35925536    -8.0495672     -7.5106918      1.7219289      50218.233      36.893836      36.893836      36.893836    
   8490000   0.35840102    -8.0494663     -7.5118724      1.7244231      50218.233      36.893836      36.893836      36.893836    
   8500000   0.36086388    -8.0468212     -7.505533       1.7529085      50218.233      36.893836      36.893836      36.893836    
   8510000   0.3589906     -8.0492307     -7.5107524      1.7170314      50218.233      36.893836      36.893836      36.893836    
   8520000   0.36178994    -8.048449      -7.5057718      1.7390067      50218.233      36.893836      36.893836      36.893836    
   8530000   0.36107919    -8.0473544     -7.5057433      1.7395583      50218.233      36.893836      36.893836      36.893836    
   8540000   0.36068153    -8.0492282     -7.5082136      1.7321738      50218.233      36.893836      36.893836      36.893836    
   8550000   0.36017649    -8.0476135     -7.5073565      1.7479311      50218.233      36.893836      36.893836      36.893836    
   8560000   0.36035528    -8.049616      -7.5090908      1.7214411      50218.233      36.893836      36.893836      36.893836    
   8570000   0.35875087    -8.047059      -7.5089404      1.7543723      50218.233      36.893836      36.893836      36.893836    
   8580000   0.35923683    -8.0497962     -7.5109486      1.7240697      50218.233      36.893836      36.893836      36.893836    
   8590000   0.36002514    -8.0490926     -7.5090626      1.7237714      50218.233      36.893836      36.893836      36.893836    
   8600000   0.359457      -8.0494335     -7.5102557      1.7311203      50218.233      36.893836      36.893836      36.893836    
   8610000   0.35761159    -8.0484201     -7.5120103      1.7363302      50218.233      36.893836      36.893836      36.893836    
   8620000   0.360163      -8.0493922     -7.5091554      1.7212371      50218.233      36.893836      36.893836      36.893836    
   8630000   0.35955877    -8.0459242     -7.5065937      1.7518449      50218.233      36.893836      36.893836      36.893836    
   8640000   0.35835784    -8.049877      -7.5123479      1.719231       50218.233      36.893836      36.893836      36.893836    
   8650000   0.35954451    -8.0463863     -7.5070772      1.7543724      50218.233      36.893836      36.893836      36.893836    
   8660000   0.35988423    -8.0501468     -7.5103282      1.7210704      50218.233      36.893836      36.893836      36.893836    
   8670000   0.36003027    -8.0486386     -7.5086008      1.732308       50218.233      36.893836      36.893836      36.893836    
   8680000   0.36001187    -8.0458996     -7.5058894      1.7548594      50218.233      36.893836      36.893836      36.893836    
   8690000   0.36324346    -8.0477894     -7.5029319      1.7397723      50218.233      36.893836      36.893836      36.893836    
   8700000   0.35989187    -8.0477774     -7.5079472      1.741884       50218.233      36.893836      36.893836      36.893836    
   8710000   0.36067805    -8.0476494     -7.50664        1.741107       50218.233      36.893836      36.893836      36.893836    
   8720000   0.36129203    -8.0490924     -7.507162       1.7248566      50218.233      36.893836      36.893836      36.893836    
   8730000   0.36000229    -8.0453118     -7.505316       1.7611872      50218.233      36.893836      36.893836      36.893836    
   8740000   0.35961488    -8.0460939     -7.5066793      1.7558179      50218.233      36.893836      36.893836      36.893836    
   8750000   0.35945713    -8.046852      -7.5076739      1.7529136      50218.233      36.893836      36.893836      36.893836    
   8760000   0.35998526    -8.0489104     -7.5089402      1.729339       50218.233      36.893836      36.893836      36.893836    
   8770000   0.3639328     -8.0513468     -7.5054554      1.717917       50218.233      36.893836      36.893836      36.893836    
   8780000   0.35896612    -8.0493978     -7.5109563      1.7212977      50218.233      36.893836      36.893836      36.893836    
   8790000   0.35985916    -8.0460513     -7.5062703      1.75062        50218.233      36.893836      36.893836      36.893836    
   8800000   0.36013492    -8.0507441     -7.5105494      1.7163283      50218.233      36.893836      36.893836      36.893836    
   8810000   0.35933282    -8.0466415     -7.5076499      1.7528687      50218.233      36.893836      36.893836      36.893836    
   8820000   0.35809275    -8.0483373     -7.5112059      1.7269762      50218.233      36.893836      36.893836      36.893836    
   8830000   0.35902805    -8.0479805     -7.5094461      1.7432258      50218.233      36.893836      36.893836      36.893836    
   8840000   0.3617191     -8.0501553     -7.5075843      1.7175951      50218.233      36.893836      36.893836      36.893836    
   8850000   0.36169755    -8.0483111     -7.5057725      1.7382083      50218.233      36.893836      36.893836      36.893836    
   8860000   0.36007582    -8.0482266     -7.5081205      1.7322175      50218.233      36.893836      36.893836      36.893836    
   8870000   0.36061107    -8.0460113     -7.5051024      1.7522445      50218.233      36.893836      36.893836      36.893836    
   8880000   0.36137668    -8.0479215     -7.5058642      1.7328511      50218.233      36.893836      36.893836      36.893836    
   8890000   0.36036806    -8.0478473     -7.5073029      1.7459416      50218.233      36.893836      36.893836      36.893836    
   8900000   0.36019356    -8.0524435     -7.5121608      1.7071244      50218.233      36.893836      36.893836      36.893836    
   8910000   0.36068963    -8.0485039     -7.5074771      1.7347234      50218.233      36.893836      36.893836      36.893836    
   8920000   0.36157108    -8.0484702     -7.5061213      1.7343489      50218.233      36.893836      36.893836      36.893836    
   8930000   0.36199374    -8.0493122     -7.5063294      1.7337352      50218.233      36.893836      36.893836      36.893836    
   8940000   0.36137169    -8.0480934     -7.5060436      1.745849       50218.233      36.893836      36.893836      36.893836    
   8950000   0.36247973    -8.0454985     -7.5017867      1.759291       50218.233      36.893836      36.893836      36.893836    
   8960000   0.35873605    -8.0506313     -7.5125349      1.7210912      50218.233      36.893836      36.893836      36.893836    
   8970000   0.35911015    -8.0489162     -7.5102586      1.7315095      50218.233      36.893836      36.893836      36.893836    
   8980000   0.35957357    -8.0476976     -7.5083449      1.7403128      50218.233      36.893836      36.893836      36.893836    
   8990000   0.35870961    -8.0497115     -7.5116548      1.7300224      50218.233      36.893836      36.893836      36.893836    
   9000000   0.36025058    -8.0473093     -7.5069411      1.7443491      50218.233      36.893836      36.893836      36.893836    
   9010000   0.35781251    -8.0495807     -7.5128696      1.7099553      50218.233      36.893836      36.893836      36.893836    
   9020000   0.3612221     -8.0493911     -7.5075657      1.7347179      50218.233      36.893836      36.893836      36.893836    
   9030000   0.35990347    -8.0509113     -7.5110638      1.7064208      50218.233      36.893836      36.893836      36.893836    
   9040000   0.35924832    -8.0483681     -7.5095033      1.7375615      50218.233      36.893836      36.893836      36.893836    
   9050000   0.36013827    -8.0503499     -7.5101501      1.7301046      50218.233      36.893836      36.893836      36.893836    
   9060000   0.35880863    -8.0500957     -7.5118904      1.7283304      50218.233      36.893836      36.893836      36.893836    
   9070000   0.36073371    -8.0474416     -7.5063487      1.7464809      50218.233      36.893836      36.893836      36.893836    
   9080000   0.35956565    -8.0464443     -7.5071035      1.7486588      50218.233      36.893836      36.893836      36.893836    
   9090000   0.3594426     -8.0489959     -7.5098396      1.7263892      50218.233      36.893836      36.893836      36.893836    
   9100000   0.36016513    -8.0501362     -7.5098962      1.7247191      50218.233      36.893836      36.893836      36.893836    
   9110000   0.36122021    -8.0481158     -7.5062932      1.7461766      50218.233      36.893836      36.893836      36.893836    
   9120000   0.36110997    -8.0494962     -7.507839       1.725546       50218.233      36.893836      36.893836      36.893836    
   9130000   0.35957296    -8.0463582     -7.5070064      1.7584727      50218.233      36.893836      36.893836      36.893836    
   9140000   0.36032678    -8.046257      -7.5057746      1.7526639      50218.233      36.893836      36.893836      36.893836    
   9150000   0.35983262    -8.0472521     -7.5075108      1.7515681      50218.233      36.893836      36.893836      36.893836    
   9160000   0.357732      -8.045308      -7.5087177      1.7496388      50218.233      36.893836      36.893836      36.893836    
   9170000   0.36019486    -8.0455241     -7.5052395      1.7553978      50218.233      36.893836      36.893836      36.893836    
   9180000   0.3605148     -8.0479403     -7.5071758      1.7369341      50218.233      36.893836      36.893836      36.893836    
   9190000   0.35910215    -8.0499827     -7.5113371      1.7316768      50218.233      36.893836      36.893836      36.893836    
   9200000   0.35993211    -8.0481888     -7.5082983      1.7301744      50218.233      36.893836      36.893836      36.893836    
   9210000   0.35982348    -8.0464919     -7.5067643      1.7499464      50218.233      36.893836      36.893836      36.893836    
   9220000   0.36065912    -8.0444278     -7.5034469      1.762636       50218.233      36.893836      36.893836      36.893836    
   9230000   0.36046922    -8.0483123     -7.5076162      1.7341692      50218.233      36.893836      36.893836      36.893836    
   9240000   0.35966429    -8.0455498     -7.506061       1.7563287      50218.233      36.893836      36.893836      36.893836    
   9250000   0.35963398    -8.0493124     -7.5098691      1.7268754      50218.233      36.893836      36.893836      36.893836    
   9260000   0.35788286    -8.0476655     -7.5108489      1.7319438      50218.233      36.893836      36.893836      36.893836    
   9270000   0.36078333    -8.0477182     -7.5065509      1.7379646      50218.233      36.893836      36.893836      36.893836    
   9280000   0.3615024     -8.0461065     -7.5038606      1.7625918      50218.233      36.893836      36.893836      36.893836    
   9290000   0.35824922    -8.0491503     -7.5117841      1.7344732      50218.233      36.893836      36.893836      36.893836    
   9300000   0.36023506    -8.0474631     -7.5071182      1.7435728      50218.233      36.893836      36.893836      36.893836    
   9310000   0.36022833    -8.0484699     -7.5081351      1.7353316      50218.233      36.893836      36.893836      36.893836    
   9320000   0.35917858    -8.0497737     -7.5110135      1.7275727      50218.233      36.893836      36.893836      36.893836    
   9330000   0.36041007    -8.0488973     -7.5082899      1.728236       50218.233      36.893836      36.893836      36.893836    
   9340000   0.35929316    -8.0488754     -7.5099433      1.7257683      50218.233      36.893836      36.893836      36.893836    
   9350000   0.35982228    -8.0489222     -7.5091965      1.7333864      50218.233      36.893836      36.893836      36.893836    
   9360000   0.35927772    -8.0468194     -7.5079104      1.7436395      50218.233      36.893836      36.893836      36.893836    
   9370000   0.3593398     -8.046567      -7.507565       1.7433515      50218.233      36.893836      36.893836      36.893836    
   9380000   0.35893169    -8.0474093     -7.5090194      1.7409794      50218.233      36.893836      36.893836      36.893836    
   9390000   0.35882879    -8.0479847     -7.5097492      1.7384548      50218.233      36.893836      36.893836      36.893836    
   9400000   0.35929063    -8.0486348     -7.5097065      1.7256275      50218.233      36.893836      36.893836      36.893836    
   9410000   0.36018373    -8.0501963     -7.5099284      1.7313628      50218.233      36.893836      36.893836      36.893836    
   9420000   0.36119214    -8.0490122     -7.5072317      1.733062       50218.233      36.893836      36.893836      36.893836    
   9430000   0.36040234    -8.0507154     -7.5101195      1.7172702      50218.233      36.893836      36.893836      36.893836    
   9440000   0.35933477    -8.0527478     -7.5137533      1.7007515      50218.233      36.893836      36.893836      36.893836    
   9450000   0.36184625    -8.0478536     -7.505092       1.7390122      50218.233      36.893836      36.893836      36.893836    
   9460000   0.35945106    -8.0480363     -7.5088673      1.7475436      50218.233      36.893836      36.893836      36.893836    
   9470000   0.36138349    -8.0473786     -7.505311       1.7456978      50218.233      36.893836      36.893836      36.893836    
   9480000   0.35815725    -8.0492605     -7.5120323      1.7295534      50218.233      36.893836      36.893836      36.893836    
   9490000   0.36012591    -8.0507207     -7.5105396      1.7262656      50218.233      36.893836      36.893836      36.893836    
   9500000   0.35973611    -8.0509477     -7.5113512      1.7159135      50218.233      36.893836      36.893836      36.893836    
   9510000   0.36100957    -8.0508593     -7.5093526      1.7204358      50218.233      36.893836      36.893836      36.893836    
   9520000   0.35989691    -8.0485709     -7.5087332      1.7299538      50218.233      36.893836      36.893836      36.893836    
   9530000   0.36094622    -8.049086      -7.5076744      1.7213605      50218.233      36.893836      36.893836      36.893836    
   9540000   0.35956561    -8.0500584     -7.5107176      1.7167684      50218.233      36.893836      36.893836      36.893836    
   9550000   0.35731569    -8.047125      -7.5111591      1.74227        50218.233      36.893836      36.893836      36.893836    
   9560000   0.35951632    -8.0483135     -7.5090467      1.7294974      50218.233      36.893836      36.893836      36.893836    
   9570000   0.36228287    -8.0481453     -7.5047287      1.7388528      50218.233      36.893836      36.893836      36.893836    
   9580000   0.35879988    -8.0456466     -7.5074545      1.753356       50218.233      36.893836      36.893836      36.893836    
   9590000   0.36088864    -8.0486471     -7.5073218      1.7439876      50218.233      36.893836      36.893836      36.893836    
   9600000   0.35950001    -8.0472055     -7.5079632      1.7391491      50218.233      36.893836      36.893836      36.893836    
   9610000   0.36180671    -8.0499763     -7.507274       1.7340158      50218.233      36.893836      36.893836      36.893836    
   9620000   0.3615885     -8.0480879     -7.5057128      1.744627       50218.233      36.893836      36.893836      36.893836    
   9630000   0.3624309     -8.051108      -7.5074693      1.7085897      50218.233      36.893836      36.893836      36.893836    
   9640000   0.36102304    -8.0481749     -7.506648       1.7314418      50218.233      36.893836      36.893836      36.893836    
   9650000   0.35897831    -8.0474162     -7.5089564      1.7350981      50218.233      36.893836      36.893836      36.893836    
   9660000   0.35759524    -8.0478106     -7.5114254      1.7333254      50218.233      36.893836      36.893836      36.893836    
   9670000   0.35925833    -8.0487328     -7.509853       1.7324169      50218.233      36.893836      36.893836      36.893836    
   9680000   0.35926237    -8.0475665     -7.5086806      1.7309411      50218.233      36.893836      36.893836      36.893836    
   9690000   0.36099055    -8.0491787     -7.5077006      1.7281741      50218.233      36.893836      36.893836      36.893836    
   9700000   0.35973918    -8.0459812     -7.5063801      1.7443823      50218.233      36.893836      36.893836      36.893836    
   9710000   0.36031187    -8.0470496     -7.5065895      1.749518       50218.233      36.893836      36.893836      36.893836    
   9720000   0.35974408    -8.0479552     -7.5083468      1.7392167      50218.233      36.893836      36.893836      36.893836    
   9730000   0.35957775    -8.0436526     -7.5042936      1.7719967      50218.233      36.893836      36.893836      36.893836    
   9740000   0.35903245    -8.0481916     -7.5096505      1.7315158      50218.233      36.893836      36.893836      36.893836    
   9750000   0.3599448     -8.0495552     -7.5096457      1.7193731      50218.233      36.893836      36.893836      36.893836    
   9760000   0.35882235    -8.0492462     -7.5110203      1.7311435      50218.233      36.893836      36.893836      36.893836    
   9770000   0.35911384    -8.0497876     -7.5111245      1.7168769      50218.233      36.893836      36.893836      36.893836    
   9780000   0.36109033    -8.0501884     -7.5085606      1.7243072      50218.233      36.893836      36.893836      36.893836    
   9790000   0.35918854    -8.0464558     -7.5076806      1.7438705      50218.233      36.893836      36.893836      36.893836    
   9800000   0.35955135    -8.0498197     -7.5105004      1.7284506      50218.233      36.893836      36.893836      36.893836    
   9810000   0.36097048    -8.0459579     -7.5045099      1.752151       50218.233      36.893836      36.893836      36.893836    
   9820000   0.35929946    -8.0464243     -7.5074828      1.7437878      50218.233      36.893836      36.893836      36.893836    
   9830000   0.3605727     -8.0460593     -7.505208       1.7496031      50218.233      36.893836      36.893836      36.893836    
   9840000   0.35972121    -8.0484389     -7.5088648      1.725914       50218.233      36.893836      36.893836      36.893836    
   9850000   0.35893859    -8.047203      -7.5088027      1.7364779      50218.233      36.893836      36.893836      36.893836    
   9860000   0.35948763    -8.0481858     -7.508962       1.7419796      50218.233      36.893836      36.893836      36.893836    
   9870000   0.35980873    -8.0479407     -7.5082353      1.7379142      50218.233      36.893836      36.893836      36.893836    
   9880000   0.35864589    -8.0492485     -7.5112873      1.7255936      50218.233      36.893836      36.893836      36.893836    
   9890000   0.3619423     -8.0492967     -7.506391       1.7304109      50218.233      36.893836      36.893836      36.893836    
   9900000   0.36194052    -8.0507566     -7.5078535      1.7224844      50218.233      36.893836      36.893836      36.893836    
   9910000   0.35954852    -8.0470042     -7.5076891      1.7442686      50218.233      36.893836      36.893836      36.893836    
   9920000   0.35932098    -8.0514449     -7.5124711      1.7133532      50218.233      36.893836      36.893836      36.893836    
   9930000   0.35963054    -8.0483532     -7.5089151      1.7346862      50218.233      36.893836      36.893836      36.893836    
   9940000   0.35911581    -8.0463923     -7.5077262      1.7449287      50218.233      36.893836      36.893836      36.893836    
   9950000   0.36067405    -8.049212      -7.5082087      1.7277364      50218.233      36.893836      36.893836      36.893836    
   9960000   0.3588633     -8.0495912     -7.5113039      1.7187376      50218.233      36.893836      36.893836      36.893836    
   9970000   0.36009646    -8.0502599     -7.5101229      1.7209964      50218.233      36.893836      36.893836      36.893836    
   9980000   0.36006985    -8.0511111     -7.511014       1.7115594      50218.233      36.893836      36.893836      36.893836    
   9990000   0.35989656    -8.0500416     -7.5102044      1.7233045      50218.233      36.893836      36.893836      36.893836    
  10000000   0.36001789    -8.0485567     -7.5085376      1.7344075      50218.233      36.893836      36.893836      36.893836    
Loop time of 16346.1 on 5 procs for 10000000 steps with 70304 atoms

Performance: 528566.402 tau/day, 611.767 timesteps/s, 43.010 Matom-step/s
94.0% CPU use with 5 MPI tasks x 1 OpenMP threads

MPI task timing breakdown:
Section |  min time  |  avg time  |  max time  |%varavg| %total
---------------------------------------------------------------
Pair    | 5834.3     | 6231.7     | 6696.8     | 365.7 | 38.12
Neigh   | 46.229     | 52.004     | 58.186     |  58.1 |  0.32
Comm    | 2368.8     | 2414.8     | 2442.1     |  59.8 | 14.77
Output  | 0.18166    | 0.18793    | 0.20008    |   1.5 |  0.00
Modify  | 6244.8     | 6767.4     | 7225       | 396.3 | 41.40
Other   |            | 879.9      |            |       |  5.38

Nlocal:        14060.8 ave       14100 max       14014 min
Histogram: 1 0 1 0 1 0 0 0 0 2
Nghost:        18767.4 ave       18795 max       18748 min
Histogram: 1 1 1 0 0 0 1 0 0 1
Neighs:              0 ave           0 max           0 min
Histogram: 5 0 0 0 0 0 0 0 0 0

Total # of neighbors = 0
Ave neighs/atom = 0
Neighbor list builds = 1762685
Dangerous builds = 0
clear
OMP_NUM_THREADS environment is not set. Defaulting to 1 thread. (src/comm.cpp:98)
  using 1 OpenMP thread(s) per MPI task
package gpu 0
jump dms340.lmp

variable T equal 340
# T = 1000* (temp in LJ unit)
variable f equal 10000
log log.${T}
log log.340
