variable TLJ equal (${T}/1000)
variable TLJ equal (475/1000)
variable NCyle equal 8
variable iStep equal (${f})
variable iStep equal (10000)
variable dumpStep equal (${f}*100)
variable dumpStep equal (10000*100)
variable runStep equal (${f}*100*${NCyle})
variable runStep equal (10000*100*${NCyle})
variable runStep equal (10000*100*8)

units       lj
atom_style  atomic
dimension 3
boundary     p p p
pair_style  lj/cut 2.5
read_data  ../data/T${T}.dat
read_data  ../data/T475.dat
Reading data file ...
  orthogonal box = (0.97250269 0.97250269 0.97250269) to (37.866338 37.866338 37.866338)
  1 by 1 by 5 MPI processor grid
  reading atoms ...
  70304 atoms
  reading velocities ...
  70304 velocities
  read_data CPU = 0.209 seconds
change_box all triclinic
Changing box ...
  triclinic box = (0.97250269 0.97250269 0.97250269) to (37.866338 37.866338 37.866338) with tilt (0 0 0)
mass 1 1
mass 2 1
pair_modify shift yes
pair_coeff  1 1 1 1
pair_coeff  1 2 1.5 0.8
pair_coeff  2 2 0.5 0.88


timestep 0.01
thermo ${iStep}
thermo 10000
reset_timestep 0
thermo_style custom step temp pe etotal press vol lx ly lz
fix             1 all nvt temp ${TLJ}  ${TLJ}  0.1
fix             1 all nvt temp 0.475  ${TLJ}  0.1
fix             1 all nvt temp 0.475  0.475  0.1
thermo_modify flush yes

fix dsf all deform 1 xy  wiggle 0.5  ${f}   units box
fix dsf all deform 1 xy  wiggle 0.5  10000   units box
fix ps1 all ave/time 1 1 ${iStep} c_thermo_press[1] c_thermo_press[2]  c_thermo_press[3] c_thermo_press[4]  c_thermo_press[5] c_thermo_press[6]  file  stress.${T}
fix ps1 all ave/time 1 1 10000 c_thermo_press[1] c_thermo_press[2]  c_thermo_press[3] c_thermo_press[4]  c_thermo_press[5] c_thermo_press[6]  file  stress.${T}
fix ps1 all ave/time 1 1 10000 c_thermo_press[1] c_thermo_press[2]  c_thermo_press[3] c_thermo_press[4]  c_thermo_press[5] c_thermo_press[6]  file  stress.475
dump            1 all custom ${dumpStep} dump.${T} id type x y z
dump            1 all custom 1000000 dump.${T} id type x y z
dump            1 all custom 1000000 dump.475 id type x y z
dump_modify 1 sort id
fix nodrift all momentum 1  linear 1 1 1
fix com_seed all recenter INIT INIT INIT shift all
run ${runStep}
run 8000000
Generated 0 of 1 mixed pair_coeff terms from geometric mixing rule
Per MPI rank memory allocation (min/avg/max) = 6.659 | 7.115 | 8.922 Mbytes
   Step          Temp          PotEng         TotEng         Press          Volume           Lx             Ly             Lz      
         0   0.4788276     -7.8744934     -7.1562622      3.1934842      50218.233      36.893836      36.893836      36.893836    
     10000   0.47364262    -7.861926      -7.1514722      3.2801786      50218.233      36.893836      36.893836      36.893836    
     20000   0.47368436    -7.8654758     -7.1549594      3.2427037      50218.233      36.893836      36.893836      36.893836    
     30000   0.47743768    -7.8666885     -7.1505422      3.250523       50218.233      36.893836      36.893836      36.893836    
     40000   0.47487357    -7.8702679     -7.1579677      3.2051584      50218.233      36.893836      36.893836      36.893836    
     50000   0.47733077    -7.8646176     -7.1486316      3.2506569      50218.233      36.893836      36.893836      36.893836    
     60000   0.47379659    -7.8632021     -7.1525173      3.2637214      50218.233      36.893836      36.893836      36.893836    
     70000   0.47579767    -7.8683135     -7.1546271      3.2221876      50218.233      36.893836      36.893836      36.893836    
     80000   0.47614412    -7.8695229     -7.1553169      3.2238801      50218.233      36.893836      36.893836      36.893836    
     90000   0.47637561    -7.868554      -7.1540007      3.234601       50218.233      36.893836      36.893836      36.893836    
    100000   0.47359393    -7.8643334     -7.1539526      3.2647901      50218.233      36.893836      36.893836      36.893836    
    110000   0.47544207    -7.8672188     -7.1540658      3.2272013      50218.233      36.893836      36.893836      36.893836    
    120000   0.47356866    -7.864217      -7.1538741      3.2601284      50218.233      36.893836      36.893836      36.893836    
    130000   0.47292911    -7.865211      -7.1558274      3.2463642      50218.233      36.893836      36.893836      36.893836    
    140000   0.47537693    -7.8639144     -7.1508592      3.2622053      50218.233      36.893836      36.893836      36.893836    
    150000   0.47500724    -7.8613157     -7.148815       3.2827665      50218.233      36.893836      36.893836      36.893836    
    160000   0.47682544    -7.8653338     -7.1501058      3.2646485      50218.233      36.893836      36.893836      36.893836    
    170000   0.47602938    -7.8606409     -7.146607       3.2940612      50218.233      36.893836      36.893836      36.893836    
    180000   0.4754485     -7.8642534     -7.1510908      3.2564724      50218.233      36.893836      36.893836      36.893836    
    190000   0.4743876     -7.867095      -7.1555237      3.2427492      50218.233      36.893836      36.893836      36.893836    
    200000   0.47485284    -7.8633403     -7.1510712      3.2603139      50218.233      36.893836      36.893836      36.893836    
    210000   0.47551802    -7.8668835     -7.1536166      3.244175       50218.233      36.893836      36.893836      36.893836    
    220000   0.47726432    -7.8643461     -7.1484598      3.2626658      50218.233      36.893836      36.893836      36.893836    
    230000   0.47409165    -7.8602106     -7.1490833      3.2955966      50218.233      36.893836      36.893836      36.893836    
    240000   0.4750505     -7.8655206     -7.152955       3.2594816      50218.233      36.893836      36.893836      36.893836    
    250000   0.47741135    -7.8634245     -7.1473176      3.2635757      50218.233      36.893836      36.893836      36.893836    
    260000   0.47524978    -7.8694774     -7.1566129      3.217929       50218.233      36.893836      36.893836      36.893836    
    270000   0.47385723    -7.8672236     -7.1564479      3.2361257      50218.233      36.893836      36.893836      36.893836    
    280000   0.47689311    -7.8635166     -7.1481871      3.2724986      50218.233      36.893836      36.893836      36.893836    
    290000   0.47563097    -7.8646472     -7.1512108      3.2565008      50218.233      36.893836      36.893836      36.893836    
    300000   0.47578233    -7.8657244     -7.152061       3.2437547      50218.233      36.893836      36.893836      36.893836    
    310000   0.47511476    -7.8636072     -7.1509452      3.2565431      50218.233      36.893836      36.893836      36.893836    
    320000   0.47561594    -7.8612853     -7.1478715      3.2809478      50218.233      36.893836      36.893836      36.893836    
    330000   0.47350962    -7.8615182     -7.1512639      3.279776       50218.233      36.893836      36.893836      36.893836    
    340000   0.47604992    -7.8656141     -7.1515493      3.253933       50218.233      36.893836      36.893836      36.893836    
    350000   0.4776432     -7.8661111     -7.1496565      3.2526763      50218.233      36.893836      36.893836      36.893836    
    360000   0.47692305    -7.8684539     -7.1530795      3.2296444      50218.233      36.893836      36.893836      36.893836    
    370000   0.4755762     -7.8639765     -7.1506224      3.2631871      50218.233      36.893836      36.893836      36.893836    
    380000   0.47609327    -7.8656589     -7.1515291      3.2486946      50218.233      36.893836      36.893836      36.893836    
    390000   0.47563285    -7.865618      -7.1521788      3.2432421      50218.233      36.893836      36.893836      36.893836    
    400000   0.47718165    -7.8671385     -7.1513762      3.2404099      50218.233      36.893836      36.893836      36.893836    
    410000   0.47405072    -7.8670284     -7.1559624      3.2285957      50218.233      36.893836      36.893836      36.893836    
    420000   0.47625444    -7.8680635     -7.153692       3.234908       50218.233      36.893836      36.893836      36.893836    
    430000   0.47692081    -7.8667367     -7.1513657      3.2353374      50218.233      36.893836      36.893836      36.893836    
    440000   0.47524033    -7.8633009     -7.1504505      3.2656155      50218.233      36.893836      36.893836      36.893836    
    450000   0.47725218    -7.8630277     -7.1471596      3.2701608      50218.233      36.893836      36.893836      36.893836    
    460000   0.47311463    -7.8670967     -7.1574348      3.2388132      50218.233      36.893836      36.893836      36.893836    
    470000   0.4766264     -7.8655159     -7.1505864      3.2472478      50218.233      36.893836      36.893836      36.893836    
    480000   0.47435088    -7.8676806     -7.1561645      3.242153       50218.233      36.893836      36.893836      36.893836    
    490000   0.47633628    -7.8647356     -7.1502414      3.2609194      50218.233      36.893836      36.893836      36.893836    
    500000   0.47703931    -7.865761      -7.1502122      3.2499222      50218.233      36.893836      36.893836      36.893836    
    510000   0.47467388    -7.8668516     -7.1548509      3.2283797      50218.233      36.893836      36.893836      36.893836    
    520000   0.47516408    -7.8675059     -7.1547699      3.238215       50218.233      36.893836      36.893836      36.893836    
    530000   0.47673085    -7.8685066     -7.1534205      3.2207861      50218.233      36.893836      36.893836      36.893836    
    540000   0.4741828     -7.8650462     -7.1537821      3.251502       50218.233      36.893836      36.893836      36.893836    
    550000   0.47532087    -7.8652637     -7.1522925      3.2485119      50218.233      36.893836      36.893836      36.893836    
    560000   0.47602074    -7.8641925     -7.1501716      3.2579068      50218.233      36.893836      36.893836      36.893836    
    570000   0.47307732    -7.8646782     -7.1550723      3.2524474      50218.233      36.893836      36.893836      36.893836    
    580000   0.47469488    -7.8611331     -7.1491009      3.2764477      50218.233      36.893836      36.893836      36.893836    
    590000   0.47425486    -7.8691403     -7.1577681      3.2170594      50218.233      36.893836      36.893836      36.893836    
    600000   0.47406822    -7.8669467     -7.1558545      3.2350927      50218.233      36.893836      36.893836      36.893836    
    610000   0.47469273    -7.8628164     -7.1507874      3.258087       50218.233      36.893836      36.893836      36.893836    
    620000   0.47387734    -7.8635547     -7.1527488      3.2764959      50218.233      36.893836      36.893836      36.893836    
    630000   0.47510409    -7.8633309     -7.1506849      3.2635457      50218.233      36.893836      36.893836      36.893836    
    640000   0.47784342    -7.8657349     -7.14898        3.2449015      50218.233      36.893836      36.893836      36.893836    
    650000   0.47478363    -7.863413      -7.1512476      3.267467       50218.233      36.893836      36.893836      36.893836    
    660000   0.47505598    -7.8651606     -7.1525868      3.2603751      50218.233      36.893836      36.893836      36.893836    
    670000   0.47584975    -7.8662386     -7.1524742      3.2329594      50218.233      36.893836      36.893836      36.893836    
    680000   0.47296932    -7.8608795     -7.1514357      3.2710815      50218.233      36.893836      36.893836      36.893836    
    690000   0.47461763    -7.8648765     -7.1529602      3.249473       50218.233      36.893836      36.893836      36.893836    
    700000   0.47433432    -7.8666647     -7.1551733      3.227739       50218.233      36.893836      36.893836      36.893836    
    710000   0.47450883    -7.8639207     -7.1521676      3.2557976      50218.233      36.893836      36.893836      36.893836    
    720000   0.47648091    -7.8635862     -7.148875       3.2696273      50218.233      36.893836      36.893836      36.893836    
    730000   0.47409409    -7.8634563     -7.1523253      3.2714432      50218.233      36.893836      36.893836      36.893836    
    740000   0.47501858    -7.8679257     -7.155408       3.2241206      50218.233      36.893836      36.893836      36.893836    
    750000   0.47595484    -7.8670208     -7.1530987      3.2348228      50218.233      36.893836      36.893836      36.893836    
    760000   0.47488665    -7.8644093     -7.1520894      3.2496629      50218.233      36.893836      36.893836      36.893836    
    770000   0.47494434    -7.864863      -7.1524567      3.2493876      50218.233      36.893836      36.893836      36.893836    
    780000   0.47534357    -7.8651614     -7.1521562      3.2347704      50218.233      36.893836      36.893836      36.893836    
    790000   0.47641408    -7.8626822     -7.1480712      3.2678195      50218.233      36.893836      36.893836      36.893836    
    800000   0.47450161    -7.8620669     -7.1503247      3.2792728      50218.233      36.893836      36.893836      36.893836    
    810000   0.4737477     -7.8629201     -7.1523087      3.2663881      50218.233      36.893836      36.893836      36.893836    
    820000   0.47479486    -7.8643663     -7.1521841      3.2601418      50218.233      36.893836      36.893836      36.893836    
    830000   0.47534565    -7.8659398     -7.1529315      3.251444       50218.233      36.893836      36.893836      36.893836    
    840000   0.4724356     -7.8655187     -7.1568754      3.250224       50218.233      36.893836      36.893836      36.893836    
    850000   0.47520036    -7.8631542     -7.1503638      3.2671361      50218.233      36.893836      36.893836      36.893836    
    860000   0.47192403    -7.8621765     -7.1543006      3.2726053      50218.233      36.893836      36.893836      36.893836    
    870000   0.47629948    -7.8648233     -7.1503843      3.2487337      50218.233      36.893836      36.893836      36.893836    
    880000   0.47714207    -7.865251      -7.1495481      3.2518111      50218.233      36.893836      36.893836      36.893836    
    890000   0.4767265     -7.8657273     -7.1506477      3.2517915      50218.233      36.893836      36.893836      36.893836    
    900000   0.47267737    -7.8641864     -7.1551805      3.2461086      50218.233      36.893836      36.893836      36.893836    
    910000   0.47335731    -7.8649617     -7.1549358      3.2559318      50218.233      36.893836      36.893836      36.893836    
    920000   0.47487053    -7.8646936     -7.1523979      3.2512211      50218.233      36.893836      36.893836      36.893836    
    930000   0.47466033    -7.8647168     -7.1527364      3.2489019      50218.233      36.893836      36.893836      36.893836    
    940000   0.47403192    -7.8643447     -7.153307       3.2634901      50218.233      36.893836      36.893836      36.893836    
    950000   0.47571915    -7.8653215     -7.1517529      3.2561547      50218.233      36.893836      36.893836      36.893836    
    960000   0.47679772    -7.8665937     -7.1514073      3.2451675      50218.233      36.893836      36.893836      36.893836    
    970000   0.47606437    -7.8660127     -7.1519263      3.252203       50218.233      36.893836      36.893836      36.893836    
    980000   0.47509308    -7.863148      -7.1505186      3.2689391      50218.233      36.893836      36.893836      36.893836    
    990000   0.47581452    -7.8645659     -7.1508542      3.2585379      50218.233      36.893836      36.893836      36.893836    
   1000000   0.47534018    -7.8664493     -7.1534492      3.2415332      50218.233      36.893836      36.893836      36.893836    
   1010000   0.47844457    -7.8669121     -7.1492555      3.2378443      50218.233      36.893836      36.893836      36.893836    
   1020000   0.47300709    -7.8663403     -7.1568398      3.2388166      50218.233      36.893836      36.893836      36.893836    
   1030000   0.47578932    -7.8649182     -7.1512444      3.2563154      50218.233      36.893836      36.893836      36.893836    
   1040000   0.47677357    -7.8686504     -7.1535002      3.237095       50218.233      36.893836      36.893836      36.893836    
   1050000   0.47580323    -7.8641482     -7.1504535      3.2620845      50218.233      36.893836      36.893836      36.893836    
   1060000   0.47260313    -7.8594121     -7.1505174      3.2892366      50218.233      36.893836      36.893836      36.893836    
   1070000   0.47394598    -7.8657416     -7.1548327      3.2462983      50218.233      36.893836      36.893836      36.893836    
   1080000   0.47392178    -7.8635128     -7.1526402      3.260558       50218.233      36.893836      36.893836      36.893836    
   1090000   0.47484503    -7.8651796     -7.1529222      3.248497       50218.233      36.893836      36.893836      36.893836    
   1100000   0.47486894    -7.8664796     -7.1541864      3.2370333      50218.233      36.893836      36.893836      36.893836    
   1110000   0.47353157    -7.8608932     -7.1506059      3.2775524      50218.233      36.893836      36.893836      36.893836    
   1120000   0.4744888     -7.8668456     -7.1551225      3.2346435      50218.233      36.893836      36.893836      36.893836    
   1130000   0.47493137    -7.8669528     -7.1545658      3.2409985      50218.233      36.893836      36.893836      36.893836    
   1140000   0.47349624    -7.8661624     -7.1559281      3.2387419      50218.233      36.893836      36.893836      36.893836    
   1150000   0.47352161    -7.8628021     -7.1525298      3.2600178      50218.233      36.893836      36.893836      36.893836    
   1160000   0.47613982    -7.8615454     -7.1473459      3.2780277      50218.233      36.893836      36.893836      36.893836    
   1170000   0.4749244     -7.86312       -7.1507436      3.2649783      50218.233      36.893836      36.893836      36.893836    
   1180000   0.47641544    -7.8643876     -7.1497746      3.2554572      50218.233      36.893836      36.893836      36.893836    
   1190000   0.4752364     -7.8640212     -7.1511768      3.2569164      50218.233      36.893836      36.893836      36.893836    
   1200000   0.47371615    -7.8641967     -7.1536325      3.2561272      50218.233      36.893836      36.893836      36.893836    
   1210000   0.47598228    -7.8605612     -7.1465979      3.282062       50218.233      36.893836      36.893836      36.893836    
   1220000   0.47698065    -7.8647396     -7.1492788      3.2531255      50218.233      36.893836      36.893836      36.893836    
   1230000   0.47524517    -7.8641474     -7.1512898      3.2636761      50218.233      36.893836      36.893836      36.893836    
   1240000   0.47523466    -7.863398      -7.1505562      3.2664945      50218.233      36.893836      36.893836      36.893836    
   1250000   0.47141606    -7.8621536     -7.1550396      3.2680541      50218.233      36.893836      36.893836      36.893836    
   1260000   0.47507381    -7.8635465     -7.1509459      3.2656444      50218.233      36.893836      36.893836      36.893836    
   1270000   0.47479842    -7.8622274     -7.1500399      3.2583102      50218.233      36.893836      36.893836      36.893836    
   1280000   0.47693713    -7.8627886     -7.1473931      3.2739213      50218.233      36.893836      36.893836      36.893836    
   1290000   0.47418949    -7.8614911     -7.150217       3.2787654      50218.233      36.893836      36.893836      36.893836    
   1300000   0.4741342     -7.865006      -7.1538148      3.2526822      50218.233      36.893836      36.893836      36.893836    
   1310000   0.47391806    -7.8671065     -7.1562395      3.2247764      50218.233      36.893836      36.893836      36.893836    
   1320000   0.47447488    -7.8664657     -7.1547635      3.2316365      50218.233      36.893836      36.893836      36.893836    
   1330000   0.47520718    -7.8619675     -7.1491669      3.2777504      50218.233      36.893836      36.893836      36.893836    
   1340000   0.47643573    -7.866218      -7.1515745      3.2443677      50218.233      36.893836      36.893836      36.893836    
   1350000   0.47432281    -7.8635645     -7.1520904      3.2610623      50218.233      36.893836      36.893836      36.893836    
   1360000   0.47297011    -7.863095      -7.1536499      3.2572033      50218.233      36.893836      36.893836      36.893836    
   1370000   0.47244409    -7.8600265     -7.1513705      3.2791348      50218.233      36.893836      36.893836      36.893836    
   1380000   0.47464272    -7.8694947     -7.1575407      3.2216824      50218.233      36.893836      36.893836      36.893836    
   1390000   0.47292709    -7.8662393     -7.1568588      3.2380185      50218.233      36.893836      36.893836      36.893836    
   1400000   0.47388507    -7.8617357     -7.1509182      3.2762866      50218.233      36.893836      36.893836      36.893836    
   1410000   0.47299618    -7.8655532     -7.1560691      3.2531275      50218.233      36.893836      36.893836      36.893836    
   1420000   0.47609799    -7.8649106     -7.1507738      3.2532822      50218.233      36.893836      36.893836      36.893836    
   1430000   0.47565869    -7.8628225     -7.1493446      3.2656278      50218.233      36.893836      36.893836      36.893836    
   1440000   0.47599991    -7.8617645     -7.1477747      3.2773148      50218.233      36.893836      36.893836      36.893836    
   1450000   0.47534244    -7.8655705     -7.152567       3.2514973      50218.233      36.893836      36.893836      36.893836    
   1460000   0.47691645    -7.8618562     -7.1464917      3.2759665      50218.233      36.893836      36.893836      36.893836    
   1470000   0.47347698    -7.8666108     -7.1564054      3.2431906      50218.233      36.893836      36.893836      36.893836    
   1480000   0.47489887    -7.8676536     -7.1553155      3.233078       50218.233      36.893836      36.893836      36.893836    
   1490000   0.47613995    -7.8643886     -7.1501889      3.2646259      50218.233      36.893836      36.893836      36.893836    
   1500000   0.47364947    -7.8650674     -7.1546033      3.2582167      50218.233      36.893836      36.893836      36.893836    
   1510000   0.47446498    -7.8610846     -7.1493972      3.293586       50218.233      36.893836      36.893836      36.893836    
   1520000   0.47750697    -7.8642631     -7.1480128      3.2575134      50218.233      36.893836      36.893836      36.893836    
   1530000   0.47176557    -7.8651171     -7.1574788      3.2427093      50218.233      36.893836      36.893836      36.893836    
   1540000   0.47509765    -7.8667233     -7.154087       3.2344583      50218.233      36.893836      36.893836      36.893836    
   1550000   0.47300048    -7.862994      -7.1535033      3.2743835      50218.233      36.893836      36.893836      36.893836    
   1560000   0.47709574    -7.863622      -7.1479886      3.2750583      50218.233      36.893836      36.893836      36.893836    
   1570000   0.47651473    -7.8598998     -7.1451379      3.3031134      50218.233      36.893836      36.893836      36.893836    
   1580000   0.4752157     -7.8616841     -7.1488707      3.2795555      50218.233      36.893836      36.893836      36.893836    
   1590000   0.47604894    -7.8621176     -7.1480543      3.2780863      50218.233      36.893836      36.893836      36.893836    
   1600000   0.47723768    -7.86644       -7.1505936      3.2387703      50218.233      36.893836      36.893836      36.893836    
   1610000   0.47396952    -7.8632256     -7.1522815      3.2623594      50218.233      36.893836      36.893836      36.893836    
   1620000   0.47669554    -7.864989      -7.1499559      3.2461804      50218.233      36.893836      36.893836      36.893836    
   1630000   0.47624708    -7.8616481     -7.1472876      3.284424       50218.233      36.893836      36.893836      36.893836    
   1640000   0.47474608    -7.8643899     -7.1522809      3.259373       50218.233      36.893836      36.893836      36.893836    
   1650000   0.47509412    -7.8621942     -7.1495632      3.2632366      50218.233      36.893836      36.893836      36.893836    
   1660000   0.47475594    -7.8645859     -7.1524621      3.2586935      50218.233      36.893836      36.893836      36.893836    
   1670000   0.47386736    -7.8630409     -7.1522499      3.2645997      50218.233      36.893836      36.893836      36.893836    
   1680000   0.47500948    -7.8611506     -7.1486465      3.2815691      50218.233      36.893836      36.893836      36.893836    
   1690000   0.47565059    -7.8650678     -7.1516021      3.2505745      50218.233      36.893836      36.893836      36.893836    
   1700000   0.47783643    -7.8658296     -7.1490852      3.253431       50218.233      36.893836      36.893836      36.893836    
   1710000   0.4738614     -7.8636296     -7.1528477      3.2728553      50218.233      36.893836      36.893836      36.893836    
   1720000   0.47431381    -7.8616789     -7.1502183      3.2866028      50218.233      36.893836      36.893836      36.893836    
   1730000   0.47427474    -7.8660265     -7.1546245      3.2401371      50218.233      36.893836      36.893836      36.893836    
   1740000   0.47414869    -7.8580293     -7.1468164      3.2955726      50218.233      36.893836      36.893836      36.893836    
   1750000   0.47634802    -7.86564       -7.1511282      3.2547091      50218.233      36.893836      36.893836      36.893836    
   1760000   0.47405603    -7.8622371     -7.1511632      3.2612475      50218.233      36.893836      36.893836      36.893836    
   1770000   0.4758778     -7.8658531     -7.1520466      3.2621454      50218.233      36.893836      36.893836      36.893836    
   1780000   0.474625      -7.8620392     -7.1501118      3.2759042      50218.233      36.893836      36.893836      36.893836    
   1790000   0.47518011    -7.8579844     -7.1452244      3.3090761      50218.233      36.893836      36.893836      36.893836    
   1800000   0.47706098    -7.8633993     -7.147818       3.2723678      50218.233      36.893836      36.893836      36.893836    
   1810000   0.47167684    -7.8606578     -7.1531526      3.2806327      50218.233      36.893836      36.893836      36.893836    
   1820000   0.47443208    -7.867014      -7.155376       3.2409176      50218.233      36.893836      36.893836      36.893836    
   1830000   0.47693256    -7.8633952     -7.1480065      3.277231       50218.233      36.893836      36.893836      36.893836    
   1840000   0.47292483    -7.8631667     -7.1537895      3.263845       50218.233      36.893836      36.893836      36.893836    
   1850000   0.47564817    -7.865323      -7.1518609      3.2593605      50218.233      36.893836      36.893836      36.893836    
   1860000   0.47419562    -7.8583317     -7.1470484      3.3019758      50218.233      36.893836      36.893836      36.893836    
   1870000   0.47514147    -7.8625225     -7.1498205      3.2794877      50218.233      36.893836      36.893836      36.893836    
   1880000   0.47609049    -7.8642498     -7.1501242      3.2537458      50218.233      36.893836      36.893836      36.893836    
   1890000   0.47468965    -7.8650226     -7.1529983      3.2488508      50218.233      36.893836      36.893836      36.893836    
   1900000   0.47435055    -7.8669487     -7.155433       3.2458688      50218.233      36.893836      36.893836      36.893836    
   1910000   0.47204456    -7.8584901     -7.1504333      3.2921382      50218.233      36.893836      36.893836      36.893836    
   1920000   0.47516758    -7.8679766     -7.1552354      3.2266386      50218.233      36.893836      36.893836      36.893836    
   1930000   0.47459257    -7.8615286     -7.1496499      3.2737598      50218.233      36.893836      36.893836      36.893836    
   1940000   0.47343157    -7.8616896     -7.1515524      3.2847497      50218.233      36.893836      36.893836      36.893836    
   1950000   0.47521843    -7.8656729     -7.1528554      3.2476605      50218.233      36.893836      36.893836      36.893836    
   1960000   0.47763244    -7.8665274     -7.150089       3.2490943      50218.233      36.893836      36.893836      36.893836    
   1970000   0.47528173    -7.8643088     -7.1513963      3.2656958      50218.233      36.893836      36.893836      36.893836    
   1980000   0.47450126    -7.8631958     -7.1514541      3.2846495      50218.233      36.893836      36.893836      36.893836    
   1990000   0.47503771    -7.861054      -7.1485076      3.2860168      50218.233      36.893836      36.893836      36.893836    
   2000000   0.47508071    -7.8665625     -7.1539515      3.2514439      50218.233      36.893836      36.893836      36.893836    
   2010000   0.47574169    -7.8663533     -7.152751       3.2439181      50218.233      36.893836      36.893836      36.893836    
   2020000   0.47764093    -7.8661986     -7.1497474      3.2524324      50218.233      36.893836      36.893836      36.893836    
   2030000   0.47603755    -7.8590653     -7.1450191      3.3025185      50218.233      36.893836      36.893836      36.893836    
   2040000   0.47637953    -7.8600635     -7.1455044      3.2973969      50218.233      36.893836      36.893836      36.893836    
   2050000   0.47761783    -7.8659819     -7.1495654      3.2503864      50218.233      36.893836      36.893836      36.893836    
   2060000   0.47454357    -7.8660502     -7.154245       3.2560213      50218.233      36.893836      36.893836      36.893836    
   2070000   0.47480297    -7.8616054     -7.1494111      3.2764912      50218.233      36.893836      36.893836      36.893836    
   2080000   0.47600264    -7.8636085     -7.1496147      3.2648451      50218.233      36.893836      36.893836      36.893836    
   2090000   0.47507495    -7.8622734     -7.1496711      3.2822493      50218.233      36.893836      36.893836      36.893836    
   2100000   0.47718348    -7.8640616     -7.1482966      3.2578354      50218.233      36.893836      36.893836      36.893836    
   2110000   0.4737614     -7.8644878     -7.1538559      3.2524683      50218.233      36.893836      36.893836      36.893836    
   2120000   0.47547705    -7.8614292     -7.1482238      3.2710398      50218.233      36.893836      36.893836      36.893836    
   2130000   0.47605419    -7.8642521     -7.1501809      3.2659066      50218.233      36.893836      36.893836      36.893836    
   2140000   0.47517138    -7.860327      -7.14758        3.284371       50218.233      36.893836      36.893836      36.893836    
   2150000   0.47181611    -7.8600722     -7.1523581      3.2715661      50218.233      36.893836      36.893836      36.893836    
   2160000   0.47347024    -7.8620966     -7.1519013      3.2815636      50218.233      36.893836      36.893836      36.893836    
   2170000   0.47766295    -7.8625198     -7.1460356      3.2805156      50218.233      36.893836      36.893836      36.893836    
   2180000   0.47379425    -7.8628195     -7.1521382      3.2720358      50218.233      36.893836      36.893836      36.893836    
   2190000   0.47616365    -7.8630564     -7.1488211      3.2637645      50218.233      36.893836      36.893836      36.893836    
   2200000   0.47754934    -7.8596658     -7.143352       3.2950589      50218.233      36.893836      36.893836      36.893836    
   2210000   0.47395796    -7.8621809     -7.1512541      3.2750802      50218.233      36.893836      36.893836      36.893836    
   2220000   0.47242229    -7.8617417     -7.1531183      3.2664307      50218.233      36.893836      36.893836      36.893836    
   2230000   0.47722095    -7.8621531     -7.1463318      3.2911073      50218.233      36.893836      36.893836      36.893836    
   2240000   0.47418329    -7.8598033     -7.1485384      3.2887834      50218.233      36.893836      36.893836      36.893836    
   2250000   0.47545016    -7.8646861     -7.151521       3.2611154      50218.233      36.893836      36.893836      36.893836    
   2260000   0.47534262    -7.8595024     -7.1464986      3.2940222      50218.233      36.893836      36.893836      36.893836    
   2270000   0.47559234    -7.8647357     -7.1513574      3.2570306      50218.233      36.893836      36.893836      36.893836    
   2280000   0.47758798    -7.8621844     -7.1458126      3.2789212      50218.233      36.893836      36.893836      36.893836    
   2290000   0.47712086    -7.8619528     -7.1462817      3.2784568      50218.233      36.893836      36.893836      36.893836    
   2300000   0.47615815    -7.8635478     -7.1493207      3.2711176      50218.233      36.893836      36.893836      36.893836    
   2310000   0.474918      -7.8603678     -7.148001       3.295865       50218.233      36.893836      36.893836      36.893836    
   2320000   0.47272226    -7.86127       -7.1521967      3.2762309      50218.233      36.893836      36.893836      36.893836    
   2330000   0.4744329     -7.8610609     -7.1494217      3.2843059      50218.233      36.893836      36.893836      36.893836    
   2340000   0.47359236    -7.8668304     -7.156452       3.2339969      50218.233      36.893836      36.893836      36.893836    
   2350000   0.47613703    -7.8593552     -7.1451598      3.2859534      50218.233      36.893836      36.893836      36.893836    
   2360000   0.47762006    -7.8600895     -7.1436696      3.2912594      50218.233      36.893836      36.893836      36.893836    
   2370000   0.47490473    -7.861064      -7.148717       3.2848553      50218.233      36.893836      36.893836      36.893836    
   2380000   0.47374585    -7.8647025     -7.1540938      3.2539565      50218.233      36.893836      36.893836      36.893836    
   2390000   0.47602998    -7.8606409     -7.1466061      3.2949479      50218.233      36.893836      36.893836      36.893836    
   2400000   0.47491671    -7.862566      -7.150201       3.2716793      50218.233      36.893836      36.893836      36.893836    
   2410000   0.47653145    -7.8648182     -7.1500312      3.2591001      50218.233      36.893836      36.893836      36.893836    
   2420000   0.47578864    -7.8612536     -7.1475808      3.2930719      50218.233      36.893836      36.893836      36.893836    
   2430000   0.47611109    -7.8617335     -7.147577       3.2726033      50218.233      36.893836      36.893836      36.893836    
   2440000   0.47569192    -7.8626148     -7.149087       3.2676965      50218.233      36.893836      36.893836      36.893836    
   2450000   0.4735361     -7.8641115     -7.1538174      3.2458068      50218.233      36.893836      36.893836      36.893836    
   2460000   0.47275046    -7.8635632     -7.1544476      3.2565938      50218.233      36.893836      36.893836      36.893836    
   2470000   0.47484545    -7.8624588     -7.1502008      3.2729442      50218.233      36.893836      36.893836      36.893836    
   2480000   0.47527885    -7.8635501     -7.1506419      3.2635805      50218.233      36.893836      36.893836      36.893836    
   2490000   0.47696157    -7.8660566     -7.1506245      3.2536148      50218.233      36.893836      36.893836      36.893836    
   2500000   0.47697258    -7.8634047     -7.147956       3.2660381      50218.233      36.893836      36.893836      36.893836    
   2510000   0.47507452    -7.8625226     -7.1499209      3.2705585      50218.233      36.893836      36.893836      36.893836    
   2520000   0.47475535    -7.8633381     -7.1512152      3.2602088      50218.233      36.893836      36.893836      36.893836    
   2530000   0.47574692    -7.8649574     -7.1513472      3.2545212      50218.233      36.893836      36.893836      36.893836    
   2540000   0.47168702    -7.8610344     -7.1535139      3.2723932      50218.233      36.893836      36.893836      36.893836    
   2550000   0.47499543    -7.8667365     -7.1542535      3.2371739      50218.233      36.893836      36.893836      36.893836    
   2560000   0.47805157    -7.8612667     -7.1441995      3.2809819      50218.233      36.893836      36.893836      36.893836    
   2570000   0.47646941    -7.8634115     -7.1487175      3.2732597      50218.233      36.893836      36.893836      36.893836    
   2580000   0.47281875    -7.8600047     -7.1507867      3.2875881      50218.233      36.893836      36.893836      36.893836    
   2590000   0.47541605    -7.8664432     -7.1533292      3.2459221      50218.233      36.893836      36.893836      36.893836    
   2600000   0.4765279     -7.8645497     -7.149768       3.2615992      50218.233      36.893836      36.893836      36.893836    
   2610000   0.47521557    -7.8639066     -7.1510934      3.2646861      50218.233      36.893836      36.893836      36.893836    
   2620000   0.47374114    -7.8600168     -7.1494152      3.2894312      50218.233      36.893836      36.893836      36.893836    
   2630000   0.47910197    -7.8588217     -7.140179       3.3112347      50218.233      36.893836      36.893836      36.893836    
   2640000   0.4755966     -7.8625174     -7.1491326      3.2852152      50218.233      36.893836      36.893836      36.893836    
   2650000   0.47556181    -7.8612226     -7.14789        3.2918474      50218.233      36.893836      36.893836      36.893836    
   2660000   0.47546032    -7.8639144     -7.150734       3.266839       50218.233      36.893836      36.893836      36.893836    
   2670000   0.47319233    -7.8558882     -7.1461098      3.3207489      50218.233      36.893836      36.893836      36.893836    
   2680000   0.47632961    -7.8626913     -7.1482071      3.27642        50218.233      36.893836      36.893836      36.893836    
   2690000   0.47396535    -7.8621511     -7.1512132      3.2699367      50218.233      36.893836      36.893836      36.893836    
   2700000   0.47420938    -7.8606444     -7.1493404      3.2797877      50218.233      36.893836      36.893836      36.893836    
   2710000   0.47422151    -7.8585833     -7.1472612      3.2920141      50218.233      36.893836      36.893836      36.893836    
   2720000   0.47567463    -7.8611598     -7.147658       3.2861023      50218.233      36.893836      36.893836      36.893836    
   2730000   0.47435611    -7.8607821     -7.149258       3.2799767      50218.233      36.893836      36.893836      36.893836    
   2740000   0.47410649    -7.8628169     -7.1516673      3.2733172      50218.233      36.893836      36.893836      36.893836    
   2750000   0.47549375    -7.8634159     -7.1501854      3.2683013      50218.233      36.893836      36.893836      36.893836    
   2760000   0.47542452    -7.8624367     -7.14931        3.2685205      50218.233      36.893836      36.893836      36.893836    
   2770000   0.47611705    -7.8620413     -7.1478759      3.2833895      50218.233      36.893836      36.893836      36.893836    
   2780000   0.4779155     -7.865003      -7.14814        3.2589934      50218.233      36.893836      36.893836      36.893836    
   2790000   0.47438707    -7.8607705     -7.1492         3.2939201      50218.233      36.893836      36.893836      36.893836    
   2800000   0.47256977    -7.8621159     -7.1532714      3.2788118      50218.233      36.893836      36.893836      36.893836    
   2810000   0.4764766     -7.8608903     -7.1461855      3.2742392      50218.233      36.893836      36.893836      36.893836    
   2820000   0.47528213    -7.8612393     -7.1483263      3.2812916      50218.233      36.893836      36.893836      36.893836    
   2830000   0.47648803    -7.8628335     -7.1481116      3.2851155      50218.233      36.893836      36.893836      36.893836    
   2840000   0.47817381    -7.8572412     -7.1399907      3.3120031      50218.233      36.893836      36.893836      36.893836    
   2850000   0.47599899    -7.8625098     -7.1485215      3.2781604      50218.233      36.893836      36.893836      36.893836    
   2860000   0.47413624    -7.8672954     -7.1561012      3.232054       50218.233      36.893836      36.893836      36.893836    
   2870000   0.47459724    -7.8633458     -7.15146        3.2740375      50218.233      36.893836      36.893836      36.893836    
   2880000   0.47363065    -7.8638512     -7.1534153      3.2602979      50218.233      36.893836      36.893836      36.893836    
   2890000   0.4735639     -7.8639626     -7.1536269      3.2569941      50218.233      36.893836      36.893836      36.893836    
   2900000   0.47509368    -7.863074      -7.1504436      3.2707349      50218.233      36.893836      36.893836      36.893836    
   2910000   0.47524114    -7.861423      -7.1485714      3.2783581      50218.233      36.893836      36.893836      36.893836    
   2920000   0.47296996    -7.8587211     -7.1492763      3.3015541      50218.233      36.893836      36.893836      36.893836    
   2930000   0.47696247    -7.8629194     -7.1474859      3.2640553      50218.233      36.893836      36.893836      36.893836    
   2940000   0.47539677    -7.8637476     -7.1506625      3.2613037      50218.233      36.893836      36.893836      36.893836    
   2950000   0.47368766    -7.861958      -7.1514366      3.2743748      50218.233      36.893836      36.893836      36.893836    
   2960000   0.47537831    -7.8597151     -7.1466578      3.2977936      50218.233      36.893836      36.893836      36.893836    
   2970000   0.47511712    -7.8650374     -7.1523718      3.2606986      50218.233      36.893836      36.893836      36.893836    
   2980000   0.47320114    -7.8593337     -7.1495421      3.2978897      50218.233      36.893836      36.893836      36.893836    
   2990000   0.47270347    -7.8619984     -7.1529533      3.2709937      50218.233      36.893836      36.893836      36.893836    
   3000000   0.47553366    -7.8597172     -7.1464269      3.2848193      50218.233      36.893836      36.893836      36.893836    
   3010000   0.47603658    -7.8639332     -7.1498885      3.2670143      50218.233      36.893836      36.893836      36.893836    
   3020000   0.47420743    -7.8658553     -7.1545542      3.2466465      50218.233      36.893836      36.893836      36.893836    
   3030000   0.47779088    -7.8597009     -7.1430248      3.2951858      50218.233      36.893836      36.893836      36.893836    
   3040000   0.47439904    -7.8634391     -7.1518506      3.2684612      50218.233      36.893836      36.893836      36.893836    
   3050000   0.47276258    -7.8626474     -7.1535136      3.2624837      50218.233      36.893836      36.893836      36.893836    
   3060000   0.47651625    -7.8616624     -7.1468982      3.2921057      50218.233      36.893836      36.893836      36.893836    
   3070000   0.47594135    -7.8590519     -7.14515        3.3006738      50218.233      36.893836      36.893836      36.893836    
   3080000   0.47616672    -7.8670281     -7.1527882      3.2375083      50218.233      36.893836      36.893836      36.893836    
   3090000   0.47377545    -7.8620736     -7.1514206      3.2820903      50218.233      36.893836      36.893836      36.893836    
   3100000   0.47306328    -7.8625161     -7.1529313      3.2743203      50218.233      36.893836      36.893836      36.893836    
   3110000   0.47372801    -7.8672262     -7.1566443      3.2276963      50218.233      36.893836      36.893836      36.893836    
   3120000   0.47456921    -7.8631774     -7.1513337      3.2600991      50218.233      36.893836      36.893836      36.893836    
   3130000   0.47437726    -7.8615855     -7.1500298      3.2788089      50218.233      36.893836      36.893836      36.893836    
   3140000   0.47521479    -7.8628633     -7.1500512      3.2672922      50218.233      36.893836      36.893836      36.893836    
   3150000   0.4721146     -7.863691      -7.1555292      3.2555759      50218.233      36.893836      36.893836      36.893836    
   3160000   0.47550824    -7.8633336     -7.1500814      3.2572281      50218.233      36.893836      36.893836      36.893836    
   3170000   0.47695402    -7.8600409     -7.1446201      3.2900984      50218.233      36.893836      36.893836      36.893836    
   3180000   0.47672624    -7.8636402     -7.148561       3.2625165      50218.233      36.893836      36.893836      36.893836    
   3190000   0.47699599    -7.8648623     -7.1493785      3.2493085      50218.233      36.893836      36.893836      36.893836    
   3200000   0.47720372    -7.8634042     -7.1476088      3.2702837      50218.233      36.893836      36.893836      36.893836    
   3210000   0.47486055    -7.8639732     -7.1516925      3.2496315      50218.233      36.893836      36.893836      36.893836    
   3220000   0.47621797    -7.8628186     -7.1485018      3.2616912      50218.233      36.893836      36.893836      36.893836    
   3230000   0.47687876    -7.8669612     -7.1516533      3.237941       50218.233      36.893836      36.893836      36.893836    
   3240000   0.47780485    -7.8629741     -7.1462771      3.2712368      50218.233      36.893836      36.893836      36.893836    
   3250000   0.47518115    -7.8665785     -7.1538169      3.2392073      50218.233      36.893836      36.893836      36.893836    
   3260000   0.4753422     -7.8631792     -7.150176       3.2618262      50218.233      36.893836      36.893836      36.893836    
   3270000   0.47577902    -7.8643859     -7.1507275      3.2610361      50218.233      36.893836      36.893836      36.893836    
   3280000   0.47423858    -7.8614432     -7.1500955      3.2854481      50218.233      36.893836      36.893836      36.893836    
   3290000   0.47247241    -7.8598091     -7.1511106      3.2913719      50218.233      36.893836      36.893836      36.893836    
   3300000   0.47533548    -7.8670386     -7.1540455      3.2421001      50218.233      36.893836      36.893836      36.893836    
   3310000   0.47524549    -7.8607824     -7.1479243      3.2882878      50218.233      36.893836      36.893836      36.893836    
   3320000   0.4770865     -7.8627867     -7.1471671      3.2772984      50218.233      36.893836      36.893836      36.893836    
   3330000   0.4733384     -7.8591042     -7.1491067      3.2912587      50218.233      36.893836      36.893836      36.893836    
   3340000   0.47290799    -7.8630977     -7.1537458      3.2592845      50218.233      36.893836      36.893836      36.893836    
   3350000   0.47598214    -7.8651157     -7.1511527      3.256156       50218.233      36.893836      36.893836      36.893836    
   3360000   0.47945064    -7.8616957     -7.14253        3.2777128      50218.233      36.893836      36.893836      36.893836    
   3370000   0.47543391    -7.8627422     -7.1496015      3.2713445      50218.233      36.893836      36.893836      36.893836    
   3380000   0.47488197    -7.8623214     -7.1500086      3.2738632      50218.233      36.893836      36.893836      36.893836    
   3390000   0.47068478    -7.8663702     -7.1603531      3.2320525      50218.233      36.893836      36.893836      36.893836    
   3400000   0.47494235    -7.861992      -7.1495886      3.2800313      50218.233      36.893836      36.893836      36.893836    
   3410000   0.47448334    -7.8627955     -7.1510806      3.2663067      50218.233      36.893836      36.893836      36.893836    
   3420000   0.47544797    -7.8626942     -7.1495324      3.2675892      50218.233      36.893836      36.893836      36.893836    
   3430000   0.47694278    -7.8625369     -7.1471329      3.2652538      50218.233      36.893836      36.893836      36.893836    
   3440000   0.47501522    -7.8651248     -7.1526121      3.2583106      50218.233      36.893836      36.893836      36.893836    
   3450000   0.47182015    -7.8596569     -7.1519368      3.2867259      50218.233      36.893836      36.893836      36.893836    
   3460000   0.47374945    -7.8619651     -7.151351       3.2755634      50218.233      36.893836      36.893836      36.893836    
   3470000   0.47678621    -7.8660637     -7.1508946      3.2508383      50218.233      36.893836      36.893836      36.893836    
   3480000   0.4752566     -7.8609653     -7.1480905      3.2879865      50218.233      36.893836      36.893836      36.893836    
   3490000   0.47357923    -7.8646944     -7.1543356      3.2479093      50218.233      36.893836      36.893836      36.893836    
   3500000   0.47597306    -7.8620491     -7.1480996      3.2810857      50218.233      36.893836      36.893836      36.893836    
   3510000   0.47491805    -7.8624826     -7.1501157      3.278742       50218.233      36.893836      36.893836      36.893836    
   3520000   0.47421939    -7.863572      -7.1522531      3.2655548      50218.233      36.893836      36.893836      36.893836    
   3530000   0.47537749    -7.8627887     -7.1497326      3.2663621      50218.233      36.893836      36.893836      36.893836    
   3540000   0.47818073    -7.8577316     -7.1404707      3.3284993      50218.233      36.893836      36.893836      36.893836    
   3550000   0.4746296     -7.8616134     -7.1496792      3.2819855      50218.233      36.893836      36.893836      36.893836    
   3560000   0.475223      -7.8662475     -7.1534232      3.2493576      50218.233      36.893836      36.893836      36.893836    
   3570000   0.47563996    -7.863949      -7.1504992      3.2655804      50218.233      36.893836      36.893836      36.893836    
   3580000   0.47557116    -7.8632599     -7.1499133      3.2751209      50218.233      36.893836      36.893836      36.893836    
   3590000   0.47669818    -7.8641877     -7.1491506      3.2583262      50218.233      36.893836      36.893836      36.893836    
   3600000   0.47616912    -7.8645599     -7.1503164      3.2469903      50218.233      36.893836      36.893836      36.893836    
   3610000   0.47528853    -7.8624044     -7.1494817      3.2665666      50218.233      36.893836      36.893836      36.893836    
   3620000   0.47441116    -7.8633433     -7.1517367      3.2707883      50218.233      36.893836      36.893836      36.893836    
   3630000   0.4781785     -7.8630875     -7.14583        3.264916       50218.233      36.893836      36.893836      36.893836    
   3640000   0.47702051    -7.8606217     -7.1451011      3.2749602      50218.233      36.893836      36.893836      36.893836    
   3650000   0.4736581     -7.8571383     -7.1466613      3.307255       50218.233      36.893836      36.893836      36.893836    
   3660000   0.47332772    -7.8585905     -7.148609       3.2989523      50218.233      36.893836      36.893836      36.893836    
   3670000   0.4744237     -7.8576174     -7.145992       3.3064096      50218.233      36.893836      36.893836      36.893836    
   3680000   0.47468461    -7.8617868     -7.14977        3.2894055      50218.233      36.893836      36.893836      36.893836    
   3690000   0.47555951    -7.8629549     -7.1496257      3.2697549      50218.233      36.893836      36.893836      36.893836    
   3700000   0.4759815     -7.8633276     -7.1493656      3.2645596      50218.233      36.893836      36.893836      36.893836    
   3710000   0.47535436    -7.8610681     -7.1480467      3.2762942      50218.233      36.893836      36.893836      36.893836    
   3720000   0.47494713    -7.8594764     -7.1470659      3.2912814      50218.233      36.893836      36.893836      36.893836    
   3730000   0.47349173    -7.8614963     -7.1512689      3.2803663      50218.233      36.893836      36.893836      36.893836    
   3740000   0.47516436    -7.8601411     -7.1474047      3.2858067      50218.233      36.893836      36.893836      36.893836    
   3750000   0.47527587    -7.860111      -7.1472073      3.2820431      50218.233      36.893836      36.893836      36.893836    
   3760000   0.47608166    -7.8645179     -7.1504056      3.2629261      50218.233      36.893836      36.893836      36.893836    
   3770000   0.47257392    -7.8587544     -7.1499036      3.2931331      50218.233      36.893836      36.893836      36.893836    
   3780000   0.47495709    -7.8619592     -7.1495337      3.2692513      50218.233      36.893836      36.893836      36.893836    
   3790000   0.47771578    -7.8626641     -7.1461006      3.2774835      50218.233      36.893836      36.893836      36.893836    
   3800000   0.47618788    -7.8640935     -7.1498218      3.262262       50218.233      36.893836      36.893836      36.893836    
   3810000   0.47614226    -7.8618812     -7.147678       3.2872718      50218.233      36.893836      36.893836      36.893836    
   3820000   0.47603501    -7.8629462     -7.1489038      3.2805626      50218.233      36.893836      36.893836      36.893836    
   3830000   0.47548868    -7.862295      -7.1490721      3.2797484      50218.233      36.893836      36.893836      36.893836    
   3840000   0.47716684    -7.864093      -7.1483529      3.2674051      50218.233      36.893836      36.893836      36.893836    
   3850000   0.47563499    -7.8591388     -7.1456964      3.2944258      50218.233      36.893836      36.893836      36.893836    
   3860000   0.47429459    -7.8631748     -7.1517431      3.2650041      50218.233      36.893836      36.893836      36.893836    
   3870000   0.47445466    -7.8645549     -7.152883       3.262328       50218.233      36.893836      36.893836      36.893836    
   3880000   0.47590382    -7.8605499     -7.1467043      3.2936045      50218.233      36.893836      36.893836      36.893836    
   3890000   0.47845861    -7.8606711     -7.1429934      3.2996064      50218.233      36.893836      36.893836      36.893836    
   3900000   0.47607691    -7.8639743     -7.1498691      3.2544849      50218.233      36.893836      36.893836      36.893836    
   3910000   0.47753633    -7.8617884     -7.1454941      3.2794751      50218.233      36.893836      36.893836      36.893836    
   3920000   0.47487667    -7.8627567     -7.1504519      3.2692309      50218.233      36.893836      36.893836      36.893836    
   3930000   0.47379163    -7.864422      -7.1537447      3.2616995      50218.233      36.893836      36.893836      36.893836    
   3940000   0.47250998    -7.8664655     -7.1577106      3.2387665      50218.233      36.893836      36.893836      36.893836    
   3950000   0.47663304    -7.8672988     -7.1523594      3.2487048      50218.233      36.893836      36.893836      36.893836    
   3960000   0.47405381    -7.86488       -7.1538094      3.2547307      50218.233      36.893836      36.893836      36.893836    
   3970000   0.47678711    -7.8639699     -7.1487994      3.2704586      50218.233      36.893836      36.893836      36.893836    
   3980000   0.47489666    -7.8621764     -7.1498415      3.2682785      50218.233      36.893836      36.893836      36.893836    
   3990000   0.47442919    -7.8622395     -7.1506058      3.2683796      50218.233      36.893836      36.893836      36.893836    
   4000000   0.47377082    -7.8616587     -7.1510126      3.2846586      50218.233      36.893836      36.893836      36.893836    
   4010000   0.47536756    -7.8617585     -7.1487173      3.268594       50218.233      36.893836      36.893836      36.893836    
   4020000   0.47319567    -7.8645998     -7.1548164      3.2545815      50218.233      36.893836      36.893836      36.893836    
   4030000   0.47564786    -7.8630483     -7.1495867      3.2607221      50218.233      36.893836      36.893836      36.893836    
   4040000   0.47591146    -7.8667792     -7.1529221      3.2351971      50218.233      36.893836      36.893836      36.893836    
   4050000   0.4776412     -7.8620436     -7.145592       3.2732308      50218.233      36.893836      36.893836      36.893836    
   4060000   0.4741571     -7.8645214     -7.1532959      3.2576066      50218.233      36.893836      36.893836      36.893836    
   4070000   0.47593939    -7.8663099     -7.1524109      3.2393731      50218.233      36.893836      36.893836      36.893836    
   4080000   0.47762145    -7.8628516     -7.1464296      3.2742694      50218.233      36.893836      36.893836      36.893836    
   4090000   0.47401564    -7.8647284     -7.153715       3.2559164      50218.233      36.893836      36.893836      36.893836    
   4100000   0.47332272    -7.860029      -7.1500551      3.2934021      50218.233      36.893836      36.893836      36.893836    
   4110000   0.47736192    -7.8656966     -7.1496639      3.2533088      50218.233      36.893836      36.893836      36.893836    
   4120000   0.47357484    -7.8618498     -7.1514977      3.2751872      50218.233      36.893836      36.893836      36.893836    
   4130000   0.47690196    -7.8646564     -7.1493136      3.2476426      50218.233      36.893836      36.893836      36.893836    
   4140000   0.47552988    -7.863         -7.1497153      3.266102       50218.233      36.893836      36.893836      36.893836    
   4150000   0.47507303    -7.8643622     -7.1517628      3.2621783      50218.233      36.893836      36.893836      36.893836    
   4160000   0.47546352    -7.8622641     -7.149079       3.2664544      50218.233      36.893836      36.893836      36.893836    
   4170000   0.47715539    -7.86006       -7.1443371      3.2874839      50218.233      36.893836      36.893836      36.893836    
   4180000   0.47349068    -7.8590839     -7.148858       3.2951804      50218.233      36.893836      36.893836      36.893836    
   4190000   0.47655548    -7.8565569     -7.1417338      3.3151506      50218.233      36.893836      36.893836      36.893836    
   4200000   0.47650113    -7.8625689     -7.1478274      3.2711532      50218.233      36.893836      36.893836      36.893836    
   4210000   0.47345186    -7.8617986     -7.1516309      3.2726372      50218.233      36.893836      36.893836      36.893836    
   4220000   0.47548867    -7.8615897     -7.1483669      3.2676499      50218.233      36.893836      36.893836      36.893836    
   4230000   0.47654959    -7.8639609     -7.1491467      3.2659364      50218.233      36.893836      36.893836      36.893836    
   4240000   0.47641083    -7.8632076     -7.1486015      3.265212       50218.233      36.893836      36.893836      36.893836    
   4250000   0.47601438    -7.8620837     -7.1480723      3.2790925      50218.233      36.893836      36.893836      36.893836    
   4260000   0.47476849    -7.8660324     -7.1538898      3.2466789      50218.233      36.893836      36.893836      36.893836    
   4270000   0.4741286     -7.8651716     -7.1539888      3.2476514      50218.233      36.893836      36.893836      36.893836    
   4280000   0.47288495    -7.8634808     -7.1541635      3.2601404      50218.233      36.893836      36.893836      36.893836    
   4290000   0.47617404    -7.863502      -7.1492511      3.2618355      50218.233      36.893836      36.893836      36.893836    
   4300000   0.47700447    -7.8632615     -7.147765       3.2673332      50218.233      36.893836      36.893836      36.893836    
   4310000   0.47531844    -7.860354      -7.1473865      3.2769257      50218.233      36.893836      36.893836      36.893836    
   4320000   0.47393854    -7.8623614     -7.1514637      3.2813833      50218.233      36.893836      36.893836      36.893836    
   4330000   0.47500108    -7.8630128     -7.1505213      3.2582852      50218.233      36.893836      36.893836      36.893836    
   4340000   0.47642918    -7.860181      -7.1455474      3.2973905      50218.233      36.893836      36.893836      36.893836    
   4350000   0.47547969    -7.8623967     -7.1491873      3.2677499      50218.233      36.893836      36.893836      36.893836    
   4360000   0.47629615    -7.8610114     -7.1465774      3.2831783      50218.233      36.893836      36.893836      36.893836    
   4370000   0.47605794    -7.8610853     -7.1470085      3.2859644      50218.233      36.893836      36.893836      36.893836    
   4380000   0.47617177    -7.8607765     -7.146529       3.2805461      50218.233      36.893836      36.893836      36.893836    
   4390000   0.47560289    -7.8610842     -7.14769        3.2800979      50218.233      36.893836      36.893836      36.893836    
   4400000   0.47626827    -7.8615716     -7.1471794      3.2753777      50218.233      36.893836      36.893836      36.893836    
   4410000   0.47673921    -7.867474      -7.1523754      3.2345835      50218.233      36.893836      36.893836      36.893836    
   4420000   0.4757256     -7.8625211     -7.1489428      3.2743873      50218.233      36.893836      36.893836      36.893836    
   4430000   0.47716581    -7.8616656     -7.1459271      3.2842977      50218.233      36.893836      36.893836      36.893836    
   4440000   0.47407688    -7.8630557     -7.1519505      3.2621373      50218.233      36.893836      36.893836      36.893836    
   4450000   0.47295403    -7.863976      -7.1545551      3.2555724      50218.233      36.893836      36.893836      36.893836    
   4460000   0.47476502    -7.862603      -7.1504656      3.2729727      50218.233      36.893836      36.893836      36.893836    
   4470000   0.47520079    -7.8637623     -7.1509713      3.2527994      50218.233      36.893836      36.893836      36.893836    
   4480000   0.47475794    -7.8668701     -7.1547433      3.2390845      50218.233      36.893836      36.893836      36.893836    
   4490000   0.4742389     -7.8612205     -7.1498723      3.2794212      50218.233      36.893836      36.893836      36.893836    
   4500000   0.47498186    -7.8661305     -7.1536678      3.245983       50218.233      36.893836      36.893836      36.893836    
   4510000   0.47728052    -7.8653534     -7.1494428      3.2641363      50218.233      36.893836      36.893836      36.893836    
   4520000   0.47371316    -7.8621342     -7.1515745      3.2713001      50218.233      36.893836      36.893836      36.893836    
   4530000   0.47564116    -7.8636685     -7.1502169      3.2595886      50218.233      36.893836      36.893836      36.893836    
   4540000   0.47656261    -7.8606583     -7.1458246      3.2806495      50218.233      36.893836      36.893836      36.893836    
   4550000   0.47502229    -7.8629201     -7.1503968      3.260291       50218.233      36.893836      36.893836      36.893836    
   4560000   0.47714896    -7.8631637     -7.1474505      3.2608794      50218.233      36.893836      36.893836      36.893836    
   4570000   0.47231285    -7.8644582     -7.155999       3.2493678      50218.233      36.893836      36.893836      36.893836    
   4580000   0.47269331    -7.8663452     -7.1573154      3.2357512      50218.233      36.893836      36.893836      36.893836    
   4590000   0.47275879    -7.8594043     -7.1502762      3.2984012      50218.233      36.893836      36.893836      36.893836    
   4600000   0.47898347    -7.8647542     -7.1462892      3.266076       50218.233      36.893836      36.893836      36.893836    
   4610000   0.476045      -7.8623254     -7.1482681      3.2631359      50218.233      36.893836      36.893836      36.893836    
   4620000   0.47646151    -7.8598684     -7.1451863      3.2897751      50218.233      36.893836      36.893836      36.893836    
   4630000   0.47565458    -7.8631479     -7.1496762      3.2584063      50218.233      36.893836      36.893836      36.893836    
   4640000   0.47206383    -7.8632281     -7.1551424      3.2552122      50218.233      36.893836      36.893836      36.893836    
   4650000   0.47313094    -7.8611039     -7.1514176      3.2746669      50218.233      36.893836      36.893836      36.893836    
   4660000   0.47654197    -7.863734      -7.1489312      3.258951       50218.233      36.893836      36.893836      36.893836    
   4670000   0.47691002    -7.8657332     -7.1503783      3.2432276      50218.233      36.893836      36.893836      36.893836    
   4680000   0.47456849    -7.8640517     -7.1522091      3.2533967      50218.233      36.893836      36.893836      36.893836    
   4690000   0.4716365     -7.8614219     -7.1539773      3.2700722      50218.233      36.893836      36.893836      36.893836    
   4700000   0.47573822    -7.8604346     -7.1468374      3.2726455      50218.233      36.893836      36.893836      36.893836    
   4710000   0.47550603    -7.8610147     -7.1477658      3.2753319      50218.233      36.893836      36.893836      36.893836    
   4720000   0.47439942    -7.8636062     -7.1520172      3.2570381      50218.233      36.893836      36.893836      36.893836    
   4730000   0.47568465    -7.8627188     -7.149202       3.2729193      50218.233      36.893836      36.893836      36.893836    
   4740000   0.47668217    -7.8611605     -7.1461474      3.2739823      50218.233      36.893836      36.893836      36.893836    
   4750000   0.47215999    -7.8613342     -7.1531043      3.2748488      50218.233      36.893836      36.893836      36.893836    
   4760000   0.47720337    -7.8604651     -7.1446702      3.2869032      50218.233      36.893836      36.893836      36.893836    
   4770000   0.47616883    -7.8668884     -7.1526453      3.2376284      50218.233      36.893836      36.893836      36.893836    
   4780000   0.47457024    -7.8607702     -7.148925       3.2744458      50218.233      36.893836      36.893836      36.893836    
   4790000   0.47540182    -7.867324      -7.1542314      3.2285668      50218.233      36.893836      36.893836      36.893836    
   4800000   0.47443254    -7.8634576     -7.1518189      3.2613893      50218.233      36.893836      36.893836      36.893836    
   4810000   0.47494333    -7.8617149     -7.14931        3.2681824      50218.233      36.893836      36.893836      36.893836    
   4820000   0.47518902    -7.8647959     -7.1520226      3.2669659      50218.233      36.893836      36.893836      36.893836    
   4830000   0.47484037    -7.8670602     -7.1548098      3.2334955      50218.233      36.893836      36.893836      36.893836    
   4840000   0.47344035    -7.8663997     -7.1562492      3.2336282      50218.233      36.893836      36.893836      36.893836    
   4850000   0.47703092    -7.8653602     -7.149824       3.2412567      50218.233      36.893836      36.893836      36.893836    
   4860000   0.4746789     -7.8630879     -7.1510796      3.2574371      50218.233      36.893836      36.893836      36.893836    
   4870000   0.4718786     -7.865253      -7.1574452      3.2423155      50218.233      36.893836      36.893836      36.893836    
   4880000   0.47720901    -7.8610669     -7.1452636      3.2814792      50218.233      36.893836      36.893836      36.893836    
   4890000   0.47334318    -7.8617649     -7.1517602      3.2634615      50218.233      36.893836      36.893836      36.893836    
   4900000   0.47378396    -7.8640928     -7.153427       3.2568546      50218.233      36.893836      36.893836      36.893836    
   4910000   0.47478877    -7.8658232     -7.1536502      3.2485275      50218.233      36.893836      36.893836      36.893836    
   4920000   0.47645564    -7.8632515     -7.1485782      3.2659978      50218.233      36.893836      36.893836      36.893836    
   4930000   0.47591965    -7.8639124     -7.1500431      3.2594965      50218.233      36.893836      36.893836      36.893836    
   4940000   0.47353107    -7.8602939     -7.1500074      3.2769146      50218.233      36.893836      36.893836      36.893836    
   4950000   0.47574929    -7.8617231     -7.1481094      3.2829143      50218.233      36.893836      36.893836      36.893836    
   4960000   0.47453949    -7.8605339     -7.1487347      3.2768763      50218.233      36.893836      36.893836      36.893836    
   4970000   0.47449427    -7.8650641     -7.1533329      3.2537212      50218.233      36.893836      36.893836      36.893836    
   4980000   0.47590963    -7.8679631     -7.1541088      3.2364211      50218.233      36.893836      36.893836      36.893836    
   4990000   0.47365059    -7.8635262     -7.1530604      3.2599133      50218.233      36.893836      36.893836      36.893836    
   5000000   0.47482661    -7.86144       -7.1492102      3.2748408      50218.233      36.893836      36.893836      36.893836    
   5010000   0.47782461    -7.8664114     -7.1496847      3.2437208      50218.233      36.893836      36.893836      36.893836    
   5020000   0.4754258     -7.8659283     -7.1527997      3.2470231      50218.233      36.893836      36.893836      36.893836    
   5030000   0.4760336     -7.8630393     -7.1489991      3.2719402      50218.233      36.893836      36.893836      36.893836    
   5040000   0.47464874    -7.8627259     -7.1507629      3.2651039      50218.233      36.893836      36.893836      36.893836    
   5050000   0.47212794    -7.8609082     -7.1527264      3.2673389      50218.233      36.893836      36.893836      36.893836    
   5060000   0.47423208    -7.8658831     -7.1545451      3.2505479      50218.233      36.893836      36.893836      36.893836    
   5070000   0.47596742    -7.864247      -7.150306       3.262141       50218.233      36.893836      36.893836      36.893836    
   5080000   0.47577595    -7.8579593     -7.1443055      3.3055829      50218.233      36.893836      36.893836      36.893836    
   5090000   0.47642814    -7.862182      -7.14755        3.2735824      50218.233      36.893836      36.893836      36.893836    
   5100000   0.47428136    -7.8615452     -7.1501333      3.2773308      50218.233      36.893836      36.893836      36.893836    
   5110000   0.47720527    -7.8635679     -7.1477702      3.2579871      50218.233      36.893836      36.893836      36.893836    
   5120000   0.47438703    -7.8606398     -7.1490694      3.2643359      50218.233      36.893836      36.893836      36.893836    
   5130000   0.47349075    -7.8666524     -7.1564264      3.2236127      50218.233      36.893836      36.893836      36.893836    
   5140000   0.47594328    -7.8660361     -7.1521314      3.2495697      50218.233      36.893836      36.893836      36.893836    
   5150000   0.47491046    -7.8623928     -7.1500372      3.2758941      50218.233      36.893836      36.893836      36.893836    
   5160000   0.47535355    -7.860903      -7.1478828      3.2923818      50218.233      36.893836      36.893836      36.893836    
   5170000   0.47457455    -7.8609803     -7.1491286      3.2756307      50218.233      36.893836      36.893836      36.893836    
   5180000   0.47415802    -7.8595414     -7.1483144      3.2908419      50218.233      36.893836      36.893836      36.893836    
   5190000   0.47671872    -7.8648352     -7.1497673      3.2563056      50218.233      36.893836      36.893836      36.893836    
   5200000   0.47556216    -7.8644573     -7.1511242      3.2510465      50218.233      36.893836      36.893836      36.893836    
   5210000   0.47547275    -7.859809      -7.1466101      3.2954152      50218.233      36.893836      36.893836      36.893836    
   5220000   0.47255252    -7.8610643     -7.1522456      3.2683518      50218.233      36.893836      36.893836      36.893836    
   5230000   0.47463184    -7.8625397     -7.1506021      3.2735974      50218.233      36.893836      36.893836      36.893836    
   5240000   0.47578486    -7.8641396     -7.1504724      3.2637915      50218.233      36.893836      36.893836      36.893836    
   5250000   0.47577518    -7.8634149     -7.1497622      3.266707       50218.233      36.893836      36.893836      36.893836    
   5260000   0.47370501    -7.8641495     -7.1536021      3.248426       50218.233      36.893836      36.893836      36.893836    
   5270000   0.47660666    -7.8634592     -7.1485594      3.2549052      50218.233      36.893836      36.893836      36.893836    
   5280000   0.47612848    -7.8598903     -7.1457077      3.2887822      50218.233      36.893836      36.893836      36.893836    
   5290000   0.47736043    -7.8615596     -7.1455291      3.283521       50218.233      36.893836      36.893836      36.893836    
   5300000   0.47351591    -7.8633085     -7.1530448      3.2634884      50218.233      36.893836      36.893836      36.893836    
   5310000   0.47658766    -7.8634531     -7.1485818      3.2606977      50218.233      36.893836      36.893836      36.893836    
   5320000   0.47726671    -7.8658981     -7.1500082      3.2429582      50218.233      36.893836      36.893836      36.893836    
   5330000   0.47141284    -7.8646702     -7.157561       3.2455373      50218.233      36.893836      36.893836      36.893836    
   5340000   0.47596801    -7.8607693     -7.1468275      3.2826137      50218.233      36.893836      36.893836      36.893836    
   5350000   0.47782069    -7.8639037     -7.1471828      3.2595339      50218.233      36.893836      36.893836      36.893836    
   5360000   0.47218656    -7.8648855     -7.1566157      3.2455093      50218.233      36.893836      36.893836      36.893836    
   5370000   0.47380062    -7.8622426     -7.1515518      3.2708413      50218.233      36.893836      36.893836      36.893836    
   5380000   0.47736783    -7.8604381     -7.1443965      3.2913879      50218.233      36.893836      36.893836      36.893836    
   5390000   0.47645864    -7.8638416     -7.1491638      3.2602588      50218.233      36.893836      36.893836      36.893836    
   5400000   0.47484381    -7.8613769     -7.1491213      3.2663276      50218.233      36.893836      36.893836      36.893836    
   5410000   0.47466074    -7.8637279     -7.151747       3.2591466      50218.233      36.893836      36.893836      36.893836    
   5420000   0.47378023    -7.862451      -7.1517907      3.2722743      50218.233      36.893836      36.893836      36.893836    
   5430000   0.4753473     -7.8608896     -7.1478788      3.2858404      50218.233      36.893836      36.893836      36.893836    
   5440000   0.47192081    -7.8624312     -7.1545601      3.269335       50218.233      36.893836      36.893836      36.893836    
   5450000   0.47767273    -7.8644813     -7.1479824      3.253152       50218.233      36.893836      36.893836      36.893836    
   5460000   0.47595575    -7.8622492     -7.1483257      3.2681982      50218.233      36.893836      36.893836      36.893836    
   5470000   0.47603326    -7.8625872     -7.1485475      3.2654972      50218.233      36.893836      36.893836      36.893836    
   5480000   0.47540398    -7.8660366     -7.1529407      3.2518579      50218.233      36.893836      36.893836      36.893836    
   5490000   0.47431155    -7.8655596     -7.1541024      3.2412664      50218.233      36.893836      36.893836      36.893836    
   5500000   0.47366501    -7.861684      -7.1511966      3.2742189      50218.233      36.893836      36.893836      36.893836    
   5510000   0.47473908    -7.8649285     -7.15283        3.2560298      50218.233      36.893836      36.893836      36.893836    
   5520000   0.47593596    -7.8672742     -7.1533805      3.2339846      50218.233      36.893836      36.893836      36.893836    
   5530000   0.47359231    -7.8652478     -7.1548694      3.2441366      50218.233      36.893836      36.893836      36.893836    
   5540000   0.47638664    -7.8585682     -7.1439984      3.2875952      50218.233      36.893836      36.893836      36.893836    
   5550000   0.47517082    -7.861349      -7.1486029      3.2711842      50218.233      36.893836      36.893836      36.893836    
   5560000   0.47726392    -7.8638799     -7.1479942      3.262552       50218.233      36.893836      36.893836      36.893836    
   5570000   0.47532652    -7.8576856     -7.1447059      3.312424       50218.233      36.893836      36.893836      36.893836    
   5580000   0.47672036    -7.8633924     -7.1483221      3.2708072      50218.233      36.893836      36.893836      36.893836    
   5590000   0.47536484    -7.8646743     -7.1516371      3.2607387      50218.233      36.893836      36.893836      36.893836    
   5600000   0.47517613    -7.8620434     -7.1492893      3.2764113      50218.233      36.893836      36.893836      36.893836    
   5610000   0.47489008    -7.8649793     -7.1526543      3.2601416      50218.233      36.893836      36.893836      36.893836    
   5620000   0.47365618    -7.864489      -7.1540148      3.2574923      50218.233      36.893836      36.893836      36.893836    
   5630000   0.4744898     -7.8653065     -7.1535819      3.243554       50218.233      36.893836      36.893836      36.893836    
   5640000   0.47436414    -7.8627967     -7.1512607      3.2665169      50218.233      36.893836      36.893836      36.893836    
   5650000   0.47432261    -7.8590371     -7.1475633      3.2996627      50218.233      36.893836      36.893836      36.893836    
   5660000   0.4733079     -7.8618989     -7.1519472      3.2743623      50218.233      36.893836      36.893836      36.893836    
   5670000   0.47489876    -7.8607154     -7.1483774      3.277879       50218.233      36.893836      36.893836      36.893836    
   5680000   0.47441895    -7.8630339     -7.1514156      3.2560328      50218.233      36.893836      36.893836      36.893836    
   5690000   0.47558992    -7.8587361     -7.1453613      3.2954175      50218.233      36.893836      36.893836      36.893836    
   5700000   0.4749242     -7.8630773     -7.1507011      3.2670388      50218.233      36.893836      36.893836      36.893836    
   5710000   0.47805909    -7.8586211     -7.1415427      3.3026353      50218.233      36.893836      36.893836      36.893836    
   5720000   0.47577652    -7.8606165     -7.1469619      3.2841389      50218.233      36.893836      36.893836      36.893836    
   5730000   0.476299      -7.8629174     -7.1484791      3.2725355      50218.233      36.893836      36.893836      36.893836    
   5740000   0.47611944    -7.861374      -7.147205       3.2841932      50218.233      36.893836      36.893836      36.893836    
   5750000   0.47488692    -7.865387      -7.1530667      3.2492975      50218.233      36.893836      36.893836      36.893836    
   5760000   0.47437941    -7.8622148     -7.1506558      3.2740807      50218.233      36.893836      36.893836      36.893836    
   5770000   0.47603288    -7.859157      -7.1451178      3.2865429      50218.233      36.893836      36.893836      36.893836    
   5780000   0.47336502    -7.859932      -7.1498946      3.2964706      50218.233      36.893836      36.893836      36.893836    
   5790000   0.47387197    -7.8620395     -7.1512417      3.2664924      50218.233      36.893836      36.893836      36.893836    
   5800000   0.47349703    -7.8596838     -7.1494484      3.2851105      50218.233      36.893836      36.893836      36.893836    
   5810000   0.47380807    -7.8565584     -7.1458564      3.3196381      50218.233      36.893836      36.893836      36.893836    
   5820000   0.47328526    -7.8633166     -7.1533988      3.2602403      50218.233      36.893836      36.893836      36.893836    
   5830000   0.47153424    -7.8649954     -7.1577041      3.2478963      50218.233      36.893836      36.893836      36.893836    
   5840000   0.47700811    -7.8607593     -7.1452573      3.2829795      50218.233      36.893836      36.893836      36.893836    
   5850000   0.4746155     -7.8615677     -7.1496546      3.2799448      50218.233      36.893836      36.893836      36.893836    
   5860000   0.47605661    -7.8618831     -7.1478083      3.2747439      50218.233      36.893836      36.893836      36.893836    
   5870000   0.47327784    -7.8599332     -7.1500265      3.2858698      50218.233      36.893836      36.893836      36.893836    
   5880000   0.47603971    -7.8636739     -7.1496245      3.2626711      50218.233      36.893836      36.893836      36.893836    
   5890000   0.47446769    -7.8619126     -7.1502212      3.2757538      50218.233      36.893836      36.893836      36.893836    
   5900000   0.47462503    -7.861768      -7.1498406      3.2794456      50218.233      36.893836      36.893836      36.893836    
   5910000   0.47724618    -7.8607836     -7.1449245      3.2891251      50218.233      36.893836      36.893836      36.893836    
   5920000   0.47530869    -7.8653133     -7.1523604      3.2481817      50218.233      36.893836      36.893836      36.893836    
   5930000   0.47577941    -7.8609172     -7.1472582      3.2855408      50218.233      36.893836      36.893836      36.893836    
   5940000   0.47479529    -7.8599732     -7.1477904      3.2868539      50218.233      36.893836      36.893836      36.893836    
   5950000   0.47535859    -7.8605529     -7.1475251      3.2953218      50218.233      36.893836      36.893836      36.893836    
   5960000   0.47483177    -7.8636154     -7.1513779      3.2595241      50218.233      36.893836      36.893836      36.893836    
   5970000   0.47543484    -7.8634698     -7.1503277      3.2730256      50218.233      36.893836      36.893836      36.893836    
   5980000   0.472124      -7.8668904     -7.1587145      3.2264         50218.233      36.893836      36.893836      36.893836    
   5990000   0.47602423    -7.8623263     -7.1483001      3.277462       50218.233      36.893836      36.893836      36.893836    
   6000000   0.47500384    -7.8615207     -7.1490251      3.2838119      50218.233      36.893836      36.893836      36.893836    
   6010000   0.47562486    -7.8624401     -7.149013       3.2728036      50218.233      36.893836      36.893836      36.893836    
   6020000   0.47444071    -7.8618828     -7.1502319      3.2730753      50218.233      36.893836      36.893836      36.893836    
   6030000   0.47752038    -7.8619769     -7.1457065      3.278497       50218.233      36.893836      36.893836      36.893836    
   6040000   0.47534666    -7.866513      -7.1535031      3.2300817      50218.233      36.893836      36.893836      36.893836    
   6050000   0.47424218    -7.865228      -7.1538749      3.2549046      50218.233      36.893836      36.893836      36.893836    
   6060000   0.47671657    -7.868269      -7.1532044      3.2206319      50218.233      36.893836      36.893836      36.893836    
   6070000   0.47541581    -7.8620133     -7.1488997      3.2726393      50218.233      36.893836      36.893836      36.893836    
   6080000   0.47445849    -7.8611618     -7.1494842      3.276071       50218.233      36.893836      36.893836      36.893836    
   6090000   0.47649321    -7.8641754     -7.1494458      3.2627778      50218.233      36.893836      36.893836      36.893836    
   6100000   0.47259717    -7.8641284     -7.1552428      3.2653863      50218.233      36.893836      36.893836      36.893836    
   6110000   0.47334678    -7.8616465     -7.1516365      3.2703345      50218.233      36.893836      36.893836      36.893836    
   6120000   0.47507997    -7.8628202     -7.1502104      3.2649466      50218.233      36.893836      36.893836      36.893836    
   6130000   0.47327199    -7.8632669     -7.153369       3.2613304      50218.233      36.893836      36.893836      36.893836    
   6140000   0.47508831    -7.8657851     -7.1531628      3.2428594      50218.233      36.893836      36.893836      36.893836    
   6150000   0.47317314    -7.8667891     -7.1570395      3.2472704      50218.233      36.893836      36.893836      36.893836    
   6160000   0.47801146    -7.8634708     -7.1464638      3.2699476      50218.233      36.893836      36.893836      36.893836    
   6170000   0.47716951    -7.8625359     -7.1467918      3.2747356      50218.233      36.893836      36.893836      36.893836    
   6180000   0.47559626    -7.8597806     -7.1463963      3.2841412      50218.233      36.893836      36.893836      36.893836    
   6190000   0.47774664    -7.8636403     -7.1470305      3.2599364      50218.233      36.893836      36.893836      36.893836    
   6200000   0.47067631    -7.861416      -7.1554115      3.2697606      50218.233      36.893836      36.893836      36.893836    
   6210000   0.47673953    -7.8604939     -7.1453947      3.2838466      50218.233      36.893836      36.893836      36.893836    
   6220000   0.4753705     -7.8626194     -7.1495738      3.2566548      50218.233      36.893836      36.893836      36.893836    
   6230000   0.47421626    -7.8594047     -7.1480904      3.2752827      50218.233      36.893836      36.893836      36.893836    
   6240000   0.47315174    -7.8614787     -7.1517612      3.2758996      50218.233      36.893836      36.893836      36.893836    
   6250000   0.47589251    -7.8637927     -7.1499641      3.2597435      50218.233      36.893836      36.893836      36.893836    
   6260000   0.47496165    -7.8608464     -7.1484141      3.287527       50218.233      36.893836      36.893836      36.893836    
   6270000   0.47299352    -7.8620369     -7.1525567      3.2679685      50218.233      36.893836      36.893836      36.893836    
   6280000   0.47532823    -7.8606108     -7.1476286      3.2844681      50218.233      36.893836      36.893836      36.893836    
   6290000   0.47671223    -7.8631641     -7.1481059      3.2695999      50218.233      36.893836      36.893836      36.893836    
   6300000   0.47144487    -7.8656568     -7.1584996      3.2500914      50218.233      36.893836      36.893836      36.893836    
   6310000   0.47471271    -7.8650593     -7.1530004      3.246887       50218.233      36.893836      36.893836      36.893836    
   6320000   0.47494626    -7.8627224     -7.1503131      3.2652062      50218.233      36.893836      36.893836      36.893836    
   6330000   0.47379971    -7.8594377     -7.1487482      3.2761033      50218.233      36.893836      36.893836      36.893836    
   6340000   0.47554998    -7.8610503     -7.1477355      3.2804916      50218.233      36.893836      36.893836      36.893836    
   6350000   0.47379659    -7.8609686     -7.1502838      3.2825431      50218.233      36.893836      36.893836      36.893836    
   6360000   0.47479605    -7.862185      -7.150001       3.2800996      50218.233      36.893836      36.893836      36.893836    
   6370000   0.47233353    -7.8616332     -7.1531429      3.2733236      50218.233      36.893836      36.893836      36.893836    
   6380000   0.47469778    -7.8626338     -7.1505972      3.2636054      50218.233      36.893836      36.893836      36.893836    
   6390000   0.47755303    -7.8670218     -7.1507024      3.2417353      50218.233      36.893836      36.893836      36.893836    
   6400000   0.47624349    -7.8634959     -7.1491408      3.2639711      50218.233      36.893836      36.893836      36.893836    
   6410000   0.47322599    -7.8649225     -7.1550936      3.2449001      50218.233      36.893836      36.893836      36.893836    
   6420000   0.47703334    -7.8644141     -7.1488743      3.2510508      50218.233      36.893836      36.893836      36.893836    
   6430000   0.47486708    -7.8636336     -7.1513432      3.2615377      50218.233      36.893836      36.893836      36.893836    
   6440000   0.47308186    -7.8629825     -7.1533698      3.2715428      50218.233      36.893836      36.893836      36.893836    
   6450000   0.47393629    -7.8651167     -7.1542224      3.2531529      50218.233      36.893836      36.893836      36.893836    
   6460000   0.47578171    -7.8617088     -7.1480464      3.2773151      50218.233      36.893836      36.893836      36.893836    
   6470000   0.47531555    -7.8637484     -7.1507852      3.265003       50218.233      36.893836      36.893836      36.893836    
   6480000   0.47396346    -7.8630972     -7.1521622      3.273746       50218.233      36.893836      36.893836      36.893836    
   6490000   0.4754945     -7.8661406     -7.152909       3.249          50218.233      36.893836      36.893836      36.893836    
   6500000   0.47683826    -7.8645663     -7.1493191      3.2509541      50218.233      36.893836      36.893836      36.893836    
   6510000   0.47298982    -7.8634622     -7.1539875      3.2569011      50218.233      36.893836      36.893836      36.893836    
   6520000   0.4770318     -7.860353      -7.1448154      3.2932614      50218.233      36.893836      36.893836      36.893836    
   6530000   0.47527883    -7.8611757     -7.1482676      3.2849573      50218.233      36.893836      36.893836      36.893836    
   6540000   0.47682758    -7.8630087     -7.1477775      3.2667347      50218.233      36.893836      36.893836      36.893836    
   6550000   0.47196308    -7.860405      -7.1524705      3.2865005      50218.233      36.893836      36.893836      36.893836    
   6560000   0.47576818    -7.8650941     -7.151452       3.2396798      50218.233      36.893836      36.893836      36.893836    
   6570000   0.47681293    -7.867273      -7.1520638      3.239757       50218.233      36.893836      36.893836      36.893836    
   6580000   0.47651731    -7.8608292     -7.1460634      3.2942342      50218.233      36.893836      36.893836      36.893836    
   6590000   0.47639667    -7.8616296     -7.1470447      3.2879713      50218.233      36.893836      36.893836      36.893836    
   6600000   0.473795      -7.8613959     -7.1507135      3.2914655      50218.233      36.893836      36.893836      36.893836    
   6610000   0.47273485    -7.8647045     -7.1556123      3.2569946      50218.233      36.893836      36.893836      36.893836    
   6620000   0.47420409    -7.8594323     -7.1481362      3.3008813      50218.233      36.893836      36.893836      36.893836    
   6630000   0.47561635    -7.8631032     -7.1496888      3.2703463      50218.233      36.893836      36.893836      36.893836    
   6640000   0.47208045    -7.8642914     -7.1561808      3.2597269      50218.233      36.893836      36.893836      36.893836    
   6650000   0.4746066     -7.8622317     -7.1503319      3.2729642      50218.233      36.893836      36.893836      36.893836    
   6660000   0.47554879    -7.8592311     -7.145918       3.298756       50218.233      36.893836      36.893836      36.893836    
   6670000   0.47522835    -7.8630561     -7.1502237      3.2697829      50218.233      36.893836      36.893836      36.893836    
   6680000   0.47294762    -7.8586808     -7.1492695      3.2977859      50218.233      36.893836      36.893836      36.893836    
   6690000   0.47495388    -7.8609081     -7.1484874      3.2833379      50218.233      36.893836      36.893836      36.893836    
   6700000   0.47620201    -7.8634029     -7.14911        3.2778202      50218.233      36.893836      36.893836      36.893836    
   6710000   0.47607814    -7.8602157     -7.1461086      3.2915205      50218.233      36.893836      36.893836      36.893836    
   6720000   0.47432938    -7.8662011     -7.1547172      3.2490182      50218.233      36.893836      36.893836      36.893836    
   6730000   0.47442371    -7.863138      -7.1515125      3.2677695      50218.233      36.893836      36.893836      36.893836    
   6740000   0.47571585    -7.8619028     -7.1483392      3.2741009      50218.233      36.893836      36.893836      36.893836    
   6750000   0.47455703    -7.8609664     -7.1491409      3.2839306      50218.233      36.893836      36.893836      36.893836    
   6760000   0.47530167    -7.8607138     -7.1477714      3.2804672      50218.233      36.893836      36.893836      36.893836    
   6770000   0.47685978    -7.861797      -7.1465175      3.273747       50218.233      36.893836      36.893836      36.893836    
   6780000   0.47150462    -7.8586355     -7.1513886      3.2975696      50218.233      36.893836      36.893836      36.893836    
   6790000   0.4776347     -7.8604512     -7.1440094      3.2947633      50218.233      36.893836      36.893836      36.893836    
   6800000   0.47598797    -7.860574      -7.1466022      3.2974645      50218.233      36.893836      36.893836      36.893836    
   6810000   0.4764518     -7.8630491     -7.1483816      3.2632351      50218.233      36.893836      36.893836      36.893836    
   6820000   0.47364502    -7.8639745     -7.1535171      3.2548649      50218.233      36.893836      36.893836      36.893836    
   6830000   0.4750284     -7.862059      -7.1495265      3.2760679      50218.233      36.893836      36.893836      36.893836    
   6840000   0.47404196    -7.8648683     -7.1538155      3.2503693      50218.233      36.893836      36.893836      36.893836    
   6850000   0.47581457    -7.8654327     -7.151721       3.2524814      50218.233      36.893836      36.893836      36.893836    
   6860000   0.47313871    -7.8655798     -7.1558818      3.2396879      50218.233      36.893836      36.893836      36.893836    
   6870000   0.47729821    -7.8653755     -7.1494384      3.2451488      50218.233      36.893836      36.893836      36.893836    
   6880000   0.47408023    -7.8632314     -7.1521212      3.2591563      50218.233      36.893836      36.893836      36.893836    
   6890000   0.4798065     -7.8659029     -7.1462033      3.2453895      50218.233      36.893836      36.893836      36.893836    
   6900000   0.47654289    -7.8598032     -7.1449991      3.2916825      50218.233      36.893836      36.893836      36.893836    
   6910000   0.47322929    -7.8641848     -7.1543509      3.2566007      50218.233      36.893836      36.893836      36.893836    
   6920000   0.47537819    -7.8628089     -7.1497517      3.2719844      50218.233      36.893836      36.893836      36.893836    
   6930000   0.47543031    -7.8626092     -7.1494739      3.273498       50218.233      36.893836      36.893836      36.893836    
   6940000   0.47460438    -7.8639752     -7.1520788      3.2528432      50218.233      36.893836      36.893836      36.893836    
   6950000   0.47438008    -7.862991      -7.151431       3.2643663      50218.233      36.893836      36.893836      36.893836    
   6960000   0.47372609    -7.8627502     -7.1521712      3.269811       50218.233      36.893836      36.893836      36.893836    
   6970000   0.47497088    -7.8671989     -7.1547527      3.2336459      50218.233      36.893836      36.893836      36.893836    
   6980000   0.47381351    -7.8614302     -7.1507201      3.2722416      50218.233      36.893836      36.893836      36.893836    
   6990000   0.47641379    -7.863942      -7.1493315      3.2637375      50218.233      36.893836      36.893836      36.893836    
   7000000   0.47299025    -7.8629143     -7.153439       3.2613333      50218.233      36.893836      36.893836      36.893836    
   7010000   0.47505432    -7.8644126     -7.1518413      3.2533837      50218.233      36.893836      36.893836      36.893836    
   7020000   0.47702278    -7.8646772     -7.1491532      3.2543858      50218.233      36.893836      36.893836      36.893836    
   7030000   0.47651425    -7.8668503     -7.1520891      3.2394472      50218.233      36.893836      36.893836      36.893836    
   7040000   0.47584305    -7.8632372     -7.1494827      3.2652252      50218.233      36.893836      36.893836      36.893836    
   7050000   0.47691115    -7.8625178     -7.1471613      3.2729899      50218.233      36.893836      36.893836      36.893836    
   7060000   0.47430201    -7.8619887     -7.1505458      3.2752471      50218.233      36.893836      36.893836      36.893836    
   7070000   0.47659836    -7.8634629     -7.1485755      3.2697775      50218.233      36.893836      36.893836      36.893836    
   7080000   0.47270614    -7.8627432     -7.153694       3.258048       50218.233      36.893836      36.893836      36.893836    
   7090000   0.47660422    -7.8718499     -7.1569537      3.194129       50218.233      36.893836      36.893836      36.893836    
   7100000   0.47532336    -7.863276      -7.1503011      3.2626675      50218.233      36.893836      36.893836      36.893836    
   7110000   0.47424244    -7.8651006     -7.1537471      3.2487328      50218.233      36.893836      36.893836      36.893836    
   7120000   0.47421871    -7.8660506     -7.1547326      3.2408575      50218.233      36.893836      36.893836      36.893836    
   7130000   0.47414751    -7.8634836     -7.1522724      3.2597716      50218.233      36.893836      36.893836      36.893836    
   7140000   0.47498273    -7.8639595     -7.1514956      3.2546554      50218.233      36.893836      36.893836      36.893836    
   7150000   0.47571497    -7.860861      -7.1472986      3.2860496      50218.233      36.893836      36.893836      36.893836    
   7160000   0.47604393    -7.8655346     -7.1514788      3.2472412      50218.233      36.893836      36.893836      36.893836    
   7170000   0.47392004    -7.8623033     -7.1514333      3.2696082      50218.233      36.893836      36.893836      36.893836    
   7180000   0.47308471    -7.8682162     -7.1585993      3.2270247      50218.233      36.893836      36.893836      36.893836    
   7190000   0.4740786     -7.8650125     -7.1539047      3.242711       50218.233      36.893836      36.893836      36.893836    
   7200000   0.47672908    -7.8607122     -7.1456287      3.2862971      50218.233      36.893836      36.893836      36.893836    
   7210000   0.47226843    -7.863843      -7.1554505      3.2558407      50218.233      36.893836      36.893836      36.893836    
   7220000   0.47638602    -7.8675298     -7.1529609      3.2273904      50218.233      36.893836      36.893836      36.893836    
   7230000   0.4722457     -7.8618376     -7.1534791      3.2709899      50218.233      36.893836      36.893836      36.893836    
   7240000   0.47279542    -7.8636602     -7.1544771      3.2616633      50218.233      36.893836      36.893836      36.893836    
   7250000   0.47498454    -7.8626453     -7.1501786      3.2637659      50218.233      36.893836      36.893836      36.893836    
   7260000   0.47411388    -7.863286      -7.1521253      3.2636039      50218.233      36.893836      36.893836      36.893836    
   7270000   0.47428009    -7.8633424     -7.1519324      3.2623804      50218.233      36.893836      36.893836      36.893836    
   7280000   0.47678143    -7.8658664     -7.1507044      3.2581475      50218.233      36.893836      36.893836      36.893836    
   7290000   0.47515762    -7.8621107     -7.1493844      3.2765423      50218.233      36.893836      36.893836      36.893836    
   7300000   0.47410027    -7.8603403     -7.1492         3.2897972      50218.233      36.893836      36.893836      36.893836    
   7310000   0.47668023    -7.8590084     -7.1439982      3.3032678      50218.233      36.893836      36.893836      36.893836    
   7320000   0.47412397    -7.8651712     -7.1539954      3.2541802      50218.233      36.893836      36.893836      36.893836    
   7330000   0.4763347     -7.8643023     -7.1498104      3.2725237      50218.233      36.893836      36.893836      36.893836    
   7340000   0.47415932    -7.8622951     -7.1510663      3.278238       50218.233      36.893836      36.893836      36.893836    
   7350000   0.47429838    -7.8628663     -7.1514288      3.2619835      50218.233      36.893836      36.893836      36.893836    
   7360000   0.47710235    -7.8642368     -7.1485935      3.2630977      50218.233      36.893836      36.893836      36.893836    
   7370000   0.47518888    -7.8637629     -7.1509898      3.2614291      50218.233      36.893836      36.893836      36.893836    
   7380000   0.47611206    -7.8619853     -7.1478273      3.2702569      50218.233      36.893836      36.893836      36.893836    
   7390000   0.4732581     -7.8625952     -7.1527182      3.2609495      50218.233      36.893836      36.893836      36.893836    
   7400000   0.47669354    -7.8627958     -7.1477656      3.2710633      50218.233      36.893836      36.893836      36.893836    
   7410000   0.47531713    -7.8646315     -7.151666       3.2578051      50218.233      36.893836      36.893836      36.893836    
   7420000   0.47540681    -7.8634378     -7.1503378      3.262054       50218.233      36.893836      36.893836      36.893836    
   7430000   0.47439693    -7.8626293     -7.1510441      3.2667269      50218.233      36.893836      36.893836      36.893836    
   7440000   0.4742776     -7.8621766     -7.1507703      3.2689455      50218.233      36.893836      36.893836      36.893836    
   7450000   0.47488967    -7.8647241     -7.1523997      3.2522863      50218.233      36.893836      36.893836      36.893836    
   7460000   0.47557492    -7.8625808     -7.1492286      3.2632321      50218.233      36.893836      36.893836      36.893836    
   7470000   0.47581739    -7.8624841     -7.1487681      3.2584987      50218.233      36.893836      36.893836      36.893836    
   7480000   0.4771681     -7.863773      -7.1480311      3.2622918      50218.233      36.893836      36.893836      36.893836    
   7490000   0.47475544    -7.8628818     -7.1507587      3.2720306      50218.233      36.893836      36.893836      36.893836    
   7500000   0.47598424    -7.8624778     -7.1485116      3.2675675      50218.233      36.893836      36.893836      36.893836    
   7510000   0.4734092     -7.8625897     -7.152486       3.2639594      50218.233      36.893836      36.893836      36.893836    
   7520000   0.47527597    -7.8634762     -7.1505724      3.2575099      50218.233      36.893836      36.893836      36.893836    
   7530000   0.47478462    -7.8672664     -7.1550996      3.227904       50218.233      36.893836      36.893836      36.893836    
   7540000   0.47542482    -7.8621251     -7.148998       3.2646228      50218.233      36.893836      36.893836      36.893836    
   7550000   0.47557368    -7.8658957     -7.1525453      3.2309203      50218.233      36.893836      36.893836      36.893836    
   7560000   0.4734087     -7.863339      -7.1532361      3.2580311      50218.233      36.893836      36.893836      36.893836    
   7570000   0.47574326    -7.8635142     -7.1499095      3.2513636      50218.233      36.893836      36.893836      36.893836    
   7580000   0.4742296     -7.8584394     -7.1471051      3.3078856      50218.233      36.893836      36.893836      36.893836    
   7590000   0.47538483    -7.8662807     -7.1532136      3.2505633      50218.233      36.893836      36.893836      36.893836    
   7600000   0.47325623    -7.8626574     -7.1527832      3.2623127      50218.233      36.893836      36.893836      36.893836    
   7610000   0.47362706    -7.8635223     -7.1530918      3.2548124      50218.233      36.893836      36.893836      36.893836    
   7620000   0.47491696    -7.8618794     -7.1495141      3.271768       50218.233      36.893836      36.893836      36.893836    
   7630000   0.47598107    -7.8670684     -7.153107       3.2321246      50218.233      36.893836      36.893836      36.893836    
   7640000   0.47842929    -7.8654387     -7.147805       3.2461505      50218.233      36.893836      36.893836      36.893836    
   7650000   0.47426608    -7.8643206     -7.1529316      3.2575522      50218.233      36.893836      36.893836      36.893836    
   7660000   0.47396768    -7.8646013     -7.1536599      3.2415784      50218.233      36.893836      36.893836      36.893836    
   7670000   0.47293819    -7.8649394     -7.1555422      3.2452653      50218.233      36.893836      36.893836      36.893836    
   7680000   0.47694249    -7.8654539     -7.1500503      3.2465469      50218.233      36.893836      36.893836      36.893836    
   7690000   0.47445079    -7.8630719     -7.1514058      3.271904       50218.233      36.893836      36.893836      36.893836    
   7700000   0.47369661    -7.8617936     -7.1512588      3.2695375      50218.233      36.893836      36.893836      36.893836    
   7710000   0.47701834    -7.8643325     -7.1488151      3.2449975      50218.233      36.893836      36.893836      36.893836    
   7720000   0.47606113    -7.86257       -7.1484885      3.2567925      50218.233      36.893836      36.893836      36.893836    
   7730000   0.47611994    -7.8617605     -7.1475908      3.2686275      50218.233      36.893836      36.893836      36.893836    
   7740000   0.47576903    -7.8645624     -7.150919       3.2530126      50218.233      36.893836      36.893836      36.893836    
   7750000   0.47501255    -7.8621644     -7.1496557      3.2692953      50218.233      36.893836      36.893836      36.893836    
   7760000   0.47486756    -7.8631488     -7.1508576      3.2639806      50218.233      36.893836      36.893836      36.893836    
   7770000   0.4741748     -7.8619564     -7.1507043      3.2638751      50218.233      36.893836      36.893836      36.893836    
   7780000   0.4742764     -7.862736      -7.1513316      3.2614402      50218.233      36.893836      36.893836      36.893836    
   7790000   0.47571324    -7.861938      -7.1483783      3.2726309      50218.233      36.893836      36.893836      36.893836    
   7800000   0.47539454    -7.8622959     -7.1492142      3.269066       50218.233      36.893836      36.893836      36.893836    
   7810000   0.47651209    -7.865154      -7.1503961      3.2532888      50218.233      36.893836      36.893836      36.893836    
   7820000   0.47526604    -7.8636249     -7.150736       3.2562133      50218.233      36.893836      36.893836      36.893836    
   7830000   0.47269668    -7.8609559     -7.151921       3.2727422      50218.233      36.893836      36.893836      36.893836    
   7840000   0.47500283    -7.8629355     -7.1504414      3.269141       50218.233      36.893836      36.893836      36.893836    
   7850000   0.47353356    -7.8657447     -7.1554545      3.2457012      50218.233      36.893836      36.893836      36.893836    
   7860000   0.47582362    -7.8611399     -7.1474146      3.2709303      50218.233      36.893836      36.893836      36.893836    
   7870000   0.47772868    -7.8639965     -7.1474137      3.2560919      50218.233      36.893836      36.893836      36.893836    
   7880000   0.47681059    -7.8641659     -7.1489601      3.2615038      50218.233      36.893836      36.893836      36.893836    
   7890000   0.47446611    -7.8651618     -7.1534728      3.2486971      50218.233      36.893836      36.893836      36.893836    
   7900000   0.47448462    -7.8589512     -7.1472344      3.2887036      50218.233      36.893836      36.893836      36.893836    
   7910000   0.47657212    -7.8626728     -7.1478248      3.2738051      50218.233      36.893836      36.893836      36.893836    
   7920000   0.47647205    -7.8684829     -7.153785       3.2242385      50218.233      36.893836      36.893836      36.893836    
   7930000   0.47597437    -7.8614073     -7.1474559      3.2771214      50218.233      36.893836      36.893836      36.893836    
   7940000   0.47273832    -7.8655737     -7.1564763      3.2536553      50218.233      36.893836      36.893836      36.893836    
   7950000   0.4744446     -7.8614878     -7.1498311      3.2773218      50218.233      36.893836      36.893836      36.893836    
   7960000   0.47333862    -7.8588795     -7.1488816      3.2990605      50218.233      36.893836      36.893836      36.893836    
   7970000   0.47301155    -7.8609216     -7.1514144      3.281261       50218.233      36.893836      36.893836      36.893836    
   7980000   0.47590433    -7.8602011     -7.1463547      3.2907197      50218.233      36.893836      36.893836      36.893836    
   7990000   0.4748021     -7.8631673     -7.1509743      3.2588757      50218.233      36.893836      36.893836      36.893836    
   8000000   0.47721162    -7.8612616     -7.1454543      3.2699477      50218.233      36.893836      36.893836      36.893836    
Loop time of 12683 on 5 procs for 8000000 steps with 70304 atoms

Performance: 544981.600 tau/day, 630.766 timesteps/s, 44.345 Matom-step/s
94.7% CPU use with 5 MPI tasks x 1 OpenMP threads

MPI task timing breakdown:
Section |  min time  |  avg time  |  max time  |%varavg| %total
---------------------------------------------------------------
Pair    | 4684.3     | 4982.8     | 5415.4     | 464.7 | 39.29
Neigh   | 39.122     | 43.018     | 47.29      |  41.4 |  0.34
Comm    | 1918.9     | 1927.7     | 1937.9     |  15.6 | 15.20
Output  | 0.14386    | 0.14887    | 0.15698    |   1.2 |  0.00
Modify  | 4631.9     | 5073.5     | 5390.6     | 466.6 | 40.00
Other   |            | 655.9      |            |       |  5.17

Nlocal:        14060.8 ave       14103 max       14035 min
Histogram: 1 1 0 2 0 0 0 0 0 1
Nghost:        18732.8 ave       18781 max       18703 min
Histogram: 1 1 0 1 1 0 0 0 0 1
Neighs:              0 ave           0 max           0 min
Histogram: 5 0 0 0 0 0 0 0 0 0

Total # of neighbors = 0
Ave neighs/atom = 0
Neighbor list builds = 1618035
Dangerous builds = 0
clear
OMP_NUM_THREADS environment is not set. Defaulting to 1 thread. (src/comm.cpp:98)
  using 1 OpenMP thread(s) per MPI task
package gpu 0
jump dms455.lmp

variable T equal 455
# T = 1000* (temp in LJ unit)
variable f equal 10000
log log.${T}
log log.455
