variable TLJ equal (${T}/1000)
variable TLJ equal (525/1000)
variable NCyle equal 8
variable iStep equal (${f})
variable iStep equal (10000)
variable dumpStep equal (${f}*100)
variable dumpStep equal (10000*100)
variable runStep equal (${f}*100*${NCyle})
variable runStep equal (10000*100*${NCyle})
variable runStep equal (10000*100*8)

units       lj
atom_style  atomic
dimension 3
boundary     p p p
pair_style  lj/cut 2.5
read_data  ../data/T${T}.dat
read_data  ../data/T525.dat
Reading data file ...
  orthogonal box = (0.97250269 0.97250269 0.97250269) to (37.866338 37.866338 37.866338)
  1 by 1 by 5 MPI processor grid
  reading atoms ...
  70304 atoms
  reading velocities ...
  70304 velocities
  read_data CPU = 0.209 seconds
change_box all triclinic
Changing box ...
  triclinic box = (0.97250269 0.97250269 0.97250269) to (37.866338 37.866338 37.866338) with tilt (0 0 0)
mass 1 1
mass 2 1
pair_modify shift yes
pair_coeff  1 1 1 1
pair_coeff  1 2 1.5 0.8
pair_coeff  2 2 0.5 0.88


timestep 0.01
thermo ${iStep}
thermo 10000
reset_timestep 0
thermo_style custom step temp pe etotal press vol lx ly lz
fix             1 all nvt temp ${TLJ}  ${TLJ}  0.1
fix             1 all nvt temp 0.525  ${TLJ}  0.1
fix             1 all nvt temp 0.525  0.525  0.1
thermo_modify flush yes

fix dsf all deform 1 xy  wiggle 0.5  ${f}   units box
fix dsf all deform 1 xy  wiggle 0.5  10000   units box
fix ps1 all ave/time 1 1 ${iStep} c_thermo_press[1] c_thermo_press[2]  c_thermo_press[3] c_thermo_press[4]  c_thermo_press[5] c_thermo_press[6]  file  stress.${T}
fix ps1 all ave/time 1 1 10000 c_thermo_press[1] c_thermo_press[2]  c_thermo_press[3] c_thermo_press[4]  c_thermo_press[5] c_thermo_press[6]  file  stress.${T}
fix ps1 all ave/time 1 1 10000 c_thermo_press[1] c_thermo_press[2]  c_thermo_press[3] c_thermo_press[4]  c_thermo_press[5] c_thermo_press[6]  file  stress.525
dump            1 all custom ${dumpStep} dump.${T} id type x y z
dump            1 all custom 1000000 dump.${T} id type x y z
dump            1 all custom 1000000 dump.525 id type x y z
dump_modify 1 sort id
fix nodrift all momentum 1  linear 1 1 1
fix com_seed all recenter INIT INIT INIT shift all
run ${runStep}
run 8000000
Generated 0 of 1 mixed pair_coeff terms from geometric mixing rule
Per MPI rank memory allocation (min/avg/max) = 8.913 | 8.92 | 8.927 Mbytes
   Step          Temp          PotEng         TotEng         Press          Volume           Lx             Ly             Lz      
         0   0.52697334    -7.7725012     -6.9820525      4.0039623      50218.233      36.893836      36.893836      36.893836    
     10000   0.52448652    -7.7593759     -6.9726573      4.0997268      50218.233      36.893836      36.893836      36.893836    
     20000   0.52675306    -7.7612975     -6.9711791      4.0782609      50218.233      36.893836      36.893836      36.893836    
     30000   0.52432313    -7.7616727     -6.9751991      4.0740737      50218.233      36.893836      36.893836      36.893836    
     40000   0.52459122    -7.7647923     -6.9779166      4.0512846      50218.233      36.893836      36.893836      36.893836    
     50000   0.52589728    -7.7620785     -6.9732438      4.0836243      50218.233      36.893836      36.893836      36.893836    
     60000   0.52592032    -7.7583656     -6.9694963      4.1077161      50218.233      36.893836      36.893836      36.893836    
     70000   0.52568022    -7.7610012     -6.9724921      4.0903673      50218.233      36.893836      36.893836      36.893836    
     80000   0.52739884    -7.761027      -6.96994        4.0745948      50218.233      36.893836      36.893836      36.893836    
     90000   0.52559546    -7.7629949     -6.9746129      4.083293       50218.233      36.893836      36.893836      36.893836    
    100000   0.52388326    -7.7605442     -6.9747305      4.083664       50218.233      36.893836      36.893836      36.893836    
    110000   0.52097851    -7.7634574     -6.9820008      4.0550433      50218.233      36.893836      36.893836      36.893836    
    120000   0.5272621     -7.76097       -6.9700881      4.0844451      50218.233      36.893836      36.893836      36.893836    
    130000   0.52318463    -7.7612258     -6.97646        4.0893532      50218.233      36.893836      36.893836      36.893836    
    140000   0.52625632    -7.7624768     -6.9731036      4.0867151      50218.233      36.893836      36.893836      36.893836    
    150000   0.52613433    -7.7598789     -6.9706887      4.1027827      50218.233      36.893836      36.893836      36.893836    
    160000   0.5257285     -7.7578117     -6.9692301      4.1109926      50218.233      36.893836      36.893836      36.893836    
    170000   0.5235696     -7.7591296     -6.9737864      4.1028738      50218.233      36.893836      36.893836      36.893836    
    180000   0.52561652    -7.7623273     -6.9739137      4.0825379      50218.233      36.893836      36.893836      36.893836    
    190000   0.52787899    -7.764255      -6.9724478      4.0744567      50218.233      36.893836      36.893836      36.893836    
    200000   0.52285569    -7.7596503     -6.9753779      4.0958068      50218.233      36.893836      36.893836      36.893836    
    210000   0.52678295    -7.7635684     -6.9734052      4.0691049      50218.233      36.893836      36.893836      36.893836    
    220000   0.52219452    -7.7618895     -6.9786088      4.0706513      50218.233      36.893836      36.893836      36.893836    
    230000   0.52117197    -7.7605562     -6.9788093      4.0821738      50218.233      36.893836      36.893836      36.893836    
    240000   0.52572184    -7.7600107     -6.9714392      4.0976977      50218.233      36.893836      36.893836      36.893836    
    250000   0.52308277    -7.7628772     -6.9782642      4.0762456      50218.233      36.893836      36.893836      36.893836    
    260000   0.52618067    -7.7612073     -6.9719475      4.0869674      50218.233      36.893836      36.893836      36.893836    
    270000   0.52666826    -7.7618063     -6.9718151      4.0896203      50218.233      36.893836      36.893836      36.893836    
    280000   0.52801772    -7.7681943     -6.976179       4.038189       50218.233      36.893836      36.893836      36.893836    
    290000   0.52446961    -7.7588661     -6.9721728      4.1175588      50218.233      36.893836      36.893836      36.893836    
    300000   0.52091759    -7.7588841     -6.9775188      4.0963178      50218.233      36.893836      36.893836      36.893836    
    310000   0.52492311    -7.7607988     -6.9734253      4.0965281      50218.233      36.893836      36.893836      36.893836    
    320000   0.52447996    -7.7579342     -6.9712254      4.1240193      50218.233      36.893836      36.893836      36.893836    
    330000   0.52649781    -7.7628059     -6.9730704      4.086687       50218.233      36.893836      36.893836      36.893836    
    340000   0.52453633    -7.7624305     -6.9756372      4.085264       50218.233      36.893836      36.893836      36.893836    
    350000   0.5253663     -7.7605287     -6.9724904      4.0961513      50218.233      36.893836      36.893836      36.893836    
    360000   0.52588981    -7.7594657     -6.9706422      4.0918421      50218.233      36.893836      36.893836      36.893836    
    370000   0.52569164    -7.7634947     -6.9749684      4.0781583      50218.233      36.893836      36.893836      36.893836    
    380000   0.52632515    -7.7592874     -6.9698109      4.1075472      50218.233      36.893836      36.893836      36.893836    
    390000   0.5261013     -7.764443      -6.9753023      4.070721       50218.233      36.893836      36.893836      36.893836    
    400000   0.52270139    -7.7668568     -6.9828159      4.0514886      50218.233      36.893836      36.893836      36.893836    
    410000   0.52545816    -7.7601655     -6.9719895      4.0943226      50218.233      36.893836      36.893836      36.893836    
    420000   0.524784      -7.7589318     -6.971767       4.0901253      50218.233      36.893836      36.893836      36.893836    
    430000   0.52327346    -7.7642402     -6.9793412      4.0505337      50218.233      36.893836      36.893836      36.893836    
    440000   0.5250454     -7.7630597     -6.9755028      4.0707314      50218.233      36.893836      36.893836      36.893836    
    450000   0.52145642    -7.7636006     -6.9814271      4.0452267      50218.233      36.893836      36.893836      36.893836    
    460000   0.52399943    -7.7617688     -6.9757808      4.0705732      50218.233      36.893836      36.893836      36.893836    
    470000   0.5257519     -7.7628615     -6.9742449      4.0699521      50218.233      36.893836      36.893836      36.893836    
    480000   0.52402046    -7.7626846     -6.9766651      4.0667294      50218.233      36.893836      36.893836      36.893836    
    490000   0.52644893    -7.7569747     -6.9673125      4.1258354      50218.233      36.893836      36.893836      36.893836    
    500000   0.52514736    -7.7624405     -6.9747306      4.0850808      50218.233      36.893836      36.893836      36.893836    
    510000   0.52278189    -7.7562191     -6.9720574      4.123373       50218.233      36.893836      36.893836      36.893836    
    520000   0.52412498    -7.7577417     -6.9715654      4.1197343      50218.233      36.893836      36.893836      36.893836    
    530000   0.52362555    -7.7580564     -6.9726292      4.1168119      50218.233      36.893836      36.893836      36.893836    
    540000   0.52431871    -7.7603156     -6.9738487      4.0948454      50218.233      36.893836      36.893836      36.893836    
    550000   0.52253281    -7.757008      -6.9732199      4.1116603      50218.233      36.893836      36.893836      36.893836    
    560000   0.52385634    -7.762854      -6.9770806      4.0715829      50218.233      36.893836      36.893836      36.893836    
    570000   0.52358907    -7.7633982     -6.9780258      4.071226       50218.233      36.893836      36.893836      36.893836    
    580000   0.52435787    -7.7639381     -6.9774125      4.0529955      50218.233      36.893836      36.893836      36.893836    
    590000   0.52482464    -7.7630517     -6.9758259      4.0639699      50218.233      36.893836      36.893836      36.893836    
    600000   0.52564306    -7.758188      -6.9697347      4.1112373      50218.233      36.893836      36.893836      36.893836    
    610000   0.5263177     -7.7568097     -6.9673444      4.1254058      50218.233      36.893836      36.893836      36.893836    
    620000   0.52768366    -7.7577658     -6.9662515      4.1185601      50218.233      36.893836      36.893836      36.893836    
    630000   0.52499527    -7.7586545     -6.9711728      4.1074034      50218.233      36.893836      36.893836      36.893836    
    640000   0.52701705    -7.7568734     -6.9663591      4.1236646      50218.233      36.893836      36.893836      36.893836    
    650000   0.52456442    -7.7619828     -6.9751474      4.0711756      50218.233      36.893836      36.893836      36.893836    
    660000   0.52549058    -7.7585614     -6.9703367      4.1058817      50218.233      36.893836      36.893836      36.893836    
    670000   0.52368826    -7.7613008     -6.9757796      4.0830268      50218.233      36.893836      36.893836      36.893836    
    680000   0.52900059    -7.7585525     -6.9650629      4.1116808      50218.233      36.893836      36.893836      36.893836    
    690000   0.52272863    -7.7588201     -6.9747383      4.0874549      50218.233      36.893836      36.893836      36.893836    
    700000   0.52319468    -7.7594578     -6.9746769      4.0904197      50218.233      36.893836      36.893836      36.893836    
    710000   0.52551874    -7.7617371     -6.9734702      4.0784039      50218.233      36.893836      36.893836      36.893836    
    720000   0.52323158    -7.7613506     -6.9765143      4.078162       50218.233      36.893836      36.893836      36.893836    
    730000   0.52577206    -7.7584732     -6.9698263      4.1087293      50218.233      36.893836      36.893836      36.893836    
    740000   0.52399029    -7.7618989     -6.9759247      4.0736974      50218.233      36.893836      36.893836      36.893836    
    750000   0.52533394    -7.7601526     -6.9721629      4.0847419      50218.233      36.893836      36.893836      36.893836    
    760000   0.52221362    -7.7636296     -6.9803203      4.0532533      50218.233      36.893836      36.893836      36.893836    
    770000   0.52487844    -7.7631579     -6.9758515      4.067019       50218.233      36.893836      36.893836      36.893836    
    780000   0.52368133    -7.7590544     -6.9735436      4.0931716      50218.233      36.893836      36.893836      36.893836    
    790000   0.52617425    -7.7622648     -6.9730146      4.081258       50218.233      36.893836      36.893836      36.893836    
    800000   0.5247676     -7.7633204     -6.9761802      4.0730391      50218.233      36.893836      36.893836      36.893836    
    810000   0.52063604    -7.7641895     -6.9832465      4.0589818      50218.233      36.893836      36.893836      36.893836    
    820000   0.52339547    -7.7591378     -6.9740557      4.1051893      50218.233      36.893836      36.893836      36.893836    
    830000   0.52567536    -7.7569514     -6.9684496      4.1149712      50218.233      36.893836      36.893836      36.893836    
    840000   0.52654581    -7.7610339     -6.9712264      4.0812835      50218.233      36.893836      36.893836      36.893836    
    850000   0.52654524    -7.7613296     -6.971523       4.0780701      50218.233      36.893836      36.893836      36.893836    
    860000   0.52257048    -7.76121       -6.9773654      4.0784905      50218.233      36.893836      36.893836      36.893836    
    870000   0.52684839    -7.7641159     -6.9738546      4.0676143      50218.233      36.893836      36.893836      36.893836    
    880000   0.52534333    -7.7638341     -6.9758303      4.0607251      50218.233      36.893836      36.893836      36.893836    
    890000   0.5257452     -7.7644615     -6.975855       4.0680183      50218.233      36.893836      36.893836      36.893836    
    900000   0.52330083    -7.7608357     -6.9758957      4.0949802      50218.233      36.893836      36.893836      36.893836    
    910000   0.52647555    -7.7653391     -6.975637       4.0619683      50218.233      36.893836      36.893836      36.893836    
    920000   0.5254531     -7.7645222     -6.9763537      4.0640197      50218.233      36.893836      36.893836      36.893836    
    930000   0.52554032    -7.7678419     -6.9795426      4.0346863      50218.233      36.893836      36.893836      36.893836    
    940000   0.52628973    -7.7678017     -6.9783783      4.029496       50218.233      36.893836      36.893836      36.893836    
    950000   0.52444948    -7.7610418     -6.9743788      4.0824699      50218.233      36.893836      36.893836      36.893836    
    960000   0.52603321    -7.762453      -6.9734144      4.0750436      50218.233      36.893836      36.893836      36.893836    
    970000   0.52354757    -7.7605865     -6.9752764      4.0929281      50218.233      36.893836      36.893836      36.893836    
    980000   0.52800826    -7.7600807     -6.9680796      4.0965021      50218.233      36.893836      36.893836      36.893836    
    990000   0.52447438    -7.7627172     -6.9760169      4.0827481      50218.233      36.893836      36.893836      36.893836    
   1000000   0.52576422    -7.7649702     -6.9763351      4.0605293      50218.233      36.893836      36.893836      36.893836    
   1010000   0.52715755    -7.7637328     -6.9730077      4.061962       50218.233      36.893836      36.893836      36.893836    
   1020000   0.52243577    -7.761974      -6.9783315      4.0739004      50218.233      36.893836      36.893836      36.893836    
   1030000   0.527306      -7.7614058     -6.9704581      4.0979931      50218.233      36.893836      36.893836      36.893836    
   1040000   0.52372869    -7.762141      -6.9765591      4.0795696      50218.233      36.893836      36.893836      36.893836    
   1050000   0.52380933    -7.7641571     -6.9784543      4.0630501      50218.233      36.893836      36.893836      36.893836    
   1060000   0.52497388    -7.7652207     -6.9777711      4.0590995      50218.233      36.893836      36.893836      36.893836    
   1070000   0.52570447    -7.7658097     -6.9772642      4.049193       50218.233      36.893836      36.893836      36.893836    
   1080000   0.52779161    -7.7639306     -6.9722544      4.0739838      50218.233      36.893836      36.893836      36.893836    
   1090000   0.52546629    -7.7587088     -6.9705205      4.1036784      50218.233      36.893836      36.893836      36.893836    
   1100000   0.52263585    -7.7611162     -6.9771736      4.0878542      50218.233      36.893836      36.893836      36.893836    
   1110000   0.52292944    -7.7625082     -6.9781252      4.0714576      50218.233      36.893836      36.893836      36.893836    
   1120000   0.52442927    -7.7636532     -6.9770205      4.0719659      50218.233      36.893836      36.893836      36.893836    
   1130000   0.52747356    -7.763381      -6.9721819      4.0731227      50218.233      36.893836      36.893836      36.893836    
   1140000   0.52425374    -7.7635251     -6.9771557      4.0602947      50218.233      36.893836      36.893836      36.893836    
   1150000   0.52395747    -7.7638345     -6.9779095      4.0760123      50218.233      36.893836      36.893836      36.893836    
   1160000   0.52560099    -7.7635121     -6.9751218      4.0694134      50218.233      36.893836      36.893836      36.893836    
   1170000   0.52761766    -7.7580332     -6.966618       4.112569       50218.233      36.893836      36.893836      36.893836    
   1180000   0.52604419    -7.7638111     -6.974756       4.0598734      50218.233      36.893836      36.893836      36.893836    
   1190000   0.52601505    -7.7619301     -6.9729187      4.0884095      50218.233      36.893836      36.893836      36.893836    
   1200000   0.52568401    -7.7678881     -6.9793733      4.0356218      50218.233      36.893836      36.893836      36.893836    
   1210000   0.52499627    -7.7621876     -6.9747044      4.0818441      50218.233      36.893836      36.893836      36.893836    
   1220000   0.52704217    -7.7647732     -6.9742212      4.0643274      50218.233      36.893836      36.893836      36.893836    
   1230000   0.52667873    -7.7618465     -6.9718396      4.0832189      50218.233      36.893836      36.893836      36.893836    
   1240000   0.52323848    -7.764714      -6.9798674      4.0761442      50218.233      36.893836      36.893836      36.893836    
   1250000   0.52296862    -7.7616006     -6.9771588      4.0785934      50218.233      36.893836      36.893836      36.893836    
   1260000   0.52423676    -7.7631557     -6.9768117      4.0785241      50218.233      36.893836      36.893836      36.893836    
   1270000   0.52394656    -7.7600162     -6.9741075      4.0978514      50218.233      36.893836      36.893836      36.893836    
   1280000   0.52780239    -7.7600852     -6.9683929      4.0962162      50218.233      36.893836      36.893836      36.893836    
   1290000   0.5247313     -7.7611836     -6.9740978      4.0827163      50218.233      36.893836      36.893836      36.893836    
   1300000   0.52426931    -7.7611389     -6.9747462      4.0827592      50218.233      36.893836      36.893836      36.893836    
   1310000   0.52688325    -7.7650526     -6.974739       4.0680183      50218.233      36.893836      36.893836      36.893836    
   1320000   0.52716504    -7.7575147     -6.9667784      4.1292634      50218.233      36.893836      36.893836      36.893836    
   1330000   0.52306586    -7.7649146     -6.980327       4.0602774      50218.233      36.893836      36.893836      36.893836    
   1340000   0.52150908    -7.7666433     -6.9843908      4.0372859      50218.233      36.893836      36.893836      36.893836    
   1350000   0.52701156    -7.762764      -6.9722579      4.0694745      50218.233      36.893836      36.893836      36.893836    
   1360000   0.52479771    -7.7585753     -6.9713899      4.1037106      50218.233      36.893836      36.893836      36.893836    
   1370000   0.525901      -7.7614555     -6.9726152      4.0963503      50218.233      36.893836      36.893836      36.893836    
   1380000   0.52264789    -7.7624355     -6.9784748      4.0705626      50218.233      36.893836      36.893836      36.893836    
   1390000   0.52754652    -7.7649994     -6.9736908      4.0551751      50218.233      36.893836      36.893836      36.893836    
   1400000   0.52399868    -7.7601506     -6.9741637      4.0931323      50218.233      36.893836      36.893836      36.893836    
   1410000   0.52601956    -7.7608748     -6.9718567      4.0966395      50218.233      36.893836      36.893836      36.893836    
   1420000   0.52271916    -7.7582845     -6.9742169      4.1133497      50218.233      36.893836      36.893836      36.893836    
   1430000   0.52875401    -7.7584949     -6.9653751      4.1063851      50218.233      36.893836      36.893836      36.893836    
   1440000   0.52396162    -7.7622674     -6.9763362      4.0680479      50218.233      36.893836      36.893836      36.893836    
   1450000   0.52381401    -7.7624912     -6.9767814      4.0726765      50218.233      36.893836      36.893836      36.893836    
   1460000   0.52570332    -7.7572303     -6.9686865      4.1073733      50218.233      36.893836      36.893836      36.893836    
   1470000   0.52575539    -7.7561679     -6.967546       4.1226889      50218.233      36.893836      36.893836      36.893836    
   1480000   0.52527641    -7.7614863     -6.9735829      4.0885588      50218.233      36.893836      36.893836      36.893836    
   1490000   0.52370117    -7.762158      -6.9766174      4.0861102      50218.233      36.893836      36.893836      36.893836    
   1500000   0.52621338    -7.7591013     -6.9697925      4.1085564      50218.233      36.893836      36.893836      36.893836    
   1510000   0.52521418    -7.7603601     -6.9725501      4.0862743      50218.233      36.893836      36.893836      36.893836    
   1520000   0.52796792    -7.7579909     -6.9660503      4.1032457      50218.233      36.893836      36.893836      36.893836    
   1530000   0.52490669    -7.7629987     -6.9756499      4.0666384      50218.233      36.893836      36.893836      36.893836    
   1540000   0.52362172    -7.7617441     -6.9763227      4.0701353      50218.233      36.893836      36.893836      36.893836    
   1550000   0.52322245    -7.7591601     -6.9743376      4.0950818      50218.233      36.893836      36.893836      36.893836    
   1560000   0.52285673    -7.7585497     -6.9742758      4.1075037      50218.233      36.893836      36.893836      36.893836    
   1570000   0.52568049    -7.7590951     -6.9705856      4.104342       50218.233      36.893836      36.893836      36.893836    
   1580000   0.52637541    -7.7550522     -6.9655003      4.1282601      50218.233      36.893836      36.893836      36.893836    
   1590000   0.52694669    -7.7603458     -6.969937       4.0956281      50218.233      36.893836      36.893836      36.893836    
   1600000   0.52807958    -7.759359      -6.9672509      4.1012536      50218.233      36.893836      36.893836      36.893836    
   1610000   0.52194672    -7.764376      -6.981467       4.0618504      50218.233      36.893836      36.893836      36.893836    
   1620000   0.52302239    -7.7574276     -6.9729051      4.1129142      50218.233      36.893836      36.893836      36.893836    
   1630000   0.52502359    -7.757928      -6.9704038      4.1104742      50218.233      36.893836      36.893836      36.893836    
   1640000   0.52431156    -7.7560154     -6.9695592      4.115779       50218.233      36.893836      36.893836      36.893836    
   1650000   0.52670034    -7.7557631     -6.9657239      4.1369078      50218.233      36.893836      36.893836      36.893836    
   1660000   0.52509586    -7.7583694     -6.9707368      4.1147317      50218.233      36.893836      36.893836      36.893836    
   1670000   0.52467784    -7.7577111     -6.9707055      4.1058839      50218.233      36.893836      36.893836      36.893836    
   1680000   0.52355874    -7.7582667     -6.9729398      4.1033547      50218.233      36.893836      36.893836      36.893836    
   1690000   0.52414151    -7.757344      -6.9711429      4.1084504      50218.233      36.893836      36.893836      36.893836    
   1700000   0.52387822    -7.7588596     -6.9730534      4.1022754      50218.233      36.893836      36.893836      36.893836    
   1710000   0.52621685    -7.7626081     -6.973294       4.0637509      50218.233      36.893836      36.893836      36.893836    
   1720000   0.52249377    -7.7588189     -6.9750894      4.1049472      50218.233      36.893836      36.893836      36.893836    
   1730000   0.52753113    -7.7536941     -6.9624087      4.1445075      50218.233      36.893836      36.893836      36.893836    
   1740000   0.52355259    -7.7561964     -6.9708787      4.1107531      50218.233      36.893836      36.893836      36.893836    
   1750000   0.52378036    -7.7576827     -6.9720233      4.1012575      50218.233      36.893836      36.893836      36.893836    
   1760000   0.52465167    -7.7581403     -6.9711739      4.1135102      50218.233      36.893836      36.893836      36.893836    
   1770000   0.5259075     -7.7541619     -6.9653119      4.1326975      50218.233      36.893836      36.893836      36.893836    
   1780000   0.52438002    -7.7578813     -6.9713225      4.1054131      50218.233      36.893836      36.893836      36.893836    
   1790000   0.52448017    -7.7550652     -6.9683561      4.1311433      50218.233      36.893836      36.893836      36.893836    
   1800000   0.52447721    -7.7559032     -6.9691986      4.1214378      50218.233      36.893836      36.893836      36.893836    
   1810000   0.52859591    -7.7625122     -6.9696296      4.0957419      50218.233      36.893836      36.893836      36.893836    
   1820000   0.52780412    -7.755218      -6.9635231      4.1320344      50218.233      36.893836      36.893836      36.893836    
   1830000   0.5230575     -7.7594418     -6.9748668      4.102745       50218.233      36.893836      36.893836      36.893836    
   1840000   0.52405082    -7.7570964     -6.9710313      4.1125706      50218.233      36.893836      36.893836      36.893836    
   1850000   0.52633377    -7.7588546     -6.9693652      4.0950393      50218.233      36.893836      36.893836      36.893836    
   1860000   0.5248252     -7.7605053     -6.9732787      4.0920237      50218.233      36.893836      36.893836      36.893836    
   1870000   0.52515487    -7.758669      -6.9709479      4.0941358      50218.233      36.893836      36.893836      36.893836    
   1880000   0.52743692    -7.7655881     -6.9744439      4.0595346      50218.233      36.893836      36.893836      36.893836    
   1890000   0.52550107    -7.756995      -6.9687546      4.1256799      50218.233      36.893836      36.893836      36.893836    
   1900000   0.52265778    -7.7590041     -6.9750285      4.1060113      50218.233      36.893836      36.893836      36.893836    
   1910000   0.52461469    -7.7602353     -6.9733245      4.1042307      50218.233      36.893836      36.893836      36.893836    
   1920000   0.52515559    -7.7569311     -6.9692089      4.1128246      50218.233      36.893836      36.893836      36.893836    
   1930000   0.52198168    -7.7609152     -6.9779538      4.0893033      50218.233      36.893836      36.893836      36.893836    
   1940000   0.52542808    -7.7579364     -6.9698055      4.0956689      50218.233      36.893836      36.893836      36.893836    
   1950000   0.52362479    -7.7590393     -6.9736133      4.1078413      50218.233      36.893836      36.893836      36.893836    
   1960000   0.52640827    -7.7602398     -6.9706386      4.100003       50218.233      36.893836      36.893836      36.893836    
   1970000   0.52629341    -7.7543064     -6.9648775      4.1496028      50218.233      36.893836      36.893836      36.893836    
   1980000   0.52838446    -7.760094      -6.9675286      4.1077211      50218.233      36.893836      36.893836      36.893836    
   1990000   0.52563797    -7.7620173     -6.9735715      4.0833974      50218.233      36.893836      36.893836      36.893836    
   2000000   0.52286433    -7.7557084     -6.9714231      4.1354998      50218.233      36.893836      36.893836      36.893836    
   2010000   0.52611069    -7.7588767     -6.9697218      4.1175966      50218.233      36.893836      36.893836      36.893836    
   2020000   0.52655859    -7.7635657     -6.9737391      4.0676965      50218.233      36.893836      36.893836      36.893836    
   2030000   0.5279773     -7.7570461     -6.9650914      4.114535       50218.233      36.893836      36.893836      36.893836    
   2040000   0.52310815    -7.7537313     -6.9690802      4.1453576      50218.233      36.893836      36.893836      36.893836    
   2050000   0.52245882    -7.7587446     -6.9750675      4.093804       50218.233      36.893836      36.893836      36.893836    
   2060000   0.52531113    -7.7557225     -6.967767       4.1200965      50218.233      36.893836      36.893836      36.893836    
   2070000   0.52382591    -7.7593827     -6.973655       4.0904664      50218.233      36.893836      36.893836      36.893836    
   2080000   0.52628094    -7.7621865     -6.9727763      4.0638141      50218.233      36.893836      36.893836      36.893836    
   2090000   0.52328838    -7.7610874     -6.976166       4.0837394      50218.233      36.893836      36.893836      36.893836    
   2100000   0.52289615    -7.7586423     -6.9743092      4.10217        50218.233      36.893836      36.893836      36.893836    
   2110000   0.52289806    -7.7604581     -6.9761221      4.0960941      50218.233      36.893836      36.893836      36.893836    
   2120000   0.52532446    -7.7581922     -6.9702167      4.1062588      50218.233      36.893836      36.893836      36.893836    
   2130000   0.52571497    -7.7638047     -6.9752434      4.0736673      50218.233      36.893836      36.893836      36.893836    
   2140000   0.52074556    -7.7534634     -6.9723562      4.1402104      50218.233      36.893836      36.893836      36.893836    
   2150000   0.52333352    -7.7561638     -6.9711746      4.1304307      50218.233      36.893836      36.893836      36.893836    
   2160000   0.52611738    -7.7567152     -6.9675504      4.1173641      50218.233      36.893836      36.893836      36.893836    
   2170000   0.5258529     -7.7615452     -6.972777       4.0788957      50218.233      36.893836      36.893836      36.893836    
   2180000   0.52228488    -7.7542248     -6.9708086      4.1369039      50218.233      36.893836      36.893836      36.893836    
   2190000   0.52667466    -7.7603411     -6.9703404      4.0903593      50218.233      36.893836      36.893836      36.893836    
   2200000   0.52454877    -7.7591783     -6.9723664      4.1088919      50218.233      36.893836      36.893836      36.893836    
   2210000   0.52550491    -7.7505178     -6.9622716      4.1727398      50218.233      36.893836      36.893836      36.893836    
   2220000   0.52615175    -7.7544384     -6.965222       4.1307469      50218.233      36.893836      36.893836      36.893836    
   2230000   0.52425145    -7.7586315     -6.9722655      4.0980962      50218.233      36.893836      36.893836      36.893836    
   2240000   0.52501667    -7.7549569     -6.9674431      4.1412874      50218.233      36.893836      36.893836      36.893836    
   2250000   0.52397384    -7.7577729     -6.9718234      4.1196406      50218.233      36.893836      36.893836      36.893836    
   2260000   0.52723294    -7.757475      -6.9666368      4.1212443      50218.233      36.893836      36.893836      36.893836    
   2270000   0.52617804    -7.7565413     -6.9672855      4.1256689      50218.233      36.893836      36.893836      36.893836    
   2280000   0.5241193     -7.7607626     -6.9745948      4.0958909      50218.233      36.893836      36.893836      36.893836    
   2290000   0.52799649    -7.7593095     -6.967326       4.0970391      50218.233      36.893836      36.893836      36.893836    
   2300000   0.52484112    -7.7560721     -6.9688216      4.1244607      50218.233      36.893836      36.893836      36.893836    
   2310000   0.52733454    -7.7572813     -6.9662907      4.1233177      50218.233      36.893836      36.893836      36.893836    
   2320000   0.5233621     -7.7565319     -6.9714999      4.1206552      50218.233      36.893836      36.893836      36.893836    
   2330000   0.52336056    -7.7577017     -6.972672       4.1120747      50218.233      36.893836      36.893836      36.893836    
   2340000   0.52531004    -7.7551644     -6.9672106      4.1321773      50218.233      36.893836      36.893836      36.893836    
   2350000   0.52404915    -7.7591992     -6.9731367      4.0920145      50218.233      36.893836      36.893836      36.893836    
   2360000   0.52398851    -7.7578028     -6.9718312      4.1032248      50218.233      36.893836      36.893836      36.893836    
   2370000   0.52674085    -7.757018      -6.9669179      4.1179364      50218.233      36.893836      36.893836      36.893836    
   2380000   0.52699441    -7.7514568     -6.9609764      4.1735516      50218.233      36.893836      36.893836      36.893836    
   2390000   0.52430059    -7.7515207     -6.965081       4.1580397      50218.233      36.893836      36.893836      36.893836    
   2400000   0.5248786     -7.7586152     -6.9713085      4.1142718      50218.233      36.893836      36.893836      36.893836    
   2410000   0.52511116    -7.7572778     -6.9696223      4.1070683      50218.233      36.893836      36.893836      36.893836    
   2420000   0.5237682     -7.7566468     -6.9710057      4.1179014      50218.233      36.893836      36.893836      36.893836    
   2430000   0.52243707    -7.7567111     -6.9730666      4.1165846      50218.233      36.893836      36.893836      36.893836    
   2440000   0.52593613    -7.7565177     -6.9676247      4.1222241      50218.233      36.893836      36.893836      36.893836    
   2450000   0.52555066    -7.7601229     -6.9718081      4.0953731      50218.233      36.893836      36.893836      36.893836    
   2460000   0.52134244    -7.7559747     -6.9739721      4.1244958      50218.233      36.893836      36.893836      36.893836    
   2470000   0.52380171    -7.7602995     -6.9746082      4.1091774      50218.233      36.893836      36.893836      36.893836    
   2480000   0.52372726    -7.7578081     -6.9722284      4.1047046      50218.233      36.893836      36.893836      36.893836    
   2490000   0.52598825    -7.7584331     -6.969462       4.107783       50218.233      36.893836      36.893836      36.893836    
   2500000   0.52573525    -7.7598434     -6.9712518      4.0938862      50218.233      36.893836      36.893836      36.893836    
   2510000   0.52356485    -7.752473      -6.9671369      4.150636       50218.233      36.893836      36.893836      36.893836    
   2520000   0.52473236    -7.7542407     -6.9671534      4.1497853      50218.233      36.893836      36.893836      36.893836    
   2530000   0.52745608    -7.7543665     -6.9631936      4.1380033      50218.233      36.893836      36.893836      36.893836    
   2540000   0.52417776    -7.7561106     -6.9698551      4.1198303      50218.233      36.893836      36.893836      36.893836    
   2550000   0.52551043    -7.7577557     -6.9695013      4.1111431      50218.233      36.893836      36.893836      36.893836    
   2560000   0.52434158    -7.7514866     -6.9649854      4.141026       50218.233      36.893836      36.893836      36.893836    
   2570000   0.52653464    -7.7529285     -6.9631377      4.1394778      50218.233      36.893836      36.893836      36.893836    
   2580000   0.52650449    -7.7548524     -6.9651069      4.1434161      50218.233      36.893836      36.893836      36.893836    
   2590000   0.52448789    -7.7513157     -6.964595       4.1571816      50218.233      36.893836      36.893836      36.893836    
   2600000   0.5259544     -7.7551301     -6.9662097      4.1296918      50218.233      36.893836      36.893836      36.893836    
   2610000   0.52748756    -7.75218       -6.9609599      4.1592855      50218.233      36.893836      36.893836      36.893836    
   2620000   0.52471819    -7.7590259     -6.9719598      4.1052217      50218.233      36.893836      36.893836      36.893836    
   2630000   0.52335878    -7.7543939     -6.9693669      4.1456713      50218.233      36.893836      36.893836      36.893836    
   2640000   0.52663472    -7.7531717     -6.9632309      4.1443911      50218.233      36.893836      36.893836      36.893836    
   2650000   0.52424235    -7.7523404     -6.9659881      4.1614963      50218.233      36.893836      36.893836      36.893836    
   2660000   0.52581853    -7.7523336     -6.9636171      4.1603212      50218.233      36.893836      36.893836      36.893836    
   2670000   0.52593386    -7.7485991     -6.9597095      4.1784513      50218.233      36.893836      36.893836      36.893836    
   2680000   0.52470011    -7.7541697     -6.9671307      4.1351035      50218.233      36.893836      36.893836      36.893836    
   2690000   0.52438932    -7.7513002     -6.9647274      4.1658189      50218.233      36.893836      36.893836      36.893836    
   2700000   0.5231349     -7.7508157     -6.9661245      4.1674885      50218.233      36.893836      36.893836      36.893836    
   2710000   0.52467545    -7.7536127     -6.9666108      4.1268104      50218.233      36.893836      36.893836      36.893836    
   2720000   0.52744939    -7.7552495     -6.9640867      4.1369034      50218.233      36.893836      36.893836      36.893836    
   2730000   0.52431241    -7.7532228     -6.9667654      4.1411053      50218.233      36.893836      36.893836      36.893836    
   2740000   0.52567211    -7.7564666     -6.9679697      4.1207648      50218.233      36.893836      36.893836      36.893836    
   2750000   0.52339523    -7.7560278     -6.9709462      4.1263182      50218.233      36.893836      36.893836      36.893836    
   2760000   0.52541431    -7.7565078     -6.9683975      4.1272406      50218.233      36.893836      36.893836      36.893836    
   2770000   0.52245877    -7.756462      -6.972785       4.1094962      50218.233      36.893836      36.893836      36.893836    
   2780000   0.52831221    -7.7537233     -6.9612662      4.141358       50218.233      36.893836      36.893836      36.893836    
   2790000   0.52512729    -7.7547024     -6.9670226      4.137233       50218.233      36.893836      36.893836      36.893836    
   2800000   0.52542392    -7.7571755     -6.9690508      4.1101273      50218.233      36.893836      36.893836      36.893836    
   2810000   0.52301367    -7.7535161     -6.9690068      4.1417313      50218.233      36.893836      36.893836      36.893836    
   2820000   0.52393478    -7.7555611     -6.9696701      4.1075933      50218.233      36.893836      36.893836      36.893836    
   2830000   0.52823629    -7.7565303     -6.9641871      4.122833       50218.233      36.893836      36.893836      36.893836    
   2840000   0.52496415    -7.760299      -6.9728639      4.0922739      50218.233      36.893836      36.893836      36.893836    
   2850000   0.52575513    -7.7574293     -6.9688078      4.1046224      50218.233      36.893836      36.893836      36.893836    
   2860000   0.52545498    -7.7526804     -6.9645091      4.1448337      50218.233      36.893836      36.893836      36.893836    
   2870000   0.52213173    -7.7566873     -6.9735009      4.1071313      50218.233      36.893836      36.893836      36.893836    
   2880000   0.52479234    -7.7544662     -6.9672888      4.1350864      50218.233      36.893836      36.893836      36.893836    
   2890000   0.52636816    -7.7526183     -6.9630773      4.1511583      50218.233      36.893836      36.893836      36.893836    
   2900000   0.52566711    -7.7532438     -6.9647543      4.142653       50218.233      36.893836      36.893836      36.893836    
   2910000   0.52590939    -7.7553887     -6.9665359      4.1353057      50218.233      36.893836      36.893836      36.893836    
   2920000   0.52378025    -7.7560307     -6.9703715      4.110275       50218.233      36.893836      36.893836      36.893836    
   2930000   0.52731581    -7.7529374     -6.9619749      4.1526741      50218.233      36.893836      36.893836      36.893836    
   2940000   0.52564541    -7.7547889     -6.966332       4.1307499      50218.233      36.893836      36.893836      36.893836    
   2950000   0.52344598    -7.7593191     -6.9741613      4.0912192      50218.233      36.893836      36.893836      36.893836    
   2960000   0.52263941    -7.7580877     -6.9741398      4.1037223      50218.233      36.893836      36.893836      36.893836    
   2970000   0.5252871     -7.7529477     -6.9650283      4.1418691      50218.233      36.893836      36.893836      36.893836    
   2980000   0.52389612    -7.7605836     -6.9747506      4.087753       50218.233      36.893836      36.893836      36.893836    
   2990000   0.52519684    -7.7558995     -6.9681154      4.1245704      50218.233      36.893836      36.893836      36.893836    
   3000000   0.52545041    -7.7572412     -6.9690768      4.1120782      50218.233      36.893836      36.893836      36.893836    
   3010000   0.52550952    -7.7580662     -6.9698132      4.1130796      50218.233      36.893836      36.893836      36.893836    
   3020000   0.52643832    -7.7545555     -6.9649093      4.1278364      50218.233      36.893836      36.893836      36.893836    
   3030000   0.52272165    -7.7577844     -6.9737131      4.1004459      50218.233      36.893836      36.893836      36.893836    
   3040000   0.52375357    -7.7549149     -6.9692958      4.1277628      50218.233      36.893836      36.893836      36.893836    
   3050000   0.52427523    -7.7545952     -6.9681935      4.1357602      50218.233      36.893836      36.893836      36.893836    
   3060000   0.52561888    -7.7606079     -6.9721908      4.0908882      50218.233      36.893836      36.893836      36.893836    
   3070000   0.52289591    -7.7544135     -6.9700808      4.1359098      50218.233      36.893836      36.893836      36.893836    
   3080000   0.524442      -7.7577027     -6.9710509      4.1032119      50218.233      36.893836      36.893836      36.893836    
   3090000   0.52721933    -7.7648605     -6.9740427      4.0655005      50218.233      36.893836      36.893836      36.893836    
   3100000   0.52726703    -7.7588323     -6.967943       4.1101504      50218.233      36.893836      36.893836      36.893836    
   3110000   0.52652223    -7.7567145     -6.9669424      4.1186038      50218.233      36.893836      36.893836      36.893836    
   3120000   0.52389026    -7.7558915     -6.9700673      4.1213593      50218.233      36.893836      36.893836      36.893836    
   3130000   0.52476244    -7.7559642     -6.9688318      4.1319892      50218.233      36.893836      36.893836      36.893836    
   3140000   0.52670781    -7.752012      -6.9619615      4.1554014      50218.233      36.893836      36.893836      36.893836    
   3150000   0.52407003    -7.7592959     -6.973202       4.0995889      50218.233      36.893836      36.893836      36.893836    
   3160000   0.52276461    -7.7535081     -6.9693724      4.1469627      50218.233      36.893836      36.893836      36.893836    
   3170000   0.52611508    -7.7548016     -6.9656402      4.1440464      50218.233      36.893836      36.893836      36.893836    
   3180000   0.52347163    -7.7551573     -6.969961       4.1219295      50218.233      36.893836      36.893836      36.893836    
   3190000   0.52482569    -7.7555307     -6.9683033      4.1281204      50218.233      36.893836      36.893836      36.893836    
   3200000   0.52610109    -7.7545468     -6.9654064      4.1410666      50218.233      36.893836      36.893836      36.893836    
   3210000   0.52499421    -7.7568088     -6.9693287      4.1193541      50218.233      36.893836      36.893836      36.893836    
   3220000   0.52581049    -7.7567829     -6.9680784      4.1114042      50218.233      36.893836      36.893836      36.893836    
   3230000   0.52387707    -7.7549419     -6.9691374      4.1373528      50218.233      36.893836      36.893836      36.893836    
   3240000   0.5241187     -7.7546371     -6.9684703      4.136058       50218.233      36.893836      36.893836      36.893836    
   3250000   0.52668874    -7.7613123     -6.9712904      4.0895619      50218.233      36.893836      36.893836      36.893836    
   3260000   0.52522504    -7.7536888     -6.9658625      4.1506161      50218.233      36.893836      36.893836      36.893836    
   3270000   0.52544393    -7.7542717     -6.966117       4.1295947      50218.233      36.893836      36.893836      36.893836    
   3280000   0.52768895    -7.7564513     -6.9649291      4.1159798      50218.233      36.893836      36.893836      36.893836    
   3290000   0.52529363    -7.7584841     -6.9705549      4.0964089      50218.233      36.893836      36.893836      36.893836    
   3300000   0.52479878    -7.7588498     -6.9716628      4.0912249      50218.233      36.893836      36.893836      36.893836    
   3310000   0.52154802    -7.756209      -6.9738981      4.1141968      50218.233      36.893836      36.893836      36.893836    
   3320000   0.52449493    -7.7574809     -6.9707497      4.1022399      50218.233      36.893836      36.893836      36.893836    
   3330000   0.52498702    -7.7559437     -6.9684744      4.1213225      50218.233      36.893836      36.893836      36.893836    
   3340000   0.52466521    -7.7562045     -6.9692179      4.1278427      50218.233      36.893836      36.893836      36.893836    
   3350000   0.52258024    -7.7601958     -6.9763366      4.0919372      50218.233      36.893836      36.893836      36.893836    
   3360000   0.52771972    -7.7571695     -6.9656012      4.1238655      50218.233      36.893836      36.893836      36.893836    
   3370000   0.52363476    -7.7560018     -6.9705608      4.1178007      50218.233      36.893836      36.893836      36.893836    
   3380000   0.52223131    -7.7624066     -6.9790708      4.0682019      50218.233      36.893836      36.893836      36.893836    
   3390000   0.52542798    -7.7580344     -6.9699036      4.1078683      50218.233      36.893836      36.893836      36.893836    
   3400000   0.52713333    -7.758544      -6.9678553      4.1145032      50218.233      36.893836      36.893836      36.893836    
   3410000   0.52660354    -7.7552577     -6.9653636      4.1339482      50218.233      36.893836      36.893836      36.893836    
   3420000   0.52301108    -7.7571556     -6.9726501      4.118418       50218.233      36.893836      36.893836      36.893836    
   3430000   0.5265143     -7.7562419     -6.9664816      4.1134989      50218.233      36.893836      36.893836      36.893836    
   3440000   0.52000756    -7.7602587     -6.9802585      4.075892       50218.233      36.893836      36.893836      36.893836    
   3450000   0.52592647    -7.7573623     -6.9684838      4.1112313      50218.233      36.893836      36.893836      36.893836    
   3460000   0.5236619     -7.7615214     -6.9760398      4.0805217      50218.233      36.893836      36.893836      36.893836    
   3470000   0.52627956    -7.7630694     -6.9736613      4.0721948      50218.233      36.893836      36.893836      36.893836    
   3480000   0.5254259     -7.7607293     -6.9726017      4.0934898      50218.233      36.893836      36.893836      36.893836    
   3490000   0.52552016    -7.7571559     -6.9688869      4.1126491      50218.233      36.893836      36.893836      36.893836    
   3500000   0.52636695    -7.7579731     -6.9684339      4.110044       50218.233      36.893836      36.893836      36.893836    
   3510000   0.527016      -7.7614654     -6.9709526      4.0901159      50218.233      36.893836      36.893836      36.893836    
   3520000   0.52618595    -7.7608436     -6.9715759      4.0846143      50218.233      36.893836      36.893836      36.893836    
   3530000   0.52481724    -7.7582597     -6.971045       4.1045817      50218.233      36.893836      36.893836      36.893836    
   3540000   0.52531314    -7.7581375     -6.970179       4.1121824      50218.233      36.893836      36.893836      36.893836    
   3550000   0.52568758    -7.7558729     -6.9673527      4.1216113      50218.233      36.893836      36.893836      36.893836    
   3560000   0.52234612    -7.7575711     -6.9740631      4.1032646      50218.233      36.893836      36.893836      36.893836    
   3570000   0.52524932    -7.7569143     -6.9690515      4.1091301      50218.233      36.893836      36.893836      36.893836    
   3580000   0.52341934    -7.7575495     -6.9724317      4.1091763      50218.233      36.893836      36.893836      36.893836    
   3590000   0.52849657    -7.7640097     -6.9712761      4.0694144      50218.233      36.893836      36.893836      36.893836    
   3600000   0.52257146    -7.7594151     -6.975569       4.0871299      50218.233      36.893836      36.893836      36.893836    
   3610000   0.52459491    -7.7563021     -6.9694209      4.1131645      50218.233      36.893836      36.893836      36.893836    
   3620000   0.52287956    -7.7616307     -6.9773225      4.0741563      50218.233      36.893836      36.893836      36.893836    
   3630000   0.52308858    -7.7620087     -6.977387       4.0756957      50218.233      36.893836      36.893836      36.893836    
   3640000   0.52697338    -7.7576872     -6.9672384      4.1029454      50218.233      36.893836      36.893836      36.893836    
   3650000   0.52409914    -7.7593175     -6.97318        4.097696       50218.233      36.893836      36.893836      36.893836    
   3660000   0.52521454    -7.7569648     -6.9691542      4.1122145      50218.233      36.893836      36.893836      36.893836    
   3670000   0.52421683    -7.7609098     -6.9745957      4.0817434      50218.233      36.893836      36.893836      36.893836    
   3680000   0.52677348    -7.7613072     -6.9711582      4.0872756      50218.233      36.893836      36.893836      36.893836    
   3690000   0.52722124    -7.7648649     -6.9740443      4.0564018      50218.233      36.893836      36.893836      36.893836    
   3700000   0.52556908    -7.7636828     -6.9753404      4.067595       50218.233      36.893836      36.893836      36.893836    
   3710000   0.52864068    -7.7589566     -6.9660068      4.1030912      50218.233      36.893836      36.893836      36.893836    
   3720000   0.52424037    -7.7593173     -6.9729679      4.1078903      50218.233      36.893836      36.893836      36.893836    
   3730000   0.52355564    -7.7607599     -6.9754376      4.0929942      50218.233      36.893836      36.893836      36.893836    
   3740000   0.52490198    -7.7581196     -6.9707779      4.1183833      50218.233      36.893836      36.893836      36.893836    
   3750000   0.52540314    -7.7623158     -6.9742223      4.0718711      50218.233      36.893836      36.893836      36.893836    
   3760000   0.52606153    -7.7616701     -6.972589       4.0798195      50218.233      36.893836      36.893836      36.893836    
   3770000   0.52495465    -7.7628003     -6.9753795      4.0749656      50218.233      36.893836      36.893836      36.893836    
   3780000   0.52687141    -7.760601      -6.9703051      4.0935404      50218.233      36.893836      36.893836      36.893836    
   3790000   0.5255898     -7.7608297     -6.9724562      4.0943512      50218.233      36.893836      36.893836      36.893836    
   3800000   0.52810097    -7.765643      -6.9735029      4.0561976      50218.233      36.893836      36.893836      36.893836    
   3810000   0.52454212    -7.7613776     -6.9745756      4.0927398      50218.233      36.893836      36.893836      36.893836    
   3820000   0.52408315    -7.7593693     -6.9732558      4.0988093      50218.233      36.893836      36.893836      36.893836    
   3830000   0.52240323    -7.7594617     -6.975868       4.0909434      50218.233      36.893836      36.893836      36.893836    
   3840000   0.52581       -7.7648105     -6.9761067      4.0583296      50218.233      36.893836      36.893836      36.893836    
   3850000   0.52675084    -7.7580618     -6.9679467      4.1071091      50218.233      36.893836      36.893836      36.893836    
   3860000   0.5268801     -7.7604375     -6.9701285      4.0895186      50218.233      36.893836      36.893836      36.893836    
   3870000   0.52536292    -7.7638307     -6.9757976      4.065281       50218.233      36.893836      36.893836      36.893836    
   3880000   0.52374176    -7.7589514     -6.9733499      4.0969827      50218.233      36.893836      36.893836      36.893836    
   3890000   0.52675292    -7.7565209     -6.9664027      4.1092978      50218.233      36.893836      36.893836      36.893836    
   3900000   0.52409291    -7.7594182     -6.97329        4.10009        50218.233      36.893836      36.893836      36.893836    
   3910000   0.52593622    -7.7547491     -6.965856       4.1239068      50218.233      36.893836      36.893836      36.893836    
   3920000   0.52403181    -7.7616993     -6.9756628      4.0677458      50218.233      36.893836      36.893836      36.893836    
   3930000   0.52730182    -7.7560889     -6.9651475      4.1156475      50218.233      36.893836      36.893836      36.893836    
   3940000   0.5252267     -7.7611629     -6.973334       4.0920938      50218.233      36.893836      36.893836      36.893836    
   3950000   0.52495349    -7.7652483     -6.9778293      4.0501529      50218.233      36.893836      36.893836      36.893836    
   3960000   0.5249965     -7.7606929     -6.9732093      4.0919783      50218.233      36.893836      36.893836      36.893836    
   3970000   0.52627222    -7.7572498     -6.9678527      4.1076951      50218.233      36.893836      36.893836      36.893836    
   3980000   0.52491036    -7.7613249     -6.9739706      4.0734388      50218.233      36.893836      36.893836      36.893836    
   3990000   0.52182209    -7.7615101     -6.9787881      4.0778374      50218.233      36.893836      36.893836      36.893836    
   4000000   0.52589005    -7.7579118     -6.969088       4.1181665      50218.233      36.893836      36.893836      36.893836    
   4010000   0.52379739    -7.7631138     -6.9774289      4.0618777      50218.233      36.893836      36.893836      36.893836    
   4020000   0.52455773    -7.7628708     -6.9760454      4.0674617      50218.233      36.893836      36.893836      36.893836    
   4030000   0.52504186    -7.7564903     -6.9689388      4.1192675      50218.233      36.893836      36.893836      36.893836    
   4040000   0.52236512    -7.7599902     -6.9764537      4.0907371      50218.233      36.893836      36.893836      36.893836    
   4050000   0.52648171    -7.7588001     -6.9690888      4.1108351      50218.233      36.893836      36.893836      36.893836    
   4060000   0.52548472    -7.7616564     -6.9734405      4.0966352      50218.233      36.893836      36.893836      36.893836    
   4070000   0.52647488    -7.7615283     -6.9718272      4.0834228      50218.233      36.893836      36.893836      36.893836    
   4080000   0.52681588    -7.7566003     -6.9663877      4.1231953      50218.233      36.893836      36.893836      36.893836    
   4090000   0.52280891    -7.7570138     -6.9728115      4.1113795      50218.233      36.893836      36.893836      36.893836    
   4100000   0.52493419    -7.7564571     -6.969067       4.1195294      50218.233      36.893836      36.893836      36.893836    
   4110000   0.52481885    -7.7593223     -6.9721052      4.0944719      50218.233      36.893836      36.893836      36.893836    
   4120000   0.52639401    -7.7623662     -6.9727864      4.0834533      50218.233      36.893836      36.893836      36.893836    
   4130000   0.52345173    -7.7626943     -6.9775279      4.0751003      50218.233      36.893836      36.893836      36.893836    
   4140000   0.52487683    -7.7585683     -6.9712643      4.1044065      50218.233      36.893836      36.893836      36.893836    
   4150000   0.52565372    -7.763582      -6.9751126      4.0650447      50218.233      36.893836      36.893836      36.893836    
   4160000   0.52817015    -7.7631913     -6.9709474      4.0722026      50218.233      36.893836      36.893836      36.893836    
   4170000   0.52560889    -7.7576564     -6.9692543      4.1142665      50218.233      36.893836      36.893836      36.893836    
   4180000   0.52382469    -7.7619447     -6.9762188      4.0781122      50218.233      36.893836      36.893836      36.893836    
   4190000   0.52518309    -7.7629032     -6.9751398      4.0686446      50218.233      36.893836      36.893836      36.893836    
   4200000   0.52302096    -7.7617079     -6.9771876      4.0828901      50218.233      36.893836      36.893836      36.893836    
   4210000   0.52466049    -7.7593931     -6.9724136      4.0948956      50218.233      36.893836      36.893836      36.893836    
   4220000   0.52566486    -7.7584198     -6.9699338      4.1065456      50218.233      36.893836      36.893836      36.893836    
   4230000   0.52015192    -7.7649757     -6.9847589      4.048644       50218.233      36.893836      36.893836      36.893836    
   4240000   0.52371586    -7.7517855     -6.9662229      4.1622486      50218.233      36.893836      36.893836      36.893836    
   4250000   0.52414782    -7.7562278     -6.9700173      4.123418       50218.233      36.893836      36.893836      36.893836    
   4260000   0.52002233    -7.7611563     -6.9811339      4.0668962      50218.233      36.893836      36.893836      36.893836    
   4270000   0.52685786    -7.7581985     -6.967923       4.1126034      50218.233      36.893836      36.893836      36.893836    
   4280000   0.52473742    -7.7581002     -6.9710053      4.0972767      50218.233      36.893836      36.893836      36.893836    
   4290000   0.52388273    -7.7540207     -6.9682078      4.1331134      50218.233      36.893836      36.893836      36.893836    
   4300000   0.52557204    -7.7621759     -6.9738291      4.0785244      50218.233      36.893836      36.893836      36.893836    
   4310000   0.52278012    -7.7567403     -6.9725813      4.118174       50218.233      36.893836      36.893836      36.893836    
   4320000   0.52294927    -7.7590628     -6.97465        4.0970258      50218.233      36.893836      36.893836      36.893836    
   4330000   0.52727107    -7.7583854     -6.9674901      4.0991024      50218.233      36.893836      36.893836      36.893836    
   4340000   0.52544337    -7.7585951     -6.9704413      4.0927055      50218.233      36.893836      36.893836      36.893836    
   4350000   0.52532839    -7.7564866     -6.9685052      4.1218047      50218.233      36.893836      36.893836      36.893836    
   4360000   0.52653384    -7.7601301     -6.9703406      4.0967882      50218.233      36.893836      36.893836      36.893836    
   4370000   0.5274526     -7.7584206     -6.9672529      4.1081203      50218.233      36.893836      36.893836      36.893836    
   4380000   0.52758538    -7.7548031     -6.9634363      4.1380418      50218.233      36.893836      36.893836      36.893836    
   4390000   0.52327797    -7.7584807     -6.973575       4.1097696      50218.233      36.893836      36.893836      36.893836    
   4400000   0.5243836     -7.757374      -6.9708097      4.1208485      50218.233      36.893836      36.893836      36.893836    
   4410000   0.52273746    -7.7592593     -6.9751643      4.0953955      50218.233      36.893836      36.893836      36.893836    
   4420000   0.52652981    -7.7563276     -6.9665441      4.1365577      50218.233      36.893836      36.893836      36.893836    
   4430000   0.52443991    -7.7549009     -6.9682522      4.1393472      50218.233      36.893836      36.893836      36.893836    
   4440000   0.52325854    -7.7591203     -6.9742437      4.1044944      50218.233      36.893836      36.893836      36.893836    
   4450000   0.52668178    -7.7512826     -6.9612712      4.153732       50218.233      36.893836      36.893836      36.893836    
   4460000   0.52424701    -7.75314       -6.9667806      4.1468227      50218.233      36.893836      36.893836      36.893836    
   4470000   0.52579372    -7.7597079     -6.9710285      4.0906862      50218.233      36.893836      36.893836      36.893836    
   4480000   0.52306091    -7.7625386     -6.9779584      4.0730386      50218.233      36.893836      36.893836      36.893836    
   4490000   0.5270764     -7.7581845     -6.9675811      4.1001063      50218.233      36.893836      36.893836      36.893836    
   4500000   0.52415614    -7.7619869     -6.9757639      4.0703591      50218.233      36.893836      36.893836      36.893836    
   4510000   0.52378841    -7.7574683     -6.9717969      4.1042883      50218.233      36.893836      36.893836      36.893836    
   4520000   0.52620138    -7.7576935     -6.9684027      4.1081393      50218.233      36.893836      36.893836      36.893836    
   4530000   0.52497344    -7.7557459     -6.968297       4.1250142      50218.233      36.893836      36.893836      36.893836    
   4540000   0.52446406    -7.7571569     -6.970472       4.1128556      50218.233      36.893836      36.893836      36.893836    
   4550000   0.52425924    -7.7556568     -6.9692791      4.130264       50218.233      36.893836      36.893836      36.893836    
   4560000   0.52541499    -7.7545106     -6.9663993      4.1277352      50218.233      36.893836      36.893836      36.893836    
   4570000   0.52599131    -7.7571858     -6.96821        4.1153695      50218.233      36.893836      36.893836      36.893836    
   4580000   0.52395135    -7.7531099     -6.9671941      4.1402037      50218.233      36.893836      36.893836      36.893836    
   4590000   0.52386179    -7.757291      -6.9715095      4.1166157      50218.233      36.893836      36.893836      36.893836    
   4600000   0.52355227    -7.7567844     -6.9714672      4.1100605      50218.233      36.893836      36.893836      36.893836    
   4610000   0.52555344    -7.7575692     -6.9692503      4.1009242      50218.233      36.893836      36.893836      36.893836    
   4620000   0.52736619    -7.7547988     -6.9637608      4.1416334      50218.233      36.893836      36.893836      36.893836    
   4630000   0.52624515    -7.7551211     -6.9657646      4.1489545      50218.233      36.893836      36.893836      36.893836    
   4640000   0.52420541    -7.753211      -6.966914       4.1399733      50218.233      36.893836      36.893836      36.893836    
   4650000   0.52381317    -7.7581703     -6.9724617      4.104613       50218.233      36.893836      36.893836      36.893836    
   4660000   0.52484187    -7.7575474     -6.9702958      4.1086118      50218.233      36.893836      36.893836      36.893836    
   4670000   0.52730972    -7.7567718     -6.9658185      4.1305408      50218.233      36.893836      36.893836      36.893836    
   4680000   0.52066084    -7.7538056     -6.9728254      4.1301506      50218.233      36.893836      36.893836      36.893836    
   4690000   0.52656293    -7.7593164     -6.9694832      4.1055143      50218.233      36.893836      36.893836      36.893836    
   4700000   0.53024522    -7.7580292     -6.9626727      4.1265742      50218.233      36.893836      36.893836      36.893836    
   4710000   0.52409702    -7.7564088     -6.9702745      4.1207657      50218.233      36.893836      36.893836      36.893836    
   4720000   0.52421604    -7.7569761     -6.9706632      4.1167532      50218.233      36.893836      36.893836      36.893836    
   4730000   0.52111418    -7.7494137     -6.9677535      4.1769969      50218.233      36.893836      36.893836      36.893836    
   4740000   0.52541588    -7.7558594     -6.9677468      4.1337722      50218.233      36.893836      36.893836      36.893836    
   4750000   0.52241715    -7.756273      -6.9726584      4.1299959      50218.233      36.893836      36.893836      36.893836    
   4760000   0.52361373    -7.7595533     -6.9741438      4.0997467      50218.233      36.893836      36.893836      36.893836    
   4770000   0.52423479    -7.7542122     -6.9678712      4.1382605      50218.233      36.893836      36.893836      36.893836    
   4780000   0.52670154    -7.7585516     -6.9685105      4.0997375      50218.233      36.893836      36.893836      36.893836    
   4790000   0.52264745    -7.7537006     -6.9697405      4.1501339      50218.233      36.893836      36.893836      36.893836    
   4800000   0.52402594    -7.7580978     -6.9720701      4.0965871      50218.233      36.893836      36.893836      36.893836    
   4810000   0.52624352    -7.7597166     -6.9703625      4.1088053      50218.233      36.893836      36.893836      36.893836    
   4820000   0.52543773    -7.760935      -6.9727896      4.0847678      50218.233      36.893836      36.893836      36.893836    
   4830000   0.52418882    -7.7555631     -6.9692911      4.138299       50218.233      36.893836      36.893836      36.893836    
   4840000   0.52553678    -7.7542291     -6.9659351      4.1348596      50218.233      36.893836      36.893836      36.893836    
   4850000   0.524724      -7.7605903     -6.9735155      4.0889133      50218.233      36.893836      36.893836      36.893836    
   4860000   0.52513153    -7.7598176     -6.9721315      4.0934533      50218.233      36.893836      36.893836      36.893836    
   4870000   0.52386732    -7.7622204     -6.9764306      4.0899694      50218.233      36.893836      36.893836      36.893836    
   4880000   0.52683617    -7.7608441     -6.970601       4.0949696      50218.233      36.893836      36.893836      36.893836    
   4890000   0.52325061    -7.7580059     -6.9731411      4.1079224      50218.233      36.893836      36.893836      36.893836    
   4900000   0.52471968    -7.7611849     -6.9741166      4.0814827      50218.233      36.893836      36.893836      36.893836    
   4910000   0.52298095    -7.7582514     -6.9737911      4.1089526      50218.233      36.893836      36.893836      36.893836    
   4920000   0.52740814    -7.7625694     -6.9714684      4.0987665      50218.233      36.893836      36.893836      36.893836    
   4930000   0.52492383    -7.7601492     -6.9727747      4.0949748      50218.233      36.893836      36.893836      36.893836    
   4940000   0.52662635    -7.7563515     -6.9664232      4.1206405      50218.233      36.893836      36.893836      36.893836    
   4950000   0.52729881    -7.7580703     -6.9671333      4.1205782      50218.233      36.893836      36.893836      36.893836    
   4960000   0.52499595    -7.762566      -6.9750833      4.0970486      50218.233      36.893836      36.893836      36.893836    
   4970000   0.52485759    -7.7547663     -6.9674911      4.1373956      50218.233      36.893836      36.893836      36.893836    
   4980000   0.52692944    -7.7572598     -6.9668769      4.1203232      50218.233      36.893836      36.893836      36.893836    
   4990000   0.52338603    -7.7579469     -6.972879       4.1121568      50218.233      36.893836      36.893836      36.893836    
   5000000   0.52641429    -7.7571702     -6.96756        4.1167261      50218.233      36.893836      36.893836      36.893836    
   5010000   0.52294176    -7.7586542     -6.9742527      4.1028432      50218.233      36.893836      36.893836      36.893836    
   5020000   0.52477846    -7.7583161     -6.9711596      4.1217125      50218.233      36.893836      36.893836      36.893836    
   5030000   0.525081      -7.7626132     -6.9750029      4.0778306      50218.233      36.893836      36.893836      36.893836    
   5040000   0.52457892    -7.7576763     -6.9708191      4.1143343      50218.233      36.893836      36.893836      36.893836    
   5050000   0.52277019    -7.7599952     -6.975851       4.1015868      50218.233      36.893836      36.893836      36.893836    
   5060000   0.52445036    -7.7602269     -6.9735626      4.0958511      50218.233      36.893836      36.893836      36.893836    
   5070000   0.52800398    -7.7616186     -6.9696239      4.096091       50218.233      36.893836      36.893836      36.893836    
   5080000   0.52672166    -7.7583467     -6.9682755      4.1163614      50218.233      36.893836      36.893836      36.893836    
   5090000   0.5269417     -7.7606178     -6.9702165      4.1070671      50218.233      36.893836      36.893836      36.893836    
   5100000   0.52724536    -7.7573009     -6.9664441      4.1215902      50218.233      36.893836      36.893836      36.893836    
   5110000   0.52504685    -7.7609085     -6.9733494      4.1007349      50218.233      36.893836      36.893836      36.893836    
   5120000   0.5237175     -7.7590431     -6.973478       4.1071001      50218.233      36.893836      36.893836      36.893836    
   5130000   0.52425553    -7.7614043     -6.9750322      4.0862675      50218.233      36.893836      36.893836      36.893836    
   5140000   0.52332993    -7.7578513     -6.9728675      4.1175425      50218.233      36.893836      36.893836      36.893836    
   5150000   0.52628672    -7.7593889     -6.96997        4.1095019      50218.233      36.893836      36.893836      36.893836    
   5160000   0.52304153    -7.7590646     -6.9745134      4.0979283      50218.233      36.893836      36.893836      36.893836    
   5170000   0.5259652     -7.7583811     -6.9694445      4.1086735      50218.233      36.893836      36.893836      36.893836    
   5180000   0.52630446    -7.7586958     -6.9692503      4.0985417      50218.233      36.893836      36.893836      36.893836    
   5190000   0.52561162    -7.7582282     -6.969822       4.1019634      50218.233      36.893836      36.893836      36.893836    
   5200000   0.52520671    -7.7556121     -6.9678133      4.1295063      50218.233      36.893836      36.893836      36.893836    
   5210000   0.52645874    -7.7598027     -6.9701259      4.0991756      50218.233      36.893836      36.893836      36.893836    
   5220000   0.52499792    -7.7587863     -6.9713006      4.10709        50218.233      36.893836      36.893836      36.893836    
   5230000   0.5230596     -7.7612909     -6.9767127      4.0911389      50218.233      36.893836      36.893836      36.893836    
   5240000   0.52588054    -7.7574062     -6.9685966      4.1160074      50218.233      36.893836      36.893836      36.893836    
   5250000   0.52514854    -7.7604849     -6.9727733      4.0990365      50218.233      36.893836      36.893836      36.893836    
   5260000   0.5256954     -7.763025      -6.9744931      4.0761258      50218.233      36.893836      36.893836      36.893836    
   5270000   0.52525871    -7.762174      -6.9742971      4.0839736      50218.233      36.893836      36.893836      36.893836    
   5280000   0.52184355    -7.7584328     -6.9756786      4.1100658      50218.233      36.893836      36.893836      36.893836    
   5290000   0.52481769    -7.7581794     -6.9709641      4.1117724      50218.233      36.893836      36.893836      36.893836    
   5300000   0.52503329    -7.7603974     -6.9728587      4.1001018      50218.233      36.893836      36.893836      36.893836    
   5310000   0.52509343    -7.7561514     -6.9685225      4.1293244      50218.233      36.893836      36.893836      36.893836    
   5320000   0.52196397    -7.7632377     -6.9803029      4.0641459      50218.233      36.893836      36.893836      36.893836    
   5330000   0.52684293    -7.7621301     -6.971877       4.0903759      50218.233      36.893836      36.893836      36.893836    
   5340000   0.52601811    -7.7578593     -6.9688433      4.1312562      50218.233      36.893836      36.893836      36.893836    
   5350000   0.52464988    -7.7593882     -6.9724246      4.1147289      50218.233      36.893836      36.893836      36.893836    
   5360000   0.52497617    -7.7587692     -6.9713161      4.1118886      50218.233      36.893836      36.893836      36.893836    
   5370000   0.52383174    -7.7629823     -6.9772458      4.0792051      50218.233      36.893836      36.893836      36.893836    
   5380000   0.52473559    -7.762796      -6.9757039      4.0852665      50218.233      36.893836      36.893836      36.893836    
   5390000   0.52452001    -7.7591559     -6.9723871      4.1039226      50218.233      36.893836      36.893836      36.893836    
   5400000   0.5214772     -7.765419      -6.9832143      4.0551928      50218.233      36.893836      36.893836      36.893836    
   5410000   0.5255468     -7.7599983     -6.9716893      4.1098522      50218.233      36.893836      36.893836      36.893836    
   5420000   0.52799518    -7.758876      -6.9668945      4.1213435      50218.233      36.893836      36.893836      36.893836    
   5430000   0.52299503    -7.761851      -6.9773696      4.0897234      50218.233      36.893836      36.893836      36.893836    
   5440000   0.52678515    -7.7609797     -6.9708132      4.0900259      50218.233      36.893836      36.893836      36.893836    
   5450000   0.52639867    -7.7621658     -6.972579       4.0853103      50218.233      36.893836      36.893836      36.893836    
   5460000   0.52409505    -7.7576034     -6.971472       4.1163448      50218.233      36.893836      36.893836      36.893836    
   5470000   0.52409926    -7.7569187     -6.970781       4.1219852      50218.233      36.893836      36.893836      36.893836    
   5480000   0.52518463    -7.7678094     -6.9800436      4.039735       50218.233      36.893836      36.893836      36.893836    
   5490000   0.52734737    -7.7580416     -6.9670318      4.1187193      50218.233      36.893836      36.893836      36.893836    
   5500000   0.52563934    -7.7545606     -6.9661129      4.1371233      50218.233      36.893836      36.893836      36.893836    
   5510000   0.52572354    -7.7607451     -6.972171       4.0992773      50218.233      36.893836      36.893836      36.893836    
   5520000   0.52532325    -7.7644079     -6.9764343      4.0735541      50218.233      36.893836      36.893836      36.893836    
   5530000   0.52617965    -7.761646      -6.9723878      4.0778449      50218.233      36.893836      36.893836      36.893836    
   5540000   0.52656673    -7.7638735     -6.9740346      4.0704176      50218.233      36.893836      36.893836      36.893836    
   5550000   0.52375002    -7.7628112     -6.9771973      4.071623       50218.233      36.893836      36.893836      36.893836    
   5560000   0.52764869    -7.7602073     -6.9687455      4.091756       50218.233      36.893836      36.893836      36.893836    
   5570000   0.5285044     -7.7597072     -6.9669618      4.1094399      50218.233      36.893836      36.893836      36.893836    
   5580000   0.52708308    -7.7592881     -6.9686748      4.1101324      50218.233      36.893836      36.893836      36.893836    
   5590000   0.5262373     -7.7645241     -6.9751794      4.0584306      50218.233      36.893836      36.893836      36.893836    
   5600000   0.52842648    -7.7646073     -6.9719789      4.0614294      50218.233      36.893836      36.893836      36.893836    
   5610000   0.52551316    -7.7596395     -6.971381       4.1144193      50218.233      36.893836      36.893836      36.893836    
   5620000   0.52361482    -7.7650698     -6.9796587      4.0623877      50218.233      36.893836      36.893836      36.893836    
   5630000   0.52433864    -7.7582179     -6.9717211      4.1126744      50218.233      36.893836      36.893836      36.893836    
   5640000   0.5221442     -7.7621209     -6.9789157      4.0713953      50218.233      36.893836      36.893836      36.893836    
   5650000   0.52503038    -7.7642683     -6.976734       4.0660745      50218.233      36.893836      36.893836      36.893836    
   5660000   0.52738674    -7.7580515     -6.9669827      4.121773       50218.233      36.893836      36.893836      36.893836    
   5670000   0.52291452    -7.7611429     -6.9767822      4.0874897      50218.233      36.893836      36.893836      36.893836    
   5680000   0.5246914     -7.7590266     -6.9720007      4.0991327      50218.233      36.893836      36.893836      36.893836    
   5690000   0.52842447    -7.7634969     -6.9708715      4.070546       50218.233      36.893836      36.893836      36.893836    
   5700000   0.52474727    -7.7576864     -6.9705767      4.1181645      50218.233      36.893836      36.893836      36.893836    
   5710000   0.52597514    -7.7606418     -6.9716903      4.0922451      50218.233      36.893836      36.893836      36.893836    
   5720000   0.52310742    -7.7600338     -6.9753838      4.0925687      50218.233      36.893836      36.893836      36.893836    
   5730000   0.52257507    -7.7618946     -6.9780431      4.0810658      50218.233      36.893836      36.893836      36.893836    
   5740000   0.52939002    -7.7596116     -6.9655379      4.1027333      50218.233      36.893836      36.893836      36.893836    
   5750000   0.52536651    -7.7632029     -6.9751643      4.0803195      50218.233      36.893836      36.893836      36.893836    
   5760000   0.52292272    -7.7573309     -6.9729579      4.1152299      50218.233      36.893836      36.893836      36.893836    
   5770000   0.52392804    -7.7574658     -6.9715849      4.1230001      50218.233      36.893836      36.893836      36.893836    
   5780000   0.52550493    -7.7628675     -6.9746213      4.0883474      50218.233      36.893836      36.893836      36.893836    
   5790000   0.52258801    -7.7640836     -6.9802127      4.0877116      50218.233      36.893836      36.893836      36.893836    
   5800000   0.5242911     -7.7602221     -6.9737967      4.088493       50218.233      36.893836      36.893836      36.893836    
   5810000   0.52318103    -7.7621317     -6.9773713      4.0804336      50218.233      36.893836      36.893836      36.893836    
   5820000   0.52287991    -7.7602635     -6.9759548      4.0891823      50218.233      36.893836      36.893836      36.893836    
   5830000   0.52612858    -7.7621046     -6.972923       4.0792964      50218.233      36.893836      36.893836      36.893836    
   5840000   0.52409651    -7.7598936     -6.97376        4.0979109      50218.233      36.893836      36.893836      36.893836    
   5850000   0.52536058    -7.7620626     -6.974033       4.0762624      50218.233      36.893836      36.893836      36.893836    
   5860000   0.52612289    -7.7635823     -6.9744092      4.0520067      50218.233      36.893836      36.893836      36.893836    
   5870000   0.52521265    -7.761952      -6.9741442      4.0895738      50218.233      36.893836      36.893836      36.893836    
   5880000   0.52556568    -7.7587788     -6.9704415      4.1015034      50218.233      36.893836      36.893836      36.893836    
   5890000   0.52549983    -7.7631141     -6.9748756      4.0631122      50218.233      36.893836      36.893836      36.893836    
   5900000   0.52647403    -7.76757       -6.9778701      4.0457451      50218.233      36.893836      36.893836      36.893836    
   5910000   0.52322336    -7.7612491     -6.9764252      4.0945706      50218.233      36.893836      36.893836      36.893836    
   5920000   0.5235075     -7.7608705     -6.9756204      4.0874134      50218.233      36.893836      36.893836      36.893836    
   5930000   0.52660549    -7.7618513     -6.9719543      4.0873966      50218.233      36.893836      36.893836      36.893836    
   5940000   0.52342251    -7.7602623     -6.9751397      4.0949677      50218.233      36.893836      36.893836      36.893836    
   5950000   0.52482995    -7.7651344     -6.9779007      4.0535518      50218.233      36.893836      36.893836      36.893836    
   5960000   0.52315101    -7.7602956     -6.9755802      4.0920286      50218.233      36.893836      36.893836      36.893836    
   5970000   0.52249448    -7.7627444     -6.9790138      4.0683151      50218.233      36.893836      36.893836      36.893836    
   5980000   0.52381732    -7.7654687     -6.9797539      4.0523541      50218.233      36.893836      36.893836      36.893836    
   5990000   0.52635189    -7.7601418     -6.9706252      4.0930442      50218.233      36.893836      36.893836      36.893836    
   6000000   0.52523121    -7.7616298     -6.9737941      4.0750158      50218.233      36.893836      36.893836      36.893836    
   6010000   0.52469029    -7.7610139     -6.9739896      4.0911505      50218.233      36.893836      36.893836      36.893836    
   6020000   0.52270755    -7.7624014     -6.9783513      4.0789955      50218.233      36.893836      36.893836      36.893836    
   6030000   0.52675437    -7.7643818     -6.9742615      4.0678245      50218.233      36.893836      36.893836      36.893836    
   6040000   0.52233935    -7.7617246     -6.9782267      4.0767728      50218.233      36.893836      36.893836      36.893836    
   6050000   0.52539519    -7.7638174     -6.9757358      4.0740942      50218.233      36.893836      36.893836      36.893836    
   6060000   0.52492654    -7.7643663     -6.9769877      4.0495233      50218.233      36.893836      36.893836      36.893836    
   6070000   0.52710231    -7.7583822     -6.96774        4.1074804      50218.233      36.893836      36.893836      36.893836    
   6080000   0.52602182    -7.7642345     -6.975213       4.0621972      50218.233      36.893836      36.893836      36.893836    
   6090000   0.52520156    -7.7623636     -6.9745724      4.0724501      50218.233      36.893836      36.893836      36.893836    
   6100000   0.52592768    -7.7579529     -6.9690726      4.0954208      50218.233      36.893836      36.893836      36.893836    
   6110000   0.52193462    -7.7601569     -6.9772661      4.09584        50218.233      36.893836      36.893836      36.893836    
   6120000   0.52403844    -7.7566497     -6.9706032      4.1117582      50218.233      36.893836      36.893836      36.893836    
   6130000   0.52434079    -7.7597102     -6.9732102      4.1046678      50218.233      36.893836      36.893836      36.893836    
   6140000   0.52474943    -7.7589643     -6.9718513      4.1050537      50218.233      36.893836      36.893836      36.893836    
   6150000   0.52422904    -7.7599213     -6.973589       4.0876741      50218.233      36.893836      36.893836      36.893836    
   6160000   0.52414218    -7.7595347     -6.9733326      4.0990707      50218.233      36.893836      36.893836      36.893836    
   6170000   0.52439243    -7.7610086     -6.9744311      4.0944341      50218.233      36.893836      36.893836      36.893836    
   6180000   0.52574468    -7.7581624     -6.9695565      4.1167597      50218.233      36.893836      36.893836      36.893836    
   6190000   0.52659262    -7.7571597     -6.967282       4.1119256      50218.233      36.893836      36.893836      36.893836    
   6200000   0.52387797    -7.7610856     -6.9752798      4.0902619      50218.233      36.893836      36.893836      36.893836    
   6210000   0.52424337    -7.7567641     -6.9704102      4.1318944      50218.233      36.893836      36.893836      36.893836    
   6220000   0.52159853    -7.7549274     -6.9725408      4.14517        50218.233      36.893836      36.893836      36.893836    
   6230000   0.52337089    -7.760806      -6.9757608      4.1042227      50218.233      36.893836      36.893836      36.893836    
   6240000   0.52329334    -7.758459      -6.9735302      4.1153329      50218.233      36.893836      36.893836      36.893836    
   6250000   0.52638359    -7.7548329     -6.9652688      4.1388779      50218.233      36.893836      36.893836      36.893836    
   6260000   0.52534693    -7.7575183     -6.9695091      4.1231058      50218.233      36.893836      36.893836      36.893836    
   6270000   0.52517945    -7.7580676     -6.9703096      4.1106069      50218.233      36.893836      36.893836      36.893836    
   6280000   0.52664137    -7.7608541     -6.9709033      4.0960328      50218.233      36.893836      36.893836      36.893836    
   6290000   0.52702119    -7.7586293     -6.9681088      4.1126758      50218.233      36.893836      36.893836      36.893836    
   6300000   0.52871438    -7.7626728     -6.9696125      4.0849732      50218.233      36.893836      36.893836      36.893836    
   6310000   0.52299627    -7.7592762     -6.974793       4.0964486      50218.233      36.893836      36.893836      36.893836    
   6320000   0.52334743    -7.7535396     -6.9685296      4.1473432      50218.233      36.893836      36.893836      36.893836    
   6330000   0.52711776    -7.7580566     -6.9673912      4.1130056      50218.233      36.893836      36.893836      36.893836    
   6340000   0.52422908    -7.7626729     -6.9763405      4.0876509      50218.233      36.893836      36.893836      36.893836    
   6350000   0.52465964    -7.7561945     -6.9692162      4.1210059      50218.233      36.893836      36.893836      36.893836    
   6360000   0.52775018    -7.7593076     -6.9676936      4.0949172      50218.233      36.893836      36.893836      36.893836    
   6370000   0.52624145    -7.7632074     -6.9738564      4.0635456      50218.233      36.893836      36.893836      36.893836    
   6380000   0.52430389    -7.7593423     -6.9728977      4.0947711      50218.233      36.893836      36.893836      36.893836    
   6390000   0.52429494    -7.7608517     -6.9744204      4.0850462      50218.233      36.893836      36.893836      36.893836    
   6400000   0.52484886    -7.7571026     -6.9698405      4.1202546      50218.233      36.893836      36.893836      36.893836    
   6410000   0.52342555    -7.7591313     -6.9740041      4.0985741      50218.233      36.893836      36.893836      36.893836    
   6420000   0.52460565    -7.760563      -6.9736657      4.0974183      50218.233      36.893836      36.893836      36.893836    
   6430000   0.52546752    -7.7557934     -6.9676033      4.1297531      50218.233      36.893836      36.893836      36.893836    
   6440000   0.52579524    -7.7589942     -6.9703125      4.0906693      50218.233      36.893836      36.893836      36.893836    
   6450000   0.52584683    -7.7595024     -6.9707434      4.1001033      50218.233      36.893836      36.893836      36.893836    
   6460000   0.52384407    -7.7588886     -6.9731337      4.1009741      50218.233      36.893836      36.893836      36.893836    
   6470000   0.52364293    -7.7654623     -6.9800091      4.052087       50218.233      36.893836      36.893836      36.893836    
   6480000   0.52478955    -7.7529979     -6.9658247      4.1323603      50218.233      36.893836      36.893836      36.893836    
   6490000   0.52420398    -7.7571689     -6.9708741      4.1209252      50218.233      36.893836      36.893836      36.893836    
   6500000   0.523875      -7.7588086     -6.9730073      4.1052399      50218.233      36.893836      36.893836      36.893836    
   6510000   0.52374002    -7.7620892     -6.9764904      4.0799591      50218.233      36.893836      36.893836      36.893836    
   6520000   0.52428174    -7.7599911     -6.9735797      4.1006918      50218.233      36.893836      36.893836      36.893836    
   6530000   0.52580599    -7.7575178     -6.96882        4.1116503      50218.233      36.893836      36.893836      36.893836    
   6540000   0.52420421    -7.7613862     -6.9750911      4.0928038      50218.233      36.893836      36.893836      36.893836    
   6550000   0.52436571    -7.7607423     -6.9742049      4.0858718      50218.233      36.893836      36.893836      36.893836    
   6560000   0.52637213    -7.7561239     -6.9665769      4.1323063      50218.233      36.893836      36.893836      36.893836    
   6570000   0.52486282    -7.7577517     -6.9704687      4.1133455      50218.233      36.893836      36.893836      36.893836    
   6580000   0.52442872    -7.7600255     -6.9733936      4.0989998      50218.233      36.893836      36.893836      36.893836    
   6590000   0.52464872    -7.7585293     -6.9715674      4.1124126      50218.233      36.893836      36.893836      36.893836    
   6600000   0.52304201    -7.7577464     -6.9731946      4.1151832      50218.233      36.893836      36.893836      36.893836    
   6610000   0.52636562    -7.7588247     -6.9692875      4.1110238      50218.233      36.893836      36.893836      36.893836    
   6620000   0.52483806    -7.757272      -6.9700261      4.1071162      50218.233      36.893836      36.893836      36.893836    
   6630000   0.52509412    -7.7579614     -6.9703314      4.1099608      50218.233      36.893836      36.893836      36.893836    
   6640000   0.52727703    -7.7583626     -6.9674584      4.1054981      50218.233      36.893836      36.893836      36.893836    
   6650000   0.52451951    -7.7591667     -6.9723986      4.0974436      50218.233      36.893836      36.893836      36.893836    
   6660000   0.52551555    -7.7588391     -6.970577       4.1032282      50218.233      36.893836      36.893836      36.893836    
   6670000   0.52124352    -7.761056      -6.9792019      4.0870076      50218.233      36.893836      36.893836      36.893836    
   6680000   0.52447105    -7.7583098     -6.9716144      4.0966263      50218.233      36.893836      36.893836      36.893836    
   6690000   0.52340518    -7.7590041     -6.9739075      4.0984702      50218.233      36.893836      36.893836      36.893836    
   6700000   0.5239178     -7.7568272     -6.9709617      4.1285507      50218.233      36.893836      36.893836      36.893836    
   6710000   0.52143401    -7.7565282     -6.9743883      4.1100047      50218.233      36.893836      36.893836      36.893836    
   6720000   0.5258025     -7.7554276     -6.9667351      4.1311632      50218.233      36.893836      36.893836      36.893836    
   6730000   0.52571141    -7.7593727     -6.9708168      4.1084297      50218.233      36.893836      36.893836      36.893836    
   6740000   0.52296967    -7.7600719     -6.9756285      4.0790011      50218.233      36.893836      36.893836      36.893836    
   6750000   0.52583709    -7.7604835     -6.9717391      4.0891604      50218.233      36.893836      36.893836      36.893836    
   6760000   0.52332605    -7.760667      -6.9756891      4.0800313      50218.233      36.893836      36.893836      36.893836    
   6770000   0.52613181    -7.7588459     -6.9696595      4.1134641      50218.233      36.893836      36.893836      36.893836    
   6780000   0.52315922    -7.7633351     -6.9786074      4.0791536      50218.233      36.893836      36.893836      36.893836    
   6790000   0.52530989    -7.7598431     -6.9718895      4.1053106      50218.233      36.893836      36.893836      36.893836    
   6800000   0.52295692    -7.7584301     -6.9740059      4.1037269      50218.233      36.893836      36.893836      36.893836    
   6810000   0.52696778    -7.7621239     -6.9716834      4.094823       50218.233      36.893836      36.893836      36.893836    
   6820000   0.52613523    -7.7610046     -6.971813       4.0876696      50218.233      36.893836      36.893836      36.893836    
   6830000   0.52724926    -7.7588986     -6.9680359      4.0954576      50218.233      36.893836      36.893836      36.893836    
   6840000   0.52555439    -7.7604839     -6.9721635      4.0948535      50218.233      36.893836      36.893836      36.893836    
   6850000   0.52561351    -7.7628027     -6.9743936      4.0770433      50218.233      36.893836      36.893836      36.893836    
   6860000   0.52844966    -7.7583861     -6.9657229      4.1108575      50218.233      36.893836      36.893836      36.893836    
   6870000   0.52487307    -7.7618437     -6.9745453      4.0806886      50218.233      36.893836      36.893836      36.893836    
   6880000   0.52401051    -7.7596237     -6.9736191      4.0953552      50218.233      36.893836      36.893836      36.893836    
   6890000   0.52455626    -7.7597381     -6.9729149      4.0996526      50218.233      36.893836      36.893836      36.893836    
   6900000   0.52590031    -7.7622872     -6.973448       4.0792872      50218.233      36.893836      36.893836      36.893836    
   6910000   0.52817364    -7.7618643     -6.9696151      4.0898542      50218.233      36.893836      36.893836      36.893836    
   6920000   0.52350476    -7.7603147     -6.9750687      4.0876879      50218.233      36.893836      36.893836      36.893836    
   6930000   0.52585723    -7.7613006     -6.972526       4.0971765      50218.233      36.893836      36.893836      36.893836    
   6940000   0.5230646     -7.7617541     -6.9771684      4.0826056      50218.233      36.893836      36.893836      36.893836    
   6950000   0.5262834     -7.7598094     -6.9703955      4.1016011      50218.233      36.893836      36.893836      36.893836    
   6960000   0.52380962    -7.7608545     -6.9751513      4.0930089      50218.233      36.893836      36.893836      36.893836    
   6970000   0.5231754     -7.7601072     -6.9753552      4.0930131      50218.233      36.893836      36.893836      36.893836    
   6980000   0.52575961    -7.7604871     -6.9718589      4.0949195      50218.233      36.893836      36.893836      36.893836    
   6990000   0.52187116    -7.7634333     -6.9806377      4.0713144      50218.233      36.893836      36.893836      36.893836    
   7000000   0.52289612    -7.7615638     -6.9772307      4.0829013      50218.233      36.893836      36.893836      36.893836    
   7010000   0.52519525    -7.7602877     -6.972506       4.0965969      50218.233      36.893836      36.893836      36.893836    
   7020000   0.52314151    -7.7564122     -6.9717111      4.1266268      50218.233      36.893836      36.893836      36.893836    
   7030000   0.52764807    -7.75947       -6.9680092      4.1051558      50218.233      36.893836      36.893836      36.893836    
   7040000   0.52702698    -7.7640271     -6.9734979      4.0742713      50218.233      36.893836      36.893836      36.893836    
   7050000   0.52285004    -7.7578411     -6.9735772      4.1024081      50218.233      36.893836      36.893836      36.893836    
   7060000   0.52319342    -7.7611315     -6.9763525      4.0922091      50218.233      36.893836      36.893836      36.893836    
   7070000   0.52420507    -7.7583275     -6.972031       4.1170109      50218.233      36.893836      36.893836      36.893836    
   7080000   0.52465341    -7.7600501     -6.9730812      4.1002363      50218.233      36.893836      36.893836      36.893836    
   7090000   0.52832354    -7.7596132     -6.9671392      4.1049287      50218.233      36.893836      36.893836      36.893836    
   7100000   0.52337903    -7.7604304     -6.975373       4.0843298      50218.233      36.893836      36.893836      36.893836    
   7110000   0.52464702    -7.7592397     -6.9722803      4.103376       50218.233      36.893836      36.893836      36.893836    
   7120000   0.52564821    -7.7596273     -6.9711662      4.1057702      50218.233      36.893836      36.893836      36.893836    
   7130000   0.52480874    -7.7579187     -6.9707168      4.1107499      50218.233      36.893836      36.893836      36.893836    
   7140000   0.52416734    -7.7622132     -6.9759734      4.0775264      50218.233      36.893836      36.893836      36.893836    
   7150000   0.52606133    -7.7599346     -6.9708539      4.0906079      50218.233      36.893836      36.893836      36.893836    
   7160000   0.52541075    -7.7565066     -6.9684017      4.1353601      50218.233      36.893836      36.893836      36.893836    
   7170000   0.52589322    -7.7611069     -6.9722783      4.0807212      50218.233      36.893836      36.893836      36.893836    
   7180000   0.52689177    -7.7618936     -6.9715671      4.0947424      50218.233      36.893836      36.893836      36.893836    
   7190000   0.52393075    -7.7531607     -6.9672758      4.1536517      50218.233      36.893836      36.893836      36.893836    
   7200000   0.52600252    -7.7567618     -6.9677693      4.1246023      50218.233      36.893836      36.893836      36.893836    
   7210000   0.52503653    -7.7595508     -6.9720072      4.105759       50218.233      36.893836      36.893836      36.893836    
   7220000   0.52573163    -7.7531908     -6.9646045      4.1511927      50218.233      36.893836      36.893836      36.893836    
   7230000   0.52487648    -7.7567154     -6.9694119      4.1185173      50218.233      36.893836      36.893836      36.893836    
   7240000   0.52589881    -7.758651      -6.969814       4.1032222      50218.233      36.893836      36.893836      36.893836    
   7250000   0.52414471    -7.7592095     -6.9730036      4.1148194      50218.233      36.893836      36.893836      36.893836    
   7260000   0.52547485    -7.7578626     -6.9696615      4.1199333      50218.233      36.893836      36.893836      36.893836    
   7270000   0.52505982    -7.7553427     -6.9677642      4.1411878      50218.233      36.893836      36.893836      36.893836    
   7280000   0.52401044    -7.7594733     -6.9734688      4.1052216      50218.233      36.893836      36.893836      36.893836    
   7290000   0.52345319    -7.7577347     -6.972566       4.1035733      50218.233      36.893836      36.893836      36.893836    
   7300000   0.5247311     -7.7583743     -6.9712889      4.1137002      50218.233      36.893836      36.893836      36.893836    
   7310000   0.52404598    -7.7599313     -6.9738735      4.0933049      50218.233      36.893836      36.893836      36.893836    
   7320000   0.52622288    -7.7555125     -6.9661894      4.1451975      50218.233      36.893836      36.893836      36.893836    
   7330000   0.52540866    -7.7550582     -6.9669565      4.1374964      50218.233      36.893836      36.893836      36.893836    
   7340000   0.52662996    -7.7571079     -6.9671742      4.1329012      50218.233      36.893836      36.893836      36.893836    
   7350000   0.52737715    -7.7561491     -6.9650946      4.1211683      50218.233      36.893836      36.893836      36.893836    
   7360000   0.52500363    -7.7554478     -6.9679536      4.1270133      50218.233      36.893836      36.893836      36.893836    
   7370000   0.52462995    -7.7569902     -6.9700565      4.1218462      50218.233      36.893836      36.893836      36.893836    
   7380000   0.52366145    -7.7561877     -6.9707067      4.118684       50218.233      36.893836      36.893836      36.893836    
   7390000   0.52842482    -7.7562703     -6.9636443      4.120646       50218.233      36.893836      36.893836      36.893836    
   7400000   0.52391468    -7.7601344     -6.9742735      4.0889172      50218.233      36.893836      36.893836      36.893836    
   7410000   0.52630809    -7.7619819     -6.972531       4.0809074      50218.233      36.893836      36.893836      36.893836    
   7420000   0.52386194    -7.7543677     -6.968586       4.1335251      50218.233      36.893836      36.893836      36.893836    
   7430000   0.52602537    -7.7604718     -6.971445       4.0780173      50218.233      36.893836      36.893836      36.893836    
   7440000   0.52683123    -7.7584703     -6.9682347      4.1134586      50218.233      36.893836      36.893836      36.893836    
   7450000   0.52437486    -7.7521426     -6.9655915      4.1506701      50218.233      36.893836      36.893836      36.893836    
   7460000   0.52569537    -7.7603162     -6.9717844      4.0989283      50218.233      36.893836      36.893836      36.893836    
   7470000   0.52389087    -7.763362      -6.9775369      4.0673791      50218.233      36.893836      36.893836      36.893836    
   7480000   0.52559978    -7.7602355     -6.9718471      4.0960769      50218.233      36.893836      36.893836      36.893836    
   7490000   0.52542148    -7.7576742     -6.9695532      4.113669       50218.233      36.893836      36.893836      36.893836    
   7500000   0.52794723    -7.7561976     -6.9642881      4.1338781      50218.233      36.893836      36.893836      36.893836    
   7510000   0.52537909    -7.758921      -6.9708636      4.1130031      50218.233      36.893836      36.893836      36.893836    
   7520000   0.52403678    -7.7584516     -6.9724077      4.1101172      50218.233      36.893836      36.893836      36.893836    
   7530000   0.52713223    -7.7571751     -6.966488       4.1184912      50218.233      36.893836      36.893836      36.893836    
   7540000   0.5278375     -7.7638581     -6.9721131      4.0762359      50218.233      36.893836      36.893836      36.893836    
   7550000   0.5258891     -7.7616714     -6.972849       4.083124       50218.233      36.893836      36.893836      36.893836    
   7560000   0.52346478    -7.7573215     -6.9721355      4.1235984      50218.233      36.893836      36.893836      36.893836    
   7570000   0.52603518    -7.7583363     -6.9692948      4.1112546      50218.233      36.893836      36.893836      36.893836    
   7580000   0.52647957    -7.7595642     -6.9698561      4.0959269      50218.233      36.893836      36.893836      36.893836    
   7590000   0.52206918    -7.7563637     -6.9732711      4.1060674      50218.233      36.893836      36.893836      36.893836    
   7600000   0.52463436    -7.7580847     -6.9711444      4.1107794      50218.233      36.893836      36.893836      36.893836    
   7610000   0.52569547    -7.7620243     -6.9734923      4.0866726      50218.233      36.893836      36.893836      36.893836    
   7620000   0.52652379    -7.7579796     -6.9682052      4.1186648      50218.233      36.893836      36.893836      36.893836    
   7630000   0.52629802    -7.7577082     -6.9682724      4.118161       50218.233      36.893836      36.893836      36.893836    
   7640000   0.52586522    -7.7583301     -6.9695435      4.1169102      50218.233      36.893836      36.893836      36.893836    
   7650000   0.52520041    -7.7536199     -6.9658305      4.1569723      50218.233      36.893836      36.893836      36.893836    
   7660000   0.5232705     -7.7559945     -6.9710999      4.1313328      50218.233      36.893836      36.893836      36.893836    
   7670000   0.52405666    -7.7547853     -6.9687115      4.1381167      50218.233      36.893836      36.893836      36.893836    
   7680000   0.52790462    -7.7527266     -6.960881       4.1598165      50218.233      36.893836      36.893836      36.893836    
   7690000   0.52344579    -7.7559508     -6.9707933      4.1285791      50218.233      36.893836      36.893836      36.893836    
   7700000   0.5265582     -7.7552781     -6.9654521      4.1284593      50218.233      36.893836      36.893836      36.893836    
   7710000   0.52484162    -7.7621294     -6.9748782      4.0871853      50218.233      36.893836      36.893836      36.893836    
   7720000   0.52316251    -7.756712      -6.9719794      4.1221922      50218.233      36.893836      36.893836      36.893836    
   7730000   0.52610465    -7.7559507     -6.9668049      4.123893       50218.233      36.893836      36.893836      36.893836    
   7740000   0.52232552    -7.7568911     -6.9734139      4.1249091      50218.233      36.893836      36.893836      36.893836    
   7750000   0.52356185    -7.7568573     -6.9715257      4.118408       50218.233      36.893836      36.893836      36.893836    
   7760000   0.52437914    -7.7627977     -6.9762401      4.0933879      50218.233      36.893836      36.893836      36.893836    
   7770000   0.52169877    -7.7597993     -6.9772623      4.1039152      50218.233      36.893836      36.893836      36.893836    
   7780000   0.52431644    -7.7592275     -6.972764       4.1050116      50218.233      36.893836      36.893836      36.893836    
   7790000   0.5283343     -7.7573058     -6.9648156      4.1245508      50218.233      36.893836      36.893836      36.893836    
   7800000   0.52314824    -7.7603598     -6.9756486      4.1002954      50218.233      36.893836      36.893836      36.893836    
   7810000   0.52657463    -7.760764      -6.9709133      4.1015198      50218.233      36.893836      36.893836      36.893836    
   7820000   0.52546445    -7.7594312     -6.9712457      4.1067334      50218.233      36.893836      36.893836      36.893836    
   7830000   0.5237119     -7.7596293     -6.9740726      4.1032476      50218.233      36.893836      36.893836      36.893836    
   7840000   0.5256646     -7.7575692     -6.9690836      4.1242577      50218.233      36.893836      36.893836      36.893836    
   7850000   0.52488016    -7.7575445     -6.9702354      4.1251817      50218.233      36.893836      36.893836      36.893836    
   7860000   0.52508696    -7.7544511     -6.9668319      4.140956       50218.233      36.893836      36.893836      36.893836    
   7870000   0.52592676    -7.7615132     -6.9726343      4.0848018      50218.233      36.893836      36.893836      36.893836    
   7880000   0.52542117    -7.7577894     -6.9696689      4.1131953      50218.233      36.893836      36.893836      36.893836    
   7890000   0.52582995    -7.7563623     -6.9676286      4.1189777      50218.233      36.893836      36.893836      36.893836    
   7900000   0.52570024    -7.7553856     -6.9668464      4.1199223      50218.233      36.893836      36.893836      36.893836    
   7910000   0.52487591    -7.7555165     -6.9682139      4.1360423      50218.233      36.893836      36.893836      36.893836    
   7920000   0.52529622    -7.7548127     -6.9668796      4.127685       50218.233      36.893836      36.893836      36.893836    
   7930000   0.52722029    -7.765146      -6.9743268      4.064332       50218.233      36.893836      36.893836      36.893836    
   7940000   0.52300323    -7.7568863     -6.9723926      4.133269       50218.233      36.893836      36.893836      36.893836    
   7950000   0.52580582    -7.7622216     -6.9735241      4.0767668      50218.233      36.893836      36.893836      36.893836    
   7960000   0.52759973    -7.760305      -6.9689166      4.096881       50218.233      36.893836      36.893836      36.893836    
   7970000   0.52658445    -7.7597994     -6.9699339      4.1059432      50218.233      36.893836      36.893836      36.893836    
   7980000   0.52292747    -7.7608538     -6.9764738      4.089045       50218.233      36.893836      36.893836      36.893836    
   7990000   0.52557619    -7.7615954     -6.9732423      4.0881703      50218.233      36.893836      36.893836      36.893836    
   8000000   0.52702904    -7.7577388     -6.9672065      4.1118525      50218.233      36.893836      36.893836      36.893836    
Loop time of 12666.4 on 5 procs for 8000000 steps with 70304 atoms

Performance: 545695.816 tau/day, 631.592 timesteps/s, 44.403 Matom-step/s
94.5% CPU use with 5 MPI tasks x 1 OpenMP threads

MPI task timing breakdown:
Section |  min time  |  avg time  |  max time  |%varavg| %total
---------------------------------------------------------------
Pair    | 4564.3     | 5008.3     | 5647.5     | 514.7 | 39.54
Neigh   | 38.897     | 42.172     | 49.148     |  58.6 |  0.33
Comm    | 1898       | 1909.6     | 1921.3     |  20.5 | 15.08
Output  | 0.14521    | 0.14991    | 0.15892    |   1.2 |  0.00
Modify  | 4448.8     | 5078.5     | 5540.3     | 516.0 | 40.09
Other   |            | 627.7      |            |       |  4.96

Nlocal:        14060.8 ave       14094 max       14023 min
Histogram: 1 1 0 0 0 0 0 2 0 1
Nghost:          18745 ave       18797 max       18704 min
Histogram: 1 1 1 0 0 0 0 1 0 1
Neighs:              0 ave           0 max           0 min
Histogram: 5 0 0 0 0 0 0 0 0 0

Total # of neighbors = 0
Ave neighs/atom = 0
Neighbor list builds = 1670207
Dangerous builds = 0
clear
OMP_NUM_THREADS environment is not set. Defaulting to 1 thread. (src/comm.cpp:98)
  using 1 OpenMP thread(s) per MPI task
package gpu 0
jump dms505.lmp

variable T equal 505
# T = 1000* (temp in LJ unit)
variable f equal 10000
log log.${T}
log log.505
