variable TLJ equal (${T}/1000)
variable TLJ equal (535/1000)
variable NCyle equal 8
variable iStep equal (${f})
variable iStep equal (10000)
variable dumpStep equal (${f}*100)
variable dumpStep equal (10000*100)
variable runStep equal (${f}*100*${NCyle})
variable runStep equal (10000*100*${NCyle})
variable runStep equal (10000*100*8)

units       lj
atom_style  atomic
dimension 3
boundary     p p p
pair_style  lj/cut 2.5
read_data  ../data/T${T}.dat
read_data  ../data/T535.dat
Reading data file ...
  orthogonal box = (0.97250269 0.97250269 0.97250269) to (37.866338 37.866338 37.866338)
  1 by 1 by 5 MPI processor grid
  reading atoms ...
  70304 atoms
  reading velocities ...
  70304 velocities
  read_data CPU = 0.210 seconds
change_box all triclinic
Changing box ...
  triclinic box = (0.97250269 0.97250269 0.97250269) to (37.866338 37.866338 37.866338) with tilt (0 0 0)
mass 1 1
mass 2 1
pair_modify shift yes
pair_coeff  1 1 1 1
pair_coeff  1 2 1.5 0.8
pair_coeff  2 2 0.5 0.88


timestep 0.01
thermo ${iStep}
thermo 10000
reset_timestep 0
thermo_style custom step temp pe etotal press vol lx ly lz
fix             1 all nvt temp ${TLJ}  ${TLJ}  0.1
fix             1 all nvt temp 0.535  ${TLJ}  0.1
fix             1 all nvt temp 0.535  0.535  0.1
thermo_modify flush yes

fix dsf all deform 1 xy  wiggle 0.5  ${f}   units box
fix dsf all deform 1 xy  wiggle 0.5  10000   units box
fix ps1 all ave/time 1 1 ${iStep} c_thermo_press[1] c_thermo_press[2]  c_thermo_press[3] c_thermo_press[4]  c_thermo_press[5] c_thermo_press[6]  file  stress.${T}
fix ps1 all ave/time 1 1 10000 c_thermo_press[1] c_thermo_press[2]  c_thermo_press[3] c_thermo_press[4]  c_thermo_press[5] c_thermo_press[6]  file  stress.${T}
fix ps1 all ave/time 1 1 10000 c_thermo_press[1] c_thermo_press[2]  c_thermo_press[3] c_thermo_press[4]  c_thermo_press[5] c_thermo_press[6]  file  stress.535
dump            1 all custom ${dumpStep} dump.${T} id type x y z
dump            1 all custom 1000000 dump.${T} id type x y z
dump            1 all custom 1000000 dump.535 id type x y z
dump_modify 1 sort id
fix nodrift all momentum 1  linear 1 1 1
fix com_seed all recenter INIT INIT INIT shift all
run ${runStep}
run 8000000
Generated 0 of 1 mixed pair_coeff terms from geometric mixing rule
Per MPI rank memory allocation (min/avg/max) = 6.673 | 8.472 | 8.927 Mbytes
   Step          Temp          PotEng         TotEng         Press          Volume           Lx             Ly             Lz      
         0   0.53477711    -7.7508052     -6.9486509      4.1662033      50218.233      36.893836      36.893836      36.893836    
     10000   0.53690296    -7.7421567     -6.9368137      4.2416625      50218.233      36.893836      36.893836      36.893836    
     20000   0.53280159    -7.7460684     -6.9468774      4.2116481      50218.233      36.893836      36.893836      36.893836    
     30000   0.53559744    -7.7420164     -6.9386316      4.2553156      50218.233      36.893836      36.893836      36.893836    
     40000   0.53414756    -7.7439378     -6.9427279      4.2311913      50218.233      36.893836      36.893836      36.893836    
     50000   0.53341221    -7.7425605     -6.9424535      4.2410762      50218.233      36.893836      36.893836      36.893836    
     60000   0.53464889    -7.7405404     -6.9385785      4.2673742      50218.233      36.893836      36.893836      36.893836    
     70000   0.53619753    -7.7400155     -6.9357306      4.2676315      50218.233      36.893836      36.893836      36.893836    
     80000   0.53534335    -7.7471897     -6.9441861      4.2101546      50218.233      36.893836      36.893836      36.893836    
     90000   0.53535041    -7.7443277     -6.9413135      4.2307957      50218.233      36.893836      36.893836      36.893836    
    100000   0.53345783    -7.7448359     -6.9446606      4.2189317      50218.233      36.893836      36.893836      36.893836    
    110000   0.53596981    -7.7435683     -6.939625       4.2327508      50218.233      36.893836      36.893836      36.893836    
    120000   0.53550862    -7.7430786     -6.9398271      4.2516206      50218.233      36.893836      36.893836      36.893836    
    130000   0.53396303    -7.7467878     -6.9458546      4.209342       50218.233      36.893836      36.893836      36.893836    
    140000   0.53412893    -7.7439471     -6.9427651      4.2472563      50218.233      36.893836      36.893836      36.893836    
    150000   0.53687791    -7.7411068     -6.9358014      4.2629276      50218.233      36.893836      36.893836      36.893836    
    160000   0.53701663    -7.7492669     -6.9437534      4.1933944      50218.233      36.893836      36.893836      36.893836    
    170000   0.53401381    -7.7382415     -6.9372322      4.2691015      50218.233      36.893836      36.893836      36.893836    
    180000   0.53465947    -7.7424769     -6.9404991      4.2525955      50218.233      36.893836      36.893836      36.893836    
    190000   0.53286338    -7.741328      -6.9420443      4.2557652      50218.233      36.893836      36.893836      36.893836    
    200000   0.53402953    -7.7404493     -6.9394164      4.2604588      50218.233      36.893836      36.893836      36.893836    
    210000   0.53199622    -7.7452065     -6.9472235      4.2203188      50218.233      36.893836      36.893836      36.893836    
    220000   0.53605487    -7.7430379     -6.938967       4.2429241      50218.233      36.893836      36.893836      36.893836    
    230000   0.53307152    -7.7399574     -6.9403615      4.2570679      50218.233      36.893836      36.893836      36.893836    
    240000   0.53114684    -7.745413      -6.948704       4.2160876      50218.233      36.893836      36.893836      36.893836    
    250000   0.53631381    -7.7433892     -6.9389299      4.236003       50218.233      36.893836      36.893836      36.893836    
    260000   0.53609064    -7.7415614     -6.9374369      4.2521191      50218.233      36.893836      36.893836      36.893836    
    270000   0.53404605    -7.7402289     -6.9391712      4.2657153      50218.233      36.893836      36.893836      36.893836    
    280000   0.53763952    -7.7358176     -6.9293698      4.3016932      50218.233      36.893836      36.893836      36.893836    
    290000   0.53343014    -7.739502      -6.9393681      4.26645        50218.233      36.893836      36.893836      36.893836    
    300000   0.53392201    -7.7396534     -6.9387817      4.2579746      50218.233      36.893836      36.893836      36.893836    
    310000   0.53229726    -7.7365064     -6.9380719      4.2775241      50218.233      36.893836      36.893836      36.893836    
    320000   0.53683581    -7.7423184     -6.9370761      4.2553876      50218.233      36.893836      36.893836      36.893836    
    330000   0.53264118    -7.7424631     -6.9435127      4.2342497      50218.233      36.893836      36.893836      36.893836    
    340000   0.53528295    -7.7379769     -6.9350639      4.2784195      50218.233      36.893836      36.893836      36.893836    
    350000   0.53362313    -7.7382415     -6.9378182      4.2632837      50218.233      36.893836      36.893836      36.893836    
    360000   0.53365681    -7.743537      -6.9430632      4.2263906      50218.233      36.893836      36.893836      36.893836    
    370000   0.53493589    -7.7383669     -6.9359745      4.2642643      50218.233      36.893836      36.893836      36.893836    
    380000   0.53110344    -7.7409315     -6.9442877      4.2497758      50218.233      36.893836      36.893836      36.893836    
    390000   0.53422842    -7.7375712     -6.93624        4.2676804      50218.233      36.893836      36.893836      36.893836    
    400000   0.53339702    -7.7387859     -6.9387018      4.2644567      50218.233      36.893836      36.893836      36.893836    
    410000   0.53674596    -7.7376823     -6.9325748      4.2855914      50218.233      36.893836      36.893836      36.893836    
    420000   0.53252681    -7.7415279     -6.9427491      4.2477766      50218.233      36.893836      36.893836      36.893836    
    430000   0.53542273    -7.7403081     -6.9371854      4.2539562      50218.233      36.893836      36.893836      36.893836    
    440000   0.53363903    -7.7432456     -6.9427984      4.229771       50218.233      36.893836      36.893836      36.893836    
    450000   0.5365168     -7.744508      -6.9397442      4.2343166      50218.233      36.893836      36.893836      36.893836    
    460000   0.53497996    -7.745222      -6.9427635      4.2392581      50218.233      36.893836      36.893836      36.893836    
    470000   0.53364829    -7.7437036     -6.9432425      4.2339561      50218.233      36.893836      36.893836      36.893836    
    480000   0.53509583    -7.7422112     -6.9395789      4.231458       50218.233      36.893836      36.893836      36.893836    
    490000   0.53730645    -7.7407019     -6.9347537      4.2600704      50218.233      36.893836      36.893836      36.893836    
    500000   0.53494083    -7.7404165     -6.9380167      4.2584075      50218.233      36.893836      36.893836      36.893836    
    510000   0.53585018    -7.7480368     -6.944273       4.1982058      50218.233      36.893836      36.893836      36.893836    
    520000   0.53655779    -7.7435914     -6.9387661      4.2420693      50218.233      36.893836      36.893836      36.893836    
    530000   0.53386737    -7.7391934     -6.9384038      4.2504361      50218.233      36.893836      36.893836      36.893836    
    540000   0.53238503    -7.743127      -6.9445609      4.2366415      50218.233      36.893836      36.893836      36.893836    
    550000   0.5337812     -7.7432636     -6.9426032      4.2337348      50218.233      36.893836      36.893836      36.893836    
    560000   0.53012621    -7.7356231     -6.9404451      4.2918321      50218.233      36.893836      36.893836      36.893836    
    570000   0.53402092    -7.7407679     -6.9397479      4.2463151      50218.233      36.893836      36.893836      36.893836    
    580000   0.5360045     -7.7414846     -6.9374893      4.2474393      50218.233      36.893836      36.893836      36.893836    
    590000   0.53590213    -7.7420291     -6.9381874      4.2443087      50218.233      36.893836      36.893836      36.893836    
    600000   0.53297704    -7.7412006     -6.9417464      4.2502841      50218.233      36.893836      36.893836      36.893836    
    610000   0.53530634    -7.742744      -6.9397959      4.2418472      50218.233      36.893836      36.893836      36.893836    
    620000   0.5336825     -7.7402538     -6.9397415      4.267709       50218.233      36.893836      36.893836      36.893836    
    630000   0.53511498    -7.7427742     -6.9401131      4.2370231      50218.233      36.893836      36.893836      36.893836    
    640000   0.53665663    -7.7424345     -6.937461       4.2421246      50218.233      36.893836      36.893836      36.893836    
    650000   0.53760642    -7.7426098     -6.9362116      4.2464627      50218.233      36.893836      36.893836      36.893836    
    660000   0.53479758    -7.7457862     -6.9436013      4.2223407      50218.233      36.893836      36.893836      36.893836    
    670000   0.5360718     -7.7414114     -6.9373151      4.2384679      50218.233      36.893836      36.893836      36.893836    
    680000   0.53429433    -7.7386815     -6.9372514      4.2665176      50218.233      36.893836      36.893836      36.893836    
    690000   0.53660225    -7.7385608     -6.9336689      4.2716193      50218.233      36.893836      36.893836      36.893836    
    700000   0.53453975    -7.7393603     -6.937562       4.2667071      50218.233      36.893836      36.893836      36.893836    
    710000   0.53457316    -7.7382497     -6.9364014      4.279133       50218.233      36.893836      36.893836      36.893836    
    720000   0.53488701    -7.7361707     -6.9338516      4.2881646      50218.233      36.893836      36.893836      36.893836    
    730000   0.53628035    -7.7402308     -6.9358218      4.2608796      50218.233      36.893836      36.893836      36.893836    
    740000   0.53383741    -7.741418      -6.9406733      4.2495214      50218.233      36.893836      36.893836      36.893836    
    750000   0.53382789    -7.7418375     -6.941107       4.2380266      50218.233      36.893836      36.893836      36.893836    
    760000   0.53440416    -7.7385454     -6.9369506      4.2688651      50218.233      36.893836      36.893836      36.893836    
    770000   0.53365757    -7.7427561     -6.9422812      4.245167       50218.233      36.893836      36.893836      36.893836    
    780000   0.53311651    -7.7425408     -6.9428775      4.2302777      50218.233      36.893836      36.893836      36.893836    
    790000   0.53803181    -7.7415395     -6.9345033      4.2502968      50218.233      36.893836      36.893836      36.893836    
    800000   0.53499364    -7.7404703     -6.9379913      4.2604989      50218.233      36.893836      36.893836      36.893836    
    810000   0.53336757    -7.739423      -6.939383       4.2533197      50218.233      36.893836      36.893836      36.893836    
    820000   0.53807379    -7.7395116     -6.9324124      4.2715371      50218.233      36.893836      36.893836      36.893836    
    830000   0.53266233    -7.7412955     -6.9423134      4.235796       50218.233      36.893836      36.893836      36.893836    
    840000   0.537015      -7.7423986     -6.9368876      4.2550914      50218.233      36.893836      36.893836      36.893836    
    850000   0.53493088    -7.7427868     -6.9404019      4.2316975      50218.233      36.893836      36.893836      36.893836    
    860000   0.53664809    -7.7381205     -6.9331599      4.2899411      50218.233      36.893836      36.893836      36.893836    
    870000   0.53688871    -7.7390683     -6.9337467      4.2669671      50218.233      36.893836      36.893836      36.893836    
    880000   0.53792883    -7.7395815     -6.9326997      4.2682161      50218.233      36.893836      36.893836      36.893836    
    890000   0.53495861    -7.7375916     -6.9351651      4.2803848      50218.233      36.893836      36.893836      36.893836    
    900000   0.53554814    -7.7385405     -6.9352297      4.2832145      50218.233      36.893836      36.893836      36.893836    
    910000   0.53588525    -7.7436859     -6.9398695      4.2285735      50218.233      36.893836      36.893836      36.893836    
    920000   0.53355432    -7.7383165     -6.9379965      4.2628428      50218.233      36.893836      36.893836      36.893836    
    930000   0.53658606    -7.7390691     -6.9342015      4.2675204      50218.233      36.893836      36.893836      36.893836    
    940000   0.53454544    -7.7400592     -6.9382524      4.2529444      50218.233      36.893836      36.893836      36.893836    
    950000   0.53908217    -7.7386686     -6.9300568      4.2726427      50218.233      36.893836      36.893836      36.893836    
    960000   0.53354592    -7.7396152     -6.9393077      4.2452567      50218.233      36.893836      36.893836      36.893836    
    970000   0.53217495    -7.737776      -6.9395249      4.2624428      50218.233      36.893836      36.893836      36.893836    
    980000   0.53534922    -7.7397625     -6.9367501      4.2599671      50218.233      36.893836      36.893836      36.893836    
    990000   0.53498777    -7.7382107     -6.9357404      4.2675271      50218.233      36.893836      36.893836      36.893836    
   1000000   0.53999954    -7.7439768     -6.933989       4.2455056      50218.233      36.893836      36.893836      36.893836    
   1010000   0.5368899     -7.7428426     -6.9375192      4.2453458      50218.233      36.893836      36.893836      36.893836    
   1020000   0.53306113    -7.7390913     -6.939511       4.2576864      50218.233      36.893836      36.893836      36.893836    
   1030000   0.53712953    -7.7398128     -6.93413        4.2479422      50218.233      36.893836      36.893836      36.893836    
   1040000   0.53326344    -7.740682      -6.9407982      4.2474896      50218.233      36.893836      36.893836      36.893836    
   1050000   0.5349215     -7.7406525     -6.9382816      4.254559       50218.233      36.893836      36.893836      36.893836    
   1060000   0.53624956    -7.7407865     -6.9364236      4.2507128      50218.233      36.893836      36.893836      36.893836    
   1070000   0.53623743    -7.7335478     -6.9292031      4.2952908      50218.233      36.893836      36.893836      36.893836    
   1080000   0.53691948    -7.7394386     -6.9340708      4.2590123      50218.233      36.893836      36.893836      36.893836    
   1090000   0.53359879    -7.7375914     -6.9372046      4.2632498      50218.233      36.893836      36.893836      36.893836    
   1100000   0.53339323    -7.7342165     -6.934138       4.2985906      50218.233      36.893836      36.893836      36.893836    
   1110000   0.53685361    -7.7405048     -6.9352359      4.2516264      50218.233      36.893836      36.893836      36.893836    
   1120000   0.53400646    -7.7364923     -6.935494       4.2857278      50218.233      36.893836      36.893836      36.893836    
   1130000   0.53388785    -7.7362096     -6.9353892      4.2783703      50218.233      36.893836      36.893836      36.893836    
   1140000   0.53521062    -7.7359872     -6.9331827      4.278871       50218.233      36.893836      36.893836      36.893836    
   1150000   0.53416214    -7.7387979     -6.9375661      4.2655282      50218.233      36.893836      36.893836      36.893836    
   1160000   0.53440618    -7.7370401     -6.9354422      4.2825688      50218.233      36.893836      36.893836      36.893836    
   1170000   0.53641871    -7.7392844     -6.9346678      4.2560544      50218.233      36.893836      36.893836      36.893836    
   1180000   0.5307995     -7.7356522     -6.9394643      4.2793465      50218.233      36.893836      36.893836      36.893836    
   1190000   0.53230481    -7.7348683     -6.9364224      4.2860159      50218.233      36.893836      36.893836      36.893836    
   1200000   0.53576657    -7.7418403     -6.9382018      4.242025       50218.233      36.893836      36.893836      36.893836    
   1210000   0.53685797    -7.738637      -6.9333615      4.2680066      50218.233      36.893836      36.893836      36.893836    
   1220000   0.53381957    -7.7389878     -6.9382699      4.2677198      50218.233      36.893836      36.893836      36.893836    
   1230000   0.5327921     -7.7409618     -6.941785       4.2383329      50218.233      36.893836      36.893836      36.893836    
   1240000   0.534296      -7.7377793     -6.9363467      4.2675358      50218.233      36.893836      36.893836      36.893836    
   1250000   0.53667952    -7.7404985     -6.9354907      4.2672889      50218.233      36.893836      36.893836      36.893836    
   1260000   0.53609896    -7.739387      -6.93525        4.2654274      50218.233      36.893836      36.893836      36.893836    
   1270000   0.53571589    -7.7352178     -6.9316554      4.291997       50218.233      36.893836      36.893836      36.893836    
   1280000   0.5355755     -7.7407247     -6.9373729      4.2502167      50218.233      36.893836      36.893836      36.893836    
   1290000   0.53393057    -7.7380263     -6.9371418      4.2580216      50218.233      36.893836      36.893836      36.893836    
   1300000   0.53612573    -7.7360013     -6.9318241      4.301518       50218.233      36.893836      36.893836      36.893836    
   1310000   0.53474798    -7.7391003     -6.9369898      4.2693812      50218.233      36.893836      36.893836      36.893836    
   1320000   0.53675614    -7.7391934     -6.9340706      4.2689314      50218.233      36.893836      36.893836      36.893836    
   1330000   0.53582439    -7.7385365     -6.9348114      4.2753642      50218.233      36.893836      36.893836      36.893836    
   1340000   0.53663681    -7.7381299     -6.9331862      4.2848511      50218.233      36.893836      36.893836      36.893836    
   1350000   0.53544668    -7.7372161     -6.9340575      4.2863865      50218.233      36.893836      36.893836      36.893836    
   1360000   0.53395422    -7.7352137     -6.9342938      4.2869484      50218.233      36.893836      36.893836      36.893836    
   1370000   0.5335076     -7.7395354     -6.9392853      4.2591109      50218.233      36.893836      36.893836      36.893836    
   1380000   0.5362632     -7.7354958     -6.9311125      4.2949091      50218.233      36.893836      36.893836      36.893836    
   1390000   0.53686381    -7.7430768     -6.9377925      4.2323577      50218.233      36.893836      36.893836      36.893836    
   1400000   0.53443729    -7.7331747     -6.9315302      4.3087042      50218.233      36.893836      36.893836      36.893836    
   1410000   0.53774384    -7.735285      -6.9286807      4.2902488      50218.233      36.893836      36.893836      36.893836    
   1420000   0.53333447    -7.7397171     -6.9397267      4.2614782      50218.233      36.893836      36.893836      36.893836    
   1430000   0.53424534    -7.734263      -6.9329064      4.2991497      50218.233      36.893836      36.893836      36.893836    
   1440000   0.53592231    -7.7359644     -6.9320924      4.2909154      50218.233      36.893836      36.893836      36.893836    
   1450000   0.53594282    -7.7403701     -6.9364673      4.2612182      50218.233      36.893836      36.893836      36.893836    
   1460000   0.53581074    -7.739933      -6.9362283      4.266493       50218.233      36.893836      36.893836      36.893836    
   1470000   0.53021212    -7.7372561     -6.9419492      4.2666903      50218.233      36.893836      36.893836      36.893836    
   1480000   0.53966887    -7.7404304     -6.9309386      4.2676715      50218.233      36.893836      36.893836      36.893836    
   1490000   0.53599254    -7.7365174     -6.93254        4.2882199      50218.233      36.893836      36.893836      36.893836    
   1500000   0.53421145    -7.7372615     -6.9359558      4.2692222      50218.233      36.893836      36.893836      36.893836    
   1510000   0.53298313    -7.7379866     -6.9385233      4.26639        50218.233      36.893836      36.893836      36.893836    
   1520000   0.53611736    -7.7340797     -6.9299151      4.2995919      50218.233      36.893836      36.893836      36.893836    
   1530000   0.53319051    -7.7342696     -6.9344952      4.3025874      50218.233      36.893836      36.893836      36.893836    
   1540000   0.53587122    -7.7333735     -6.9295781      4.3153594      50218.233      36.893836      36.893836      36.893836    
   1550000   0.5327003     -7.7340565     -6.9350174      4.3052159      50218.233      36.893836      36.893836      36.893836    
   1560000   0.534004      -7.7400324     -6.9390378      4.2550751      50218.233      36.893836      36.893836      36.893836    
   1570000   0.53565913    -7.7327371     -6.9292599      4.3059535      50218.233      36.893836      36.893836      36.893836    
   1580000   0.5341285     -7.739349      -6.9381676      4.2567876      50218.233      36.893836      36.893836      36.893836    
   1590000   0.53370761    -7.7404928     -6.9399428      4.2463233      50218.233      36.893836      36.893836      36.893836    
   1600000   0.53483767    -7.7382894     -6.9360443      4.2755622      50218.233      36.893836      36.893836      36.893836    
   1610000   0.53857569    -7.7390481     -6.9311961      4.2798847      50218.233      36.893836      36.893836      36.893836    
   1620000   0.53796382    -7.7382824     -6.9313482      4.2810969      50218.233      36.893836      36.893836      36.893836    
   1630000   0.5373104     -7.736779      -6.9308248      4.2930386      50218.233      36.893836      36.893836      36.893836    
   1640000   0.53562229    -7.7352735     -6.9318515      4.2828086      50218.233      36.893836      36.893836      36.893836    
   1650000   0.53594396    -7.7379458     -6.9340413      4.2854796      50218.233      36.893836      36.893836      36.893836    
   1660000   0.53730603    -7.7379363     -6.9319887      4.2662842      50218.233      36.893836      36.893836      36.893836    
   1670000   0.53669019    -7.7388297     -6.9338059      4.2763844      50218.233      36.893836      36.893836      36.893836    
   1680000   0.53490587    -7.7398287     -6.9374813      4.2585338      50218.233      36.893836      36.893836      36.893836    
   1690000   0.53410306    -7.7408716     -6.9397284      4.2456323      50218.233      36.893836      36.893836      36.893836    
   1700000   0.53353888    -7.7350276     -6.9347307      4.2942538      50218.233      36.893836      36.893836      36.893836    
   1710000   0.53473234    -7.7417918     -6.9397047      4.2592892      50218.233      36.893836      36.893836      36.893836    
   1720000   0.53922777    -7.7288694     -6.9200393      4.3409984      50218.233      36.893836      36.893836      36.893836    
   1730000   0.53533289    -7.7438133     -6.9408254      4.2207008      50218.233      36.893836      36.893836      36.893836    
   1740000   0.53568529    -7.7397637     -6.9362472      4.2490115      50218.233      36.893836      36.893836      36.893836    
   1750000   0.53530167    -7.7354664     -6.9325253      4.2927287      50218.233      36.893836      36.893836      36.893836    
   1760000   0.53651285    -7.7370326     -6.9322748      4.2901806      50218.233      36.893836      36.893836      36.893836    
   1770000   0.53533945    -7.7376346     -6.9346369      4.2709635      50218.233      36.893836      36.893836      36.893836    
   1780000   0.53733944    -7.7381742     -6.9321765      4.2835786      50218.233      36.893836      36.893836      36.893836    
   1790000   0.53341462    -7.7401593     -6.9400487      4.2636477      50218.233      36.893836      36.893836      36.893836    
   1800000   0.53691509    -7.7369539     -6.9315928      4.293083       50218.233      36.893836      36.893836      36.893836    
   1810000   0.5351159     -7.7404693     -6.9378068      4.2540266      50218.233      36.893836      36.893836      36.893836    
   1820000   0.53535057    -7.7406088     -6.9375943      4.2649088      50218.233      36.893836      36.893836      36.893836    
   1830000   0.53189186    -7.7342861     -6.9364597      4.3026824      50218.233      36.893836      36.893836      36.893836    
   1840000   0.53452627    -7.7384676     -6.9366896      4.2786306      50218.233      36.893836      36.893836      36.893836    
   1850000   0.53598783    -7.7369416     -6.9329713      4.2906737      50218.233      36.893836      36.893836      36.893836    
   1860000   0.53518913    -7.7390185     -6.9362462      4.2625554      50218.233      36.893836      36.893836      36.893836    
   1870000   0.53425416    -7.7372351     -6.9358652      4.2830334      50218.233      36.893836      36.893836      36.893836    
   1880000   0.53430074    -7.7365566     -6.9351169      4.2844864      50218.233      36.893836      36.893836      36.893836    
   1890000   0.53354929    -7.7389406     -6.938628       4.2654509      50218.233      36.893836      36.893836      36.893836    
   1900000   0.53464563    -7.7406961     -6.9387391      4.2554168      50218.233      36.893836      36.893836      36.893836    
   1910000   0.53442541    -7.7457389     -6.9441122      4.2223818      50218.233      36.893836      36.893836      36.893836    
   1920000   0.53537069    -7.7387179     -6.9356733      4.26937        50218.233      36.893836      36.893836      36.893836    
   1930000   0.53196879    -7.7376106     -6.9396687      4.2609184      50218.233      36.893836      36.893836      36.893836    
   1940000   0.534417      -7.7355981     -6.9339839      4.2948236      50218.233      36.893836      36.893836      36.893836    
   1950000   0.53307982    -7.7366946     -6.9370863      4.2843304      50218.233      36.893836      36.893836      36.893836    
   1960000   0.534654      -7.7368511     -6.9348815      4.2913328      50218.233      36.893836      36.893836      36.893836    
   1970000   0.53604525    -7.7383896     -6.9343332      4.2674282      50218.233      36.893836      36.893836      36.893836    
   1980000   0.5328126     -7.7352397     -6.9360321      4.2967518      50218.233      36.893836      36.893836      36.893836    
   1990000   0.53733492    -7.7365406     -6.9305497      4.2923714      50218.233      36.893836      36.893836      36.893836    
   2000000   0.53594454    -7.7356069     -6.9317015      4.2808887      50218.233      36.893836      36.893836      36.893836    
   2010000   0.53343198    -7.736878      -6.9367414      4.2805905      50218.233      36.893836      36.893836      36.893836    
   2020000   0.53478517    -7.7360809     -6.9339145      4.2942854      50218.233      36.893836      36.893836      36.893836    
   2030000   0.5350858     -7.7396829     -6.9370656      4.271311       50218.233      36.893836      36.893836      36.893836    
   2040000   0.53255254    -7.7346313     -6.9358139      4.2955423      50218.233      36.893836      36.893836      36.893836    
   2050000   0.53411376    -7.7389775     -6.9378182      4.2763637      50218.233      36.893836      36.893836      36.893836    
   2060000   0.53461315    -7.738968      -6.9370597      4.2613688      50218.233      36.893836      36.893836      36.893836    
   2070000   0.53714522    -7.7329207     -6.9272143      4.3169816      50218.233      36.893836      36.893836      36.893836    
   2080000   0.53650985    -7.7371487     -6.9323954      4.273419       50218.233      36.893836      36.893836      36.893836    
   2090000   0.53590635    -7.735108      -6.9312599      4.300377       50218.233      36.893836      36.893836      36.893836    
   2100000   0.53494369    -7.7319723     -6.9295682      4.3257457      50218.233      36.893836      36.893836      36.893836    
   2110000   0.53367739    -7.7374465     -6.9369418      4.2715375      50218.233      36.893836      36.893836      36.893836    
   2120000   0.53584279    -7.7359709     -6.9322181      4.2875681      50218.233      36.893836      36.893836      36.893836    
   2130000   0.53659311    -7.734781      -6.9299027      4.2932359      50218.233      36.893836      36.893836      36.893836    
   2140000   0.5348153     -7.7338896     -6.9316781      4.3077636      50218.233      36.893836      36.893836      36.893836    
   2150000   0.53450963    -7.7366522     -6.9348991      4.2891113      50218.233      36.893836      36.893836      36.893836    
   2160000   0.53303244    -7.7340628     -6.9345255      4.315569       50218.233      36.893836      36.893836      36.893836    
   2170000   0.53289986    -7.7319448     -6.9326064      4.3179848      50218.233      36.893836      36.893836      36.893836    
   2180000   0.53581974    -7.7340254     -6.9303073      4.3142518      50218.233      36.893836      36.893836      36.893836    
   2190000   0.53690422    -7.7341847     -6.9288399      4.291576       50218.233      36.893836      36.893836      36.893836    
   2200000   0.5364654     -7.7336909     -6.9290042      4.3004194      50218.233      36.893836      36.893836      36.893836    
   2210000   0.53404624    -7.7326697     -6.9316118      4.3036577      50218.233      36.893836      36.893836      36.893836    
   2220000   0.53889857    -7.7379489     -6.9296125      4.2804189      50218.233      36.893836      36.893836      36.893836    
   2230000   0.53542272    -7.7383501     -6.9352274      4.279786       50218.233      36.893836      36.893836      36.893836    
   2240000   0.53490332    -7.7347006     -6.932357       4.2890278      50218.233      36.893836      36.893836      36.893836    
   2250000   0.53721196    -7.735564      -6.9297575      4.2746806      50218.233      36.893836      36.893836      36.893836    
   2260000   0.5386912     -7.73661       -6.9285847      4.2819282      50218.233      36.893836      36.893836      36.893836    
   2270000   0.53640522    -7.7363478     -6.9317514      4.278291       50218.233      36.893836      36.893836      36.893836    
   2280000   0.53122433    -7.7351006     -6.9382754      4.2708353      50218.233      36.893836      36.893836      36.893836    
   2290000   0.53646113    -7.7314232     -6.926743       4.3172876      50218.233      36.893836      36.893836      36.893836    
   2300000   0.53631913    -7.7342105     -6.9297432      4.303547       50218.233      36.893836      36.893836      36.893836    
   2310000   0.53407485    -7.7366073     -6.9355064      4.2839787      50218.233      36.893836      36.893836      36.893836    
   2320000   0.53471805    -7.7337449     -6.9316793      4.3058769      50218.233      36.893836      36.893836      36.893836    
   2330000   0.53192022    -7.7378991     -6.9400301      4.2663145      50218.233      36.893836      36.893836      36.893836    
   2340000   0.53434954    -7.7383784     -6.9368655      4.2640196      50218.233      36.893836      36.893836      36.893836    
   2350000   0.53575844    -7.7353944     -6.9317682      4.2985293      50218.233      36.893836      36.893836      36.893836    
   2360000   0.53522225    -7.7379089     -6.935087       4.2823535      50218.233      36.893836      36.893836      36.893836    
   2370000   0.53532249    -7.73458       -6.9316077      4.2953477      50218.233      36.893836      36.893836      36.893836    
   2380000   0.53327414    -7.7400652     -6.9401653      4.2520487      50218.233      36.893836      36.893836      36.893836    
   2390000   0.53604031    -7.7378477     -6.9337987      4.2745219      50218.233      36.893836      36.893836      36.893836    
   2400000   0.5358871     -7.7388151     -6.9349958      4.2570427      50218.233      36.893836      36.893836      36.893836    
   2410000   0.53609405    -7.7357424     -6.9316127      4.2807733      50218.233      36.893836      36.893836      36.893836    
   2420000   0.53501531    -7.735962      -6.9334505      4.2873574      50218.233      36.893836      36.893836      36.893836    
   2430000   0.53507036    -7.7359322     -6.933338       4.2996846      50218.233      36.893836      36.893836      36.893836    
   2440000   0.53736213    -7.7347942     -6.9287625      4.3052202      50218.233      36.893836      36.893836      36.893836    
   2450000   0.53557661    -7.7326068     -6.9292533      4.3165379      50218.233      36.893836      36.893836      36.893836    
   2460000   0.5348065     -7.7305381     -6.9283398      4.33364        50218.233      36.893836      36.893836      36.893836    
   2470000   0.53362941    -7.7322868     -6.9318541      4.3139032      50218.233      36.893836      36.893836      36.893836    
   2480000   0.53574068    -7.7362561     -6.9326566      4.2943208      50218.233      36.893836      36.893836      36.893836    
   2490000   0.53785503    -7.7378841     -6.9311131      4.281396       50218.233      36.893836      36.893836      36.893836    
   2500000   0.53417591    -7.7374886     -6.9362362      4.2874321      50218.233      36.893836      36.893836      36.893836    
   2510000   0.53398817    -7.735831      -6.9348601      4.2947559      50218.233      36.893836      36.893836      36.893836    
   2520000   0.53433687    -7.7402011     -6.9387072      4.265948       50218.233      36.893836      36.893836      36.893836    
   2530000   0.53679924    -7.7344295     -6.9292421      4.3129063      50218.233      36.893836      36.893836      36.893836    
   2540000   0.53721692    -7.7353348     -6.9295209      4.2952715      50218.233      36.893836      36.893836      36.893836    
   2550000   0.53496069    -7.735245      -6.9328154      4.2928952      50218.233      36.893836      36.893836      36.893836    
   2560000   0.53507305    -7.7311209     -6.9285228      4.3274214      50218.233      36.893836      36.893836      36.893836    
   2570000   0.53572917    -7.7344364     -6.9308541      4.2976108      50218.233      36.893836      36.893836      36.893836    
   2580000   0.5337262     -7.7318975     -6.9313196      4.3105677      50218.233      36.893836      36.893836      36.893836    
   2590000   0.53606057    -7.7388244     -6.934745       4.2594914      50218.233      36.893836      36.893836      36.893836    
   2600000   0.5373724     -7.7344009     -6.9283537      4.3065644      50218.233      36.893836      36.893836      36.893836    
   2610000   0.53119607    -7.733675      -6.9368923      4.3001502      50218.233      36.893836      36.893836      36.893836    
   2620000   0.53346392    -7.7365098     -6.9363253      4.2848928      50218.233      36.893836      36.893836      36.893836    
   2630000   0.53361613    -7.7351714     -6.9347586      4.2989576      50218.233      36.893836      36.893836      36.893836    
   2640000   0.53233571    -7.7299766     -6.9314844      4.3346849      50218.233      36.893836      36.893836      36.893836    
   2650000   0.53648343    -7.7329589     -6.9282452      4.3209041      50218.233      36.893836      36.893836      36.893836    
   2660000   0.53642575    -7.7352322     -6.930605       4.3043755      50218.233      36.893836      36.893836      36.893836    
   2670000   0.53589921    -7.7376391     -6.9338017      4.2811942      50218.233      36.893836      36.893836      36.893836    
   2680000   0.53707271    -7.7351521     -6.9295545      4.3021366      50218.233      36.893836      36.893836      36.893836    
   2690000   0.53703126    -7.7340944     -6.928559       4.3164098      50218.233      36.893836      36.893836      36.893836    
   2700000   0.53492218    -7.7332205     -6.9308486      4.3072386      50218.233      36.893836      36.893836      36.893836    
   2710000   0.53548566    -7.7337258     -6.9305087      4.311678       50218.233      36.893836      36.893836      36.893836    
   2720000   0.53698949    -7.736176      -6.9307032      4.283064       50218.233      36.893836      36.893836      36.893836    
   2730000   0.53476226    -7.7334052     -6.9312732      4.301482       50218.233      36.893836      36.893836      36.893836    
   2740000   0.53508494    -7.7359798     -6.9333638      4.2959403      50218.233      36.893836      36.893836      36.893836    
   2750000   0.53290768    -7.7328351     -6.933485       4.3082868      50218.233      36.893836      36.893836      36.893836    
   2760000   0.53373684    -7.7302808     -6.929687       4.3302979      50218.233      36.893836      36.893836      36.893836    
   2770000   0.53371539    -7.7295726     -6.9290109      4.341808       50218.233      36.893836      36.893836      36.893836    
   2780000   0.53377916    -7.7325548     -6.9318975      4.3122802      50218.233      36.893836      36.893836      36.893836    
   2790000   0.53327852    -7.7330297     -6.9331233      4.3045516      50218.233      36.893836      36.893836      36.893836    
   2800000   0.53450042    -7.7313239     -6.9295847      4.322678       50218.233      36.893836      36.893836      36.893836    
   2810000   0.5359046     -7.728906      -6.9250606      4.3505499      50218.233      36.893836      36.893836      36.893836    
   2820000   0.5335163     -7.7316794     -6.9314163      4.3039388      50218.233      36.893836      36.893836      36.893836    
   2830000   0.53575069    -7.7362737     -6.9326591      4.2859011      50218.233      36.893836      36.893836      36.893836    
   2840000   0.53366331    -7.7335203     -6.9330368      4.3055785      50218.233      36.893836      36.893836      36.893836    
   2850000   0.53245657    -7.7317032     -6.9330297      4.3131259      50218.233      36.893836      36.893836      36.893836    
   2860000   0.53475341    -7.7339456     -6.9318269      4.3049341      50218.233      36.893836      36.893836      36.893836    
   2870000   0.53429152    -7.7334825     -6.9320566      4.3079853      50218.233      36.893836      36.893836      36.893836    
   2880000   0.53484766    -7.7309369     -6.9286768      4.3349006      50218.233      36.893836      36.893836      36.893836    
   2890000   0.53504462    -7.7370251     -6.9344695      4.2890525      50218.233      36.893836      36.893836      36.893836    
   2900000   0.53170185    -7.7335287     -6.9359872      4.3058738      50218.233      36.893836      36.893836      36.893836    
   2910000   0.53342866    -7.7339099     -6.9337783      4.3069195      50218.233      36.893836      36.893836      36.893836    
   2920000   0.53620512    -7.7357609     -6.9314647      4.2857284      50218.233      36.893836      36.893836      36.893836    
   2930000   0.53776733    -7.7341005     -6.9274609      4.3023215      50218.233      36.893836      36.893836      36.893836    
   2940000   0.53534408    -7.7323221     -6.9293174      4.3153469      50218.233      36.893836      36.893836      36.893836    
   2950000   0.53895556    -7.7316538     -6.9232319      4.3209553      50218.233      36.893836      36.893836      36.893836    
   2960000   0.53589445    -7.7314411     -6.9276108      4.3257244      50218.233      36.893836      36.893836      36.893836    
   2970000   0.53385508    -7.7322211     -6.9314499      4.3143534      50218.233      36.893836      36.893836      36.893836    
   2980000   0.53682773    -7.734987      -6.9297569      4.3089746      50218.233      36.893836      36.893836      36.893836    
   2990000   0.53420676    -7.7296395     -6.9283407      4.3289349      50218.233      36.893836      36.893836      36.893836    
   3000000   0.53325534    -7.7365578     -6.9366862      4.2834022      50218.233      36.893836      36.893836      36.893836    
   3010000   0.53587866    -7.7352014     -6.9313949      4.2939699      50218.233      36.893836      36.893836      36.893836    
   3020000   0.53548241    -7.7325591     -6.9293469      4.3197231      50218.233      36.893836      36.893836      36.893836    
   3030000   0.53485083    -7.7342247     -6.9319599      4.3019348      50218.233      36.893836      36.893836      36.893836    
   3040000   0.53262271    -7.7319078     -6.9329851      4.3238257      50218.233      36.893836      36.893836      36.893836    
   3050000   0.53397952    -7.7302701     -6.9293122      4.3349368      50218.233      36.893836      36.893836      36.893836    
   3060000   0.53424297    -7.7337805     -6.9324274      4.3078332      50218.233      36.893836      36.893836      36.893836    
   3070000   0.53530179    -7.7349894     -6.9320481      4.2974696      50218.233      36.893836      36.893836      36.893836    
   3080000   0.53559445    -7.736786      -6.9334057      4.2800147      50218.233      36.893836      36.893836      36.893836    
   3090000   0.53469374    -7.7351827     -6.9331535      4.2934824      50218.233      36.893836      36.893836      36.893836    
   3100000   0.53551603    -7.7320668     -6.9288042      4.3093594      50218.233      36.893836      36.893836      36.893836    
   3110000   0.53463745    -7.7324619     -6.9305172      4.320665       50218.233      36.893836      36.893836      36.893836    
   3120000   0.53466234    -7.7371797     -6.9351976      4.2880932      50218.233      36.893836      36.893836      36.893836    
   3130000   0.53458929    -7.7325912     -6.9307187      4.3157891      50218.233      36.893836      36.893836      36.893836    
   3140000   0.53527908    -7.736644      -6.9337368      4.2818599      50218.233      36.893836      36.893836      36.893836    
   3150000   0.53630539    -7.7352768     -6.9308302      4.2952403      50218.233      36.893836      36.893836      36.893836    
   3160000   0.53387371    -7.7330662     -6.9322671      4.3125698      50218.233      36.893836      36.893836      36.893836    
   3170000   0.53434819    -7.7310938     -6.9295829      4.3260768      50218.233      36.893836      36.893836      36.893836    
   3180000   0.53390819    -7.7352759     -6.934425       4.2947785      50218.233      36.893836      36.893836      36.893836    
   3190000   0.53711354    -7.7350782     -6.9294193      4.2999513      50218.233      36.893836      36.893836      36.893836    
   3200000   0.53247165    -7.7354628     -6.9367667      4.2904976      50218.233      36.893836      36.893836      36.893836    
   3210000   0.53153118    -7.7364158     -6.9391304      4.2704074      50218.233      36.893836      36.893836      36.893836    
   3220000   0.53123228    -7.7325373     -6.9357002      4.3068077      50218.233      36.893836      36.893836      36.893836    
   3230000   0.5340049     -7.7310812     -6.9300852      4.3197164      50218.233      36.893836      36.893836      36.893836    
   3240000   0.53524105    -7.7351069     -6.9322567      4.2822292      50218.233      36.893836      36.893836      36.893836    
   3250000   0.53154019    -7.7355044     -6.9382055      4.2859241      50218.233      36.893836      36.893836      36.893836    
   3260000   0.53416849    -7.7352808     -6.9340395      4.3027265      50218.233      36.893836      36.893836      36.893836    
   3270000   0.53499914    -7.7367093     -6.934222       4.2790785      50218.233      36.893836      36.893836      36.893836    
   3280000   0.53379009    -7.7367502     -6.9360765      4.2669871      50218.233      36.893836      36.893836      36.893836    
   3290000   0.53249014    -7.7366408     -6.937917       4.2636544      50218.233      36.893836      36.893836      36.893836    
   3300000   0.53641129    -7.7331278     -6.9285223      4.3056102      50218.233      36.893836      36.893836      36.893836    
   3310000   0.53373689    -7.7326067     -6.9320128      4.3189018      50218.233      36.893836      36.893836      36.893836    
   3320000   0.53609641    -7.7299551     -6.9258219      4.3414398      50218.233      36.893836      36.893836      36.893836    
   3330000   0.53335912    -7.7338757     -6.9338484      4.308118       50218.233      36.893836      36.893836      36.893836    
   3340000   0.53781085    -7.7304098     -6.923705       4.3418325      50218.233      36.893836      36.893836      36.893836    
   3350000   0.53487344    -7.7303403     -6.9280416      4.3352668      50218.233      36.893836      36.893836      36.893836    
   3360000   0.53541508    -7.7359037     -6.9327926      4.2978974      50218.233      36.893836      36.893836      36.893836    
   3370000   0.53633551    -7.7359374     -6.9314455      4.2988696      50218.233      36.893836      36.893836      36.893836    
   3380000   0.5350697     -7.7369409     -6.9343477      4.2740179      50218.233      36.893836      36.893836      36.893836    
   3390000   0.53099919    -7.7347598     -6.9382723      4.2871304      50218.233      36.893836      36.893836      36.893836    
   3400000   0.53386902    -7.7380976     -6.9373054      4.2752981      50218.233      36.893836      36.893836      36.893836    
   3410000   0.53729581    -7.7359626     -6.9300304      4.2918329      50218.233      36.893836      36.893836      36.893836    
   3420000   0.53403391    -7.7365373     -6.9354979      4.3003559      50218.233      36.893836      36.893836      36.893836    
   3430000   0.53508718    -7.7370904     -6.9344711      4.2771971      50218.233      36.893836      36.893836      36.893836    
   3440000   0.53524291    -7.7339473     -6.9310944      4.3008848      50218.233      36.893836      36.893836      36.893836    
   3450000   0.53520631    -7.7319608     -6.9291627      4.3117831      50218.233      36.893836      36.893836      36.893836    
   3460000   0.5364722     -7.735286      -6.9305891      4.2954189      50218.233      36.893836      36.893836      36.893836    
   3470000   0.53460933    -7.7396298     -6.9377273      4.259006       50218.233      36.893836      36.893836      36.893836    
   3480000   0.53478441    -7.7372758     -6.9351106      4.2760449      50218.233      36.893836      36.893836      36.893836    
   3490000   0.53524245    -7.7355693     -6.932717       4.2914517      50218.233      36.893836      36.893836      36.893836    
   3500000   0.53538503    -7.7346537     -6.9315875      4.2934559      50218.233      36.893836      36.893836      36.893836    
   3510000   0.53747316    -7.7367252     -6.930527       4.2804139      50218.233      36.893836      36.893836      36.893836    
   3520000   0.53599511    -7.7387449     -6.9347636      4.2544259      50218.233      36.893836      36.893836      36.893836    
   3530000   0.53420896    -7.734552      -6.9332499      4.3148493      50218.233      36.893836      36.893836      36.893836    
   3540000   0.53280845    -7.7346636     -6.9354623      4.298214       50218.233      36.893836      36.893836      36.893836    
   3550000   0.53645517    -7.7381184     -6.9334471      4.2878338      50218.233      36.893836      36.893836      36.893836    
   3560000   0.53384914    -7.7420716     -6.9413093      4.2441933      50218.233      36.893836      36.893836      36.893836    
   3570000   0.5355831     -7.7300471     -6.9266839      4.3431974      50218.233      36.893836      36.893836      36.893836    
   3580000   0.53529206    -7.7387447     -6.935818       4.281417       50218.233      36.893836      36.893836      36.893836    
   3590000   0.53710842    -7.7356089     -6.9299577      4.303796       50218.233      36.893836      36.893836      36.893836    
   3600000   0.53614859    -7.7354491     -6.9312376      4.29069        50218.233      36.893836      36.893836      36.893836    
   3610000   0.53660151    -7.7353413     -6.9304505      4.2954777      50218.233      36.893836      36.893836      36.893836    
   3620000   0.53484236    -7.7349757     -6.9327236      4.2927446      50218.233      36.893836      36.893836      36.893836    
   3630000   0.53261548    -7.7318283     -6.9329164      4.3119135      50218.233      36.893836      36.893836      36.893836    
   3640000   0.53560701    -7.736469      -6.9330699      4.2874678      50218.233      36.893836      36.893836      36.893836    
   3650000   0.53831838    -7.7347955     -6.9273294      4.2927808      50218.233      36.893836      36.893836      36.893836    
   3660000   0.53212336    -7.7363267     -6.938153       4.2791386      50218.233      36.893836      36.893836      36.893836    
   3670000   0.53673913    -7.7353774     -6.9302801      4.2965306      50218.233      36.893836      36.893836      36.893836    
   3680000   0.53382159    -7.7341943     -6.9334733      4.3050012      50218.233      36.893836      36.893836      36.893836    
   3690000   0.53694936    -7.7376442     -6.9322316      4.2801343      50218.233      36.893836      36.893836      36.893836    
   3700000   0.53527994    -7.7365841     -6.9336756      4.2719833      50218.233      36.893836      36.893836      36.893836    
   3710000   0.53625622    -7.7327416     -6.9283687      4.3348528      50218.233      36.893836      36.893836      36.893836    
   3720000   0.53442677    -7.7366912     -6.9350624      4.2848608      50218.233      36.893836      36.893836      36.893836    
   3730000   0.53521896    -7.7329303     -6.9301133      4.3124348      50218.233      36.893836      36.893836      36.893836    
   3740000   0.53599158    -7.7312392     -6.9272633      4.3173703      50218.233      36.893836      36.893836      36.893836    
   3750000   0.53558112    -7.7328323     -6.929472       4.3125255      50218.233      36.893836      36.893836      36.893836    
   3760000   0.53602254    -7.7375945     -6.9335721      4.2865168      50218.233      36.893836      36.893836      36.893836    
   3770000   0.53593498    -7.7368553     -6.9329642      4.2880965      50218.233      36.893836      36.893836      36.893836    
   3780000   0.53280335    -7.7373062     -6.9381125      4.2762156      50218.233      36.893836      36.893836      36.893836    
   3790000   0.53557061    -7.7393235     -6.935979       4.2657168      50218.233      36.893836      36.893836      36.893836    
   3800000   0.53700695    -7.7342687     -6.9287698      4.3133237      50218.233      36.893836      36.893836      36.893836    
   3810000   0.5325045     -7.7321754     -6.93343        4.3051643      50218.233      36.893836      36.893836      36.893836    
   3820000   0.53437882    -7.7375308     -6.935974       4.2783092      50218.233      36.893836      36.893836      36.893836    
   3830000   0.53425541    -7.7344422     -6.9330705      4.3004502      50218.233      36.893836      36.893836      36.893836    
   3840000   0.53640545    -7.7376104     -6.9330136      4.2878518      50218.233      36.893836      36.893836      36.893836    
   3850000   0.53184966    -7.7393447     -6.9415815      4.2545574      50218.233      36.893836      36.893836      36.893836    
   3860000   0.53427651    -7.7372475     -6.9358442      4.2783732      50218.233      36.893836      36.893836      36.893836    
   3870000   0.53593487    -7.7334482     -6.9295574      4.3212477      50218.233      36.893836      36.893836      36.893836    
   3880000   0.5366675     -7.7368983     -6.9319085      4.281605       50218.233      36.893836      36.893836      36.893836    
   3890000   0.53533035    -7.7378531     -6.934869       4.2641457      50218.233      36.893836      36.893836      36.893836    
   3900000   0.53252316    -7.7359428     -6.9371694      4.2877025      50218.233      36.893836      36.893836      36.893836    
   3910000   0.53294617    -7.7365373     -6.9371294      4.2791615      50218.233      36.893836      36.893836      36.893836    
   3920000   0.53555962    -7.7320807     -6.9287527      4.3122562      50218.233      36.893836      36.893836      36.893836    
   3930000   0.53296029    -7.7398975     -6.9404684      4.2495822      50218.233      36.893836      36.893836      36.893836    
   3940000   0.53650423    -7.7346489     -6.929904       4.3028719      50218.233      36.893836      36.893836      36.893836    
   3950000   0.53513051    -7.7355872     -6.9329029      4.2975348      50218.233      36.893836      36.893836      36.893836    
   3960000   0.53684566    -7.7367769     -6.9315198      4.2838766      50218.233      36.893836      36.893836      36.893836    
   3970000   0.53669435    -7.7412609     -6.9362308      4.2469616      50218.233      36.893836      36.893836      36.893836    
   3980000   0.53544637    -7.7347474     -6.9315893      4.2961464      50218.233      36.893836      36.893836      36.893836    
   3990000   0.53453002    -7.7396833     -6.9378997      4.264468       50218.233      36.893836      36.893836      36.893836    
   4000000   0.53326091    -7.7329969     -6.9331169      4.3185645      50218.233      36.893836      36.893836      36.893836    
   4010000   0.53633243    -7.7361957     -6.9317085      4.2883939      50218.233      36.893836      36.893836      36.893836    
   4020000   0.53539052    -7.7336931     -6.9306188      4.3108498      50218.233      36.893836      36.893836      36.893836    
   4030000   0.53278342    -7.7345003     -6.9353365      4.2932427      50218.233      36.893836      36.893836      36.893836    
   4040000   0.53250553    -7.7352653     -6.9365183      4.2979348      50218.233      36.893836      36.893836      36.893836    
   4050000   0.53542741    -7.7384105     -6.9352808      4.2746846      50218.233      36.893836      36.893836      36.893836    
   4060000   0.53582328    -7.7338869     -6.9301634      4.3020013      50218.233      36.893836      36.893836      36.893836    
   4070000   0.53411567    -7.7355761     -6.934414       4.2940883      50218.233      36.893836      36.893836      36.893836    
   4080000   0.53381955    -7.7327858     -6.9320679      4.3019173      50218.233      36.893836      36.893836      36.893836    
   4090000   0.53437026    -7.7380524     -6.9365084      4.2742529      50218.233      36.893836      36.893836      36.893836    
   4100000   0.53681652    -7.7347836     -6.9295702      4.2993965      50218.233      36.893836      36.893836      36.893836    
   4110000   0.5343788     -7.7360506     -6.9344938      4.2861026      50218.233      36.893836      36.893836      36.893836    
   4120000   0.537222      -7.7347622     -6.9289407      4.2970292      50218.233      36.893836      36.893836      36.893836    
   4130000   0.53579823    -7.7346413     -6.9309553      4.2958381      50218.233      36.893836      36.893836      36.893836    
   4140000   0.53271262    -7.7267592     -6.9277016      4.357884       50218.233      36.893836      36.893836      36.893836    
   4150000   0.53576578    -7.7357762     -6.932139       4.2842525      50218.233      36.893836      36.893836      36.893836    
   4160000   0.53338811    -7.7375038     -6.937433       4.2720349      50218.233      36.893836      36.893836      36.893836    
   4170000   0.53491226    -7.7320522     -6.9296953      4.3181531      50218.233      36.893836      36.893836      36.893836    
   4180000   0.53355732    -7.7315944     -6.9312698      4.303908       50218.233      36.893836      36.893836      36.893836    
   4190000   0.53526896    -7.7417572     -6.9388652      4.2369067      50218.233      36.893836      36.893836      36.893836    
   4200000   0.53441409    -7.7362716     -6.9346618      4.2847173      50218.233      36.893836      36.893836      36.893836    
   4210000   0.53662593    -7.7356884     -6.930761       4.2986421      50218.233      36.893836      36.893836      36.893836    
   4220000   0.53521366    -7.7336299     -6.9308208      4.3166886      50218.233      36.893836      36.893836      36.893836    
   4230000   0.535932      -7.7382783     -6.9343917      4.276134       50218.233      36.893836      36.893836      36.893836    
   4240000   0.53495394    -7.7428635     -6.940444       4.2401225      50218.233      36.893836      36.893836      36.893836    
   4250000   0.53426218    -7.7359359     -6.934554       4.2800727      50218.233      36.893836      36.893836      36.893836    
   4260000   0.53435406    -7.7372063     -6.9356866      4.2784347      50218.233      36.893836      36.893836      36.893836    
   4270000   0.53290158    -7.7371626     -6.9378216      4.2800504      50218.233      36.893836      36.893836      36.893836    
   4280000   0.53560302    -7.7410988     -6.9377057      4.2592808      50218.233      36.893836      36.893836      36.893836    
   4290000   0.53463644    -7.7342493     -6.932306       4.3123247      50218.233      36.893836      36.893836      36.893836    
   4300000   0.53605855    -7.7361613     -6.932085       4.281181       50218.233      36.893836      36.893836      36.893836    
   4310000   0.53567552    -7.7358221     -6.9323203      4.2902115      50218.233      36.893836      36.893836      36.893836    
   4320000   0.53572745    -7.7366697     -6.93309        4.2810837      50218.233      36.893836      36.893836      36.893836    
   4330000   0.53537405    -7.7308799     -6.9278302      4.3268865      50218.233      36.893836      36.893836      36.893836    
   4340000   0.53563103    -7.7386505     -6.9352154      4.2733552      50218.233      36.893836      36.893836      36.893836    
   4350000   0.53231813    -7.7380159     -6.9395501      4.2686274      50218.233      36.893836      36.893836      36.893836    
   4360000   0.53630159    -7.7329588     -6.9285179      4.3184074      50218.233      36.893836      36.893836      36.893836    
   4370000   0.53388316    -7.7289369     -6.9281235      4.3366548      50218.233      36.893836      36.893836      36.893836    
   4380000   0.53620836    -7.7389898     -6.9346887      4.2652784      50218.233      36.893836      36.893836      36.893836    
   4390000   0.53393078    -7.7414633     -6.9405786      4.2453622      50218.233      36.893836      36.893836      36.893836    
   4400000   0.53522167    -7.7347115     -6.9318904      4.3006869      50218.233      36.893836      36.893836      36.893836    
   4410000   0.53425018    -7.7351725     -6.9338086      4.295184       50218.233      36.893836      36.893836      36.893836    
   4420000   0.53520715    -7.7302155     -6.9274162      4.3290354      50218.233      36.893836      36.893836      36.893836    
   4430000   0.53630711    -7.7366924     -6.9322432      4.2838399      50218.233      36.893836      36.893836      36.893836    
   4440000   0.5358775     -7.7358472     -6.9320423      4.294207       50218.233      36.893836      36.893836      36.893836    
   4450000   0.53517472    -7.7317272     -6.9289766      4.3207251      50218.233      36.893836      36.893836      36.893836    
   4460000   0.53576653    -7.7348969     -6.9312586      4.2941276      50218.233      36.893836      36.893836      36.893836    
   4470000   0.53762298    -7.7349081     -6.9284851      4.3117446      50218.233      36.893836      36.893836      36.893836    
   4480000   0.5328171     -7.7354179     -6.9362036      4.2762172      50218.233      36.893836      36.893836      36.893836    
   4490000   0.53287533    -7.7322156     -6.932914       4.3183038      50218.233      36.893836      36.893836      36.893836    
   4500000   0.5343894     -7.7337868     -6.9322141      4.3092188      50218.233      36.893836      36.893836      36.893836    
   4510000   0.53468861    -7.7325906     -6.9305691      4.2975398      50218.233      36.893836      36.893836      36.893836    
   4520000   0.53355652    -7.7341046     -6.9337812      4.2930983      50218.233      36.893836      36.893836      36.893836    
   4530000   0.53517754    -7.742051      -6.9392961      4.2531359      50218.233      36.893836      36.893836      36.893836    
   4540000   0.53295478    -7.7336786     -6.9342578      4.3064258      50218.233      36.893836      36.893836      36.893836    
   4550000   0.53580322    -7.7392102     -6.9355168      4.2732837      50218.233      36.893836      36.893836      36.893836    
   4560000   0.53441655    -7.7408127     -6.9391993      4.2418348      50218.233      36.893836      36.893836      36.893836    
   4570000   0.53477985    -7.7338984     -6.93174        4.2981022      50218.233      36.893836      36.893836      36.893836    
   4580000   0.5332862     -7.737898      -6.9379801      4.271435       50218.233      36.893836      36.893836      36.893836    
   4590000   0.53461839    -7.7377036     -6.9357874      4.2717999      50218.233      36.893836      36.893836      36.893836    
   4600000   0.53415497    -7.7373896     -6.9361685      4.2800005      50218.233      36.893836      36.893836      36.893836    
   4610000   0.53532369    -7.7366497     -6.9336756      4.2825487      50218.233      36.893836      36.893836      36.893836    
   4620000   0.53580954    -7.7353979     -6.931695       4.2897563      50218.233      36.893836      36.893836      36.893836    
   4630000   0.53251744    -7.7372041     -6.9384393      4.2767332      50218.233      36.893836      36.893836      36.893836    
   4640000   0.5355112     -7.7354483     -6.9321929      4.2965945      50218.233      36.893836      36.893836      36.893836    
   4650000   0.53301357    -7.7366198     -6.9371108      4.282473       50218.233      36.893836      36.893836      36.893836    
   4660000   0.53716274    -7.7323581     -6.9266254      4.3184034      50218.233      36.893836      36.893836      36.893836    
   4670000   0.53582407    -7.7366066     -6.9328819      4.2830587      50218.233      36.893836      36.893836      36.893836    
   4680000   0.53229907    -7.7378375     -6.9394003      4.2673392      50218.233      36.893836      36.893836      36.893836    
   4690000   0.53463804    -7.7360656     -6.93412        4.2948657      50218.233      36.893836      36.893836      36.893836    
   4700000   0.53649278    -7.7349694     -6.9302417      4.3021478      50218.233      36.893836      36.893836      36.893836    
   4710000   0.53594069    -7.7376404     -6.9337408      4.2810399      50218.233      36.893836      36.893836      36.893836    
   4720000   0.53490508    -7.7392368     -6.9368906      4.264547       50218.233      36.893836      36.893836      36.893836    
   4730000   0.53372667    -7.736543      -6.9359643      4.290304       50218.233      36.893836      36.893836      36.893836    
   4740000   0.53461763    -7.7375952     -6.9356801      4.2732305      50218.233      36.893836      36.893836      36.893836    
   4750000   0.53449576    -7.7371604     -6.9354281      4.2821978      50218.233      36.893836      36.893836      36.893836    
   4760000   0.53390218    -7.7381681     -6.9373262      4.2708085      50218.233      36.893836      36.893836      36.893836    
   4770000   0.53579502    -7.7322278     -6.9285467      4.3187847      50218.233      36.893836      36.893836      36.893836    
   4780000   0.53681919    -7.7330858     -6.9278684      4.3086689      50218.233      36.893836      36.893836      36.893836    
   4790000   0.53399715    -7.7349983     -6.934014       4.295835       50218.233      36.893836      36.893836      36.893836    
   4800000   0.53404647    -7.7365482     -6.9354899      4.271207       50218.233      36.893836      36.893836      36.893836    
   4810000   0.53537683    -7.7333572     -6.9303034      4.3058823      50218.233      36.893836      36.893836      36.893836    
   4820000   0.53645088    -7.7377656     -6.9331008      4.2697405      50218.233      36.893836      36.893836      36.893836    
   4830000   0.5322204     -7.7336058     -6.9352866      4.2976796      50218.233      36.893836      36.893836      36.893836    
   4840000   0.53478036    -7.7317599     -6.9296007      4.3179339      50218.233      36.893836      36.893836      36.893836    
   4850000   0.53815315    -7.732267      -6.9250488      4.3075587      50218.233      36.893836      36.893836      36.893836    
   4860000   0.53125515    -7.7358753     -6.9390039      4.271854       50218.233      36.893836      36.893836      36.893836    
   4870000   0.53454683    -7.736605      -6.9347962      4.2671921      50218.233      36.893836      36.893836      36.893836    
   4880000   0.534502      -7.7367432     -6.9350017      4.2806099      50218.233      36.893836      36.893836      36.893836    
   4890000   0.53504721    -7.7401521     -6.9375927      4.2445235      50218.233      36.893836      36.893836      36.893836    
   4900000   0.53421932    -7.7357751     -6.9344575      4.2863479      50218.233      36.893836      36.893836      36.893836    
   4910000   0.53526291    -7.7310847     -6.9282017      4.3220172      50218.233      36.893836      36.893836      36.893836    
   4920000   0.53609466    -7.7394127     -6.9352822      4.2647085      50218.233      36.893836      36.893836      36.893836    
   4930000   0.53538137    -7.7300738     -6.9270132      4.3334009      50218.233      36.893836      36.893836      36.893836    
   4940000   0.53395004    -7.7395415     -6.9386278      4.2583784      50218.233      36.893836      36.893836      36.893836    
   4950000   0.5371174     -7.7333071     -6.9276425      4.3033684      50218.233      36.893836      36.893836      36.893836    
   4960000   0.53886385    -7.7355159     -6.9272317      4.3069404      50218.233      36.893836      36.893836      36.893836    
   4970000   0.53635269    -7.736036      -6.9315184      4.2936519      50218.233      36.893836      36.893836      36.893836    
   4980000   0.53630345    -7.7316288     -6.9271851      4.3282881      50218.233      36.893836      36.893836      36.893836    
   4990000   0.53472108    -7.7355274     -6.9334572      4.281741       50218.233      36.893836      36.893836      36.893836    
   5000000   0.53656461    -7.7336847     -6.9288492      4.3039331      50218.233      36.893836      36.893836      36.893836    
   5010000   0.53386776    -7.7331867     -6.9323965      4.3106425      50218.233      36.893836      36.893836      36.893836    
   5020000   0.53515768    -7.7319008     -6.9291757      4.310894       50218.233      36.893836      36.893836      36.893836    
   5030000   0.53375324    -7.7405058     -6.9398873      4.2526444      50218.233      36.893836      36.893836      36.893836    
   5040000   0.53458326    -7.7315557     -6.9296922      4.301759       50218.233      36.893836      36.893836      36.893836    
   5050000   0.53577677    -7.7371137     -6.93346        4.2725501      50218.233      36.893836      36.893836      36.893836    
   5060000   0.53379999    -7.7383802     -6.9376916      4.264997       50218.233      36.893836      36.893836      36.893836    
   5070000   0.53369133    -7.7315385     -6.9310129      4.3217118      50218.233      36.893836      36.893836      36.893836    
   5080000   0.53371621    -7.7309912     -6.9304282      4.3091102      50218.233      36.893836      36.893836      36.893836    
   5090000   0.53428417    -7.732469      -6.9310542      4.2894775      50218.233      36.893836      36.893836      36.893836    
   5100000   0.53676323    -7.7328181     -6.9276847      4.307241       50218.233      36.893836      36.893836      36.893836    
   5110000   0.53421675    -7.7348124     -6.9334987      4.2952842      50218.233      36.893836      36.893836      36.893836    
   5120000   0.53451937    -7.734163      -6.9323953      4.2950579      50218.233      36.893836      36.893836      36.893836    
   5130000   0.5342842     -7.7352579     -6.9338431      4.2882588      50218.233      36.893836      36.893836      36.893836    
   5140000   0.53525607    -7.7369975     -6.9341248      4.2680941      50218.233      36.893836      36.893836      36.893836    
   5150000   0.5324002     -7.7376278     -6.9390389      4.2689355      50218.233      36.893836      36.893836      36.893836    
   5160000   0.53594599    -7.7336031     -6.9296956      4.2916573      50218.233      36.893836      36.893836      36.893836    
   5170000   0.53491018    -7.7350773     -6.9327234      4.2892133      50218.233      36.893836      36.893836      36.893836    
   5180000   0.53234904    -7.7342795     -6.9357673      4.2933873      50218.233      36.893836      36.893836      36.893836    
   5190000   0.53339949    -7.7320683     -6.9319804      4.3084799      50218.233      36.893836      36.893836      36.893836    
   5200000   0.53442138    -7.7296102     -6.9279895      4.3256083      50218.233      36.893836      36.893836      36.893836    
   5210000   0.53463722    -7.734251      -6.9323066      4.3112853      50218.233      36.893836      36.893836      36.893836    
   5220000   0.53470149    -7.7304127     -6.9283719      4.3177175      50218.233      36.893836      36.893836      36.893836    
   5230000   0.53301934    -7.7371278     -6.9376102      4.2756924      50218.233      36.893836      36.893836      36.893836    
   5240000   0.53337432    -7.7331742     -6.9331241      4.298254       50218.233      36.893836      36.893836      36.893836    
   5250000   0.53706006    -7.7337647     -6.9281861      4.3056521      50218.233      36.893836      36.893836      36.893836    
   5260000   0.53438776    -7.7278869     -6.9263167      4.3355194      50218.233      36.893836      36.893836      36.893836    
   5270000   0.53195599    -7.7308387     -6.932916       4.3108807      50218.233      36.893836      36.893836      36.893836    
   5280000   0.53573166    -7.7371219     -6.9335359      4.2684749      50218.233      36.893836      36.893836      36.893836    
   5290000   0.53296087    -7.7343853     -6.9349554      4.3000651      50218.233      36.893836      36.893836      36.893836    
   5300000   0.53525971    -7.7352303     -6.9323522      4.2997759      50218.233      36.893836      36.893836      36.893836    
   5310000   0.53464777    -7.7354372     -6.933477       4.2859853      50218.233      36.893836      36.893836      36.893836    
   5320000   0.53500951    -7.7340241     -6.9315212      4.3093343      50218.233      36.893836      36.893836      36.893836    
   5330000   0.53475741    -7.7358141     -6.9336894      4.2923428      50218.233      36.893836      36.893836      36.893836    
   5340000   0.53681754    -7.7345932     -6.9293784      4.294915       50218.233      36.893836      36.893836      36.893836    
   5350000   0.53339313    -7.7404608     -6.9403825      4.2555313      50218.233      36.893836      36.893836      36.893836    
   5360000   0.53529642    -7.736336      -6.9334028      4.2882109      50218.233      36.893836      36.893836      36.893836    
   5370000   0.53581171    -7.7341033     -6.9303972      4.2956943      50218.233      36.893836      36.893836      36.893836    
   5380000   0.53773427    -7.7349093     -6.9283194      4.2953045      50218.233      36.893836      36.893836      36.893836    
   5390000   0.53725207    -7.7365252     -6.9306586      4.2832827      50218.233      36.893836      36.893836      36.893836    
   5400000   0.53564319    -7.7352365     -6.9317831      4.3020797      50218.233      36.893836      36.893836      36.893836    
   5410000   0.53584322    -7.7333118     -6.9295584      4.3265967      50218.233      36.893836      36.893836      36.893836    
   5420000   0.53714424    -7.7352946     -6.9295897      4.2940601      50218.233      36.893836      36.893836      36.893836    
   5430000   0.53355144    -7.7298468     -6.9295311      4.3381985      50218.233      36.893836      36.893836      36.893836    
   5440000   0.53586953    -7.7358259     -6.9320331      4.290719       50218.233      36.893836      36.893836      36.893836    
   5450000   0.53585133    -7.7410353     -6.9372697      4.2546555      50218.233      36.893836      36.893836      36.893836    
   5460000   0.53522154    -7.7337884     -6.9309675      4.3022505      50218.233      36.893836      36.893836      36.893836    
   5470000   0.53442886    -7.7383648     -6.9367329      4.2611564      50218.233      36.893836      36.893836      36.893836    
   5480000   0.53688259    -7.7371768     -6.9318644      4.2824542      50218.233      36.893836      36.893836      36.893836    
   5490000   0.53381338    -7.7371011     -6.9363924      4.2809657      50218.233      36.893836      36.893836      36.893836    
   5500000   0.5336113     -7.7354134     -6.9350079      4.2987626      50218.233      36.893836      36.893836      36.893836    
   5510000   0.53395675    -7.7422902     -6.9413665      4.2295782      50218.233      36.893836      36.893836      36.893836    
   5520000   0.53356123    -7.7336126     -6.9332822      4.288104       50218.233      36.893836      36.893836      36.893836    
   5530000   0.53529469    -7.7383295     -6.9353989      4.2732622      50218.233      36.893836      36.893836      36.893836    
   5540000   0.53772028    -7.7351291     -6.9285602      4.2879384      50218.233      36.893836      36.893836      36.893836    
   5550000   0.53492251    -7.7332374     -6.930865       4.319259       50218.233      36.893836      36.893836      36.893836    
   5560000   0.53357411    -7.7365615     -6.9362117      4.2843386      50218.233      36.893836      36.893836      36.893836    
   5570000   0.5365409     -7.7364892     -6.9316893      4.2731458      50218.233      36.893836      36.893836      36.893836    
   5580000   0.53523889    -7.7332801     -6.9304332      4.29357        50218.233      36.893836      36.893836      36.893836    
   5590000   0.53459331    -7.7383063     -6.9364277      4.2639884      50218.233      36.893836      36.893836      36.893836    
   5600000   0.53485302    -7.7374221     -6.935154       4.264666       50218.233      36.893836      36.893836      36.893836    
   5610000   0.5368344     -7.7357967     -6.9305566      4.295658       50218.233      36.893836      36.893836      36.893836    
   5620000   0.53352642    -7.7350173     -6.934739       4.2920556      50218.233      36.893836      36.893836      36.893836    
   5630000   0.53494053    -7.7343704     -6.931971       4.3042943      50218.233      36.893836      36.893836      36.893836    
   5640000   0.5359522     -7.7351379     -6.931221       4.2889002      50218.233      36.893836      36.893836      36.893836    
   5650000   0.53712411    -7.7373283     -6.9316536      4.2942728      50218.233      36.893836      36.893836      36.893836    
   5660000   0.53291161    -7.735238      -6.9358819      4.2945984      50218.233      36.893836      36.893836      36.893836    
   5670000   0.53748773    -7.7375784     -6.9313582      4.2776036      50218.233      36.893836      36.893836      36.893836    
   5680000   0.53386509    -7.7400644     -6.9392781      4.2576257      50218.233      36.893836      36.893836      36.893836    
   5690000   0.53374247    -7.738554      -6.9379517      4.2742358      50218.233      36.893836      36.893836      36.893836    
   5700000   0.53367883    -7.7358603     -6.9353534      4.2891058      50218.233      36.893836      36.893836      36.893836    
   5710000   0.53368073    -7.735561      -6.9350513      4.2959584      50218.233      36.893836      36.893836      36.893836    
   5720000   0.53438904    -7.739942      -6.9383698      4.2510219      50218.233      36.893836      36.893836      36.893836    
   5730000   0.53517078    -7.7379729     -6.9352282      4.2713251      50218.233      36.893836      36.893836      36.893836    
   5740000   0.53877011    -7.7377786     -6.929635       4.283766       50218.233      36.893836      36.893836      36.893836    
   5750000   0.53318348    -7.7383456     -6.9385817      4.2610036      50218.233      36.893836      36.893836      36.893836    
   5760000   0.53440551    -7.7358554     -6.9342586      4.2859537      50218.233      36.893836      36.893836      36.893836    
   5770000   0.53726334    -7.7381562     -6.9322726      4.2648932      50218.233      36.893836      36.893836      36.893836    
   5780000   0.53535289    -7.7406438     -6.9376259      4.2489698      50218.233      36.893836      36.893836      36.893836    
   5790000   0.5342796     -7.7392326     -6.9378246      4.267196       50218.233      36.893836      36.893836      36.893836    
   5800000   0.53428384    -7.7368646     -6.9354502      4.2951822      50218.233      36.893836      36.893836      36.893836    
   5810000   0.53640496    -7.7391541     -6.9345581      4.275163       50218.233      36.893836      36.893836      36.893836    
   5820000   0.53350797    -7.7351017     -6.9348511      4.2897498      50218.233      36.893836      36.893836      36.893836    
   5830000   0.53421532    -7.7357246     -6.934413       4.2825324      50218.233      36.893836      36.893836      36.893836    
   5840000   0.53241912    -7.7345419     -6.9359246      4.2875382      50218.233      36.893836      36.893836      36.893836    
   5850000   0.53605822    -7.7363876     -6.9323117      4.2820342      50218.233      36.893836      36.893836      36.893836    
   5860000   0.53634374    -7.7354658     -6.9309616      4.2969611      50218.233      36.893836      36.893836      36.893836    
   5870000   0.53414564    -7.73259       -6.9313829      4.3151313      50218.233      36.893836      36.893836      36.893836    
   5880000   0.5360756     -7.731606      -6.9275041      4.3165564      50218.233      36.893836      36.893836      36.893836    
   5890000   0.53313554    -7.7388453     -6.9391534      4.2639567      50218.233      36.893836      36.893836      36.893836    
   5900000   0.53439261    -7.7403006     -6.9387231      4.2528961      50218.233      36.893836      36.893836      36.893836    
   5910000   0.5386183     -7.7298607     -6.9219447      4.3337923      50218.233      36.893836      36.893836      36.893836    
   5920000   0.53636032    -7.7363911     -6.9318621      4.2859561      50218.233      36.893836      36.893836      36.893836    
   5930000   0.53172326    -7.7366303     -6.9390568      4.2756409      50218.233      36.893836      36.893836      36.893836    
   5940000   0.53412962    -7.7366025     -6.9354194      4.2858145      50218.233      36.893836      36.893836      36.893836    
   5950000   0.53496882    -7.7339735     -6.9315316      4.2994418      50218.233      36.893836      36.893836      36.893836    
   5960000   0.53548561    -7.734354      -6.931137       4.3073888      50218.233      36.893836      36.893836      36.893836    
   5970000   0.53554777    -7.7346358     -6.9313255      4.2979362      50218.233      36.893836      36.893836      36.893836    
   5980000   0.53722801    -7.7387506     -6.9329201      4.2813097      50218.233      36.893836      36.893836      36.893836    
   5990000   0.53640003    -7.7366397     -6.9320511      4.2781902      50218.233      36.893836      36.893836      36.893836    
   6000000   0.53610774    -7.7371961     -6.9330459      4.2837233      50218.233      36.893836      36.893836      36.893836    
   6010000   0.53492167    -7.7381566     -6.9357855      4.2644787      50218.233      36.893836      36.893836      36.893836    
   6020000   0.53557816    -7.7343768     -6.931021       4.3014057      50218.233      36.893836      36.893836      36.893836    
   6030000   0.53461572    -7.7339671     -6.9320549      4.3060167      50218.233      36.893836      36.893836      36.893836    
   6040000   0.53495931    -7.7398226     -6.937395       4.2664437      50218.233      36.893836      36.893836      36.893836    
   6050000   0.53344724    -7.7318486     -6.9316891      4.3020747      50218.233      36.893836      36.893836      36.893836    
   6060000   0.53324027    -7.7329736     -6.9331246      4.3107442      50218.233      36.893836      36.893836      36.893836    
   6070000   0.53295776    -7.7368099     -6.9373846      4.2731989      50218.233      36.893836      36.893836      36.893836    
   6080000   0.53408639    -7.7331492     -6.932031       4.3226144      50218.233      36.893836      36.893836      36.893836    
   6090000   0.53300651    -7.7362851     -6.9367867      4.2779786      50218.233      36.893836      36.893836      36.893836    
   6100000   0.53535599    -7.7320072     -6.9289847      4.3186284      50218.233      36.893836      36.893836      36.893836    
   6110000   0.5343143     -7.7376033     -6.9361432      4.2807994      50218.233      36.893836      36.893836      36.893836    
   6120000   0.53569185    -7.7345622     -6.9310358      4.290118       50218.233      36.893836      36.893836      36.893836    
   6130000   0.53614967    -7.7347806     -6.9305675      4.2939934      50218.233      36.893836      36.893836      36.893836    
   6140000   0.53405227    -7.7335154     -6.9324484      4.2996028      50218.233      36.893836      36.893836      36.893836    
   6150000   0.53654749    -7.7342159     -6.9294061      4.2972507      50218.233      36.893836      36.893836      36.893836    
   6160000   0.53434922    -7.7336042     -6.9320917      4.3060162      50218.233      36.893836      36.893836      36.893836    
   6170000   0.53455364    -7.735583      -6.933764       4.2834586      50218.233      36.893836      36.893836      36.893836    
   6180000   0.53459449    -7.7382091     -6.9363287      4.2754605      50218.233      36.893836      36.893836      36.893836    
   6190000   0.53541698    -7.7387748     -6.9356607      4.273016       50218.233      36.893836      36.893836      36.893836    
   6200000   0.53358991    -7.7355341     -6.9351607      4.2815927      50218.233      36.893836      36.893836      36.893836    
   6210000   0.53490707    -7.7370669     -6.9347177      4.2889692      50218.233      36.893836      36.893836      36.893836    
   6220000   0.53188903    -7.7373083     -6.9394861      4.272261       50218.233      36.893836      36.893836      36.893836    
   6230000   0.53388463    -7.7358327     -6.9350172      4.2807878      50218.233      36.893836      36.893836      36.893836    
   6240000   0.53642055    -7.7380613     -6.9334419      4.2797362      50218.233      36.893836      36.893836      36.893836    
   6250000   0.53417479    -7.7347308     -6.93348        4.302345       50218.233      36.893836      36.893836      36.893836    
   6260000   0.53500148    -7.7313918     -6.928901       4.3169037      50218.233      36.893836      36.893836      36.893836    
   6270000   0.53488565    -7.7366665     -6.9343495      4.2774918      50218.233      36.893836      36.893836      36.893836    
   6280000   0.5340601     -7.7355374     -6.9344587      4.2892423      50218.233      36.893836      36.893836      36.893836    
   6290000   0.5348451     -7.7369509     -6.9346947      4.2838479      50218.233      36.893836      36.893836      36.893836    
   6300000   0.53368954    -7.739322      -6.9387991      4.2557024      50218.233      36.893836      36.893836      36.893836    
   6310000   0.53160247    -7.735661      -6.9382686      4.2875152      50218.233      36.893836      36.893836      36.893836    
   6320000   0.53986197    -7.7367089     -6.9269274      4.2816921      50218.233      36.893836      36.893836      36.893836    
   6330000   0.53342033    -7.7333261     -6.933207       4.3108837      50218.233      36.893836      36.893836      36.893836    
   6340000   0.53544229    -7.7289999     -6.9258479      4.3319505      50218.233      36.893836      36.893836      36.893836    
   6350000   0.53655172    -7.7403085     -6.9354924      4.2586832      50218.233      36.893836      36.893836      36.893836    
   6360000   0.5353699     -7.7404533     -6.9374098      4.2659661      50218.233      36.893836      36.893836      36.893836    
   6370000   0.53627141    -7.7342858     -6.9298902      4.3081496      50218.233      36.893836      36.893836      36.893836    
   6380000   0.53562402    -7.7334398     -6.9300152      4.3065358      50218.233      36.893836      36.893836      36.893836    
   6390000   0.54004787    -7.7330883     -6.923028       4.3193961      50218.233      36.893836      36.893836      36.893836    
   6400000   0.53271245    -7.7325666     -6.9335093      4.3037264      50218.233      36.893836      36.893836      36.893836    
   6410000   0.53363992    -7.7373695     -6.9369211      4.2825461      50218.233      36.893836      36.893836      36.893836    
   6420000   0.5359017     -7.7392363     -6.9353952      4.2621222      50218.233      36.893836      36.893836      36.893836    
   6430000   0.53510318    -7.7335589     -6.9309155      4.3110852      50218.233      36.893836      36.893836      36.893836    
   6440000   0.53534355    -7.732119      -6.9291151      4.3153745      50218.233      36.893836      36.893836      36.893836    
   6450000   0.53502963    -7.7365001     -6.9339671      4.2779987      50218.233      36.893836      36.893836      36.893836    
   6460000   0.53457919    -7.7374638     -6.9356065      4.2757407      50218.233      36.893836      36.893836      36.893836    
   6470000   0.53414522    -7.7414032     -6.9401968      4.2496672      50218.233      36.893836      36.893836      36.893836    
   6480000   0.53241295    -7.7348332     -6.9362251      4.2988036      50218.233      36.893836      36.893836      36.893836    
   6490000   0.53669194    -7.7341763     -6.9291499      4.3077573      50218.233      36.893836      36.893836      36.893836    
   6500000   0.53482236    -7.7392911     -6.9370689      4.2673272      50218.233      36.893836      36.893836      36.893836    
   6510000   0.5324364     -7.7377992     -6.939156       4.2814676      50218.233      36.893836      36.893836      36.893836    
   6520000   0.53354147    -7.7366162     -6.9363154      4.2798135      50218.233      36.893836      36.893836      36.893836    
   6530000   0.53180159    -7.7356108     -6.9379198      4.2892739      50218.233      36.893836      36.893836      36.893836    
   6540000   0.53607022    -7.7383631     -6.9342692      4.2709468      50218.233      36.893836      36.893836      36.893836    
   6550000   0.53422801    -7.7333549     -6.9320243      4.2963785      50218.233      36.893836      36.893836      36.893836    
   6560000   0.53338019    -7.737548      -6.9374891      4.2727034      50218.233      36.893836      36.893836      36.893836    
   6570000   0.53595107    -7.7364187     -6.9325035      4.2776838      50218.233      36.893836      36.893836      36.893836    
   6580000   0.53238767    -7.7380905     -6.9395203      4.2708918      50218.233      36.893836      36.893836      36.893836    
   6590000   0.53414566    -7.738373      -6.9371659      4.2704754      50218.233      36.893836      36.893836      36.893836    
   6600000   0.5346963     -7.7394396     -6.9374065      4.2631858      50218.233      36.893836      36.893836      36.893836    
   6610000   0.53380217    -7.7386386     -6.9379467      4.256992       50218.233      36.893836      36.893836      36.893836    
   6620000   0.53596217    -7.7364643     -6.9325325      4.2879569      50218.233      36.893836      36.893836      36.893836    
   6630000   0.5344378     -7.7344165     -6.9327712      4.2989844      50218.233      36.893836      36.893836      36.893836    
   6640000   0.53952578    -7.7336172     -6.92434        4.3046409      50218.233      36.893836      36.893836      36.893836    
   6650000   0.53493485    -7.7384738     -6.9360829      4.259086       50218.233      36.893836      36.893836      36.893836    
   6660000   0.53546383    -7.7310789     -6.9278946      4.3185089      50218.233      36.893836      36.893836      36.893836    
   6670000   0.53383747    -7.7327596     -6.9320148      4.3062753      50218.233      36.893836      36.893836      36.893836    
   6680000   0.5327898     -7.7373882     -6.9382148      4.2739018      50218.233      36.893836      36.893836      36.893836    
   6690000   0.53599357    -7.7333864     -6.9294075      4.2973767      50218.233      36.893836      36.893836      36.893836    
   6700000   0.53612703    -7.7399203     -6.9357412      4.2584222      50218.233      36.893836      36.893836      36.893836    
   6710000   0.53852943    -7.7379103     -6.9301276      4.2726908      50218.233      36.893836      36.893836      36.893836    
   6720000   0.53567486    -7.7356124     -6.9321115      4.2886276      50218.233      36.893836      36.893836      36.893836    
   6730000   0.53423283    -7.7372642     -6.9359264      4.2716203      50218.233      36.893836      36.893836      36.893836    
   6740000   0.5379723     -7.7362989     -6.9293519      4.2920503      50218.233      36.893836      36.893836      36.893836    
   6750000   0.53767654    -7.7326574     -6.9261541      4.3285159      50218.233      36.893836      36.893836      36.893836    
   6760000   0.53666631    -7.7368297     -6.9318417      4.2841427      50218.233      36.893836      36.893836      36.893836    
   6770000   0.53801151    -7.7410123     -6.9340065      4.2501727      50218.233      36.893836      36.893836      36.893836    
   6780000   0.53229195    -7.7334105     -6.9349839      4.3089943      50218.233      36.893836      36.893836      36.893836    
   6790000   0.53517539    -7.735716      -6.9329643      4.2828373      50218.233      36.893836      36.893836      36.893836    
   6800000   0.53516335    -7.7380659     -6.9353323      4.2730646      50218.233      36.893836      36.893836      36.893836    
   6810000   0.53658065    -7.7377714     -6.9329119      4.2833036      50218.233      36.893836      36.893836      36.893836    
   6820000   0.53562299    -7.7326845     -6.9292614      4.319566       50218.233      36.893836      36.893836      36.893836    
   6830000   0.53316136    -7.7381449     -6.9384143      4.2601999      50218.233      36.893836      36.893836      36.893836    
   6840000   0.53494016    -7.7339005     -6.9315017      4.2967754      50218.233      36.893836      36.893836      36.893836    
   6850000   0.53357524    -7.7350704     -6.9347189      4.279627       50218.233      36.893836      36.893836      36.893836    
   6860000   0.53500173    -7.7368276     -6.9343365      4.2901187      50218.233      36.893836      36.893836      36.893836    
   6870000   0.53011266    -7.7361804     -6.9410227      4.2706539      50218.233      36.893836      36.893836      36.893836    
   6880000   0.53534525    -7.732844      -6.9298375      4.3110768      50218.233      36.893836      36.893836      36.893836    
   6890000   0.53905204    -7.7367644     -6.9281978      4.2730802      50218.233      36.893836      36.893836      36.893836    
   6900000   0.53512195    -7.735185      -6.9325135      4.2886604      50218.233      36.893836      36.893836      36.893836    
   6910000   0.53332671    -7.7337951     -6.9338164      4.298522       50218.233      36.893836      36.893836      36.893836    
   6920000   0.53605077    -7.7391903     -6.9351256      4.2633375      50218.233      36.893836      36.893836      36.893836    
   6930000   0.53701995    -7.737779      -6.9322605      4.2819567      50218.233      36.893836      36.893836      36.893836    
   6940000   0.53537708    -7.7397242     -6.93667        4.2528726      50218.233      36.893836      36.893836      36.893836    
   6950000   0.53161943    -7.7380246     -6.9406068      4.2676582      50218.233      36.893836      36.893836      36.893836    
   6960000   0.53679871    -7.7373239     -6.9321373      4.2625731      50218.233      36.893836      36.893836      36.893836    
   6970000   0.53941118    -7.7378827     -6.9287775      4.2803123      50218.233      36.893836      36.893836      36.893836    
   6980000   0.53534697    -7.7324019     -6.9293929      4.3202024      50218.233      36.893836      36.893836      36.893836    
   6990000   0.5328431     -7.7347568     -6.9355035      4.2945898      50218.233      36.893836      36.893836      36.893836    
   7000000   0.53217438    -7.7354633     -6.9372131      4.2866894      50218.233      36.893836      36.893836      36.893836    
   7010000   0.53349184    -7.7359373     -6.9357109      4.2857197      50218.233      36.893836      36.893836      36.893836    
   7020000   0.53396543    -7.7374852     -6.9365484      4.294914       50218.233      36.893836      36.893836      36.893836    
   7030000   0.53522002    -7.7332043     -6.9303857      4.3014789      50218.233      36.893836      36.893836      36.893836    
   7040000   0.53624496    -7.7374626     -6.9331066      4.2783098      50218.233      36.893836      36.893836      36.893836    
   7050000   0.53609194    -7.7349091     -6.9307826      4.2926065      50218.233      36.893836      36.893836      36.893836    
   7060000   0.53621644    -7.7393219     -6.9350087      4.2732546      50218.233      36.893836      36.893836      36.893836    
   7070000   0.53469265    -7.7349151     -6.9328875      4.2917782      50218.233      36.893836      36.893836      36.893836    
   7080000   0.53548659    -7.7342832     -6.9310647      4.3153037      50218.233      36.893836      36.893836      36.893836    
   7090000   0.53265606    -7.7345355     -6.9355628      4.3070519      50218.233      36.893836      36.893836      36.893836    
   7100000   0.53481154    -7.7363024     -6.9340965      4.2846376      50218.233      36.893836      36.893836      36.893836    
   7110000   0.53556469    -7.7391026     -6.935767       4.267261       50218.233      36.893836      36.893836      36.893836    
   7120000   0.53595565    -7.7433162     -6.9393942      4.2310042      50218.233      36.893836      36.893836      36.893836    
   7130000   0.53632636    -7.7322352     -6.9277571      4.330443       50218.233      36.893836      36.893836      36.893836    
   7140000   0.53521788    -7.7398647     -6.9370493      4.2698437      50218.233      36.893836      36.893836      36.893836    
   7150000   0.53543957    -7.7405161     -6.9373682      4.2656058      50218.233      36.893836      36.893836      36.893836    
   7160000   0.53418072    -7.7362936     -6.9350339      4.2929705      50218.233      36.893836      36.893836      36.893836    
   7170000   0.53526569    -7.7401229     -6.9372358      4.262175       50218.233      36.893836      36.893836      36.893836    
   7180000   0.53623093    -7.7389919     -6.934657       4.2512007      50218.233      36.893836      36.893836      36.893836    
   7190000   0.5374491     -7.732383      -6.9262209      4.3157287      50218.233      36.893836      36.893836      36.893836    
   7200000   0.5341756     -7.7321215     -6.9308695      4.3156176      50218.233      36.893836      36.893836      36.893836    
   7210000   0.53554963    -7.7361604     -6.9328474      4.2863288      50218.233      36.893836      36.893836      36.893836    
   7220000   0.53473108    -7.7344837     -6.9323985      4.3029389      50218.233      36.893836      36.893836      36.893836    
   7230000   0.53506636    -7.737051      -6.9344629      4.286802       50218.233      36.893836      36.893836      36.893836    
   7240000   0.53620446    -7.7360539     -6.9317586      4.2820483      50218.233      36.893836      36.893836      36.893836    
   7250000   0.53750525    -7.7385242     -6.9322777      4.270435       50218.233      36.893836      36.893836      36.893836    
   7260000   0.53403743    -7.7352476     -6.9342029      4.2964322      50218.233      36.893836      36.893836      36.893836    
   7270000   0.5346156     -7.7365437     -6.9346317      4.2879915      50218.233      36.893836      36.893836      36.893836    
   7280000   0.53408213    -7.7320814     -6.9309696      4.3060501      50218.233      36.893836      36.893836      36.893836    
   7290000   0.5344173     -7.7358439     -6.9342293      4.2985774      50218.233      36.893836      36.893836      36.893836    
   7300000   0.5370242     -7.7362624     -6.9307375      4.2820205      50218.233      36.893836      36.893836      36.893836    
   7310000   0.53304095    -7.7373901     -6.9378401      4.2745134      50218.233      36.893836      36.893836      36.893836    
   7320000   0.53399701    -7.7305839     -6.9295998      4.320793       50218.233      36.893836      36.893836      36.893836    
   7330000   0.53568329    -7.7398278     -6.9363143      4.2548261      50218.233      36.893836      36.893836      36.893836    
   7340000   0.53483986    -7.7372242     -6.9349759      4.2784352      50218.233      36.893836      36.893836      36.893836    
   7350000   0.5338527     -7.7328059     -6.9320383      4.3090518      50218.233      36.893836      36.893836      36.893836    
   7360000   0.5333098     -7.7342254     -6.9342721      4.2868034      50218.233      36.893836      36.893836      36.893836    
   7370000   0.53340021    -7.7405146     -6.9404257      4.2574766      50218.233      36.893836      36.893836      36.893836    
   7380000   0.5393737     -7.7308661     -6.9218171      4.3169579      50218.233      36.893836      36.893836      36.893836    
   7390000   0.53412996    -7.7387004     -6.9375169      4.259964       50218.233      36.893836      36.893836      36.893836    
   7400000   0.53048368    -7.7408397     -6.9451255      4.2324124      50218.233      36.893836      36.893836      36.893836    
   7410000   0.53587431    -7.7405203     -6.9367202      4.2470359      50218.233      36.893836      36.893836      36.893836    
   7420000   0.5330848     -7.7387607     -6.9391448      4.2523246      50218.233      36.893836      36.893836      36.893836    
   7430000   0.53569484    -7.7330745     -6.9295437      4.3079843      50218.233      36.893836      36.893836      36.893836    
   7440000   0.53265961    -7.7332791     -6.9343011      4.3012792      50218.233      36.893836      36.893836      36.893836    
   7450000   0.53653342    -7.7353376     -6.9305489      4.2907614      50218.233      36.893836      36.893836      36.893836    
   7460000   0.53700447    -7.7328158     -6.9273206      4.3061457      50218.233      36.893836      36.893836      36.893836    
   7470000   0.53242651    -7.7306455     -6.9320171      4.3197932      50218.233      36.893836      36.893836      36.893836    
   7480000   0.53515163    -7.7357787     -6.9330627      4.2878087      50218.233      36.893836      36.893836      36.893836    
   7490000   0.53947803    -7.7362916     -6.927086       4.2926672      50218.233      36.893836      36.893836      36.893836    
   7500000   0.53709362    -7.7322113     -6.9265823      4.3145109      50218.233      36.893836      36.893836      36.893836    
   7510000   0.53488134    -7.7371535     -6.9348429      4.2880361      50218.233      36.893836      36.893836      36.893836    
   7520000   0.53707099    -7.7411305     -6.9355354      4.2551284      50218.233      36.893836      36.893836      36.893836    
   7530000   0.53488189    -7.7355977     -6.9332863      4.2951935      50218.233      36.893836      36.893836      36.893836    
   7540000   0.53389178    -7.7336542     -6.9328279      4.3000792      50218.233      36.893836      36.893836      36.893836    
   7550000   0.53476295    -7.7362408     -6.9341078      4.2873596      50218.233      36.893836      36.893836      36.893836    
   7560000   0.53600517    -7.7381274     -6.9341311      4.2731585      50218.233      36.893836      36.893836      36.893836    
   7570000   0.53398006    -7.7324557     -6.931497       4.3087585      50218.233      36.893836      36.893836      36.893836    
   7580000   0.53540184    -7.7384994     -6.9354081      4.2761152      50218.233      36.893836      36.893836      36.893836    
   7590000   0.53103395    -7.7351107     -6.9385711      4.2872686      50218.233      36.893836      36.893836      36.893836    
   7600000   0.53770098    -7.7398316     -6.9332916      4.2710067      50218.233      36.893836      36.893836      36.893836    
   7610000   0.53408431    -7.7353508     -6.9342358      4.2980684      50218.233      36.893836      36.893836      36.893836    
   7620000   0.53399592    -7.7348199     -6.9338375      4.2874824      50218.233      36.893836      36.893836      36.893836    
   7630000   0.53312873    -7.7361925     -6.9365108      4.284588       50218.233      36.893836      36.893836      36.893836    
   7640000   0.53436847    -7.7298237     -6.9282824      4.3333793      50218.233      36.893836      36.893836      36.893836    
   7650000   0.53625533    -7.7340449     -6.9296734      4.2979562      50218.233      36.893836      36.893836      36.893836    
   7660000   0.53491569    -7.7359038     -6.9335417      4.2915147      50218.233      36.893836      36.893836      36.893836    
   7670000   0.53481405    -7.738871      -6.9366613      4.2559819      50218.233      36.893836      36.893836      36.893836    
   7680000   0.53550944    -7.7361398     -6.9328871      4.2799647      50218.233      36.893836      36.893836      36.893836    
   7690000   0.5358262     -7.7381113     -6.9343834      4.2695879      50218.233      36.893836      36.893836      36.893836    
   7700000   0.53623968    -7.7395537     -6.9352056      4.2509007      50218.233      36.893836      36.893836      36.893836    
   7710000   0.5345582     -7.7382383     -6.9364124      4.2803921      50218.233      36.893836      36.893836      36.893836    
   7720000   0.53368049    -7.7373429     -6.9368335      4.2847536      50218.233      36.893836      36.893836      36.893836    
   7730000   0.5365449     -7.7290377     -6.9242318      4.3475818      50218.233      36.893836      36.893836      36.893836    
   7740000   0.53428252    -7.7352165     -6.9338041      4.2990861      50218.233      36.893836      36.893836      36.893836    
   7750000   0.53479683    -7.7391009     -6.9369171      4.2700367      50218.233      36.893836      36.893836      36.893836    
   7760000   0.53685918    -7.7369077     -6.9316304      4.2779712      50218.233      36.893836      36.893836      36.893836    
   7770000   0.5359581     -7.7376821     -6.9337564      4.2770786      50218.233      36.893836      36.893836      36.893836    
   7780000   0.53515548    -7.7414674     -6.9387456      4.248182       50218.233      36.893836      36.893836      36.893836    
   7790000   0.53604886    -7.7421791     -6.9381172      4.2368163      50218.233      36.893836      36.893836      36.893836    
   7800000   0.53272488    -7.7380079     -6.938932       4.2674697      50218.233      36.893836      36.893836      36.893836    
   7810000   0.53767813    -7.7344394     -6.9279337      4.311999       50218.233      36.893836      36.893836      36.893836    
   7820000   0.53748841    -7.7347585     -6.9285374      4.3146205      50218.233      36.893836      36.893836      36.893836    
   7830000   0.53655064    -7.7346416     -6.929827       4.3063982      50218.233      36.893836      36.893836      36.893836    
   7840000   0.53591274    -7.7331875     -6.9293299      4.3209365      50218.233      36.893836      36.893836      36.893836    
   7850000   0.53594709    -7.7361014     -6.9321922      4.2947178      50218.233      36.893836      36.893836      36.893836    
   7860000   0.53353385    -7.7348181     -6.9345287      4.2894208      50218.233      36.893836      36.893836      36.893836    
   7870000   0.53309585    -7.7369166     -6.9372842      4.2658092      50218.233      36.893836      36.893836      36.893836    
   7880000   0.53728819    -7.7366341     -6.9307133      4.2795516      50218.233      36.893836      36.893836      36.893836    
   7890000   0.53579428    -7.733504      -6.9298241      4.3010908      50218.233      36.893836      36.893836      36.893836    
   7900000   0.53516737    -7.7344599     -6.9317203      4.2889323      50218.233      36.893836      36.893836      36.893836    
   7910000   0.53688858    -7.7334792     -6.9281578      4.3119927      50218.233      36.893836      36.893836      36.893836    
   7920000   0.5359856     -7.7348942     -6.9309272      4.2925317      50218.233      36.893836      36.893836      36.893836    
   7930000   0.53382413    -7.7309727     -6.9302479      4.3207778      50218.233      36.893836      36.893836      36.893836    
   7940000   0.53599702    -7.7367365     -6.9327524      4.3005787      50218.233      36.893836      36.893836      36.893836    
   7950000   0.53571325    -7.7351417     -6.9315832      4.3023354      50218.233      36.893836      36.893836      36.893836    
   7960000   0.53729448    -7.7367669     -6.9308367      4.2943544      50218.233      36.893836      36.893836      36.893836    
   7970000   0.53529793    -7.7330818     -6.9301463      4.3166752      50218.233      36.893836      36.893836      36.893836    
   7980000   0.53464769    -7.7355188     -6.9335586      4.2827469      50218.233      36.893836      36.893836      36.893836    
   7990000   0.53630888    -7.736101      -6.9316491      4.2859792      50218.233      36.893836      36.893836      36.893836    
   8000000   0.53347911    -7.7346973     -6.93449        4.2978432      50218.233      36.893836      36.893836      36.893836    
Loop time of 12746.1 on 5 procs for 8000000 steps with 70304 atoms

Performance: 542285.416 tau/day, 627.645 timesteps/s, 44.126 Matom-step/s
94.8% CPU use with 5 MPI tasks x 1 OpenMP threads

MPI task timing breakdown:
Section |  min time  |  avg time  |  max time  |%varavg| %total
---------------------------------------------------------------
Pair    | 4552.7     | 4935.2     | 5519.7     | 455.7 | 38.72
Neigh   | 42.508     | 46.969     | 50.828     |  41.1 |  0.37
Comm    | 1928.8     | 1957.4     | 1991       |  50.6 | 15.36
Output  | 0.14439    | 0.14979    | 0.1593     |   1.3 |  0.00
Modify  | 4510.1     | 5129.6     | 5529.3     | 468.7 | 40.24
Other   |            | 676.7      |            |       |  5.31

Nlocal:        14060.8 ave       14100 max       14033 min
Histogram: 2 0 0 1 0 0 1 0 0 1
Nghost:        18780.8 ave       18817 max       18716 min
Histogram: 1 0 0 0 0 1 1 0 0 2
Neighs:              0 ave           0 max           0 min
Histogram: 5 0 0 0 0 0 0 0 0 0

Total # of neighbors = 0
Ave neighs/atom = 0
Neighbor list builds = 1687932
Dangerous builds = 0
clear
OMP_NUM_THREADS environment is not set. Defaulting to 1 thread. (src/comm.cpp:98)
  using 1 OpenMP thread(s) per MPI task
package gpu 0
jump dms515.lmp

variable T equal 515
# T = 1000* (temp in LJ unit)
variable f equal 10000
log log.${T}
log log.515
