variable TLJ equal (${T}/1000)
variable TLJ equal (340/1000)
variable NCyle equal 10
variable iStep equal (${f})
variable iStep equal (10000)
variable dumpStep equal (${f}*100)
variable dumpStep equal (10000*100)
variable runStep equal (${f}*100*${NCyle})
variable runStep equal (10000*100*${NCyle})
variable runStep equal (10000*100*10)

units       lj
atom_style  atomic
dimension 3
boundary     p p p
pair_style  lj/cut 2.5
read_data  ../data/T${T}.dat
read_data  ../data/T340.dat
Reading data file ...
  orthogonal box = (0.97250269 0.97250269 0.97250269) to (37.866338 37.866338 37.866338)
  1 by 1 by 5 MPI processor grid
  reading atoms ...
  70304 atoms
  reading velocities ...
  70304 velocities
  read_data CPU = 0.211 seconds
change_box all triclinic
Changing box ...
  triclinic box = (0.97250269 0.97250269 0.97250269) to (37.866338 37.866338 37.866338) with tilt (0 0 0)
mass 1 1
mass 2 1
pair_modify shift yes
pair_coeff  1 1 1 1
pair_coeff  1 2 1.5 0.8
pair_coeff  2 2 0.5 0.88


timestep 0.01
thermo ${iStep}
thermo 10000
reset_timestep 0
thermo_style custom step temp pe etotal press vol lx ly lz
fix             1 all nvt temp ${TLJ}  ${TLJ}  0.1
fix             1 all nvt temp 0.34  ${TLJ}  0.1
fix             1 all nvt temp 0.34  0.34  0.1
thermo_modify flush yes

fix dsf all deform 1 xy  wiggle 0.5  ${f}   units box
fix dsf all deform 1 xy  wiggle 0.5  10000   units box
fix ps1 all ave/time 1 1 ${iStep} c_thermo_press[1] c_thermo_press[2]  c_thermo_press[3] c_thermo_press[4]  c_thermo_press[5] c_thermo_press[6]  file  stress.${T}
fix ps1 all ave/time 1 1 10000 c_thermo_press[1] c_thermo_press[2]  c_thermo_press[3] c_thermo_press[4]  c_thermo_press[5] c_thermo_press[6]  file  stress.${T}
fix ps1 all ave/time 1 1 10000 c_thermo_press[1] c_thermo_press[2]  c_thermo_press[3] c_thermo_press[4]  c_thermo_press[5] c_thermo_press[6]  file  stress.340
dump            1 all custom ${dumpStep} dump.${T} id type x y z
dump            1 all custom 1000000 dump.${T} id type x y z
dump            1 all custom 1000000 dump.340 id type x y z
dump_modify 1 sort id
fix nodrift all momentum 1  linear 1 1 1
fix com_seed all recenter INIT INIT INIT shift all
run ${runStep}
run 10000000
Generated 0 of 1 mixed pair_coeff terms from geometric mixing rule
Per MPI rank memory allocation (min/avg/max) = 6.666 | 8.467 | 8.92 Mbytes
   Step          Temp          PotEng         TotEng         Press          Volume           Lx             Ly             Lz      
         0   0.33992576    -8.0851126     -7.5752312      1.4377135      50218.233      36.893836      36.893836      36.893836    
     10000   0.34079257    -8.0791246     -7.5679431      1.4831802      50218.233      36.893836      36.893836      36.893836    
     20000   0.34095753    -8.0752017     -7.5637727      1.507202       50218.233      36.893836      36.893836      36.893836    
     30000   0.34079436    -8.0790606     -7.5678763      1.4925752      50218.233      36.893836      36.893836      36.893836    
     40000   0.33885958    -8.0773789     -7.5690968      1.4923585      50218.233      36.893836      36.893836      36.893836    
     50000   0.3410075     -8.0794721     -7.5679681      1.4820235      50218.233      36.893836      36.893836      36.893836    
     60000   0.33966994    -8.0792962     -7.5697985      1.4762558      50218.233      36.893836      36.893836      36.893836    
     70000   0.34102132    -8.077126      -7.5656013      1.5043132      50218.233      36.893836      36.893836      36.893836    
     80000   0.33904406    -8.0779481     -7.5693893      1.4947213      50218.233      36.893836      36.893836      36.893836    
     90000   0.34106929    -8.0746789     -7.5630822      1.5136874      50218.233      36.893836      36.893836      36.893836    
    100000   0.33953692    -8.0770367     -7.5677385      1.4955169      50218.233      36.893836      36.893836      36.893836    
    110000   0.34012399    -8.0797373     -7.5695586      1.4794087      50218.233      36.893836      36.893836      36.893836    
    120000   0.33948667    -8.0772408     -7.5680181      1.4964216      50218.233      36.893836      36.893836      36.893836    
    130000   0.34002554    -8.0749523     -7.5649212      1.5156023      50218.233      36.893836      36.893836      36.893836    
    140000   0.33818656    -8.0784111     -7.5711384      1.4833538      50218.233      36.893836      36.893836      36.893836    
    150000   0.34001003    -8.0757963     -7.5657885      1.5037112      50218.233      36.893836      36.893836      36.893836    
    160000   0.33974257    -8.0768391     -7.5672325      1.4970689      50218.233      36.893836      36.893836      36.893836    
    170000   0.33892247    -8.0761798     -7.5678033      1.4997912      50218.233      36.893836      36.893836      36.893836    
    180000   0.33983573    -8.0802435     -7.5704972      1.4788862      50218.233      36.893836      36.893836      36.893836    
    190000   0.34068038    -8.078217      -7.5672037      1.4855919      50218.233      36.893836      36.893836      36.893836    
    200000   0.33917482    -8.0758957     -7.5671407      1.5011917      50218.233      36.893836      36.893836      36.893836    
    210000   0.33956177    -8.0758502     -7.5665148      1.4952673      50218.233      36.893836      36.893836      36.893836    
    220000   0.34056814    -8.0747583     -7.5639133      1.5130904      50218.233      36.893836      36.893836      36.893836    
    230000   0.34103085    -8.0762512     -7.5647122      1.5020873      50218.233      36.893836      36.893836      36.893836    
    240000   0.33903362    -8.0773998     -7.5688566      1.4981437      50218.233      36.893836      36.893836      36.893836    
    250000   0.33979229    -8.0763887     -7.5667075      1.5068275      50218.233      36.893836      36.893836      36.893836    
    260000   0.34174515    -8.07488       -7.5622696      1.5120951      50218.233      36.893836      36.893836      36.893836    
    270000   0.33968109    -8.0780695     -7.5685551      1.4822244      50218.233      36.893836      36.893836      36.893836    
    280000   0.33931238    -8.0770036     -7.5680423      1.5024257      50218.233      36.893836      36.893836      36.893836    
    290000   0.34056655    -8.0751946     -7.564352       1.5122235      50218.233      36.893836      36.893836      36.893836    
    300000   0.34066297    -8.0789924     -7.5680052      1.4830049      50218.233      36.893836      36.893836      36.893836    
    310000   0.34008128    -8.0752283     -7.5651136      1.508436       50218.233      36.893836      36.893836      36.893836    
    320000   0.34085467    -8.0749993     -7.5637246      1.5086453      50218.233      36.893836      36.893836      36.893836    
    330000   0.34176564    -8.0792086     -7.5665674      1.484227       50218.233      36.893836      36.893836      36.893836    
    340000   0.33900019    -8.0765764     -7.5680833      1.4976578      50218.233      36.893836      36.893836      36.893836    
    350000   0.34129196    -8.0753711     -7.5634404      1.5154024      50218.233      36.893836      36.893836      36.893836    
    360000   0.33976179    -8.0785523     -7.5689169      1.481719       50218.233      36.893836      36.893836      36.893836    
    370000   0.33978042    -8.0741752     -7.5645118      1.5291316      50218.233      36.893836      36.893836      36.893836    
    380000   0.34112253    -8.0777348     -7.5660583      1.4915584      50218.233      36.893836      36.893836      36.893836    
    390000   0.34001219    -8.0797094     -7.5696984      1.4816336      50218.233      36.893836      36.893836      36.893836    
    400000   0.34008157    -8.079607      -7.5694919      1.4814416      50218.233      36.893836      36.893836      36.893836    
    410000   0.33940995    -8.0800924     -7.5709847      1.477197       50218.233      36.893836      36.893836      36.893836    
    420000   0.33988713    -8.077884      -7.5680605      1.4910405      50218.233      36.893836      36.893836      36.893836    
    430000   0.33955007    -8.0756441     -7.5663263      1.5007989      50218.233      36.893836      36.893836      36.893836    
    440000   0.33937755    -8.0786776     -7.5696185      1.478693       50218.233      36.893836      36.893836      36.893836    
    450000   0.34000915    -8.0794748     -7.5694683      1.4812985      50218.233      36.893836      36.893836      36.893836    
    460000   0.33784172    -8.0810639     -7.5743085      1.4683544      50218.233      36.893836      36.893836      36.893836    
    470000   0.33937514    -8.0788562     -7.5698007      1.4829503      50218.233      36.893836      36.893836      36.893836    
    480000   0.34128733    -8.0787433     -7.5668195      1.4742297      50218.233      36.893836      36.893836      36.893836    
    490000   0.33945999    -8.0809731     -7.5717904      1.4685075      50218.233      36.893836      36.893836      36.893836    
    500000   0.33942188    -8.0801611     -7.5710356      1.4715895      50218.233      36.893836      36.893836      36.893836    
    510000   0.33801077    -8.0787288     -7.5717198      1.4782613      50218.233      36.893836      36.893836      36.893836    
    520000   0.34100866    -8.0806822     -7.5691764      1.4676569      50218.233      36.893836      36.893836      36.893836    
    530000   0.33864217    -8.0805193     -7.5725633      1.4668408      50218.233      36.893836      36.893836      36.893836    
    540000   0.34024272    -8.0795733     -7.5692165      1.4767445      50218.233      36.893836      36.893836      36.893836    
    550000   0.34041265    -8.077501      -7.5668893      1.487515       50218.233      36.893836      36.893836      36.893836    
    560000   0.33938049    -8.0772603     -7.5681968      1.4963688      50218.233      36.893836      36.893836      36.893836    
    570000   0.33922338    -8.0776809     -7.568853       1.4876469      50218.233      36.893836      36.893836      36.893836    
    580000   0.3397645     -8.0779153     -7.5682758      1.4892859      50218.233      36.893836      36.893836      36.893836    
    590000   0.34048445    -8.0773195     -7.5666001      1.4958445      50218.233      36.893836      36.893836      36.893836    
    600000   0.33906925    -8.0794405     -7.5708438      1.4742671      50218.233      36.893836      36.893836      36.893836    
    610000   0.34018185    -8.079727      -7.5694615      1.4759059      50218.233      36.893836      36.893836      36.893836    
    620000   0.34089773    -8.0772958     -7.5659565      1.4976009      50218.233      36.893836      36.893836      36.893836    
    630000   0.34054827    -8.0780145     -7.5671993      1.496442       50218.233      36.893836      36.893836      36.893836    
    640000   0.33992318    -8.0767873     -7.5669098      1.4890104      50218.233      36.893836      36.893836      36.893836    
    650000   0.34005753    -8.0760948     -7.5660158      1.5007231      50218.233      36.893836      36.893836      36.893836    
    660000   0.34041911    -8.0761098     -7.5654884      1.5017214      50218.233      36.893836      36.893836      36.893836    
    670000   0.33889334    -8.0772572     -7.5689244      1.4893621      50218.233      36.893836      36.893836      36.893836    
    680000   0.34032376    -8.0775347     -7.5670563      1.4923947      50218.233      36.893836      36.893836      36.893836    
    690000   0.3400038     -8.0756526     -7.5656542      1.4990053      50218.233      36.893836      36.893836      36.893836    
    700000   0.33710585    -8.0778884     -7.5722368      1.4816165      50218.233      36.893836      36.893836      36.893836    
    710000   0.34077337    -8.0760737     -7.5649209      1.5008609      50218.233      36.893836      36.893836      36.893836    
    720000   0.34046561    -8.0741156     -7.5634244      1.5207971      50218.233      36.893836      36.893836      36.893836    
    730000   0.34007041    -8.073928      -7.5638296      1.5187789      50218.233      36.893836      36.893836      36.893836    
    740000   0.33831057    -8.0755749     -7.5681163      1.5065857      50218.233      36.893836      36.893836      36.893836    
    750000   0.33931054    -8.0784494     -7.5694909      1.4834609      50218.233      36.893836      36.893836      36.893836    
    760000   0.34020844    -8.0756951     -7.5653897      1.5114365      50218.233      36.893836      36.893836      36.893836    
    770000   0.34210096    -8.0775218     -7.5643776      1.4945581      50218.233      36.893836      36.893836      36.893836    
    780000   0.34001695    -8.0768553     -7.5668371      1.4949062      50218.233      36.893836      36.893836      36.893836    
    790000   0.34066916    -8.0766579     -7.5656614      1.5047187      50218.233      36.893836      36.893836      36.893836    
    800000   0.33976711    -8.0751233     -7.5654798      1.503281       50218.233      36.893836      36.893836      36.893836    
    810000   0.34000313    -8.073416      -7.5634185      1.5211491      50218.233      36.893836      36.893836      36.893836    
    820000   0.33938887    -8.0768535     -7.5677774      1.5067545      50218.233      36.893836      36.893836      36.893836    
    830000   0.33900001    -8.0768745     -7.5683817      1.4910817      50218.233      36.893836      36.893836      36.893836    
    840000   0.33975697    -8.0793532     -7.569725       1.4750658      50218.233      36.893836      36.893836      36.893836    
    850000   0.34149383    -8.0793558     -7.5671223      1.4698275      50218.233      36.893836      36.893836      36.893836    
    860000   0.33964793    -8.0767874     -7.5673228      1.4992817      50218.233      36.893836      36.893836      36.893836    
    870000   0.33902415    -8.0787782     -7.5702492      1.479576       50218.233      36.893836      36.893836      36.893836    
    880000   0.3397813     -8.079836      -7.5701713      1.46988        50218.233      36.893836      36.893836      36.893836    
    890000   0.34166923    -8.0802599     -7.5677634      1.4842827      50218.233      36.893836      36.893836      36.893836    
    900000   0.34195992    -8.0770851     -7.5641525      1.4979107      50218.233      36.893836      36.893836      36.893836    
    910000   0.33960538    -8.0798483     -7.5704474      1.4778145      50218.233      36.893836      36.893836      36.893836    
    920000   0.33808292    -8.0794672     -7.5723501      1.4693865      50218.233      36.893836      36.893836      36.893836    
    930000   0.3390305     -8.0777106     -7.5691721      1.4914657      50218.233      36.893836      36.893836      36.893836    
    940000   0.33973363    -8.0779773     -7.5683841      1.492812       50218.233      36.893836      36.893836      36.893836    
    950000   0.33918051    -8.0788642     -7.5701006      1.4877298      50218.233      36.893836      36.893836      36.893836    
    960000   0.34042191    -8.0790041     -7.5683785      1.4776586      50218.233      36.893836      36.893836      36.893836    
    970000   0.34039871    -8.0789162     -7.5683254      1.4819406      50218.233      36.893836      36.893836      36.893836    
    980000   0.33783919    -8.077873      -7.5711214      1.4913642      50218.233      36.893836      36.893836      36.893836    
    990000   0.34007845    -8.0782635     -7.5681531      1.4886806      50218.233      36.893836      36.893836      36.893836    
   1000000   0.34041332    -8.0768336     -7.5662209      1.4861723      50218.233      36.893836      36.893836      36.893836    
   1010000   0.34018371    -8.0768049     -7.5665366      1.4972072      50218.233      36.893836      36.893836      36.893836    
   1020000   0.33853356    -8.0796297     -7.5718366      1.4743891      50218.233      36.893836      36.893836      36.893836    
   1030000   0.34083247    -8.0788283     -7.5675869      1.4828574      50218.233      36.893836      36.893836      36.893836    
   1040000   0.33988941    -8.076951      -7.5671241      1.4954723      50218.233      36.893836      36.893836      36.893836    
   1050000   0.33799614    -8.075676      -7.568689       1.509659       50218.233      36.893836      36.893836      36.893836    
   1060000   0.34040758    -8.0779802     -7.5673761      1.491199       50218.233      36.893836      36.893836      36.893836    
   1070000   0.33955189    -8.0810409     -7.5717204      1.4601292      50218.233      36.893836      36.893836      36.893836    
   1080000   0.34209009    -8.0749998     -7.561872       1.5133463      50218.233      36.893836      36.893836      36.893836    
   1090000   0.34158528    -8.0759187     -7.563548       1.5040421      50218.233      36.893836      36.893836      36.893836    
   1100000   0.33887635    -8.0780914     -7.5697841      1.4796929      50218.233      36.893836      36.893836      36.893836    
   1110000   0.34103071    -8.0779726     -7.5664338      1.497988       50218.233      36.893836      36.893836      36.893836    
   1120000   0.34147064    -8.0750442     -7.5628455      1.5036259      50218.233      36.893836      36.893836      36.893836    
   1130000   0.34081806    -8.0756239     -7.5644041      1.5063698      50218.233      36.893836      36.893836      36.893836    
   1140000   0.33989901    -8.0767053     -7.566864       1.4994758      50218.233      36.893836      36.893836      36.893836    
   1150000   0.34058846    -8.0761889     -7.5653135      1.5000903      50218.233      36.893836      36.893836      36.893836    
   1160000   0.33885327    -8.080719      -7.5724463      1.4610473      50218.233      36.893836      36.893836      36.893836    
   1170000   0.3409022     -8.0769525     -7.5656065      1.4984003      50218.233      36.893836      36.893836      36.893836    
   1180000   0.33977735    -8.076445      -7.5667863      1.5045158      50218.233      36.893836      36.893836      36.893836    
   1190000   0.33832975    -8.0775569     -7.5700695      1.4922014      50218.233      36.893836      36.893836      36.893836    
   1200000   0.34147399    -8.0778125     -7.5656088      1.494346       50218.233      36.893836      36.893836      36.893836    
   1210000   0.3403111     -8.0755518     -7.5650924      1.4913153      50218.233      36.893836      36.893836      36.893836    
   1220000   0.339752      -8.0758282     -7.5662075      1.4973871      50218.233      36.893836      36.893836      36.893836    
   1230000   0.33911454    -8.0760029     -7.5673383      1.4964637      50218.233      36.893836      36.893836      36.893836    
   1240000   0.34025786    -8.0783581     -7.5679785      1.4778763      50218.233      36.893836      36.893836      36.893836    
   1250000   0.3400806     -8.0740878     -7.5639741      1.5186524      50218.233      36.893836      36.893836      36.893836    
   1260000   0.33850886    -8.0763975     -7.5686415      1.4962224      50218.233      36.893836      36.893836      36.893836    
   1270000   0.34172941    -8.075865      -7.5632782      1.5099188      50218.233      36.893836      36.893836      36.893836    
   1280000   0.33829172    -8.0759574     -7.5685271      1.4987687      50218.233      36.893836      36.893836      36.893836    
   1290000   0.33819867    -8.0774399     -7.5701491      1.4868378      50218.233      36.893836      36.893836      36.893836    
   1300000   0.3398392     -8.0795265     -7.569775       1.4778617      50218.233      36.893836      36.893836      36.893836    
   1310000   0.34077623    -8.076587      -7.5654299      1.4978218      50218.233      36.893836      36.893836      36.893836    
   1320000   0.33771253    -8.0754241     -7.5688625      1.5029523      50218.233      36.893836      36.893836      36.893836    
   1330000   0.33931586    -8.0758079     -7.5668414      1.5013174      50218.233      36.893836      36.893836      36.893836    
   1340000   0.34196911    -8.0771169     -7.5641705      1.5004319      50218.233      36.893836      36.893836      36.893836    
   1350000   0.34034733    -8.0770487     -7.5665349      1.495534       50218.233      36.893836      36.893836      36.893836    
   1360000   0.34029155    -8.0807653     -7.5703352      1.4705149      50218.233      36.893836      36.893836      36.893836    
   1370000   0.33973802    -8.07642       -7.5668202      1.4987296      50218.233      36.893836      36.893836      36.893836    
   1380000   0.34138355    -8.0772119     -7.5651439      1.4910607      50218.233      36.893836      36.893836      36.893836    
   1390000   0.34033038    -8.0774693     -7.566981       1.4936229      50218.233      36.893836      36.893836      36.893836    
   1400000   0.33994455    -8.0770886     -7.5671791      1.4925355      50218.233      36.893836      36.893836      36.893836    
   1410000   0.34004526    -8.0773042     -7.5672435      1.4883835      50218.233      36.893836      36.893836      36.893836    
   1420000   0.33838096    -8.0796791     -7.5721148      1.4736923      50218.233      36.893836      36.893836      36.893836    
   1430000   0.33941189    -8.0759539     -7.5668433      1.509666       50218.233      36.893836      36.893836      36.893836    
   1440000   0.3388843     -8.0784046     -7.5700854      1.4815615      50218.233      36.893836      36.893836      36.893836    
   1450000   0.33898731    -8.0761806     -7.5677069      1.5061913      50218.233      36.893836      36.893836      36.893836    
   1460000   0.34208987    -8.0778983     -7.5647708      1.4961673      50218.233      36.893836      36.893836      36.893836    
   1470000   0.33992766    -8.0772671     -7.5673829      1.4918008      50218.233      36.893836      36.893836      36.893836    
   1480000   0.33856354    -8.074884      -7.567046       1.5070385      50218.233      36.893836      36.893836      36.893836    
   1490000   0.33941676    -8.0783566     -7.5692387      1.4889762      50218.233      36.893836      36.893836      36.893836    
   1500000   0.34111982    -8.0792737     -7.5676013      1.4718114      50218.233      36.893836      36.893836      36.893836    
   1510000   0.33916606    -8.0780742     -7.5693323      1.4923412      50218.233      36.893836      36.893836      36.893836    
   1520000   0.34055053    -8.0797338     -7.5689153      1.4735975      50218.233      36.893836      36.893836      36.893836    
   1530000   0.33994961    -8.0787607     -7.5688436      1.4782349      50218.233      36.893836      36.893836      36.893836    
   1540000   0.34021341    -8.0777011     -7.5673883      1.4897285      50218.233      36.893836      36.893836      36.893836    
   1550000   0.33941407    -8.0772195     -7.5681056      1.4920277      50218.233      36.893836      36.893836      36.893836    
   1560000   0.33900392    -8.0809618     -7.5724632      1.4769025      50218.233      36.893836      36.893836      36.893836    
   1570000   0.33930871    -8.07715       -7.5681942      1.4995712      50218.233      36.893836      36.893836      36.893836    
   1580000   0.33908175    -8.0776072     -7.5689918      1.4862132      50218.233      36.893836      36.893836      36.893836    
   1590000   0.33846737    -8.0761048     -7.5684109      1.508142       50218.233      36.893836      36.893836      36.893836    
   1600000   0.34026132    -8.0786824     -7.5682976      1.4840768      50218.233      36.893836      36.893836      36.893836    
   1610000   0.33922376    -8.0791761     -7.5703477      1.4787404      50218.233      36.893836      36.893836      36.893836    
   1620000   0.34068021    -8.0753328     -7.5643198      1.5094272      50218.233      36.893836      36.893836      36.893836    
   1630000   0.33911632    -8.078231      -7.5695638      1.4853395      50218.233      36.893836      36.893836      36.893836    
   1640000   0.34073794    -8.075118      -7.5640183      1.5107958      50218.233      36.893836      36.893836      36.893836    
   1650000   0.34091602    -8.0761348     -7.564768       1.5033853      50218.233      36.893836      36.893836      36.893836    
   1660000   0.34107613    -8.0775062     -7.5658993      1.4839011      50218.233      36.893836      36.893836      36.893836    
   1670000   0.33972428    -8.0800986     -7.5705194      1.4629658      50218.233      36.893836      36.893836      36.893836    
   1680000   0.34118327    -8.0783146     -7.566547       1.4861216      50218.233      36.893836      36.893836      36.893836    
   1690000   0.34120742    -8.0783961     -7.5665923      1.4830944      50218.233      36.893836      36.893836      36.893836    
   1700000   0.34041743    -8.0782752     -7.5676563      1.4889165      50218.233      36.893836      36.893836      36.893836    
   1710000   0.34050651    -8.0770378     -7.5662853      1.4940968      50218.233      36.893836      36.893836      36.893836    
   1720000   0.34098864    -8.0776983     -7.5662226      1.4884895      50218.233      36.893836      36.893836      36.893836    
   1730000   0.34060632    -8.0775128     -7.5666106      1.494818       50218.233      36.893836      36.893836      36.893836    
   1740000   0.34035571    -8.076246      -7.5657197      1.4951458      50218.233      36.893836      36.893836      36.893836    
   1750000   0.34103059    -8.0773745     -7.5658359      1.495359       50218.233      36.893836      36.893836      36.893836    
   1760000   0.3397118     -8.0752817     -7.5657212      1.5092609      50218.233      36.893836      36.893836      36.893836    
   1770000   0.33908068    -8.076826      -7.5682122      1.4961884      50218.233      36.893836      36.893836      36.893836    
   1780000   0.34074612    -8.0755286     -7.5644167      1.5167269      50218.233      36.893836      36.893836      36.893836    
   1790000   0.34034995    -8.075581      -7.5650633      1.5016434      50218.233      36.893836      36.893836      36.893836    
   1800000   0.33873356    -8.0759169     -7.5678238      1.5036295      50218.233      36.893836      36.893836      36.893836    
   1810000   0.34038215    -8.0745711     -7.5640052      1.5182135      50218.233      36.893836      36.893836      36.893836    
   1820000   0.33997288    -8.0777094     -7.5677573      1.4849282      50218.233      36.893836      36.893836      36.893836    
   1830000   0.33923355    -8.0777312     -7.5688881      1.4841865      50218.233      36.893836      36.893836      36.893836    
   1840000   0.34048721    -8.0765729     -7.5658494      1.4952341      50218.233      36.893836      36.893836      36.893836    
   1850000   0.33890517    -8.0752117     -7.5668611      1.5010946      50218.233      36.893836      36.893836      36.893836    
   1860000   0.33864872    -8.0771695     -7.5692036      1.4859718      50218.233      36.893836      36.893836      36.893836    
   1870000   0.33972494    -8.0769971     -7.5674169      1.4903699      50218.233      36.893836      36.893836      36.893836    
   1880000   0.34097748    -8.0781415     -7.5666826      1.4843347      50218.233      36.893836      36.893836      36.893836    
   1890000   0.33889208    -8.078312      -7.5699811      1.4866199      50218.233      36.893836      36.893836      36.893836    
   1900000   0.33873392    -8.0797872     -7.5716935      1.4812624      50218.233      36.893836      36.893836      36.893836    
   1910000   0.338102      -8.0746089     -7.5674631      1.5068229      50218.233      36.893836      36.893836      36.893836    
   1920000   0.33958098    -8.0779441     -7.5685799      1.4915639      50218.233      36.893836      36.893836      36.893836    
   1930000   0.33929119    -8.07471       -7.5657804      1.5165512      50218.233      36.893836      36.893836      36.893836    
   1940000   0.33929537    -8.0769833     -7.5680475      1.4841784      50218.233      36.893836      36.893836      36.893836    
   1950000   0.33718213    -8.0818243     -7.5760583      1.4595253      50218.233      36.893836      36.893836      36.893836    
   1960000   0.34080993    -8.077129      -7.5659214      1.4915518      50218.233      36.893836      36.893836      36.893836    
   1970000   0.34033247    -8.0795405     -7.569049       1.4743463      50218.233      36.893836      36.893836      36.893836    
   1980000   0.34112107    -8.0774145     -7.5657402      1.4903002      50218.233      36.893836      36.893836      36.893836    
   1990000   0.34024249    -8.0786029     -7.5682464      1.4787071      50218.233      36.893836      36.893836      36.893836    
   2000000   0.34104884    -8.0776573     -7.5660913      1.4921717      50218.233      36.893836      36.893836      36.893836    
   2010000   0.33931303    -8.077767      -7.5688047      1.4920626      50218.233      36.893836      36.893836      36.893836    
   2020000   0.34173098    -8.0762396     -7.5636505      1.5068814      50218.233      36.893836      36.893836      36.893836    
   2030000   0.34030355    -8.0801323     -7.5696842      1.4630193      50218.233      36.893836      36.893836      36.893836    
   2040000   0.33940198    -8.0773791     -7.5682834      1.4890894      50218.233      36.893836      36.893836      36.893836    
   2050000   0.33945178    -8.0768689     -7.5676984      1.487862       50218.233      36.893836      36.893836      36.893836    
   2060000   0.34126057    -8.0781551     -7.5662716      1.4966349      50218.233      36.893836      36.893836      36.893836    
   2070000   0.34118657    -8.0782316     -7.566459       1.4885023      50218.233      36.893836      36.893836      36.893836    
   2080000   0.33956777    -8.0793842     -7.5700398      1.4721038      50218.233      36.893836      36.893836      36.893836    
   2090000   0.33896383    -8.0791879     -7.5707493      1.4801155      50218.233      36.893836      36.893836      36.893836    
   2100000   0.34132433    -8.0751007     -7.5631215      1.5181205      50218.233      36.893836      36.893836      36.893836    
   2110000   0.33875882    -8.0762004     -7.5680694      1.4931616      50218.233      36.893836      36.893836      36.893836    
   2120000   0.34041772    -8.0788782     -7.5682589      1.4826024      50218.233      36.893836      36.893836      36.893836    
   2130000   0.34090129    -8.0790335     -7.5676888      1.4776561      50218.233      36.893836      36.893836      36.893836    
   2140000   0.34090218    -8.075345      -7.563999       1.5056747      50218.233      36.893836      36.893836      36.893836    
   2150000   0.33976812    -8.0777932     -7.5681483      1.4835335      50218.233      36.893836      36.893836      36.893836    
   2160000   0.33993778    -8.0745995     -7.5647001      1.5066858      50218.233      36.893836      36.893836      36.893836    
   2170000   0.33959724    -8.0782361     -7.5688475      1.4796497      50218.233      36.893836      36.893836      36.893836    
   2180000   0.33992501    -8.0790681     -7.5691879      1.4858173      50218.233      36.893836      36.893836      36.893836    
   2190000   0.34034753    -8.0797413     -7.5692272      1.4868822      50218.233      36.893836      36.893836      36.893836    
   2200000   0.34110564    -8.0759289     -7.5642777      1.5048773      50218.233      36.893836      36.893836      36.893836    
   2210000   0.33851361    -8.0771833     -7.5694201      1.4921052      50218.233      36.893836      36.893836      36.893836    
   2220000   0.34021737    -8.0758029     -7.5654841      1.5147526      50218.233      36.893836      36.893836      36.893836    
   2230000   0.34164748    -8.0774435     -7.5649795      1.488226       50218.233      36.893836      36.893836      36.893836    
   2240000   0.33864788    -8.0774584     -7.5694938      1.4982635      50218.233      36.893836      36.893836      36.893836    
   2250000   0.33852779    -8.0739994     -7.5662149      1.5214331      50218.233      36.893836      36.893836      36.893836    
   2260000   0.33921913    -8.0747411     -7.5659197      1.5053284      50218.233      36.893836      36.893836      36.893836    
   2270000   0.34069958    -8.076907      -7.5658649      1.5019567      50218.233      36.893836      36.893836      36.893836    
   2280000   0.34193876    -8.0749113     -7.5620105      1.510344       50218.233      36.893836      36.893836      36.893836    
   2290000   0.33935701    -8.0777092     -7.5686809      1.493386       50218.233      36.893836      36.893836      36.893836    
   2300000   0.33826431    -8.0766508     -7.5692615      1.4939306      50218.233      36.893836      36.893836      36.893836    
   2310000   0.33857764    -8.0749899     -7.5671307      1.4998608      50218.233      36.893836      36.893836      36.893836    
   2320000   0.34006975    -8.0767235     -7.5666261      1.5009425      50218.233      36.893836      36.893836      36.893836    
   2330000   0.34071525    -8.077854      -7.5667884      1.4917066      50218.233      36.893836      36.893836      36.893836    
   2340000   0.34031175    -8.0777296     -7.5672692      1.4906984      50218.233      36.893836      36.893836      36.893836    
   2350000   0.33905053    -8.0765674     -7.5679989      1.5028695      50218.233      36.893836      36.893836      36.893836    
   2360000   0.34164832    -8.075116      -7.5626508      1.5097663      50218.233      36.893836      36.893836      36.893836    
   2370000   0.33907365    -8.0745655     -7.5659623      1.5171778      50218.233      36.893836      36.893836      36.893836    
   2380000   0.33893755    -8.07804       -7.5696409      1.4815684      50218.233      36.893836      36.893836      36.893836    
   2390000   0.33900973    -8.0779987     -7.5694913      1.4896324      50218.233      36.893836      36.893836      36.893836    
   2400000   0.3406553     -8.078698      -7.5677223      1.4853994      50218.233      36.893836      36.893836      36.893836    
   2410000   0.34174748    -8.0769229     -7.564309       1.4934596      50218.233      36.893836      36.893836      36.893836    
   2420000   0.33978562    -8.0773603     -7.5676891      1.493035       50218.233      36.893836      36.893836      36.893836    
   2430000   0.34030111    -8.0782014     -7.567757       1.4889013      50218.233      36.893836      36.893836      36.893836    
   2440000   0.3392569     -8.0807151     -7.571837       1.4682851      50218.233      36.893836      36.893836      36.893836    
   2450000   0.33841497    -8.0807156     -7.5731003      1.4688525      50218.233      36.893836      36.893836      36.893836    
   2460000   0.33852975    -8.0788345     -7.5710471      1.489326       50218.233      36.893836      36.893836      36.893836    
   2470000   0.33985054    -8.0826681     -7.5728995      1.4471304      50218.233      36.893836      36.893836      36.893836    
   2480000   0.33945434    -8.0804884     -7.5713141      1.4785005      50218.233      36.893836      36.893836      36.893836    
   2490000   0.33953612    -8.0782447     -7.5689477      1.4900098      50218.233      36.893836      36.893836      36.893836    
   2500000   0.33962477    -8.0792085     -7.5697786      1.4806015      50218.233      36.893836      36.893836      36.893836    
   2510000   0.34054429    -8.0761399     -7.5653307      1.5026463      50218.233      36.893836      36.893836      36.893836    
   2520000   0.34099819    -8.0813191     -7.5698291      1.4678814      50218.233      36.893836      36.893836      36.893836    
   2530000   0.34038036    -8.0793863     -7.568823       1.4813442      50218.233      36.893836      36.893836      36.893836    
   2540000   0.34075203    -8.0800897     -7.5689689      1.4709054      50218.233      36.893836      36.893836      36.893836    
   2550000   0.33948571    -8.079484      -7.5702627      1.4752779      50218.233      36.893836      36.893836      36.893836    
   2560000   0.34001248    -8.0780884     -7.5680769      1.4802539      50218.233      36.893836      36.893836      36.893836    
   2570000   0.34183034    -8.0788135     -7.5660753      1.4847574      50218.233      36.893836      36.893836      36.893836    
   2580000   0.3400605     -8.0764068     -7.5663233      1.4926814      50218.233      36.893836      36.893836      36.893836    
   2590000   0.34169302    -8.0778136     -7.5652814      1.4821521      50218.233      36.893836      36.893836      36.893836    
   2600000   0.33777172    -8.0787432     -7.5720928      1.4771718      50218.233      36.893836      36.893836      36.893836    
   2610000   0.33920683    -8.079997      -7.571194       1.4760927      50218.233      36.893836      36.893836      36.893836    
   2620000   0.34086442    -8.0810643     -7.5697749      1.4653299      50218.233      36.893836      36.893836      36.893836    
   2630000   0.34058085    -8.074832      -7.563968       1.507248       50218.233      36.893836      36.893836      36.893836    
   2640000   0.34125573    -8.0811641     -7.5692878      1.4673989      50218.233      36.893836      36.893836      36.893836    
   2650000   0.34069356    -8.0801553     -7.5691222      1.4721089      50218.233      36.893836      36.893836      36.893836    
   2660000   0.33879331    -8.0785276     -7.5703449      1.4887894      50218.233      36.893836      36.893836      36.893836    
   2670000   0.34013479    -8.0779433     -7.5677484      1.4887235      50218.233      36.893836      36.893836      36.893836    
   2680000   0.33918452    -8.0740405     -7.5652709      1.5225506      50218.233      36.893836      36.893836      36.893836    
   2690000   0.34012582    -8.0771038     -7.5669223      1.4947965      50218.233      36.893836      36.893836      36.893836    
   2700000   0.3395159     -8.0768459     -7.5675793      1.4995254      50218.233      36.893836      36.893836      36.893836    
   2710000   0.33902309    -8.077122      -7.5685946      1.4941703      50218.233      36.893836      36.893836      36.893836    
   2720000   0.3367372     -8.0781463     -7.5730476      1.4824174      50218.233      36.893836      36.893836      36.893836    
   2730000   0.33935259    -8.0767968     -7.5677751      1.4986362      50218.233      36.893836      36.893836      36.893836    
   2740000   0.34113202    -8.0757395     -7.5640488      1.4992752      50218.233      36.893836      36.893836      36.893836    
   2750000   0.33939833    -8.0760516     -7.5669614      1.5043629      50218.233      36.893836      36.893836      36.893836    
   2760000   0.33918976    -8.0780698     -7.5692924      1.4911164      50218.233      36.893836      36.893836      36.893836    
   2770000   0.33858833    -8.0755753     -7.5677         1.5003862      50218.233      36.893836      36.893836      36.893836    
   2780000   0.33953929    -8.0773569     -7.5680552      1.4929155      50218.233      36.893836      36.893836      36.893836    
   2790000   0.33967719    -8.0792999     -7.5697914      1.4812747      50218.233      36.893836      36.893836      36.893836    
   2800000   0.34082486    -8.0773329     -7.5661029      1.4939998      50218.233      36.893836      36.893836      36.893836    
   2810000   0.34055821    -8.0754296     -7.5645995      1.5031371      50218.233      36.893836      36.893836      36.893836    
   2820000   0.33910385    -8.0763208     -7.5676722      1.5037771      50218.233      36.893836      36.893836      36.893836    
   2830000   0.34030226    -8.0757158     -7.5652697      1.5030367      50218.233      36.893836      36.893836      36.893836    
   2840000   0.33683359    -8.0768691     -7.5716259      1.4905461      50218.233      36.893836      36.893836      36.893836    
   2850000   0.3409604     -8.077485      -7.5660517      1.4915251      50218.233      36.893836      36.893836      36.893836    
   2860000   0.34007461    -8.07567       -7.5655653      1.505862       50218.233      36.893836      36.893836      36.893836    
   2870000   0.34130733    -8.0774975     -7.5655438      1.4934824      50218.233      36.893836      36.893836      36.893836    
   2880000   0.34027689    -8.0766534     -7.5662453      1.4912944      50218.233      36.893836      36.893836      36.893836    
   2890000   0.3401673     -8.0774103     -7.5671666      1.4904177      50218.233      36.893836      36.893836      36.893836    
   2900000   0.33864879    -8.0800269     -7.5720609      1.463835       50218.233      36.893836      36.893836      36.893836    
   2910000   0.339471      -8.0803748     -7.5711756      1.4629684      50218.233      36.893836      36.893836      36.893836    
   2920000   0.34063532    -8.0788689     -7.5679232      1.4865691      50218.233      36.893836      36.893836      36.893836    
   2930000   0.34168265    -8.0787194     -7.5662027      1.4870217      50218.233      36.893836      36.893836      36.893836    
   2940000   0.3387297     -8.0776299     -7.5695426      1.4970453      50218.233      36.893836      36.893836      36.893836    
   2950000   0.34026394    -8.0798364     -7.5694477      1.4793928      50218.233      36.893836      36.893836      36.893836    
   2960000   0.33868941    -8.0783698     -7.5703429      1.480153       50218.233      36.893836      36.893836      36.893836    
   2970000   0.34014236    -8.0795302     -7.5693239      1.4772585      50218.233      36.893836      36.893836      36.893836    
   2980000   0.33926892    -8.0775959     -7.5686997      1.4912231      50218.233      36.893836      36.893836      36.893836    
   2990000   0.34136284    -8.0779973     -7.5659603      1.4830356      50218.233      36.893836      36.893836      36.893836    
   3000000   0.33984071    -8.0788727     -7.5691189      1.4802371      50218.233      36.893836      36.893836      36.893836    
   3010000   0.33881394    -8.0780782     -7.5698645      1.482876       50218.233      36.893836      36.893836      36.893836    
   3020000   0.34131794    -8.0797959     -7.5678263      1.4735853      50218.233      36.893836      36.893836      36.893836    
   3030000   0.33976333    -8.0794239     -7.5697862      1.4772375      50218.233      36.893836      36.893836      36.893836    
   3040000   0.34002887    -8.0805211     -7.5704851      1.4698557      50218.233      36.893836      36.893836      36.893836    
   3050000   0.3399559     -8.0793387     -7.5694121      1.4831047      50218.233      36.893836      36.893836      36.893836    
   3060000   0.34037786    -8.0745538     -7.5639943      1.5038086      50218.233      36.893836      36.893836      36.893836    
   3070000   0.33929939    -8.0766764     -7.5677346      1.4971159      50218.233      36.893836      36.893836      36.893836    
   3080000   0.34099714    -8.0776307     -7.5661422      1.4983447      50218.233      36.893836      36.893836      36.893836    
   3090000   0.33963574    -8.0785198     -7.5690734      1.476643       50218.233      36.893836      36.893836      36.893836    
   3100000   0.33862319    -8.0786764     -7.5707489      1.478171       50218.233      36.893836      36.893836      36.893836    
   3110000   0.3392223     -8.0771299     -7.5683037      1.5020852      50218.233      36.893836      36.893836      36.893836    
   3120000   0.34090208    -8.0771195     -7.5657736      1.4864846      50218.233      36.893836      36.893836      36.893836    
   3130000   0.33934865    -8.0766841     -7.5676684      1.4863035      50218.233      36.893836      36.893836      36.893836    
   3140000   0.34133151    -8.0783465     -7.5663565      1.4892903      50218.233      36.893836      36.893836      36.893836    
   3150000   0.34110652    -8.0771088     -7.5654563      1.5043015      50218.233      36.893836      36.893836      36.893836    
   3160000   0.34156184    -8.0767495     -7.564414       1.5014386      50218.233      36.893836      36.893836      36.893836    
   3170000   0.34196539    -8.0785868     -7.565646       1.4788734      50218.233      36.893836      36.893836      36.893836    
   3180000   0.34162988    -8.0781201     -7.5656826      1.4894675      50218.233      36.893836      36.893836      36.893836    
   3190000   0.34123985    -8.077759      -7.5659065      1.499712       50218.233      36.893836      36.893836      36.893836    
   3200000   0.33929633    -8.0770343     -7.5680971      1.4923414      50218.233      36.893836      36.893836      36.893836    
   3210000   0.33742358    -8.0766353     -7.5705071      1.4954203      50218.233      36.893836      36.893836      36.893836    
   3220000   0.33905503    -8.0750711     -7.5664958      1.5052816      50218.233      36.893836      36.893836      36.893836    
   3230000   0.33934574    -8.0774358     -7.5684244      1.4909311      50218.233      36.893836      36.893836      36.893836    
   3240000   0.33941384    -8.0749513     -7.5658378      1.5119177      50218.233      36.893836      36.893836      36.893836    
   3250000   0.33942194    -8.0791806     -7.5700549      1.4825793      50218.233      36.893836      36.893836      36.893836    
   3260000   0.33817084    -8.0737022     -7.5664532      1.5280412      50218.233      36.893836      36.893836      36.893836    
   3270000   0.33963912    -8.0784123     -7.5689609      1.4896053      50218.233      36.893836      36.893836      36.893836    
   3280000   0.34094143    -8.0764004     -7.5649956      1.5036982      50218.233      36.893836      36.893836      36.893836    
   3290000   0.34006441    -8.0818176     -7.5717283      1.4555874      50218.233      36.893836      36.893836      36.893836    
   3300000   0.33799037    -8.0779629     -7.5709845      1.4925711      50218.233      36.893836      36.893836      36.893836    
   3310000   0.33928245    -8.0748642     -7.5659477      1.5154254      50218.233      36.893836      36.893836      36.893836    
   3320000   0.34073174    -8.0761667     -7.5650763      1.5024219      50218.233      36.893836      36.893836      36.893836    
   3330000   0.34032764    -8.0793387     -7.5688546      1.4746769      50218.233      36.893836      36.893836      36.893836    
   3340000   0.34014831    -8.0760621     -7.5658469      1.500616       50218.233      36.893836      36.893836      36.893836    
   3350000   0.34001046    -8.0779265     -7.567918       1.488858       50218.233      36.893836      36.893836      36.893836    
   3360000   0.3396092     -8.0778116     -7.5684051      1.4938134      50218.233      36.893836      36.893836      36.893836    
   3370000   0.3407693     -8.0772847     -7.566138       1.4883904      50218.233      36.893836      36.893836      36.893836    
   3380000   0.33892049    -8.0762617     -7.5678882      1.4946838      50218.233      36.893836      36.893836      36.893836    
   3390000   0.34049622    -8.076416      -7.565679       1.5023464      50218.233      36.893836      36.893836      36.893836    
   3400000   0.33973166    -8.0750767     -7.5654865      1.5047547      50218.233      36.893836      36.893836      36.893836    
   3410000   0.34041452    -8.0770595     -7.5664449      1.4923419      50218.233      36.893836      36.893836      36.893836    
   3420000   0.33868677    -8.0800718     -7.5720489      1.4731945      50218.233      36.893836      36.893836      36.893836    
   3430000   0.33844046    -8.0785824     -7.5709289      1.485809       50218.233      36.893836      36.893836      36.893836    
   3440000   0.34147561    -8.0780737     -7.5658676      1.4920307      50218.233      36.893836      36.893836      36.893836    
   3450000   0.34069369    -8.0779613     -7.566928       1.4935901      50218.233      36.893836      36.893836      36.893836    
   3460000   0.341921      -8.0800592     -7.567185       1.4776611      50218.233      36.893836      36.893836      36.893836    
   3470000   0.33869648    -8.0777383     -7.5697008      1.4866315      50218.233      36.893836      36.893836      36.893836    
   3480000   0.34031153    -8.0793163     -7.5688562      1.4797813      50218.233      36.893836      36.893836      36.893836    
   3490000   0.33949611    -8.0769747     -7.5677378      1.4933453      50218.233      36.893836      36.893836      36.893836    
   3500000   0.34061978    -8.082111      -7.5711886      1.4582421      50218.233      36.893836      36.893836      36.893836    
   3510000   0.33986142    -8.0774503     -7.5676654      1.4896332      50218.233      36.893836      36.893836      36.893836    
   3520000   0.33965651    -8.0767011     -7.5672236      1.4957633      50218.233      36.893836      36.893836      36.893836    
   3530000   0.33985129    -8.0778465     -7.5680768      1.4927316      50218.233      36.893836      36.893836      36.893836    
   3540000   0.34024733    -8.0766218     -7.5662581      1.5025421      50218.233      36.893836      36.893836      36.893836    
   3550000   0.34168402    -8.0788817     -7.566363       1.4823751      50218.233      36.893836      36.893836      36.893836    
   3560000   0.34050177    -8.0788224     -7.568077       1.4830866      50218.233      36.893836      36.893836      36.893836    
   3570000   0.34024899    -8.0803482     -7.569982       1.4752005      50218.233      36.893836      36.893836      36.893836    
   3580000   0.34270537    -8.0792721     -7.5652214      1.481317       50218.233      36.893836      36.893836      36.893836    
   3590000   0.33944066    -8.0773133     -7.5681596      1.4882737      50218.233      36.893836      36.893836      36.893836    
   3600000   0.34042397    -8.0792149     -7.5685862      1.4756566      50218.233      36.893836      36.893836      36.893836    
   3610000   0.3400502     -8.0794234     -7.5693554      1.4790946      50218.233      36.893836      36.893836      36.893836    
   3620000   0.34106064    -8.0788492     -7.5672656      1.4716749      50218.233      36.893836      36.893836      36.893836    
   3630000   0.33953344    -8.0777574     -7.5684645      1.4928712      50218.233      36.893836      36.893836      36.893836    
   3640000   0.34036372    -8.0782775     -7.5677391      1.490399       50218.233      36.893836      36.893836      36.893836    
   3650000   0.3393626     -8.0755475     -7.5665108      1.5026183      50218.233      36.893836      36.893836      36.893836    
   3660000   0.34024671    -8.0784673     -7.5681045      1.4808502      50218.233      36.893836      36.893836      36.893836    
   3670000   0.34055155    -8.0746616     -7.5638415      1.5111976      50218.233      36.893836      36.893836      36.893836    
   3680000   0.33890142    -8.0788217     -7.5704768      1.4783129      50218.233      36.893836      36.893836      36.893836    
   3690000   0.33922788    -8.0764102     -7.5675756      1.5043094      50218.233      36.893836      36.893836      36.893836    
   3700000   0.33994132    -8.0760405     -7.5661358      1.501982       50218.233      36.893836      36.893836      36.893836    
   3710000   0.33923143    -8.0775437     -7.5687038      1.486177       50218.233      36.893836      36.893836      36.893836    
   3720000   0.34015489    -8.0769909     -7.5667658      1.4964232      50218.233      36.893836      36.893836      36.893836    
   3730000   0.34014808    -8.077378      -7.5671632      1.4912929      50218.233      36.893836      36.893836      36.893836    
   3740000   0.34105053    -8.0762326     -7.564664       1.5054673      50218.233      36.893836      36.893836      36.893836    
   3750000   0.34238268    -8.0750231     -7.5614564      1.5142525      50218.233      36.893836      36.893836      36.893836    
   3760000   0.34103686    -8.0774765     -7.5659285      1.4884607      50218.233      36.893836      36.893836      36.893836    
   3770000   0.3404445     -8.0772784     -7.5666189      1.4998465      50218.233      36.893836      36.893836      36.893836    
   3780000   0.34014106    -8.0780423     -7.567838       1.4957638      50218.233      36.893836      36.893836      36.893836    
   3790000   0.33924088    -8.0783291     -7.569475       1.4784419      50218.233      36.893836      36.893836      36.893836    
   3800000   0.33924264    -8.0806341     -7.5717774      1.4661905      50218.233      36.893836      36.893836      36.893836    
   3810000   0.34077228    -8.0796855     -7.5685344      1.4742506      50218.233      36.893836      36.893836      36.893836    
   3820000   0.34019774    -8.0799272     -7.5696379      1.4768057      50218.233      36.893836      36.893836      36.893836    
   3830000   0.3411297     -8.0795818     -7.5678945      1.4806833      50218.233      36.893836      36.893836      36.893836    
   3840000   0.33952743    -8.0780865     -7.5688026      1.4829387      50218.233      36.893836      36.893836      36.893836    
   3850000   0.34136759    -8.0766929     -7.5646488      1.4993263      50218.233      36.893836      36.893836      36.893836    
   3860000   0.33903099    -8.0789291     -7.5703899      1.4801607      50218.233      36.893836      36.893836      36.893836    
   3870000   0.33917473    -8.0760244     -7.5672695      1.5022072      50218.233      36.893836      36.893836      36.893836    
   3880000   0.33768652    -8.0780659     -7.5715433      1.4881278      50218.233      36.893836      36.893836      36.893836    
   3890000   0.3401933     -8.0753921     -7.5651094      1.5053715      50218.233      36.893836      36.893836      36.893836    
   3900000   0.34088164    -8.0797915     -7.5684763      1.4825482      50218.233      36.893836      36.893836      36.893836    
   3910000   0.3381978     -8.0803341     -7.5730446      1.4677813      50218.233      36.893836      36.893836      36.893836    
   3920000   0.33864693    -8.0775394     -7.5695762      1.4850924      50218.233      36.893836      36.893836      36.893836    
   3930000   0.33936876    -8.0764961     -7.5674502      1.4991444      50218.233      36.893836      36.893836      36.893836    
   3940000   0.33850243    -8.0757459     -7.5679994      1.49362        50218.233      36.893836      36.893836      36.893836    
   3950000   0.34052604    -8.076817      -7.5660352      1.4879495      50218.233      36.893836      36.893836      36.893836    
   3960000   0.3391449     -8.0793789     -7.5706688      1.4718957      50218.233      36.893836      36.893836      36.893836    
   3970000   0.34017015    -8.0782057     -7.5679577      1.4881511      50218.233      36.893836      36.893836      36.893836    
   3980000   0.33882708    -8.0787419     -7.5705085      1.4836397      50218.233      36.893836      36.893836      36.893836    
   3990000   0.34004581    -8.0794344     -7.569373       1.4750516      50218.233      36.893836      36.893836      36.893836    
   4000000   0.34066292    -8.0785623     -7.5675752      1.4784078      50218.233      36.893836      36.893836      36.893836    
   4010000   0.34008944    -8.0762418     -7.5661149      1.5014595      50218.233      36.893836      36.893836      36.893836    
   4020000   0.33830837    -8.0779518     -7.5704965      1.4747657      50218.233      36.893836      36.893836      36.893836    
   4030000   0.3396023     -8.0757929     -7.5663967      1.5014765      50218.233      36.893836      36.893836      36.893836    
   4040000   0.33856195    -8.0782209     -7.5703852      1.4879855      50218.233      36.893836      36.893836      36.893836    
   4050000   0.34004318    -8.0801528     -7.5700953      1.4700951      50218.233      36.893836      36.893836      36.893836    
   4060000   0.34141641    -8.0744016     -7.5622843      1.5104967      50218.233      36.893836      36.893836      36.893836    
   4070000   0.34027201    -8.0816621     -7.5712613      1.4597091      50218.233      36.893836      36.893836      36.893836    
   4080000   0.34110497    -8.0775059     -7.5658558      1.494109       50218.233      36.893836      36.893836      36.893836    
   4090000   0.34025023    -8.0754896     -7.5651215      1.5158791      50218.233      36.893836      36.893836      36.893836    
   4100000   0.33839187    -8.0787377     -7.5711571      1.4850972      50218.233      36.893836      36.893836      36.893836    
   4110000   0.33977765    -8.078345      -7.5686858      1.4811546      50218.233      36.893836      36.893836      36.893836    
   4120000   0.3407578     -8.0765059     -7.5653764      1.4948241      50218.233      36.893836      36.893836      36.893836    
   4130000   0.33900708    -8.076964      -7.5684606      1.5025849      50218.233      36.893836      36.893836      36.893836    
   4140000   0.33910969    -8.0789455     -7.5702882      1.4746155      50218.233      36.893836      36.893836      36.893836    
   4150000   0.34101907    -8.0782795     -7.5667582      1.4976594      50218.233      36.893836      36.893836      36.893836    
   4160000   0.34101018    -8.0798001     -7.5682921      1.4751433      50218.233      36.893836      36.893836      36.893836    
   4170000   0.34151537    -8.0750341     -7.5627683      1.5130978      50218.233      36.893836      36.893836      36.893836    
   4180000   0.34090066    -8.0768338     -7.56549        1.497989       50218.233      36.893836      36.893836      36.893836    
   4190000   0.34095011    -8.0744966     -7.5630788      1.5170233      50218.233      36.893836      36.893836      36.893836    
   4200000   0.33927976    -8.0786789     -7.5697665      1.4740389      50218.233      36.893836      36.893836      36.893836    
   4210000   0.34074351    -8.0795757     -7.5684677      1.4721721      50218.233      36.893836      36.893836      36.893836    
   4220000   0.33783936    -8.0775362     -7.5707844      1.4893677      50218.233      36.893836      36.893836      36.893836    
   4230000   0.34057086    -8.0773447     -7.5664957      1.4847824      50218.233      36.893836      36.893836      36.893836    
   4240000   0.33909536    -8.0765646     -7.5679288      1.4965779      50218.233      36.893836      36.893836      36.893836    
   4250000   0.34083671    -8.0775948     -7.566347       1.4907457      50218.233      36.893836      36.893836      36.893836    
   4260000   0.33956509    -8.0781204     -7.56878        1.4938596      50218.233      36.893836      36.893836      36.893836    
   4270000   0.33976373    -8.0755636     -7.5659252      1.4979935      50218.233      36.893836      36.893836      36.893836    
   4280000   0.340786      -8.0777336     -7.5665619      1.4921989      50218.233      36.893836      36.893836      36.893836    
   4290000   0.33930807    -8.0774325     -7.5684777      1.4882219      50218.233      36.893836      36.893836      36.893836    
   4300000   0.34140065    -8.077952      -7.5658583      1.4916876      50218.233      36.893836      36.893836      36.893836    
   4310000   0.3390163     -8.079301      -7.5707837      1.4756076      50218.233      36.893836      36.893836      36.893836    
   4320000   0.34112398    -8.0789662     -7.5672875      1.4903104      50218.233      36.893836      36.893836      36.893836    
   4330000   0.34062083    -8.074278      -7.563354       1.5113674      50218.233      36.893836      36.893836      36.893836    
   4340000   0.34062664    -8.0766471     -7.5657144      1.5005901      50218.233      36.893836      36.893836      36.893836    
   4350000   0.33947593    -8.0791044     -7.5698978      1.4810934      50218.233      36.893836      36.893836      36.893836    
   4360000   0.33941685    -8.0752119     -7.5660938      1.5076943      50218.233      36.893836      36.893836      36.893836    
   4370000   0.33895282    -8.0777136     -7.5692916      1.4876572      50218.233      36.893836      36.893836      36.893836    
   4380000   0.34125896    -8.0809345     -7.5690533      1.471187       50218.233      36.893836      36.893836      36.893836    
   4390000   0.34115764    -8.0791231     -7.5673939      1.482457       50218.233      36.893836      36.893836      36.893836    
   4400000   0.33958046    -8.0782327     -7.5688692      1.4942762      50218.233      36.893836      36.893836      36.893836    
   4410000   0.34111615    -8.0757759     -7.5641089      1.5094486      50218.233      36.893836      36.893836      36.893836    
   4420000   0.34026776    -8.0779424     -7.567548       1.4953153      50218.233      36.893836      36.893836      36.893836    
   4430000   0.33992256    -8.0780272     -7.5681506      1.4883392      50218.233      36.893836      36.893836      36.893836    
   4440000   0.33921348    -8.0794147     -7.5706018      1.4816062      50218.233      36.893836      36.893836      36.893836    
   4450000   0.34186731    -8.0803805     -7.5675868      1.4714121      50218.233      36.893836      36.893836      36.893836    
   4460000   0.34071663    -8.0773455     -7.5662778      1.4880847      50218.233      36.893836      36.893836      36.893836    
   4470000   0.33966344    -8.0780551     -7.5685672      1.4839521      50218.233      36.893836      36.893836      36.893836    
   4480000   0.34107602    -8.0798681     -7.5682613      1.4706656      50218.233      36.893836      36.893836      36.893836    
   4490000   0.34045148    -8.0781356     -7.5674656      1.4855908      50218.233      36.893836      36.893836      36.893836    
   4500000   0.33890339    -8.0767833     -7.5684355      1.4999386      50218.233      36.893836      36.893836      36.893836    
   4510000   0.34185343    -8.0823428     -7.5695699      1.460973       50218.233      36.893836      36.893836      36.893836    
   4520000   0.34070243    -8.0784287     -7.5673824      1.4848496      50218.233      36.893836      36.893836      36.893836    
   4530000   0.34180529    -8.0754264     -7.5627258      1.50437        50218.233      36.893836      36.893836      36.893836    
   4540000   0.33968103    -8.0768922     -7.5673779      1.4996212      50218.233      36.893836      36.893836      36.893836    
   4550000   0.33956449    -8.0775399     -7.5682004      1.4849907      50218.233      36.893836      36.893836      36.893836    
   4560000   0.34047602    -8.0789353     -7.5682285      1.487838       50218.233      36.893836      36.893836      36.893836    
   4570000   0.34072621    -8.0776578     -7.5665758      1.4886171      50218.233      36.893836      36.893836      36.893836    
   4580000   0.3417228     -8.0744985     -7.5619215      1.5235092      50218.233      36.893836      36.893836      36.893836    
   4590000   0.34015515    -8.0776165     -7.567391       1.4853972      50218.233      36.893836      36.893836      36.893836    
   4600000   0.3395369     -8.0776124     -7.5683143      1.4872763      50218.233      36.893836      36.893836      36.893836    
   4610000   0.33961646    -8.0794104     -7.569993       1.4830877      50218.233      36.893836      36.893836      36.893836    
   4620000   0.34175835    -8.0767636     -7.5641334      1.4960917      50218.233      36.893836      36.893836      36.893836    
   4630000   0.34109191    -8.0787734     -7.5671428      1.4879148      50218.233      36.893836      36.893836      36.893836    
   4640000   0.33964424    -8.0753955     -7.5659364      1.5150003      50218.233      36.893836      36.893836      36.893836    
   4650000   0.34106651    -8.0758239     -7.5642314      1.5079519      50218.233      36.893836      36.893836      36.893836    
   4660000   0.33969638    -8.0787518     -7.5692144      1.4770873      50218.233      36.893836      36.893836      36.893836    
   4670000   0.33948054    -8.073576      -7.5643624      1.5151074      50218.233      36.893836      36.893836      36.893836    
   4680000   0.33951837    -8.0754516     -7.5661812      1.5069105      50218.233      36.893836      36.893836      36.893836    
   4690000   0.34075186    -8.0764982     -7.5653777      1.4908393      50218.233      36.893836      36.893836      36.893836    
   4700000   0.3403957     -8.07621       -7.5656237      1.506544       50218.233      36.893836      36.893836      36.893836    
   4710000   0.33992547    -8.0761099     -7.5662289      1.495088       50218.233      36.893836      36.893836      36.893836    
   4720000   0.33744367    -8.0800499     -7.5738916      1.4672063      50218.233      36.893836      36.893836      36.893836    
   4730000   0.3410683     -8.0764539     -7.5648587      1.4984459      50218.233      36.893836      36.893836      36.893836    
   4740000   0.3382372     -8.0777377     -7.5703891      1.4869175      50218.233      36.893836      36.893836      36.893836    
   4750000   0.33873193    -8.0763603     -7.5682696      1.4961806      50218.233      36.893836      36.893836      36.893836    
   4760000   0.33951393    -8.0787487     -7.5694851      1.4856277      50218.233      36.893836      36.893836      36.893836    
   4770000   0.34174717    -8.0773724     -7.564759       1.4932171      50218.233      36.893836      36.893836      36.893836    
   4780000   0.33871434    -8.0772934     -7.5692291      1.4889768      50218.233      36.893836      36.893836      36.893836    
   4790000   0.3403543     -8.0755771     -7.5650529      1.5052099      50218.233      36.893836      36.893836      36.893836    
   4800000   0.34176235    -8.0792372     -7.566601       1.4853924      50218.233      36.893836      36.893836      36.893836    
   4810000   0.34021654    -8.0769363     -7.5666188      1.4962097      50218.233      36.893836      36.893836      36.893836    
   4820000   0.33971366    -8.0746414     -7.5650782      1.5170578      50218.233      36.893836      36.893836      36.893836    
   4830000   0.33999695    -8.077362      -7.5673738      1.495541       50218.233      36.893836      36.893836      36.893836    
   4840000   0.3405912     -8.0782003     -7.5673208      1.4917434      50218.233      36.893836      36.893836      36.893836    
   4850000   0.33900216    -8.0764314     -7.5679354      1.4970362      50218.233      36.893836      36.893836      36.893836    
   4860000   0.34104908    -8.0797899     -7.5682235      1.4712628      50218.233      36.893836      36.893836      36.893836    
   4870000   0.33892879    -8.0759845     -7.5675986      1.5010337      50218.233      36.893836      36.893836      36.893836    
   4880000   0.34005654    -8.0776227     -7.5675451      1.4940694      50218.233      36.893836      36.893836      36.893836    
   4890000   0.33869718    -8.0757142     -7.5676756      1.4986307      50218.233      36.893836      36.893836      36.893836    
   4900000   0.34000666    -8.0761251     -7.5661224      1.5025781      50218.233      36.893836      36.893836      36.893836    
   4910000   0.33904565    -8.078528      -7.5699668      1.4776134      50218.233      36.893836      36.893836      36.893836    
   4920000   0.33853358    -8.0779739     -7.5701807      1.4902999      50218.233      36.893836      36.893836      36.893836    
   4930000   0.33990834    -8.0777912     -7.567936       1.4860069      50218.233      36.893836      36.893836      36.893836    
   4940000   0.33948127    -8.0780651     -7.5688504      1.493332       50218.233      36.893836      36.893836      36.893836    
   4950000   0.33906819    -8.0806021     -7.5720071      1.4678111      50218.233      36.893836      36.893836      36.893836    
   4960000   0.3405638     -8.0800412     -7.5692028      1.4662578      50218.233      36.893836      36.893836      36.893836    
   4970000   0.34077379    -8.0772382     -7.5660848      1.4977064      50218.233      36.893836      36.893836      36.893836    
   4980000   0.34064273    -8.0787216     -7.5677647      1.4837112      50218.233      36.893836      36.893836      36.893836    
   4990000   0.34002699    -8.0792445     -7.5692113      1.4699798      50218.233      36.893836      36.893836      36.893836    
   5000000   0.33846682    -8.078886      -7.571193       1.4789603      50218.233      36.893836      36.893836      36.893836    
   5010000   0.34052355    -8.0794618     -7.5686837      1.4734068      50218.233      36.893836      36.893836      36.893836    
   5020000   0.33987875    -8.0785977     -7.5687868      1.4855175      50218.233      36.893836      36.893836      36.893836    
   5030000   0.33949286    -8.0799955     -7.5707634      1.4712806      50218.233      36.893836      36.893836      36.893836    
   5040000   0.3413861     -8.077971      -7.5658991      1.4948241      50218.233      36.893836      36.893836      36.893836    
   5050000   0.33913018    -8.0758297     -7.5671417      1.5094149      50218.233      36.893836      36.893836      36.893836    
   5060000   0.33858909    -8.0763676     -7.5684912      1.484949       50218.233      36.893836      36.893836      36.893836    
   5070000   0.33779171    -8.0800638     -7.5733834      1.4599144      50218.233      36.893836      36.893836      36.893836    
   5080000   0.34028932    -8.077681      -7.5672543      1.4919856      50218.233      36.893836      36.893836      36.893836    
   5090000   0.34093514    -8.0797003     -7.5683049      1.4736977      50218.233      36.893836      36.893836      36.893836    
   5100000   0.33982392    -8.0787584     -7.5690298      1.4910087      50218.233      36.893836      36.893836      36.893836    
   5110000   0.33994486    -8.0785683     -7.5686582      1.4782177      50218.233      36.893836      36.893836      36.893836    
   5120000   0.33975528    -8.0798968     -7.5702711      1.4738816      50218.233      36.893836      36.893836      36.893836    
   5130000   0.33913159    -8.0768798     -7.5681896      1.4960706      50218.233      36.893836      36.893836      36.893836    
   5140000   0.33898708    -8.0790685     -7.5705951      1.4853264      50218.233      36.893836      36.893836      36.893836    
   5150000   0.3390128     -8.0747945     -7.5662825      1.5120588      50218.233      36.893836      36.893836      36.893836    
   5160000   0.34178467    -8.0784614     -7.5657917      1.4913205      50218.233      36.893836      36.893836      36.893836    
   5170000   0.33894496    -8.0799038     -7.5714936      1.4788914      50218.233      36.893836      36.893836      36.893836    
   5180000   0.34044077    -8.0772921     -7.5666382      1.4881152      50218.233      36.893836      36.893836      36.893836    
   5190000   0.33894377    -8.0781854     -7.569777       1.4829374      50218.233      36.893836      36.893836      36.893836    
   5200000   0.34052658    -8.0759406     -7.565158       1.5042283      50218.233      36.893836      36.893836      36.893836    
   5210000   0.34031087    -8.0752507     -7.5647917      1.5174308      50218.233      36.893836      36.893836      36.893836    
   5220000   0.34073835    -8.0763751     -7.5652748      1.5092112      50218.233      36.893836      36.893836      36.893836    
   5230000   0.3413632     -8.0751562     -7.5631187      1.512396       50218.233      36.893836      36.893836      36.893836    
   5240000   0.34196841    -8.0770317     -7.5640864      1.4995648      50218.233      36.893836      36.893836      36.893836    
   5250000   0.33850344    -8.0762761     -7.5685282      1.4946695      50218.233      36.893836      36.893836      36.893836    
   5260000   0.34034898    -8.0762359     -7.5657197      1.500677       50218.233      36.893836      36.893836      36.893836    
   5270000   0.34077531    -8.0767482     -7.5655925      1.5028576      50218.233      36.893836      36.893836      36.893836    
   5280000   0.33769251    -8.0812223     -7.5746908      1.465361       50218.233      36.893836      36.893836      36.893836    
   5290000   0.34032833    -8.078009      -7.5675237      1.4849084      50218.233      36.893836      36.893836      36.893836    
   5300000   0.33850071    -8.077159      -7.5694152      1.4903023      50218.233      36.893836      36.893836      36.893836    
   5310000   0.34006439    -8.07458       -7.5644907      1.5234738      50218.233      36.893836      36.893836      36.893836    
   5320000   0.33934693    -8.074438      -7.5654248      1.5101321      50218.233      36.893836      36.893836      36.893836    
   5330000   0.34123359    -8.0784918     -7.5666487      1.4895873      50218.233      36.893836      36.893836      36.893836    
   5340000   0.33928468    -8.0751365     -7.5662167      1.5109857      50218.233      36.893836      36.893836      36.893836    
   5350000   0.34177852    -8.0811632     -7.5685027      1.4691193      50218.233      36.893836      36.893836      36.893836    
   5360000   0.34056417    -8.0756589     -7.5648199      1.5126136      50218.233      36.893836      36.893836      36.893836    
   5370000   0.33949865    -8.0783902     -7.5691495      1.4769238      50218.233      36.893836      36.893836      36.893836    
   5380000   0.33935221    -8.080221      -7.5712         1.4727997      50218.233      36.893836      36.893836      36.893836    
   5390000   0.33953285    -8.0771877     -7.5678956      1.4923551      50218.233      36.893836      36.893836      36.893836    
   5400000   0.338821      -8.0773266     -7.5691024      1.4898518      50218.233      36.893836      36.893836      36.893836    
   5410000   0.3384132     -8.0765511     -7.5689385      1.4904027      50218.233      36.893836      36.893836      36.893836    
   5420000   0.34151199    -8.0797789     -7.5675182      1.4769698      50218.233      36.893836      36.893836      36.893836    
   5430000   0.34075522    -8.0763791     -7.5652535      1.5081222      50218.233      36.893836      36.893836      36.893836    
   5440000   0.34049114    -8.0777292     -7.5669997      1.4907808      50218.233      36.893836      36.893836      36.893836    
   5450000   0.3387775     -8.0782306     -7.5700715      1.4827859      50218.233      36.893836      36.893836      36.893836    
   5460000   0.34034768    -8.0776037     -7.5670894      1.4955695      50218.233      36.893836      36.893836      36.893836    
   5470000   0.33959437    -8.0765246     -7.5671403      1.5057107      50218.233      36.893836      36.893836      36.893836    
   5480000   0.34067869    -8.077524      -7.5665132      1.4923833      50218.233      36.893836      36.893836      36.893836    
   5490000   0.34217543    -8.0764578     -7.563202       1.5003341      50218.233      36.893836      36.893836      36.893836    
   5500000   0.33965021    -8.0806137     -7.5711456      1.4721928      50218.233      36.893836      36.893836      36.893836    
   5510000   0.34132834    -8.0798985     -7.5679133      1.4667386      50218.233      36.893836      36.893836      36.893836    
   5520000   0.33981537    -8.0751621     -7.5654463      1.4989812      50218.233      36.893836      36.893836      36.893836    
   5530000   0.34132869    -8.0769378     -7.564952       1.4970743      50218.233      36.893836      36.893836      36.893836    
   5540000   0.34020845    -8.075845      -7.5655395      1.5034782      50218.233      36.893836      36.893836      36.893836    
   5550000   0.33829679    -8.0753059     -7.567868       1.5096619      50218.233      36.893836      36.893836      36.893836    
   5560000   0.34090835    -8.0757978     -7.5644425      1.5036248      50218.233      36.893836      36.893836      36.893836    
   5570000   0.33977568    -8.0769506     -7.5672943      1.4889101      50218.233      36.893836      36.893836      36.893836    
   5580000   0.33851884    -8.0768405     -7.5690695      1.4961839      50218.233      36.893836      36.893836      36.893836    
   5590000   0.34023713    -8.0818158     -7.5714674      1.4601078      50218.233      36.893836      36.893836      36.893836    
   5600000   0.34048332    -8.0806526     -7.5699349      1.4726237      50218.233      36.893836      36.893836      36.893836    
   5610000   0.34126317    -8.0780143     -7.5661269      1.4886496      50218.233      36.893836      36.893836      36.893836    
   5620000   0.34184663    -8.0784254     -7.5656627      1.4847226      50218.233      36.893836      36.893836      36.893836    
   5630000   0.3380207     -8.0787204     -7.5716965      1.474189       50218.233      36.893836      36.893836      36.893836    
   5640000   0.33853572    -8.0776062     -7.5698099      1.4983414      50218.233      36.893836      36.893836      36.893836    
   5650000   0.34146787    -8.0781258     -7.5659313      1.4821712      50218.233      36.893836      36.893836      36.893836    
   5660000   0.34020315    -8.078231      -7.5679336      1.4855737      50218.233      36.893836      36.893836      36.893836    
   5670000   0.3386473     -8.0780875     -7.5701238      1.490015       50218.233      36.893836      36.893836      36.893836    
   5680000   0.34120729    -8.0773566     -7.565553       1.502219       50218.233      36.893836      36.893836      36.893836    
   5690000   0.33971812    -8.0770954     -7.5675255      1.4937321      50218.233      36.893836      36.893836      36.893836    
   5700000   0.34013587    -8.0786015     -7.5684049      1.4881551      50218.233      36.893836      36.893836      36.893836    
   5710000   0.33956918    -8.0797708     -7.5704243      1.4814693      50218.233      36.893836      36.893836      36.893836    
   5720000   0.3406758     -8.0783633     -7.5673569      1.4856409      50218.233      36.893836      36.893836      36.893836    
   5730000   0.34066405    -8.0793234     -7.5683346      1.475215       50218.233      36.893836      36.893836      36.893836    
   5740000   0.33951666    -8.0766914     -7.5674237      1.4920124      50218.233      36.893836      36.893836      36.893836    
   5750000   0.33897641    -8.0760561     -7.5675988      1.4974807      50218.233      36.893836      36.893836      36.893836    
   5760000   0.33973905    -8.074728      -7.5651267      1.5195028      50218.233      36.893836      36.893836      36.893836    
   5770000   0.33968902    -8.0774901     -7.5679639      1.4940537      50218.233      36.893836      36.893836      36.893836    
   5780000   0.34004466    -8.0765284     -7.5664687      1.5161128      50218.233      36.893836      36.893836      36.893836    
   5790000   0.34070691    -8.0750141     -7.563961       1.5079442      50218.233      36.893836      36.893836      36.893836    
   5800000   0.33922704    -8.0752418     -7.5664085      1.5000059      50218.233      36.893836      36.893836      36.893836    
   5810000   0.33970133    -8.0790327     -7.5694879      1.4809274      50218.233      36.893836      36.893836      36.893836    
   5820000   0.34082287    -8.075422      -7.564195       1.5053867      50218.233      36.893836      36.893836      36.893836    
   5830000   0.33961888    -8.0739267     -7.5645057      1.5225079      50218.233      36.893836      36.893836      36.893836    
   5840000   0.33994838    -8.0766735     -7.5667582      1.4911526      50218.233      36.893836      36.893836      36.893836    
   5850000   0.34043077    -8.0778542     -7.5672153      1.4853551      50218.233      36.893836      36.893836      36.893836    
   5860000   0.3398727     -8.0810299     -7.5712281      1.4627838      50218.233      36.893836      36.893836      36.893836    
   5870000   0.34161929    -8.0794943     -7.5670726      1.4793398      50218.233      36.893836      36.893836      36.893836    
   5880000   0.3414298     -8.0782518     -7.5661144      1.4802541      50218.233      36.893836      36.893836      36.893836    
   5890000   0.34000824    -8.0762821     -7.566277       1.4961047      50218.233      36.893836      36.893836      36.893836    
   5900000   0.33951447    -8.0791741     -7.5699096      1.4817867      50218.233      36.893836      36.893836      36.893836    
   5910000   0.33943705    -8.0757975     -7.5666492      1.4993074      50218.233      36.893836      36.893836      36.893836    
   5920000   0.33931589    -8.0782401     -7.5692735      1.4899502      50218.233      36.893836      36.893836      36.893836    
   5930000   0.33909715    -8.0778974     -7.5692589      1.4919678      50218.233      36.893836      36.893836      36.893836    
   5940000   0.33931879    -8.075944      -7.5669731      1.5113164      50218.233      36.893836      36.893836      36.893836    
   5950000   0.33980524    -8.0782864     -7.5685858      1.4884906      50218.233      36.893836      36.893836      36.893836    
   5960000   0.33888718    -8.0799595     -7.571636       1.4717276      50218.233      36.893836      36.893836      36.893836    
   5970000   0.34021407    -8.0778593     -7.5675454      1.4902831      50218.233      36.893836      36.893836      36.893836    
   5980000   0.34200889    -8.0781588     -7.5651528      1.4821143      50218.233      36.893836      36.893836      36.893836    
   5990000   0.33883466    -8.0773774     -7.5691327      1.4919841      50218.233      36.893836      36.893836      36.893836    
   6000000   0.34107304    -8.0767807     -7.5651784      1.5025865      50218.233      36.893836      36.893836      36.893836    
   6010000   0.33876559    -8.0814977     -7.5733566      1.4629473      50218.233      36.893836      36.893836      36.893836    
   6020000   0.33956858    -8.0785095     -7.5691639      1.477607       50218.233      36.893836      36.893836      36.893836    
   6030000   0.3403604     -8.0779908     -7.5674575      1.5036394      50218.233      36.893836      36.893836      36.893836    
   6040000   0.3411489     -8.0794983     -7.5677822      1.4754113      50218.233      36.893836      36.893836      36.893836    
   6050000   0.34197144    -8.0790003     -7.5660504      1.4857559      50218.233      36.893836      36.893836      36.893836    
   6060000   0.3392511     -8.0802144     -7.571345       1.4670099      50218.233      36.893836      36.893836      36.893836    
   6070000   0.34096622    -8.0769174     -7.5654753      1.5012539      50218.233      36.893836      36.893836      36.893836    
   6080000   0.34050331    -8.0780068     -7.5672591      1.4913872      50218.233      36.893836      36.893836      36.893836    
   6090000   0.33782132    -8.08083       -7.5741053      1.4609918      50218.233      36.893836      36.893836      36.893836    
   6100000   0.34107933    -8.0780757     -7.566464       1.480583       50218.233      36.893836      36.893836      36.893836    
   6110000   0.33969125    -8.0779446     -7.568415       1.4780025      50218.233      36.893836      36.893836      36.893836    
   6120000   0.33885698    -8.0797044     -7.5714262      1.4724084      50218.233      36.893836      36.893836      36.893836    
   6130000   0.33836002    -8.0756012     -7.5680684      1.497551       50218.233      36.893836      36.893836      36.893836    
   6140000   0.33926217    -8.0786339     -7.5697479      1.483752       50218.233      36.893836      36.893836      36.893836    
   6150000   0.33862848    -8.0776111     -7.5696756      1.4892372      50218.233      36.893836      36.893836      36.893836    
   6160000   0.34040733    -8.078054      -7.5674503      1.4979961      50218.233      36.893836      36.893836      36.893836    
   6170000   0.34064906    -8.077022      -7.5660557      1.4806607      50218.233      36.893836      36.893836      36.893836    
   6180000   0.34104793    -8.0713607     -7.5597961      1.5427617      50218.233      36.893836      36.893836      36.893836    
   6190000   0.34130345    -8.0780416     -7.5660937      1.4863461      50218.233      36.893836      36.893836      36.893836    
   6200000   0.34008464    -8.0763063     -7.5661866      1.5077973      50218.233      36.893836      36.893836      36.893836    
   6210000   0.3391217     -8.0739706     -7.5652953      1.5196373      50218.233      36.893836      36.893836      36.893836    
   6220000   0.34182111    -8.0783398     -7.5656155      1.4891091      50218.233      36.893836      36.893836      36.893836    
   6230000   0.34016483    -8.0766118     -7.5663718      1.5003171      50218.233      36.893836      36.893836      36.893836    
   6240000   0.33923593    -8.0775428     -7.5686961      1.4951973      50218.233      36.893836      36.893836      36.893836    
   6250000   0.3406804     -8.0761379     -7.5651245      1.5016092      50218.233      36.893836      36.893836      36.893836    
   6260000   0.33784508    -8.0777486     -7.5709882      1.4904711      50218.233      36.893836      36.893836      36.893836    
   6270000   0.33976623    -8.0771138     -7.5674717      1.4910772      50218.233      36.893836      36.893836      36.893836    
   6280000   0.34027961    -8.0759474     -7.5655352      1.4971622      50218.233      36.893836      36.893836      36.893836    
   6290000   0.34087681    -8.075024      -7.563716       1.5084821      50218.233      36.893836      36.893836      36.893836    
   6300000   0.33990127    -8.0783471     -7.5685025      1.4811897      50218.233      36.893836      36.893836      36.893836    
   6310000   0.33896354    -8.0771677     -7.5687296      1.4951987      50218.233      36.893836      36.893836      36.893836    
   6320000   0.34062359    -8.0762719     -7.5653437      1.5076343      50218.233      36.893836      36.893836      36.893836    
   6330000   0.34120285    -8.0762267     -7.5644297      1.5027399      50218.233      36.893836      36.893836      36.893836    
   6340000   0.34153911    -8.0774006     -7.5650992      1.4930496      50218.233      36.893836      36.893836      36.893836    
   6350000   0.33915174    -8.0779867     -7.5692663      1.4870585      50218.233      36.893836      36.893836      36.893836    
   6360000   0.33926814    -8.0741493     -7.5652543      1.5124943      50218.233      36.893836      36.893836      36.893836    
   6370000   0.34086723    -8.0754117     -7.5641181      1.5170176      50218.233      36.893836      36.893836      36.893836    
   6380000   0.34095368    -8.0766048     -7.5651816      1.4985781      50218.233      36.893836      36.893836      36.893836    
   6390000   0.33923964    -8.0789675     -7.5701153      1.4755099      50218.233      36.893836      36.893836      36.893836    
   6400000   0.34031476    -8.0786371     -7.5681722      1.487314       50218.233      36.893836      36.893836      36.893836    
   6410000   0.33896302    -8.0792768     -7.5708395      1.4765148      50218.233      36.893836      36.893836      36.893836    
   6420000   0.33745049    -8.0809758     -7.5748072      1.4568006      50218.233      36.893836      36.893836      36.893836    
   6430000   0.33948324    -8.077412      -7.5681944      1.496646       50218.233      36.893836      36.893836      36.893836    
   6440000   0.3415919     -8.0797464     -7.5673658      1.4672913      50218.233      36.893836      36.893836      36.893836    
   6450000   0.34054848    -8.0766791     -7.5658636      1.4959135      50218.233      36.893836      36.893836      36.893836    
   6460000   0.33966674    -8.0776866     -7.5681937      1.4829437      50218.233      36.893836      36.893836      36.893836    
   6470000   0.33894482    -8.0787685     -7.5703585      1.4841396      50218.233      36.893836      36.893836      36.893836    
   6480000   0.33981112    -8.0771877     -7.5674783      1.4830077      50218.233      36.893836      36.893836      36.893836    
   6490000   0.34059066    -8.0760029     -7.5651242      1.5048304      50218.233      36.893836      36.893836      36.893836    
   6500000   0.3407547     -8.0790718     -7.567947       1.4706052      50218.233      36.893836      36.893836      36.893836    
   6510000   0.34127257    -8.075592      -7.5636905      1.5052641      50218.233      36.893836      36.893836      36.893836    
   6520000   0.34089367    -8.0766401     -7.5653068      1.4950576      50218.233      36.893836      36.893836      36.893836    
   6530000   0.33990619    -8.0766859     -7.5668338      1.4962795      50218.233      36.893836      36.893836      36.893836    
   6540000   0.33889196    -8.0762864     -7.5679557      1.4959299      50218.233      36.893836      36.893836      36.893836    
   6550000   0.33881991    -8.0743683     -7.5661457      1.5091162      50218.233      36.893836      36.893836      36.893836    
   6560000   0.34043287    -8.0759167     -7.5652747      1.4993124      50218.233      36.893836      36.893836      36.893836    
   6570000   0.33752928    -8.0770315     -7.5707448      1.5002758      50218.233      36.893836      36.893836      36.893836    
   6580000   0.33978803    -8.0784215     -7.5687467      1.4882222      50218.233      36.893836      36.893836      36.893836    
   6590000   0.34040601    -8.0785242     -7.5679225      1.4868435      50218.233      36.893836      36.893836      36.893836    
   6600000   0.34156875    -8.0782285     -7.5658826      1.4792225      50218.233      36.893836      36.893836      36.893836    
   6610000   0.33978364    -8.0790193     -7.5693511      1.479537       50218.233      36.893836      36.893836      36.893836    
   6620000   0.33895894    -8.0781816     -7.5697504      1.4779042      50218.233      36.893836      36.893836      36.893836    
   6630000   0.33716498    -8.0780797     -7.5723394      1.4753712      50218.233      36.893836      36.893836      36.893836    
   6640000   0.33904751    -8.0761152     -7.5675511      1.4983778      50218.233      36.893836      36.893836      36.893836    
   6650000   0.34030928    -8.0783419     -7.5678852      1.4831126      50218.233      36.893836      36.893836      36.893836    
   6660000   0.33846026    -8.0719643     -7.5642812      1.5252951      50218.233      36.893836      36.893836      36.893836    
   6670000   0.34144478    -8.0804247     -7.5682649      1.4705396      50218.233      36.893836      36.893836      36.893836    
   6680000   0.33933592    -8.0760699     -7.5670732      1.4968624      50218.233      36.893836      36.893836      36.893836    
   6690000   0.33837089    -8.0772051     -7.5696559      1.4920684      50218.233      36.893836      36.893836      36.893836    
   6700000   0.33897633    -8.0772222     -7.5687649      1.4965258      50218.233      36.893836      36.893836      36.893836    
   6710000   0.33966804    -8.0749245     -7.5654297      1.5132765      50218.233      36.893836      36.893836      36.893836    
   6720000   0.34111595    -8.0788674     -7.5672007      1.4839309      50218.233      36.893836      36.893836      36.893836    
   6730000   0.34043021    -8.0770879     -7.5664498      1.5035012      50218.233      36.893836      36.893836      36.893836    
   6740000   0.34036885    -8.0790069     -7.5684609      1.4798111      50218.233      36.893836      36.893836      36.893836    
   6750000   0.33835787    -8.0778416     -7.570312       1.4854783      50218.233      36.893836      36.893836      36.893836    
   6760000   0.34062733    -8.0760783     -7.5651446      1.5049459      50218.233      36.893836      36.893836      36.893836    
   6770000   0.33906409    -8.0759614     -7.5673725      1.5010669      50218.233      36.893836      36.893836      36.893836    
   6780000   0.34069737    -8.0772064     -7.5661677      1.5036923      50218.233      36.893836      36.893836      36.893836    
   6790000   0.33946335    -8.0794259     -7.5702381      1.4725969      50218.233      36.893836      36.893836      36.893836    
   6800000   0.34033462    -8.0795604     -7.5690657      1.4819774      50218.233      36.893836      36.893836      36.893836    
   6810000   0.33826249    -8.0763049     -7.5689184      1.4856403      50218.233      36.893836      36.893836      36.893836    
   6820000   0.34179808    -8.0773526     -7.5646627      1.5008044      50218.233      36.893836      36.893836      36.893836    
   6830000   0.34010552    -8.07678       -7.566629       1.4851844      50218.233      36.893836      36.893836      36.893836    
   6840000   0.3394678     -8.0752829     -7.5660884      1.5027888      50218.233      36.893836      36.893836      36.893836    
   6850000   0.34002195    -8.0780811     -7.5680554      1.4831262      50218.233      36.893836      36.893836      36.893836    
   6860000   0.33937974    -8.0780885     -7.5690261      1.490552       50218.233      36.893836      36.893836      36.893836    
   6870000   0.34124694    -8.0781706     -7.5663075      1.4817232      50218.233      36.893836      36.893836      36.893836    
   6880000   0.3395378     -8.0779415     -7.568642       1.4858152      50218.233      36.893836      36.893836      36.893836    
   6890000   0.33876839    -8.0767859     -7.5686406      1.5008525      50218.233      36.893836      36.893836      36.893836    
   6900000   0.33845166    -8.0790001     -7.5713298      1.4799911      50218.233      36.893836      36.893836      36.893836    
   6910000   0.33852784    -8.0784404     -7.5706559      1.4728811      50218.233      36.893836      36.893836      36.893836    
   6920000   0.33850481    -8.0780122     -7.5702622      1.4877628      50218.233      36.893836      36.893836      36.893836    
   6930000   0.33984774    -8.0765927     -7.5668283      1.4944428      50218.233      36.893836      36.893836      36.893836    
   6940000   0.33986642    -8.0769979     -7.5672055      1.4959141      50218.233      36.893836      36.893836      36.893836    
   6950000   0.33936279    -8.0782421     -7.5692052      1.4847833      50218.233      36.893836      36.893836      36.893836    
   6960000   0.34056719    -8.0768402     -7.5659966      1.5000793      50218.233      36.893836      36.893836      36.893836    
   6970000   0.33906822    -8.0787375     -7.5701424      1.4767492      50218.233      36.893836      36.893836      36.893836    
   6980000   0.34191738    -8.0777722     -7.5649035      1.487874       50218.233      36.893836      36.893836      36.893836    
   6990000   0.338786      -8.0784365     -7.5702647      1.488049       50218.233      36.893836      36.893836      36.893836    
   7000000   0.33903075    -8.0799724     -7.5714335      1.4764905      50218.233      36.893836      36.893836      36.893836    
   7010000   0.34072022    -8.0781154     -7.5670423      1.4840574      50218.233      36.893836      36.893836      36.893836    
   7020000   0.33828245    -8.0786264     -7.57121        1.4873731      50218.233      36.893836      36.893836      36.893836    
   7030000   0.3385768     -8.0772213     -7.5693633      1.4947269      50218.233      36.893836      36.893836      36.893836    
   7040000   0.33969468    -8.0817283     -7.5721935      1.4601376      50218.233      36.893836      36.893836      36.893836    
   7050000   0.33900431    -8.0783542     -7.569855       1.4852452      50218.233      36.893836      36.893836      36.893836    
   7060000   0.33919944    -8.0771794     -7.5683874      1.4927639      50218.233      36.893836      36.893836      36.893836    
   7070000   0.33917777    -8.0802397     -7.5714803      1.476516       50218.233      36.893836      36.893836      36.893836    
   7080000   0.33991637    -8.0766579     -7.5667906      1.5008588      50218.233      36.893836      36.893836      36.893836    
   7090000   0.3416384     -8.0786636     -7.5662133      1.484317       50218.233      36.893836      36.893836      36.893836    
   7100000   0.33952145    -8.0755404     -7.5662655      1.5003172      50218.233      36.893836      36.893836      36.893836    
   7110000   0.33874272    -8.0789776     -7.5708707      1.4787573      50218.233      36.893836      36.893836      36.893836    
   7120000   0.34231309    -8.0760694     -7.5626071      1.5068611      50218.233      36.893836      36.893836      36.893836    
   7130000   0.34036058    -8.0784315     -7.5678979      1.4883644      50218.233      36.893836      36.893836      36.893836    
   7140000   0.33817914    -8.0763447     -7.5690832      1.4959662      50218.233      36.893836      36.893836      36.893836    
   7150000   0.34046179    -8.0757627     -7.5650773      1.5029504      50218.233      36.893836      36.893836      36.893836    
   7160000   0.34006338    -8.0770539     -7.566966       1.4912176      50218.233      36.893836      36.893836      36.893836    
   7170000   0.33933387    -8.0766775     -7.567684       1.5014266      50218.233      36.893836      36.893836      36.893836    
   7180000   0.3406205     -8.0743326     -7.5634092      1.5163251      50218.233      36.893836      36.893836      36.893836    
   7190000   0.34038577    -8.0774414     -7.56687        1.4941308      50218.233      36.893836      36.893836      36.893836    
   7200000   0.34023951    -8.076308      -7.565956       1.510291       50218.233      36.893836      36.893836      36.893836    
   7210000   0.33953071    -8.0763197     -7.5670308      1.4988011      50218.233      36.893836      36.893836      36.893836    
   7220000   0.33951601    -8.0772541     -7.5679873      1.4957878      50218.233      36.893836      36.893836      36.893836    
   7230000   0.34169822    -8.0768472     -7.5643072      1.5157312      50218.233      36.893836      36.893836      36.893836    
   7240000   0.34005812    -8.0763388     -7.5662589      1.5058574      50218.233      36.893836      36.893836      36.893836    
   7250000   0.33937543    -8.075351      -7.5662951      1.5005501      50218.233      36.893836      36.893836      36.893836    
   7260000   0.33893626    -8.0759958     -7.5675987      1.5045804      50218.233      36.893836      36.893836      36.893836    
   7270000   0.34003176    -8.076565      -7.5665246      1.4972009      50218.233      36.893836      36.893836      36.893836    
   7280000   0.33899355    -8.0771033     -7.5686202      1.4918497      50218.233      36.893836      36.893836      36.893836    
   7290000   0.33786393    -8.0801957     -7.573407       1.4697067      50218.233      36.893836      36.893836      36.893836    
   7300000   0.34190547    -8.077222      -7.5643711      1.4953924      50218.233      36.893836      36.893836      36.893836    
   7310000   0.33987721    -8.0771626     -7.567354       1.4904207      50218.233      36.893836      36.893836      36.893836    
   7320000   0.33948218    -8.0751863     -7.5659703      1.509733       50218.233      36.893836      36.893836      36.893836    
   7330000   0.33955635    -8.0789654     -7.5696381      1.4814389      50218.233      36.893836      36.893836      36.893836    
   7340000   0.33848035    -8.0754842     -7.5677709      1.4965359      50218.233      36.893836      36.893836      36.893836    
   7350000   0.34033598    -8.0774444     -7.5669477      1.5008773      50218.233      36.893836      36.893836      36.893836    
   7360000   0.33796495    -8.0788748     -7.5719346      1.4791969      50218.233      36.893836      36.893836      36.893836    
   7370000   0.33916259    -8.0788236     -7.570087       1.4831282      50218.233      36.893836      36.893836      36.893836    
   7380000   0.3385701     -8.0774953     -7.5696474      1.4960418      50218.233      36.893836      36.893836      36.893836    
   7390000   0.33989655    -8.0774164     -7.5675788      1.4859129      50218.233      36.893836      36.893836      36.893836    
   7400000   0.3385027     -8.0782111     -7.5704643      1.4800589      50218.233      36.893836      36.893836      36.893836    
   7410000   0.33990567    -8.076627      -7.5667758      1.5062909      50218.233      36.893836      36.893836      36.893836    
   7420000   0.34117483    -8.0738582     -7.5621032      1.5156055      50218.233      36.893836      36.893836      36.893836    
   7430000   0.34176173    -8.0771752     -7.5645399      1.4951801      50218.233      36.893836      36.893836      36.893836    
   7440000   0.33999944    -8.0767592     -7.5667673      1.492243       50218.233      36.893836      36.893836      36.893836    
   7450000   0.3405184     -8.0788241     -7.5680538      1.4844197      50218.233      36.893836      36.893836      36.893836    
   7460000   0.3415224     -8.0810109     -7.5687346      1.4627757      50218.233      36.893836      36.893836      36.893836    
   7470000   0.33983345    -8.0791059     -7.569363       1.4807567      50218.233      36.893836      36.893836      36.893836    
   7480000   0.3405036     -8.0795778     -7.5688297      1.4798501      50218.233      36.893836      36.893836      36.893836    
   7490000   0.33879246    -8.0802407     -7.5720592      1.4653858      50218.233      36.893836      36.893836      36.893836    
   7500000   0.34026951    -8.0771534     -7.5667564      1.495537       50218.233      36.893836      36.893836      36.893836    
   7510000   0.33968758    -8.0804363     -7.5709122      1.4713768      50218.233      36.893836      36.893836      36.893836    
   7520000   0.33928434    -8.0807345     -7.5718152      1.4650417      50218.233      36.893836      36.893836      36.893836    
   7530000   0.33958675    -8.079373      -7.5700001      1.4727799      50218.233      36.893836      36.893836      36.893836    
   7540000   0.34084512    -8.0753275     -7.5640671      1.5043192      50218.233      36.893836      36.893836      36.893836    
   7550000   0.34039132    -8.0802363     -7.5696566      1.462665       50218.233      36.893836      36.893836      36.893836    
   7560000   0.33906802    -8.078737      -7.5701422      1.4817401      50218.233      36.893836      36.893836      36.893836    
   7570000   0.33781215    -8.0798366     -7.5731255      1.4753523      50218.233      36.893836      36.893836      36.893836    
   7580000   0.34011297    -8.0795688     -7.5694066      1.4681058      50218.233      36.893836      36.893836      36.893836    
   7590000   0.33999634    -8.0794678     -7.5694806      1.4710639      50218.233      36.893836      36.893836      36.893836    
   7600000   0.34021057    -8.0783092     -7.5680006      1.4869571      50218.233      36.893836      36.893836      36.893836    
   7610000   0.33830628    -8.0793334     -7.5718812      1.4693285      50218.233      36.893836      36.893836      36.893836    
   7620000   0.33872015    -8.0782278     -7.5701548      1.4868354      50218.233      36.893836      36.893836      36.893836    
   7630000   0.33923316    -8.0767622     -7.5679197      1.4932488      50218.233      36.893836      36.893836      36.893836    
   7640000   0.33952148    -8.0780806     -7.5688056      1.4801498      50218.233      36.893836      36.893836      36.893836    
   7650000   0.34033934    -8.0733899     -7.5628882      1.521366       50218.233      36.893836      36.893836      36.893836    
   7660000   0.33993302    -8.0774987     -7.5676064      1.490943       50218.233      36.893836      36.893836      36.893836    
   7670000   0.33867464    -8.0789509     -7.5709461      1.4871229      50218.233      36.893836      36.893836      36.893836    
   7680000   0.34035571    -8.077513      -7.5669867      1.4937329      50218.233      36.893836      36.893836      36.893836    
   7690000   0.33911041    -8.0796212     -7.5709628      1.4711425      50218.233      36.893836      36.893836      36.893836    
   7700000   0.33933652    -8.0753349     -7.5663373      1.4996531      50218.233      36.893836      36.893836      36.893836    
   7710000   0.33973569    -8.076126      -7.5665298      1.5050439      50218.233      36.893836      36.893836      36.893836    
   7720000   0.33974389    -8.0797494     -7.5701408      1.4663673      50218.233      36.893836      36.893836      36.893836    
   7730000   0.3408462     -8.0780379     -7.5667759      1.4848624      50218.233      36.893836      36.893836      36.893836    
   7740000   0.34076287    -8.0757187     -7.5645816      1.5005123      50218.233      36.893836      36.893836      36.893836    
   7750000   0.33828096    -8.0775125     -7.5700982      1.4870307      50218.233      36.893836      36.893836      36.893836    
   7760000   0.33985773    -8.07548       -7.5657007      1.5026886      50218.233      36.893836      36.893836      36.893836    
   7770000   0.3399133     -8.0783279     -7.5684652      1.4903795      50218.233      36.893836      36.893836      36.893836    
   7780000   0.3406021     -8.0753355     -7.5644396      1.5136885      50218.233      36.893836      36.893836      36.893836    
   7790000   0.34053583    -8.079044      -7.5682476      1.483538       50218.233      36.893836      36.893836      36.893836    
   7800000   0.34074614    -8.0757483     -7.5646363      1.508206       50218.233      36.893836      36.893836      36.893836    
   7810000   0.33980822    -8.0772876     -7.5675825      1.4880661      50218.233      36.893836      36.893836      36.893836    
   7820000   0.34062563    -8.0779325     -7.5670014      1.4928435      50218.233      36.893836      36.893836      36.893836    
   7830000   0.34030623    -8.0794064     -7.5689543      1.4732873      50218.233      36.893836      36.893836      36.893836    
   7840000   0.34003127    -8.0773381     -7.5672984      1.5004023      50218.233      36.893836      36.893836      36.893836    
   7850000   0.34090902    -8.0781305     -7.5667743      1.4956723      50218.233      36.893836      36.893836      36.893836    
   7860000   0.34140489    -8.0768571     -7.564757       1.5149301      50218.233      36.893836      36.893836      36.893836    
   7870000   0.34012553    -8.0800501     -7.569869       1.4703146      50218.233      36.893836      36.893836      36.893836    
   7880000   0.33865603    -8.0773277     -7.5693509      1.486605       50218.233      36.893836      36.893836      36.893836    
   7890000   0.34079987    -8.0776111     -7.5664186      1.4787703      50218.233      36.893836      36.893836      36.893836    
   7900000   0.33913415    -8.0785148     -7.5698208      1.4784684      50218.233      36.893836      36.893836      36.893836    
   7910000   0.33797119    -8.0786118     -7.5716622      1.4869093      50218.233      36.893836      36.893836      36.893836    
   7920000   0.33865352    -8.0794999     -7.5715268      1.4728793      50218.233      36.893836      36.893836      36.893836    
   7930000   0.33871653    -8.0765181     -7.5684505      1.5009521      50218.233      36.893836      36.893836      36.893836    
   7940000   0.33986313    -8.0799986     -7.5702111      1.4644045      50218.233      36.893836      36.893836      36.893836    
   7950000   0.34098288    -8.0781268     -7.5666597      1.488228       50218.233      36.893836      36.893836      36.893836    
   7960000   0.33975543    -8.079127      -7.5695011      1.4758192      50218.233      36.893836      36.893836      36.893836    
   7970000   0.33977341    -8.0782429     -7.5685901      1.4815588      50218.233      36.893836      36.893836      36.893836    
   7980000   0.34149152    -8.0786414     -7.5664114      1.4984701      50218.233      36.893836      36.893836      36.893836    
   7990000   0.33905884    -8.0765522     -7.5679712      1.4991347      50218.233      36.893836      36.893836      36.893836    
   8000000   0.34114984    -8.0788544     -7.5671369      1.4859753      50218.233      36.893836      36.893836      36.893836    
   8010000   0.33998301    -8.0776631     -7.5676959      1.4880769      50218.233      36.893836      36.893836      36.893836    
   8020000   0.3429055     -8.0766354     -7.5622845      1.5100644      50218.233      36.893836      36.893836      36.893836    
   8030000   0.33829741    -8.0800127     -7.5725738      1.4664673      50218.233      36.893836      36.893836      36.893836    
   8040000   0.3404194     -8.0801031     -7.5694812      1.4688631      50218.233      36.893836      36.893836      36.893836    
   8050000   0.33981961    -8.0767506     -7.5670284      1.5009028      50218.233      36.893836      36.893836      36.893836    
   8060000   0.33863968    -8.0762003     -7.568248       1.4963998      50218.233      36.893836      36.893836      36.893836    
   8070000   0.34132283    -8.0784826     -7.5665057      1.4806185      50218.233      36.893836      36.893836      36.893836    
   8080000   0.33925372    -8.0760335     -7.5671601      1.5017229      50218.233      36.893836      36.893836      36.893836    
   8090000   0.34092022    -8.0775364     -7.5661633      1.4963192      50218.233      36.893836      36.893836      36.893836    
   8100000   0.34051459    -8.0776508     -7.5668862      1.4931955      50218.233      36.893836      36.893836      36.893836    
   8110000   0.34124244    -8.0795888     -7.5677325      1.4753131      50218.233      36.893836      36.893836      36.893836    
   8120000   0.33996302    -8.0778101     -7.5678729      1.5023819      50218.233      36.893836      36.893836      36.893836    
   8130000   0.34141193    -8.0783643     -7.5662537      1.4887379      50218.233      36.893836      36.893836      36.893836    
   8140000   0.33945739    -8.078244      -7.5690651      1.483287       50218.233      36.893836      36.893836      36.893836    
   8150000   0.33906721    -8.0766231     -7.5680295      1.490044       50218.233      36.893836      36.893836      36.893836    
   8160000   0.34046487    -8.0791634     -7.5684734      1.4695146      50218.233      36.893836      36.893836      36.893836    
   8170000   0.33968909    -8.0776543     -7.5681279      1.4804783      50218.233      36.893836      36.893836      36.893836    
   8180000   0.34063516    -8.0769071     -7.5659616      1.4854239      50218.233      36.893836      36.893836      36.893836    
   8190000   0.34024421    -8.0795359     -7.5691768      1.4840845      50218.233      36.893836      36.893836      36.893836    
   8200000   0.34225627    -8.0757428     -7.5623657      1.5097876      50218.233      36.893836      36.893836      36.893836    
   8210000   0.34092317    -8.0770827     -7.5657052      1.494726       50218.233      36.893836      36.893836      36.893836    
   8220000   0.34075595    -8.0748        -7.5636734      1.5096008      50218.233      36.893836      36.893836      36.893836    
   8230000   0.3401634     -8.0753073     -7.5650695      1.5059463      50218.233      36.893836      36.893836      36.893836    
   8240000   0.33943043    -8.07754       -7.5684016      1.4920102      50218.233      36.893836      36.893836      36.893836    
   8250000   0.34004129    -8.0811814     -7.5711267      1.4616312      50218.233      36.893836      36.893836      36.893836    
   8260000   0.33947912    -8.0766776     -7.5674662      1.493777       50218.233      36.893836      36.893836      36.893836    
   8270000   0.34071097    -8.0769341     -7.5658749      1.4940077      50218.233      36.893836      36.893836      36.893836    
   8280000   0.33884797    -8.0759332     -7.5676685      1.4988649      50218.233      36.893836      36.893836      36.893836    
   8290000   0.33936039    -8.0773005     -7.5682671      1.4915149      50218.233      36.893836      36.893836      36.893836    
   8300000   0.34164037    -8.0759194     -7.5634661      1.5010463      50218.233      36.893836      36.893836      36.893836    
   8310000   0.33836627    -8.077482      -7.5699398      1.4983169      50218.233      36.893836      36.893836      36.893836    
   8320000   0.3394799     -8.0761749     -7.5669623      1.500301       50218.233      36.893836      36.893836      36.893836    
   8330000   0.34082493    -8.078142      -7.5669119      1.4932673      50218.233      36.893836      36.893836      36.893836    
   8340000   0.34075474    -8.0794093     -7.5682845      1.4715692      50218.233      36.893836      36.893836      36.893836    
   8350000   0.34129895    -8.077307      -7.5653659      1.4905294      50218.233      36.893836      36.893836      36.893836    
   8360000   0.33907871    -8.0777956     -7.5691847      1.4848715      50218.233      36.893836      36.893836      36.893836    
   8370000   0.3396453     -8.0789483     -7.5694876      1.4749379      50218.233      36.893836      36.893836      36.893836    
   8380000   0.33991404    -8.0793999     -7.5695361      1.470528       50218.233      36.893836      36.893836      36.893836    
   8390000   0.33977183    -8.0790741     -7.5694236      1.4786388      50218.233      36.893836      36.893836      36.893836    
   8400000   0.34067145    -8.0765634     -7.5655635      1.4963807      50218.233      36.893836      36.893836      36.893836    
   8410000   0.34046326    -8.0813868     -7.5706992      1.4594706      50218.233      36.893836      36.893836      36.893836    
   8420000   0.33920166    -8.0768237     -7.5680284      1.4962211      50218.233      36.893836      36.893836      36.893836    
   8430000   0.34043871    -8.0762493     -7.5655985      1.4964029      50218.233      36.893836      36.893836      36.893836    
   8440000   0.33993641    -8.0760515     -7.5661542      1.4925132      50218.233      36.893836      36.893836      36.893836    
   8450000   0.34083578    -8.0802689     -7.5690225      1.4698907      50218.233      36.893836      36.893836      36.893836    
   8460000   0.33959526    -8.0782725     -7.5688868      1.4777354      50218.233      36.893836      36.893836      36.893836    
   8470000   0.33764439    -8.0795632     -7.5731038      1.4766171      50218.233      36.893836      36.893836      36.893836    
   8480000   0.34107074    -8.0789816     -7.5673828      1.4787838      50218.233      36.893836      36.893836      36.893836    
   8490000   0.33945933    -8.0797636     -7.5705819      1.4824523      50218.233      36.893836      36.893836      36.893836    
   8500000   0.33984789    -8.0775508     -7.5677862      1.4927886      50218.233      36.893836      36.893836      36.893836    
   8510000   0.34063023    -8.0765461     -7.5656081      1.5010934      50218.233      36.893836      36.893836      36.893836    
   8520000   0.33930966    -8.0803006     -7.5713434      1.4645897      50218.233      36.893836      36.893836      36.893836    
   8530000   0.33979133    -8.0793481     -7.5696683      1.470248       50218.233      36.893836      36.893836      36.893836    
   8540000   0.34000343    -8.0793653     -7.5693674      1.472336       50218.233      36.893836      36.893836      36.893836    
   8550000   0.33897091    -8.0791041     -7.570655       1.4739762      50218.233      36.893836      36.893836      36.893836    
   8560000   0.34090928    -8.0758316     -7.564475       1.5023364      50218.233      36.893836      36.893836      36.893836    
   8570000   0.33855312    -8.0756515     -7.567829       1.5010069      50218.233      36.893836      36.893836      36.893836    
   8580000   0.34102396    -8.0746738     -7.5631451      1.5127092      50218.233      36.893836      36.893836      36.893836    
   8590000   0.34002459    -8.0763298     -7.5663001      1.4949917      50218.233      36.893836      36.893836      36.893836    
   8600000   0.34089235    -8.0772302     -7.565899       1.4915323      50218.233      36.893836      36.893836      36.893836    
   8610000   0.33961052    -8.0785912     -7.5691826      1.4769009      50218.233      36.893836      36.893836      36.893836    
   8620000   0.34039719    -8.0785578     -7.5679692      1.4821877      50218.233      36.893836      36.893836      36.893836    
   8630000   0.34006639    -8.0778605     -7.5677681      1.4871868      50218.233      36.893836      36.893836      36.893836    
   8640000   0.33809404    -8.0763249     -7.5691911      1.5012075      50218.233      36.893836      36.893836      36.893836    
   8650000   0.34191175    -8.0769463     -7.564086       1.5039174      50218.233      36.893836      36.893836      36.893836    
   8660000   0.33938621    -8.0770567     -7.5679846      1.4941082      50218.233      36.893836      36.893836      36.893836    
   8670000   0.34001911    -8.0775051     -7.5674837      1.4930438      50218.233      36.893836      36.893836      36.893836    
   8680000   0.34138871    -8.07759       -7.5655142      1.4927309      50218.233      36.893836      36.893836      36.893836    
   8690000   0.33850729    -8.0761028     -7.568349       1.49829        50218.233      36.893836      36.893836      36.893836    
   8700000   0.33980892    -8.0780892     -7.5683831      1.4806958      50218.233      36.893836      36.893836      36.893836    
   8710000   0.33925377    -8.0758295     -7.5669561      1.5006921      50218.233      36.893836      36.893836      36.893836    
   8720000   0.34088347    -8.0789048     -7.5675868      1.4739404      50218.233      36.893836      36.893836      36.893836    
   8730000   0.33884749    -8.0769517     -7.5686877      1.4999433      50218.233      36.893836      36.893836      36.893836    
   8740000   0.34023106    -8.0765215     -7.5661822      1.4995279      50218.233      36.893836      36.893836      36.893836    
   8750000   0.34198369    -8.0785075     -7.5655393      1.4923022      50218.233      36.893836      36.893836      36.893836    
   8760000   0.33908258    -8.0765057     -7.5678891      1.5015674      50218.233      36.893836      36.893836      36.893836    
   8770000   0.33810997    -8.0784692     -7.5713115      1.4829004      50218.233      36.893836      36.893836      36.893836    
   8780000   0.33980301    -8.0757759     -7.5660787      1.5034777      50218.233      36.893836      36.893836      36.893836    
   8790000   0.34056295    -8.0785225     -7.5676853      1.4844307      50218.233      36.893836      36.893836      36.893836    
   8800000   0.33869877    -8.0747857     -7.5667448      1.5035588      50218.233      36.893836      36.893836      36.893836    
   8810000   0.33889445    -8.074436      -7.5661016      1.5157989      50218.233      36.893836      36.893836      36.893836    
   8820000   0.33900392    -8.0775277     -7.5690291      1.4890829      50218.233      36.893836      36.893836      36.893836    
   8830000   0.34022229    -8.0764987     -7.5661726      1.4862936      50218.233      36.893836      36.893836      36.893836    
   8840000   0.34118718    -8.0781299     -7.5663564      1.4868521      50218.233      36.893836      36.893836      36.893836    
   8850000   0.3417267     -8.0758284     -7.5632456      1.5047068      50218.233      36.893836      36.893836      36.893836    
   8860000   0.34140589    -8.0762687     -7.5641672      1.5004672      50218.233      36.893836      36.893836      36.893836    
   8870000   0.34045277    -8.0764544     -7.5657825      1.5050438      50218.233      36.893836      36.893836      36.893836    
   8880000   0.34052076    -8.0797056     -7.5689317      1.4684282      50218.233      36.893836      36.893836      36.893836    
   8890000   0.33711439    -8.0769319     -7.5712675      1.4928679      50218.233      36.893836      36.893836      36.893836    
   8900000   0.34092656    -8.077021      -7.5656385      1.4948334      50218.233      36.893836      36.893836      36.893836    
   8910000   0.34197113    -8.079253      -7.5663036      1.4862411      50218.233      36.893836      36.893836      36.893836    
   8920000   0.34045164    -8.0784676     -7.5677974      1.4801094      50218.233      36.893836      36.893836      36.893836    
   8930000   0.3389293     -8.0760468     -7.5676601      1.4972877      50218.233      36.893836      36.893836      36.893836    
   8940000   0.34144777    -8.078762      -7.5665976      1.4798312      50218.233      36.893836      36.893836      36.893836    
   8950000   0.34000351    -8.0778926     -7.5678946      1.4938749      50218.233      36.893836      36.893836      36.893836    
   8960000   0.33914539    -8.0779708     -7.56926        1.481207       50218.233      36.893836      36.893836      36.893836    
   8970000   0.34084919    -8.0789658     -7.5676993      1.4866533      50218.233      36.893836      36.893836      36.893836    
   8980000   0.34107073    -8.0801852     -7.5685864      1.4723211      50218.233      36.893836      36.893836      36.893836    
   8990000   0.33895647    -8.0807676     -7.5723402      1.4741367      50218.233      36.893836      36.893836      36.893836    
   9000000   0.33943865    -8.0785209     -7.5693701      1.4746902      50218.233      36.893836      36.893836      36.893836    
   9010000   0.34123225    -8.0761194     -7.5642783      1.4960193      50218.233      36.893836      36.893836      36.893836    
   9020000   0.33993762    -8.0771873     -7.5672881      1.503224       50218.233      36.893836      36.893836      36.893836    
   9030000   0.34012915    -8.0778935     -7.567707       1.4952098      50218.233      36.893836      36.893836      36.893836    
   9040000   0.33916642    -8.0771394     -7.568397       1.4883724      50218.233      36.893836      36.893836      36.893836    
   9050000   0.34050292    -8.07954       -7.5687929      1.4799441      50218.233      36.893836      36.893836      36.893836    
   9060000   0.34016402    -8.0761986     -7.5659599      1.5061144      50218.233      36.893836      36.893836      36.893836    
   9070000   0.33900679    -8.0771582     -7.5686553      1.4814713      50218.233      36.893836      36.893836      36.893836    
   9080000   0.34006121    -8.0790313     -7.5689468      1.4753199      50218.233      36.893836      36.893836      36.893836    
   9090000   0.33865276    -8.077879      -7.5699071      1.4918681      50218.233      36.893836      36.893836      36.893836    
   9100000   0.33998089    -8.0770057     -7.5670416      1.4958094      50218.233      36.893836      36.893836      36.893836    
   9110000   0.34191209    -8.0777427     -7.5648819      1.4921602      50218.233      36.893836      36.893836      36.893836    
   9120000   0.3401735     -8.0787845     -7.5685315      1.4836456      50218.233      36.893836      36.893836      36.893836    
   9130000   0.34035478    -8.0744702     -7.5639453      1.5125642      50218.233      36.893836      36.893836      36.893836    
   9140000   0.33974926    -8.0767713     -7.5671547      1.4957134      50218.233      36.893836      36.893836      36.893836    
   9150000   0.34160358    -8.0787634     -7.5663653      1.4762326      50218.233      36.893836      36.893836      36.893836    
   9160000   0.34080404    -8.0750211     -7.5638223      1.5141588      50218.233      36.893836      36.893836      36.893836    
   9170000   0.34067327    -8.0774816     -7.566479       1.4920332      50218.233      36.893836      36.893836      36.893836    
   9180000   0.33882821    -8.0765435     -7.5683084      1.4920389      50218.233      36.893836      36.893836      36.893836    
   9190000   0.3397037     -8.0813332     -7.5717849      1.4652175      50218.233      36.893836      36.893836      36.893836    
   9200000   0.34114214    -8.0771893     -7.5654834      1.4877         50218.233      36.893836      36.893836      36.893836    
   9210000   0.34064139    -8.0770322     -7.5660774      1.4918334      50218.233      36.893836      36.893836      36.893836    
   9220000   0.33921369    -8.0775756     -7.5687623      1.4910295      50218.233      36.893836      36.893836      36.893836    
   9230000   0.33924317    -8.0762065     -7.567349       1.500174       50218.233      36.893836      36.893836      36.893836    
   9240000   0.34147981    -8.0766647     -7.5644523      1.5012715      50218.233      36.893836      36.893836      36.893836    
   9250000   0.34168229    -8.0766369     -7.5641207      1.4997294      50218.233      36.893836      36.893836      36.893836    
   9260000   0.34003108    -8.0784752     -7.5684358      1.4891703      50218.233      36.893836      36.893836      36.893836    
   9270000   0.33982685    -8.0765049     -7.5667719      1.4967447      50218.233      36.893836      36.893836      36.893836    
   9280000   0.3403977     -8.077072      -7.5664827      1.4972183      50218.233      36.893836      36.893836      36.893836    
   9290000   0.34011311    -8.0778113     -7.5676489      1.4891037      50218.233      36.893836      36.893836      36.893836    
   9300000   0.33963214    -8.0762653     -7.5668243      1.5041382      50218.233      36.893836      36.893836      36.893836    
   9310000   0.33919054    -8.0794033     -7.5706248      1.4668005      50218.233      36.893836      36.893836      36.893836    
   9320000   0.34029195    -8.0769582     -7.5665275      1.4828023      50218.233      36.893836      36.893836      36.893836    
   9330000   0.33701457    -8.074917      -7.5694023      1.5043067      50218.233      36.893836      36.893836      36.893836    
   9340000   0.33995163    -8.0776136     -7.5676934      1.4899977      50218.233      36.893836      36.893836      36.893836    
   9350000   0.34125851    -8.0780569     -7.5661764      1.4870985      50218.233      36.893836      36.893836      36.893836    
   9360000   0.34012848    -8.0787112     -7.5685258      1.4827182      50218.233      36.893836      36.893836      36.893836    
   9370000   0.34007571    -8.078318      -7.5682116      1.4816828      50218.233      36.893836      36.893836      36.893836    
   9380000   0.34093085    -8.0781657     -7.5667767      1.48097        50218.233      36.893836      36.893836      36.893836    
   9390000   0.33870042    -8.0809013     -7.5728579      1.4584376      50218.233      36.893836      36.893836      36.893836    
   9400000   0.34057561    -8.0763229     -7.5654667      1.4987158      50218.233      36.893836      36.893836      36.893836    
   9410000   0.34100723    -8.0779204     -7.5664168      1.4864402      50218.233      36.893836      36.893836      36.893836    
   9420000   0.33878694    -8.0795079     -7.5713347      1.4720662      50218.233      36.893836      36.893836      36.893836    
   9430000   0.33988305    -8.0785348     -7.5687174      1.4808357      50218.233      36.893836      36.893836      36.893836    
   9440000   0.34072179    -8.0784685     -7.5673931      1.4830646      50218.233      36.893836      36.893836      36.893836    
   9450000   0.33932944    -8.081064      -7.5720771      1.4594862      50218.233      36.893836      36.893836      36.893836    
   9460000   0.33887927    -8.0781632     -7.5698515      1.488273       50218.233      36.893836      36.893836      36.893836    
   9470000   0.33792933    -8.0796334     -7.5727466      1.4650263      50218.233      36.893836      36.893836      36.893836    
   9480000   0.3388942     -8.0793849     -7.5710508      1.474569       50218.233      36.893836      36.893836      36.893836    
   9490000   0.34025485    -8.0819675     -7.5715925      1.4629822      50218.233      36.893836      36.893836      36.893836    
   9500000   0.33957175    -8.0799824     -7.570632       1.4723014      50218.233      36.893836      36.893836      36.893836    
   9510000   0.33878562    -8.0781345     -7.5699633      1.4893523      50218.233      36.893836      36.893836      36.893836    
   9520000   0.34019964    -8.0808981     -7.5706059      1.465681       50218.233      36.893836      36.893836      36.893836    
   9530000   0.34119533    -8.0789629     -7.5671772      1.4838665      50218.233      36.893836      36.893836      36.893836    
   9540000   0.34328522    -8.0796768     -7.5647563      1.4775395      50218.233      36.893836      36.893836      36.893836    
   9550000   0.33991908    -8.079195      -7.5693236      1.4710667      50218.233      36.893836      36.893836      36.893836    
   9560000   0.34098444    -8.07703       -7.5655607      1.492499       50218.233      36.893836      36.893836      36.893836    
   9570000   0.34253354    -8.0781231     -7.5643301      1.488144       50218.233      36.893836      36.893836      36.893836    
   9580000   0.33998169    -8.0754117     -7.5654464      1.5001893      50218.233      36.893836      36.893836      36.893836    
   9590000   0.33818159    -8.0783489     -7.5710837      1.477961       50218.233      36.893836      36.893836      36.893836    
   9600000   0.33903435    -8.0771507     -7.5686064      1.4914887      50218.233      36.893836      36.893836      36.893836    
   9610000   0.33933471    -8.077217      -7.5682221      1.486888       50218.233      36.893836      36.893836      36.893836    
   9620000   0.3405371     -8.0763383     -7.56554        1.4959659      50218.233      36.893836      36.893836      36.893836    
   9630000   0.34294604    -8.0773093     -7.5628976      1.4908187      50218.233      36.893836      36.893836      36.893836    
   9640000   0.33697588    -8.079585      -7.5741284      1.4743103      50218.233      36.893836      36.893836      36.893836    
   9650000   0.34116626    -8.0777395     -7.5659974      1.4920974      50218.233      36.893836      36.893836      36.893836    
   9660000   0.33870468    -8.0800687     -7.572019       1.4729361      50218.233      36.893836      36.893836      36.893836    
   9670000   0.33902855    -8.0768669     -7.5683313      1.4923508      50218.233      36.893836      36.893836      36.893836    
   9680000   0.3396755     -8.0779032     -7.5683972      1.4773961      50218.233      36.893836      36.893836      36.893836    
   9690000   0.33895467    -8.0758235     -7.5673987      1.5076207      50218.233      36.893836      36.893836      36.893836    
   9700000   0.34083611    -8.0779366     -7.5666897      1.491234       50218.233      36.893836      36.893836      36.893836    
   9710000   0.33912435    -8.0774038     -7.5687246      1.494294       50218.233      36.893836      36.893836      36.893836    
   9720000   0.33863653    -8.0763624     -7.5684148      1.4923417      50218.233      36.893836      36.893836      36.893836    
   9730000   0.3395031     -8.0771425     -7.5678951      1.4927765      50218.233      36.893836      36.893836      36.893836    
   9740000   0.3408975     -8.077543      -7.5662041      1.4803457      50218.233      36.893836      36.893836      36.893836    
   9750000   0.34023163    -8.0759317     -7.5655915      1.4972755      50218.233      36.893836      36.893836      36.893836    
   9760000   0.33879801    -8.0773204     -7.5691306      1.4874615      50218.233      36.893836      36.893836      36.893836    
   9770000   0.34022332    -8.0783351     -7.5680074      1.4801937      50218.233      36.893836      36.893836      36.893836    
   9780000   0.34008623    -8.0788953     -7.5687732      1.4803589      50218.233      36.893836      36.893836      36.893836    
   9790000   0.34111206    -8.0800183     -7.5683575      1.4716275      50218.233      36.893836      36.893836      36.893836    
   9800000   0.33946985    -8.0774762     -7.5682787      1.4828353      50218.233      36.893836      36.893836      36.893836    
   9810000   0.33900597    -8.0775837     -7.569082       1.4897735      50218.233      36.893836      36.893836      36.893836    
   9820000   0.34083094    -8.077342      -7.5661029      1.4972535      50218.233      36.893836      36.893836      36.893836    
   9830000   0.33876089    -8.0767386     -7.5686045      1.4981727      50218.233      36.893836      36.893836      36.893836    
   9840000   0.34091685    -8.0769615     -7.5655935      1.480753       50218.233      36.893836      36.893836      36.893836    
   9850000   0.34111902    -8.0782519     -7.5665807      1.4867866      50218.233      36.893836      36.893836      36.893836    
   9860000   0.34066495    -8.0772125     -7.5662223      1.4949911      50218.233      36.893836      36.893836      36.893836    
   9870000   0.34078165    -8.0784963     -7.5673311      1.4868767      50218.233      36.893836      36.893836      36.893836    
   9880000   0.33912073    -8.0771229     -7.568449       1.4842848      50218.233      36.893836      36.893836      36.893836    
   9890000   0.34028196    -8.0784616     -7.5680459      1.4693934      50218.233      36.893836      36.893836      36.893836    
   9900000   0.34089337    -8.0770661     -7.5657333      1.4938755      50218.233      36.893836      36.893836      36.893836    
   9910000   0.34126977    -8.0784969     -7.5665995      1.48011        50218.233      36.893836      36.893836      36.893836    
   9920000   0.3397668     -8.0775368     -7.5678938      1.488038       50218.233      36.893836      36.893836      36.893836    
   9930000   0.33981163    -8.0764597     -7.5667495      1.5048276      50218.233      36.893836      36.893836      36.893836    
   9940000   0.34022914    -8.0756468     -7.5653104      1.5009364      50218.233      36.893836      36.893836      36.893836    
   9950000   0.34097188    -8.0763015     -7.564851       1.4903648      50218.233      36.893836      36.893836      36.893836    
   9960000   0.33840904    -8.0765472     -7.5689409      1.49755        50218.233      36.893836      36.893836      36.893836    
   9970000   0.34082494    -8.0782695     -7.5670393      1.4837907      50218.233      36.893836      36.893836      36.893836    
   9980000   0.33918539    -8.0774363     -7.5686655      1.4894423      50218.233      36.893836      36.893836      36.893836    
   9990000   0.34008452    -8.0804256     -7.570306       1.4637089      50218.233      36.893836      36.893836      36.893836    
  10000000   0.33942862    -8.0780278     -7.5688922      1.4828989      50218.233      36.893836      36.893836      36.893836    
Loop time of 16092.3 on 5 procs for 10000000 steps with 70304 atoms

Performance: 536903.868 tau/day, 621.417 timesteps/s, 43.688 Matom-step/s
94.2% CPU use with 5 MPI tasks x 1 OpenMP threads

MPI task timing breakdown:
Section |  min time  |  avg time  |  max time  |%varavg| %total
---------------------------------------------------------------
Pair    | 5937.9     | 6196.3     | 6516.7     | 316.5 | 38.51
Neigh   | 46.347     | 48.917     | 51.133     |  23.0 |  0.30
Comm    | 2333.8     | 2359.2     | 2382.9     |  37.8 | 14.66
Output  | 0.18054    | 0.18699    | 0.19836    |   1.4 |  0.00
Modify  | 6250.4     | 6603.5     | 6888.5     | 338.3 | 41.04
Other   |            | 884.1      |            |       |  5.49

Nlocal:        14060.8 ave       14099 max       14020 min
Histogram: 1 1 0 0 0 1 0 0 1 1
Nghost:        18736.2 ave       18780 max       18693 min
Histogram: 1 1 0 1 0 0 0 0 0 2
Neighs:              0 ave           0 max           0 min
Histogram: 5 0 0 0 0 0 0 0 0 0

Total # of neighbors = 0
Ave neighs/atom = 0
Neighbor list builds = 1715217
Dangerous builds = 0
clear
OMP_NUM_THREADS environment is not set. Defaulting to 1 thread. (src/comm.cpp:98)
  using 1 OpenMP thread(s) per MPI task
package gpu 0
jump dms320.lmp

variable T equal 320
# T = 1000* (temp in LJ unit)
variable f equal 10000
log log.${T}
log log.320
