variable TLJ equal (${T}/1000)
variable TLJ equal (470/1000)
variable NCyle equal 8
variable iStep equal (${f})
variable iStep equal (10000)
variable dumpStep equal (${f}*100)
variable dumpStep equal (10000*100)
variable runStep equal (${f}*100*${NCyle})
variable runStep equal (10000*100*${NCyle})
variable runStep equal (10000*100*8)

units       lj
atom_style  atomic
dimension 3
boundary     p p p
pair_style  lj/cut 2.5
read_data  ../data/T${T}.dat
read_data  ../data/T470.dat
Reading data file ...
  orthogonal box = (0.97250269 0.97250269 0.97250269) to (37.866338 37.866338 37.866338)
  1 by 1 by 5 MPI processor grid
  reading atoms ...
  70304 atoms
  reading velocities ...
  70304 velocities
  read_data CPU = 0.211 seconds
change_box all triclinic
Changing box ...
  triclinic box = (0.97250269 0.97250269 0.97250269) to (37.866338 37.866338 37.866338) with tilt (0 0 0)
mass 1 1
mass 2 1
pair_modify shift yes
pair_coeff  1 1 1 1
pair_coeff  1 2 1.5 0.8
pair_coeff  2 2 0.5 0.88


timestep 0.01
thermo ${iStep}
thermo 10000
reset_timestep 0
thermo_style custom step temp pe etotal press vol lx ly lz
fix             1 all nvt temp ${TLJ}  ${TLJ}  0.1
fix             1 all nvt temp 0.47  ${TLJ}  0.1
fix             1 all nvt temp 0.47  0.47  0.1
thermo_modify flush yes

fix dsf all deform 1 xy  wiggle 0.5  ${f}   units box
fix dsf all deform 1 xy  wiggle 0.5  10000   units box
fix ps1 all ave/time 1 1 ${iStep} c_thermo_press[1] c_thermo_press[2]  c_thermo_press[3] c_thermo_press[4]  c_thermo_press[5] c_thermo_press[6]  file  stress.${T}
fix ps1 all ave/time 1 1 10000 c_thermo_press[1] c_thermo_press[2]  c_thermo_press[3] c_thermo_press[4]  c_thermo_press[5] c_thermo_press[6]  file  stress.${T}
fix ps1 all ave/time 1 1 10000 c_thermo_press[1] c_thermo_press[2]  c_thermo_press[3] c_thermo_press[4]  c_thermo_press[5] c_thermo_press[6]  file  stress.470
dump            1 all custom ${dumpStep} dump.${T} id type x y z
dump            1 all custom 1000000 dump.${T} id type x y z
dump            1 all custom 1000000 dump.470 id type x y z
dump_modify 1 sort id
fix nodrift all momentum 1  linear 1 1 1
fix com_seed all recenter INIT INIT INIT shift all
run ${runStep}
run 8000000
Generated 0 of 1 mixed pair_coeff terms from geometric mixing rule
Per MPI rank memory allocation (min/avg/max) = 8.913 | 8.917 | 8.923 Mbytes
   Step          Temp          PotEng         TotEng         Press          Volume           Lx             Ly             Lz      
         0   0.47200326    -7.8811514     -7.1731565      3.1370592      50218.233      36.893836      36.893836      36.893836    
     10000   0.46894097    -7.8727222     -7.1693207      3.1871894      50218.233      36.893836      36.893836      36.893836    
     20000   0.46932781    -7.872936      -7.1689543      3.1787491      50218.233      36.893836      36.893836      36.893836    
     30000   0.46875641    -7.8727129     -7.1695883      3.1994828      50218.233      36.893836      36.893836      36.893836    
     40000   0.46930541    -7.8705383     -7.1665902      3.2177942      50218.233      36.893836      36.893836      36.893836    
     50000   0.4693118     -7.8696728     -7.1657151      3.2136278      50218.233      36.893836      36.893836      36.893836    
     60000   0.47165761    -7.875004      -7.1675276      3.1721501      50218.233      36.893836      36.893836      36.893836    
     70000   0.4704133     -7.8730424     -7.1674325      3.1882056      50218.233      36.893836      36.893836      36.893836    
     80000   0.46907431    -7.8684645     -7.1648631      3.2207869      50218.233      36.893836      36.893836      36.893836    
     90000   0.47211711    -7.8756675     -7.1675019      3.1680714      50218.233      36.893836      36.893836      36.893836    
    100000   0.4702143     -7.8719099     -7.1665985      3.2025972      50218.233      36.893836      36.893836      36.893836    
    110000   0.46969967    -7.8693283     -7.1647888      3.221429       50218.233      36.893836      36.893836      36.893836    
    120000   0.4705528     -7.8724797     -7.1666606      3.2022853      50218.233      36.893836      36.893836      36.893836    
    130000   0.46997929    -7.8715859     -7.166627       3.1952501      50218.233      36.893836      36.893836      36.893836    
    140000   0.46877243    -7.872161      -7.1690124      3.1964752      50218.233      36.893836      36.893836      36.893836    
    150000   0.47086474    -7.8723688     -7.1660817      3.1940227      50218.233      36.893836      36.893836      36.893836    
    160000   0.47138171    -7.8727208     -7.1656583      3.1910339      50218.233      36.893836      36.893836      36.893836    
    170000   0.46888399    -7.8707781     -7.1674621      3.1957242      50218.233      36.893836      36.893836      36.893836    
    180000   0.46938569    -7.8752481     -7.1711795      3.1729892      50218.233      36.893836      36.893836      36.893836    
    190000   0.4689374     -7.8696026     -7.1662065      3.2098811      50218.233      36.893836      36.893836      36.893836    
    200000   0.47225492    -7.8704868     -7.1621145      3.2111341      50218.233      36.893836      36.893836      36.893836    
    210000   0.46781926    -7.8764098     -7.1746909      3.1583024      50218.233      36.893836      36.893836      36.893836    
    220000   0.47117427    -7.8702617     -7.1635103      3.2148619      50218.233      36.893836      36.893836      36.893836    
    230000   0.47140868    -7.8731633     -7.1660604      3.1888271      50218.233      36.893836      36.893836      36.893836    
    240000   0.46990379    -7.8715627     -7.166717       3.2078437      50218.233      36.893836      36.893836      36.893836    
    250000   0.47096727    -7.8679735     -7.1615326      3.2292496      50218.233      36.893836      36.893836      36.893836    
    260000   0.47121171    -7.8716655     -7.164858       3.2001781      50218.233      36.893836      36.893836      36.893836    
    270000   0.47108611    -7.8697296     -7.1631105      3.2241736      50218.233      36.893836      36.893836      36.893836    
    280000   0.46955096    -7.873574      -7.1692576      3.1669154      50218.233      36.893836      36.893836      36.893836    
    290000   0.47055588    -7.8747666     -7.1689428      3.1735021      50218.233      36.893836      36.893836      36.893836    
    300000   0.46926812    -7.8711274     -7.1672352      3.2055484      50218.233      36.893836      36.893836      36.893836    
    310000   0.47112931    -7.8719098     -7.1652259      3.1950081      50218.233      36.893836      36.893836      36.893836    
    320000   0.46989509    -7.8712705     -7.1664379      3.1987756      50218.233      36.893836      36.893836      36.893836    
    330000   0.46985653    -7.8738263     -7.1690516      3.1790034      50218.233      36.893836      36.893836      36.893836    
    340000   0.46907445    -7.8705666     -7.1669649      3.191103       50218.233      36.893836      36.893836      36.893836    
    350000   0.469106      -7.8741736     -7.1705246      3.1770282      50218.233      36.893836      36.893836      36.893836    
    360000   0.47085179    -7.874352      -7.1680843      3.1807425      50218.233      36.893836      36.893836      36.893836    
    370000   0.47127868    -7.8761284     -7.1692204      3.1829717      50218.233      36.893836      36.893836      36.893836    
    380000   0.47060578    -7.8738276     -7.1679289      3.1764018      50218.233      36.893836      36.893836      36.893836    
    390000   0.46964013    -7.8769749     -7.1725247      3.1546494      50218.233      36.893836      36.893836      36.893836    
    400000   0.46809186    -7.8695082     -7.1673804      3.2133332      50218.233      36.893836      36.893836      36.893836    
    410000   0.46985843    -7.8730168     -7.1682392      3.1837334      50218.233      36.893836      36.893836      36.893836    
    420000   0.47158293    -7.8761058     -7.1687414      3.1707381      50218.233      36.893836      36.893836      36.893836    
    430000   0.46952925    -7.8736363     -7.1693525      3.1831669      50218.233      36.893836      36.893836      36.893836    
    440000   0.46887869    -7.8763439     -7.1730359      3.1597907      50218.233      36.893836      36.893836      36.893836    
    450000   0.47057778    -7.8752727     -7.1694161      3.1686387      50218.233      36.893836      36.893836      36.893836    
    460000   0.47177302    -7.8703721     -7.1627226      3.2126991      50218.233      36.893836      36.893836      36.893836    
    470000   0.47046469    -7.8758836     -7.1701966      3.1652849      50218.233      36.893836      36.893836      36.893836    
    480000   0.46933327    -7.8729097     -7.1689198      3.2008416      50218.233      36.893836      36.893836      36.893836    
    490000   0.4705983     -7.8759703     -7.1700829      3.1686005      50218.233      36.893836      36.893836      36.893836    
    500000   0.47036705    -7.8740486     -7.168508       3.1841484      50218.233      36.893836      36.893836      36.893836    
    510000   0.47041676    -7.8768189     -7.1712038      3.1664722      50218.233      36.893836      36.893836      36.893836    
    520000   0.47328327    -7.8738449     -7.1639301      3.186818       50218.233      36.893836      36.893836      36.893836    
    530000   0.46958095    -7.8761096     -7.1717482      3.1579355      50218.233      36.893836      36.893836      36.893836    
    540000   0.46878355    -7.8783329     -7.1751676      3.1481321      50218.233      36.893836      36.893836      36.893836    
    550000   0.47100714    -7.8752935     -7.1687928      3.174673       50218.233      36.893836      36.893836      36.893836    
    560000   0.4677147     -7.8729105     -7.1713484      3.1833791      50218.233      36.893836      36.893836      36.893836    
    570000   0.46771102    -7.8772746     -7.175718       3.1448675      50218.233      36.893836      36.893836      36.893836    
    580000   0.47019241    -7.8757728     -7.1704942      3.1704         50218.233      36.893836      36.893836      36.893836    
    590000   0.46692556    -7.8712493     -7.1708709      3.1932263      50218.233      36.893836      36.893836      36.893836    
    600000   0.46957449    -7.8746011     -7.1702494      3.1661483      50218.233      36.893836      36.893836      36.893836    
    610000   0.47066685    -7.8759872     -7.169997       3.1687464      50218.233      36.893836      36.893836      36.893836    
    620000   0.46975558    -7.8732956     -7.1686723      3.1787201      50218.233      36.893836      36.893836      36.893836    
    630000   0.47061881    -7.8699593     -7.1640411      3.2138201      50218.233      36.893836      36.893836      36.893836    
    640000   0.46873789    -7.8729025     -7.1698057      3.1913934      50218.233      36.893836      36.893836      36.893836    
    650000   0.46897886    -7.8727645     -7.1693062      3.1793031      50218.233      36.893836      36.893836      36.893836    
    660000   0.47044617    -7.8674356     -7.1617764      3.2278054      50218.233      36.893836      36.893836      36.893836    
    670000   0.47000054    -7.8721032     -7.1671124      3.199714       50218.233      36.893836      36.893836      36.893836    
    680000   0.4695313     -7.8728929     -7.168606       3.1899175      50218.233      36.893836      36.893836      36.893836    
    690000   0.46932923    -7.8676151     -7.1636313      3.2372458      50218.233      36.893836      36.893836      36.893836    
    700000   0.47092953    -7.8724646     -7.1660804      3.1870224      50218.233      36.893836      36.893836      36.893836    
    710000   0.47195511    -7.8717778     -7.1638553      3.1940952      50218.233      36.893836      36.893836      36.893836    
    720000   0.47073854    -7.8717781     -7.1656803      3.1911216      50218.233      36.893836      36.893836      36.893836    
    730000   0.47194131    -7.8688734     -7.1609715      3.2243654      50218.233      36.893836      36.893836      36.893836    
    740000   0.47057606    -7.8685395     -7.1626855      3.2291223      50218.233      36.893836      36.893836      36.893836    
    750000   0.46852266    -7.8701941     -7.1674201      3.2079889      50218.233      36.893836      36.893836      36.893836    
    760000   0.46760325    -7.8732554     -7.1718605      3.179763       50218.233      36.893836      36.893836      36.893836    
    770000   0.46856785    -7.8733229     -7.1704811      3.1825328      50218.233      36.893836      36.893836      36.893836    
    780000   0.46925788    -7.8755112     -7.1716344      3.1657074      50218.233      36.893836      36.893836      36.893836    
    790000   0.47098153    -7.8740289     -7.1675667      3.1931149      50218.233      36.893836      36.893836      36.893836    
    800000   0.46855072    -7.8710931     -7.168277       3.2028541      50218.233      36.893836      36.893836      36.893836    
    810000   0.46961038    -7.8719514     -7.1675458      3.2038864      50218.233      36.893836      36.893836      36.893836    
    820000   0.47111611    -7.8748762     -7.168212       3.1719755      50218.233      36.893836      36.893836      36.893836    
    830000   0.47109825    -7.8721447     -7.1655074      3.1967407      50218.233      36.893836      36.893836      36.893836    
    840000   0.46859022    -7.873281      -7.1704057      3.1913853      50218.233      36.893836      36.893836      36.893836    
    850000   0.46793628    -7.8739204     -7.1720259      3.1864235      50218.233      36.893836      36.893836      36.893836    
    860000   0.4695501     -7.8691753     -7.1648602      3.2160698      50218.233      36.893836      36.893836      36.893836    
    870000   0.47324038    -7.8747423     -7.1648918      3.1843511      50218.233      36.893836      36.893836      36.893836    
    880000   0.46796464    -7.8728823     -7.1709454      3.1892553      50218.233      36.893836      36.893836      36.893836    
    890000   0.46948896    -7.8716497     -7.1674263      3.1935466      50218.233      36.893836      36.893836      36.893836    
    900000   0.4716313     -7.8738797     -7.1664428      3.1870392      50218.233      36.893836      36.893836      36.893836    
    910000   0.46909432    -7.8738402     -7.1702088      3.1777394      50218.233      36.893836      36.893836      36.893836    
    920000   0.47030638    -7.8686667     -7.1632171      3.2280328      50218.233      36.893836      36.893836      36.893836    
    930000   0.46823344    -7.8740882     -7.171748       3.1828387      50218.233      36.893836      36.893836      36.893836    
    940000   0.46835583    -7.8751934     -7.1726696      3.1739845      50218.233      36.893836      36.893836      36.893836    
    950000   0.47227028    -7.8715722     -7.1631768      3.2075806      50218.233      36.893836      36.893836      36.893836    
    960000   0.47127605    -7.8751416     -7.1682375      3.1718662      50218.233      36.893836      36.893836      36.893836    
    970000   0.47060826    -7.8741473     -7.168245       3.1864345      50218.233      36.893836      36.893836      36.893836    
    980000   0.46912887    -7.8723385     -7.1686552      3.1935843      50218.233      36.893836      36.893836      36.893836    
    990000   0.46876611    -7.8749582     -7.1718191      3.1781672      50218.233      36.893836      36.893836      36.893836    
   1000000   0.47092796    -7.8719561     -7.1655742      3.2012794      50218.233      36.893836      36.893836      36.893836    
   1010000   0.46846503    -7.8743192     -7.1716316      3.1732888      50218.233      36.893836      36.893836      36.893836    
   1020000   0.47026991    -7.8722489     -7.166854       3.1876107      50218.233      36.893836      36.893836      36.893836    
   1030000   0.4679413     -7.8705644     -7.1686624      3.206329       50218.233      36.893836      36.893836      36.893836    
   1040000   0.47081915    -7.8658373     -7.1596186      3.2433538      50218.233      36.893836      36.893836      36.893836    
   1050000   0.47315317    -7.8753911     -7.1656714      3.1791592      50218.233      36.893836      36.893836      36.893836    
   1060000   0.46881389    -7.8726579     -7.1694471      3.1898958      50218.233      36.893836      36.893836      36.893836    
   1070000   0.46921811    -7.8725965     -7.1687793      3.1952996      50218.233      36.893836      36.893836      36.893836    
   1080000   0.47184916    -7.8673493     -7.1595857      3.2311808      50218.233      36.893836      36.893836      36.893836    
   1090000   0.47148979    -7.8748467     -7.1676221      3.1709182      50218.233      36.893836      36.893836      36.893836    
   1100000   0.47146042    -7.8695457     -7.1623651      3.2089523      50218.233      36.893836      36.893836      36.893836    
   1110000   0.4717805     -7.8695165     -7.1618558      3.2194025      50218.233      36.893836      36.893836      36.893836    
   1120000   0.4671059     -7.8676331     -7.1669842      3.2187178      50218.233      36.893836      36.893836      36.893836    
   1130000   0.47123848    -7.869906      -7.1630584      3.2166124      50218.233      36.893836      36.893836      36.893836    
   1140000   0.47176276    -7.8694964     -7.1618623      3.2214807      50218.233      36.893836      36.893836      36.893836    
   1150000   0.47115873    -7.874977      -7.1682489      3.1724796      50218.233      36.893836      36.893836      36.893836    
   1160000   0.46981467    -7.8706244     -7.1659124      3.2080979      50218.233      36.893836      36.893836      36.893836    
   1170000   0.47115975    -7.8676184     -7.1608888      3.2409252      50218.233      36.893836      36.893836      36.893836    
   1180000   0.47116984    -7.8710457     -7.164301       3.2172967      50218.233      36.893836      36.893836      36.893836    
   1190000   0.47170533    -7.8692715     -7.1617236      3.2158748      50218.233      36.893836      36.893836      36.893836    
   1200000   0.47082057    -7.8679631     -7.1617423      3.2250569      50218.233      36.893836      36.893836      36.893836    
   1210000   0.47137847    -7.8661429     -7.1590852      3.2476953      50218.233      36.893836      36.893836      36.893836    
   1220000   0.47036541    -7.8723362     -7.1667981      3.1873288      50218.233      36.893836      36.893836      36.893836    
   1230000   0.47097756    -7.8715839     -7.1651276      3.1928147      50218.233      36.893836      36.893836      36.893836    
   1240000   0.46826556    -7.8740361     -7.1716478      3.1756686      50218.233      36.893836      36.893836      36.893836    
   1250000   0.47015969    -7.8695519     -7.1643224      3.2141928      50218.233      36.893836      36.893836      36.893836    
   1260000   0.4683744     -7.8711959     -7.1686443      3.2108554      50218.233      36.893836      36.893836      36.893836    
   1270000   0.46971367    -7.868856      -7.1642956      3.2266922      50218.233      36.893836      36.893836      36.893836    
   1280000   0.47031991    -7.8721859     -7.1667161      3.1987367      50218.233      36.893836      36.893836      36.893836    
   1290000   0.46867659    -7.8702198     -7.1672149      3.2077474      50218.233      36.893836      36.893836      36.893836    
   1300000   0.47073608    -7.8689559     -7.1628618      3.2177468      50218.233      36.893836      36.893836      36.893836    
   1310000   0.47054392    -7.8697817     -7.1639758      3.2097713      50218.233      36.893836      36.893836      36.893836    
   1320000   0.47070983    -7.8688732     -7.1628185      3.2180319      50218.233      36.893836      36.893836      36.893836    
   1330000   0.46887233    -7.8752647     -7.1719662      3.1640085      50218.233      36.893836      36.893836      36.893836    
   1340000   0.47092561    -7.8736762     -7.1672979      3.1830703      50218.233      36.893836      36.893836      36.893836    
   1350000   0.46933778    -7.8740112     -7.1700146      3.1763536      50218.233      36.893836      36.893836      36.893836    
   1360000   0.47031523    -7.8741754     -7.1687126      3.1737358      50218.233      36.893836      36.893836      36.893836    
   1370000   0.46870417    -7.8713681     -7.1683219      3.1982769      50218.233      36.893836      36.893836      36.893836    
   1380000   0.47047624    -7.871207      -7.1655026      3.1990992      50218.233      36.893836      36.893836      36.893836    
   1390000   0.46899754    -7.8728838     -7.1693975      3.1818679      50218.233      36.893836      36.893836      36.893836    
   1400000   0.47074898    -7.8730367     -7.1669232      3.1855387      50218.233      36.893836      36.893836      36.893836    
   1410000   0.46929151    -7.8738185     -7.1698912      3.1677662      50218.233      36.893836      36.893836      36.893836    
   1420000   0.47000628    -7.8722571     -7.1672577      3.1804069      50218.233      36.893836      36.893836      36.893836    
   1430000   0.46819878    -7.871654      -7.1693658      3.1983053      50218.233      36.893836      36.893836      36.893836    
   1440000   0.47288113    -7.8733439     -7.1640323      3.1839699      50218.233      36.893836      36.893836      36.893836    
   1450000   0.46974138    -7.8719998     -7.1673977      3.1899688      50218.233      36.893836      36.893836      36.893836    
   1460000   0.47229523    -7.8704888     -7.162056       3.2146842      50218.233      36.893836      36.893836      36.893836    
   1470000   0.46864839    -7.8722339     -7.1692713      3.1920767      50218.233      36.893836      36.893836      36.893836    
   1480000   0.46856863    -7.8758149     -7.172972       3.1577423      50218.233      36.893836      36.893836      36.893836    
   1490000   0.47043088    -7.8774203     -7.171784       3.1470941      50218.233      36.893836      36.893836      36.893836    
   1500000   0.47261869    -7.8722048     -7.1632868      3.1912935      50218.233      36.893836      36.893836      36.893836    
   1510000   0.4715736     -7.8736729     -7.1663226      3.1867466      50218.233      36.893836      36.893836      36.893836    
   1520000   0.46982882    -7.8719136     -7.1671804      3.1956701      50218.233      36.893836      36.893836      36.893836    
   1530000   0.46795203    -7.8790338     -7.1771157      3.1281427      50218.233      36.893836      36.893836      36.893836    
   1540000   0.4701684     -7.8782691     -7.1730265      3.1454796      50218.233      36.893836      36.893836      36.893836    
   1550000   0.46871052    -7.8753197     -7.1722639      3.1674607      50218.233      36.893836      36.893836      36.893836    
   1560000   0.46791169    -7.8737514     -7.1718939      3.1717332      50218.233      36.893836      36.893836      36.893836    
   1570000   0.47189674    -7.8709145     -7.1630794      3.2145962      50218.233      36.893836      36.893836      36.893836    
   1580000   0.47022121    -7.8756579     -7.1703361      3.1697369      50218.233      36.893836      36.893836      36.893836    
   1590000   0.47082888    -7.87546       -7.1692268      3.1706139      50218.233      36.893836      36.893836      36.893836    
   1600000   0.46853648    -7.868612      -7.1658172      3.2177857      50218.233      36.893836      36.893836      36.893836    
   1610000   0.46930379    -7.8696898     -7.1657441      3.2097311      50218.233      36.893836      36.893836      36.893836    
   1620000   0.4713491     -7.8733996     -7.166386       3.1939522      50218.233      36.893836      36.893836      36.893836    
   1630000   0.46809917    -7.8686686     -7.1665298      3.2049479      50218.233      36.893836      36.893836      36.893836    
   1640000   0.46534007    -7.8758064     -7.1778062      3.1598212      50218.233      36.893836      36.893836      36.893836    
   1650000   0.47106787    -7.8672694     -7.1606777      3.2233057      50218.233      36.893836      36.893836      36.893836    
   1660000   0.46842886    -7.8712998     -7.1686665      3.1824571      50218.233      36.893836      36.893836      36.893836    
   1670000   0.46732403    -7.8692846     -7.1683085      3.2072333      50218.233      36.893836      36.893836      36.893836    
   1680000   0.47057735    -7.871325      -7.165469       3.2028925      50218.233      36.893836      36.893836      36.893836    
   1690000   0.46850139    -7.8704129     -7.1676708      3.1916849      50218.233      36.893836      36.893836      36.893836    
   1700000   0.46842462    -7.8727023     -7.1700754      3.1768532      50218.233      36.893836      36.893836      36.893836    
   1710000   0.46938104    -7.8663839     -7.1623223      3.2368415      50218.233      36.893836      36.893836      36.893836    
   1720000   0.46983212    -7.869015      -7.1642769      3.2084247      50218.233      36.893836      36.893836      36.893836    
   1730000   0.47131952    -7.8698689     -7.1628997      3.2101191      50218.233      36.893836      36.893836      36.893836    
   1740000   0.46933036    -7.8734513     -7.1694658      3.1701837      50218.233      36.893836      36.893836      36.893836    
   1750000   0.47119874    -7.8743866     -7.1675985      3.1860657      50218.233      36.893836      36.893836      36.893836    
   1760000   0.4682277     -7.8692839     -7.1669524      3.2145757      50218.233      36.893836      36.893836      36.893836    
   1770000   0.4689178     -7.8738159     -7.1704492      3.1740233      50218.233      36.893836      36.893836      36.893836    
   1780000   0.46868616    -7.8714022     -7.1683829      3.1925619      50218.233      36.893836      36.893836      36.893836    
   1790000   0.46883344    -7.8735506     -7.1703104      3.1894715      50218.233      36.893836      36.893836      36.893836    
   1800000   0.4680529     -7.8732364     -7.171167       3.1743874      50218.233      36.893836      36.893836      36.893836    
   1810000   0.46975623    -7.8712462     -7.1666219      3.2010166      50218.233      36.893836      36.893836      36.893836    
   1820000   0.4697664     -7.8738734     -7.1692339      3.179879       50218.233      36.893836      36.893836      36.893836    
   1830000   0.47019846    -7.87403       -7.1687423      3.168388       50218.233      36.893836      36.893836      36.893836    
   1840000   0.47033976    -7.8761144     -7.1706148      3.1512882      50218.233      36.893836      36.893836      36.893836    
   1850000   0.47204552    -7.8737094     -7.1656512      3.1857481      50218.233      36.893836      36.893836      36.893836    
   1860000   0.47223042    -7.8729455     -7.1646099      3.1966463      50218.233      36.893836      36.893836      36.893836    
   1870000   0.46978865    -7.8706252     -7.1659523      3.1940471      50218.233      36.893836      36.893836      36.893836    
   1880000   0.47034275    -7.8713626     -7.1658585      3.1992054      50218.233      36.893836      36.893836      36.893836    
   1890000   0.4688023     -7.8690976     -7.1659042      3.2093733      50218.233      36.893836      36.893836      36.893836    
   1900000   0.46970571    -7.8743485     -7.1697999      3.1879387      50218.233      36.893836      36.893836      36.893836    
   1910000   0.47272792    -7.8752647     -7.1661829      3.1644703      50218.233      36.893836      36.893836      36.893836    
   1920000   0.47073286    -7.8727954     -7.1667062      3.1836266      50218.233      36.893836      36.893836      36.893836    
   1930000   0.47071677    -7.8734135     -7.1673484      3.1872056      50218.233      36.893836      36.893836      36.893836    
   1940000   0.46981732    -7.8762548     -7.1715388      3.1713615      50218.233      36.893836      36.893836      36.893836    
   1950000   0.47081431    -7.8714198     -7.1652084      3.200623       50218.233      36.893836      36.893836      36.893836    
   1960000   0.46900783    -7.8715837     -7.168082       3.2040232      50218.233      36.893836      36.893836      36.893836    
   1970000   0.47230122    -7.8723842     -7.1639424      3.1909183      50218.233      36.893836      36.893836      36.893836    
   1980000   0.47102954    -7.8724174     -7.1658831      3.1908905      50218.233      36.893836      36.893836      36.893836    
   1990000   0.46972115    -7.8705615     -7.1659898      3.1920307      50218.233      36.893836      36.893836      36.893836    
   2000000   0.46988229    -7.8743251     -7.1695117      3.1773889      50218.233      36.893836      36.893836      36.893836    
   2010000   0.46958062    -7.8748939     -7.170533       3.1647294      50218.233      36.893836      36.893836      36.893836    
   2020000   0.47144099    -7.8742058     -7.1670544      3.1828985      50218.233      36.893836      36.893836      36.893836    
   2030000   0.47214004    -7.8741464     -7.1659464      3.1831085      50218.233      36.893836      36.893836      36.893836    
   2040000   0.47084855    -7.8731707     -7.1669079      3.1914957      50218.233      36.893836      36.893836      36.893836    
   2050000   0.47004446    -7.8720032     -7.1669465      3.1873061      50218.233      36.893836      36.893836      36.893836    
   2060000   0.4696394     -7.878184      -7.1737349      3.1462702      50218.233      36.893836      36.893836      36.893836    
   2070000   0.47184573    -7.8756963     -7.1679377      3.1706726      50218.233      36.893836      36.893836      36.893836    
   2080000   0.4687601     -7.8727132     -7.169583       3.18365        50218.233      36.893836      36.893836      36.893836    
   2090000   0.47129427    -7.8739368     -7.1670054      3.1806401      50218.233      36.893836      36.893836      36.893836    
   2100000   0.47210925    -7.8712666     -7.1631128      3.2060758      50218.233      36.893836      36.893836      36.893836    
   2110000   0.46693072    -7.8763548     -7.1759687      3.1583342      50218.233      36.893836      36.893836      36.893836    
   2120000   0.46956402    -7.8735843     -7.1692483      3.1760006      50218.233      36.893836      36.893836      36.893836    
   2130000   0.46827362    -7.8745592     -7.1721588      3.1658633      50218.233      36.893836      36.893836      36.893836    
   2140000   0.47079552    -7.8742645     -7.1680813      3.184705       50218.233      36.893836      36.893836      36.893836    
   2150000   0.47076908    -7.8722146     -7.166071       3.1832472      50218.233      36.893836      36.893836      36.893836    
   2160000   0.46995043    -7.8721781     -7.1672625      3.1862021      50218.233      36.893836      36.893836      36.893836    
   2170000   0.46864075    -7.8722195     -7.1692684      3.1715437      50218.233      36.893836      36.893836      36.893836    
   2180000   0.46997773    -7.8727098     -7.1677533      3.1825563      50218.233      36.893836      36.893836      36.893836    
   2190000   0.46940202    -7.8741217     -7.1700287      3.1781311      50218.233      36.893836      36.893836      36.893836    
   2200000   0.47098391    -7.8721041     -7.1656383      3.2019596      50218.233      36.893836      36.893836      36.893836    
   2210000   0.4701719     -7.8728062     -7.1675584      3.1744793      50218.233      36.893836      36.893836      36.893836    
   2220000   0.47102808    -7.8747688     -7.1682368      3.1629219      50218.233      36.893836      36.893836      36.893836    
   2230000   0.46727701    -7.8739121     -7.1730066      3.1801353      50218.233      36.893836      36.893836      36.893836    
   2240000   0.46712313    -7.871856      -7.1711813      3.1879203      50218.233      36.893836      36.893836      36.893836    
   2250000   0.47114285    -7.8723759     -7.1656717      3.197759       50218.233      36.893836      36.893836      36.893836    
   2260000   0.46851696    -7.8727941     -7.1700287      3.1774715      50218.233      36.893836      36.893836      36.893836    
   2270000   0.47194919    -7.8716102     -7.1636965      3.2016713      50218.233      36.893836      36.893836      36.893836    
   2280000   0.47113342    -7.871881      -7.1651909      3.2016848      50218.233      36.893836      36.893836      36.893836    
   2290000   0.46857382    -7.8705298     -7.167679       3.2105859      50218.233      36.893836      36.893836      36.893836    
   2300000   0.46935108    -7.8774827     -7.173466       3.1497599      50218.233      36.893836      36.893836      36.893836    
   2310000   0.46955582    -7.8696292     -7.1653055      3.2004107      50218.233      36.893836      36.893836      36.893836    
   2320000   0.47147279    -7.8750402     -7.1678411      3.1811006      50218.233      36.893836      36.893836      36.893836    
   2330000   0.4720439     -7.8754042     -7.1673484      3.1597997      50218.233      36.893836      36.893836      36.893836    
   2340000   0.46780203    -7.8709831     -7.1692901      3.1957729      50218.233      36.893836      36.893836      36.893836    
   2350000   0.46933039    -7.8711581     -7.1671725      3.2151459      50218.233      36.893836      36.893836      36.893836    
   2360000   0.47038565    -7.872742      -7.1671735      3.1834382      50218.233      36.893836      36.893836      36.893836    
   2370000   0.47154762    -7.8760496     -7.1687382      3.1621621      50218.233      36.893836      36.893836      36.893836    
   2380000   0.47003355    -7.8725371     -7.1674968      3.1919507      50218.233      36.893836      36.893836      36.893836    
   2390000   0.46854792    -7.874959      -7.1721471      3.1645491      50218.233      36.893836      36.893836      36.893836    
   2400000   0.47136417    -7.8673748     -7.1603386      3.2301517      50218.233      36.893836      36.893836      36.893836    
   2410000   0.46972606    -7.8754071     -7.170828       3.1744006      50218.233      36.893836      36.893836      36.893836    
   2420000   0.47061194    -7.8759428     -7.1700349      3.1752326      50218.233      36.893836      36.893836      36.893836    
   2430000   0.46995859    -7.8722877     -7.1673599      3.1883613      50218.233      36.893836      36.893836      36.893836    
   2440000   0.47117744    -7.86981       -7.1630539      3.2065957      50218.233      36.893836      36.893836      36.893836    
   2450000   0.4702974     -7.8722232     -7.1667871      3.1784175      50218.233      36.893836      36.893836      36.893836    
   2460000   0.47008498    -7.8688275     -7.1637101      3.2126641      50218.233      36.893836      36.893836      36.893836    
   2470000   0.47064497    -7.8749413     -7.1689839      3.1609842      50218.233      36.893836      36.893836      36.893836    
   2480000   0.46856098    -7.87258       -7.1697485      3.1883052      50218.233      36.893836      36.893836      36.893836    
   2490000   0.47063891    -7.8766294     -7.170681       3.1493056      50218.233      36.893836      36.893836      36.893836    
   2500000   0.46790071    -7.874882      -7.1730409      3.1688926      50218.233      36.893836      36.893836      36.893836    
   2510000   0.47167961    -7.8747625     -7.1672531      3.1644347      50218.233      36.893836      36.893836      36.893836    
   2520000   0.46780111    -7.8720115     -7.1703198      3.1968676      50218.233      36.893836      36.893836      36.893836    
   2530000   0.4688678     -7.8744012     -7.1711095      3.162857       50218.233      36.893836      36.893836      36.893836    
   2540000   0.46809616    -7.8732947     -7.1711605      3.1807161      50218.233      36.893836      36.893836      36.893836    
   2550000   0.46856935    -7.8723793     -7.1695353      3.1894315      50218.233      36.893836      36.893836      36.893836    
   2560000   0.47073638    -7.8751084     -7.1690139      3.1574815      50218.233      36.893836      36.893836      36.893836    
   2570000   0.47222582    -7.8779659     -7.1696372      3.1575293      50218.233      36.893836      36.893836      36.893836    
   2580000   0.4726189     -7.8700201     -7.1611019      3.2135439      50218.233      36.893836      36.893836      36.893836    
   2590000   0.46975046    -7.8684135     -7.1637978      3.2292797      50218.233      36.893836      36.893836      36.893836    
   2600000   0.46946272    -7.8733864     -7.1692024      3.1926543      50218.233      36.893836      36.893836      36.893836    
   2610000   0.47099819    -7.8718604     -7.1653732      3.1944211      50218.233      36.893836      36.893836      36.893836    
   2620000   0.47074421    -7.869438      -7.1633318      3.2019772      50218.233      36.893836      36.893836      36.893836    
   2630000   0.47144626    -7.8762775     -7.1691182      3.1663191      50218.233      36.893836      36.893836      36.893836    
   2640000   0.4682797     -7.8725519     -7.1701424      3.1964079      50218.233      36.893836      36.893836      36.893836    
   2650000   0.46543037    -7.8748925     -7.1767569      3.1586247      50218.233      36.893836      36.893836      36.893836    
   2660000   0.46768294    -7.8743216     -7.1728072      3.1693059      50218.233      36.893836      36.893836      36.893836    
   2670000   0.46809624    -7.8708491     -7.1687147      3.1992964      50218.233      36.893836      36.893836      36.893836    
   2680000   0.47121835    -7.8745176     -7.1677001      3.1788296      50218.233      36.893836      36.893836      36.893836    
   2690000   0.46818547    -7.8751972     -7.172929       3.160775       50218.233      36.893836      36.893836      36.893836    
   2700000   0.46948838    -7.869374      -7.1651514      3.2190437      50218.233      36.893836      36.893836      36.893836    
   2710000   0.47104897    -7.8734498     -7.1668864      3.1815831      50218.233      36.893836      36.893836      36.893836    
   2720000   0.46752452    -7.8697124     -7.1684356      3.2018703      50218.233      36.893836      36.893836      36.893836    
   2730000   0.47050697    -7.8733536     -7.1676032      3.1809381      50218.233      36.893836      36.893836      36.893836    
   2740000   0.47296282    -7.8747753     -7.1653411      3.1707615      50218.233      36.893836      36.893836      36.893836    
   2750000   0.4667531     -7.8747608     -7.1746411      3.1675906      50218.233      36.893836      36.893836      36.893836    
   2760000   0.46702816    -7.8686533     -7.1681211      3.2141306      50218.233      36.893836      36.893836      36.893836    
   2770000   0.47159006    -7.8754055     -7.1680304      3.1636896      50218.233      36.893836      36.893836      36.893836    
   2780000   0.46960766    -7.8704431     -7.1660416      3.1971447      50218.233      36.893836      36.893836      36.893836    
   2790000   0.47234056    -7.874588      -7.1660872      3.1684923      50218.233      36.893836      36.893836      36.893836    
   2800000   0.46947939    -7.8726506     -7.1684415      3.1871714      50218.233      36.893836      36.893836      36.893836    
   2810000   0.47077296    -7.8757133     -7.169564       3.1541429      50218.233      36.893836      36.893836      36.893836    
   2820000   0.47047765    -7.8722423     -7.1665359      3.1870831      50218.233      36.893836      36.893836      36.893836    
   2830000   0.47054749    -7.8726073     -7.1667961      3.186531       50218.233      36.893836      36.893836      36.893836    
   2840000   0.46962964    -7.8737651     -7.1693307      3.1748487      50218.233      36.893836      36.893836      36.893836    
   2850000   0.47092852    -7.8709361     -7.1645534      3.1967082      50218.233      36.893836      36.893836      36.893836    
   2860000   0.46887223    -7.8782602     -7.1749618      3.1280987      50218.233      36.893836      36.893836      36.893836    
   2870000   0.46673883    -7.8707339     -7.1706356      3.1944424      50218.233      36.893836      36.893836      36.893836    
   2880000   0.47074409    -7.8706653     -7.1645592      3.1964522      50218.233      36.893836      36.893836      36.893836    
   2890000   0.47100605    -7.8730265     -7.1665274      3.1895031      50218.233      36.893836      36.893836      36.893836    
   2900000   0.47130964    -7.872761      -7.1658066      3.1794119      50218.233      36.893836      36.893836      36.893836    
   2910000   0.46836506    -7.8744787     -7.1719411      3.1713182      50218.233      36.893836      36.893836      36.893836    
   2920000   0.47033614    -7.8752513     -7.1697571      3.1526896      50218.233      36.893836      36.893836      36.893836    
   2930000   0.46893778    -7.8755432     -7.1721465      3.1590906      50218.233      36.893836      36.893836      36.893836    
   2940000   0.47040363    -7.8739179     -7.1683225      3.1738114      50218.233      36.893836      36.893836      36.893836    
   2950000   0.47114257    -7.8729112     -7.1662074      3.182341       50218.233      36.893836      36.893836      36.893836    
   2960000   0.47059143    -7.8768287     -7.1709516      3.1651025      50218.233      36.893836      36.893836      36.893836    
   2970000   0.46823353    -7.8737557     -7.1714154      3.172987       50218.233      36.893836      36.893836      36.893836    
   2980000   0.47099486    -7.8725733     -7.1660911      3.2019596      50218.233      36.893836      36.893836      36.893836    
   2990000   0.47063568    -7.8712388     -7.1652953      3.1971072      50218.233      36.893836      36.893836      36.893836    
   3000000   0.47117083    -7.8772183     -7.1704721      3.1446125      50218.233      36.893836      36.893836      36.893836    
   3010000   0.47138601    -7.8727703     -7.1657013      3.1954571      50218.233      36.893836      36.893836      36.893836    
   3020000   0.46942411    -7.8715431     -7.167417       3.1902445      50218.233      36.893836      36.893836      36.893836    
   3030000   0.46980631    -7.8742118     -7.1695123      3.1705731      50218.233      36.893836      36.893836      36.893836    
   3040000   0.46977828    -7.8734587     -7.1688013      3.1639686      50218.233      36.893836      36.893836      36.893836    
   3050000   0.46897463    -7.8751685     -7.1717166      3.1683665      50218.233      36.893836      36.893836      36.893836    
   3060000   0.46911589    -7.8742412     -7.1705774      3.1681939      50218.233      36.893836      36.893836      36.893836    
   3070000   0.46826278    -7.8759334     -7.1735492      3.1537357      50218.233      36.893836      36.893836      36.893836    
   3080000   0.46942492    -7.8684622     -7.1643348      3.2180402      50218.233      36.893836      36.893836      36.893836    
   3090000   0.47094121    -7.8724621     -7.1660603      3.1907379      50218.233      36.893836      36.893836      36.893836    
   3100000   0.46765283    -7.8723341     -7.1708649      3.1817799      50218.233      36.893836      36.893836      36.893836    
   3110000   0.46998451    -7.8731148     -7.1681481      3.1873173      50218.233      36.893836      36.893836      36.893836    
   3120000   0.47040029    -7.8703562     -7.1647658      3.2086393      50218.233      36.893836      36.893836      36.893836    
   3130000   0.46968374    -7.8774177     -7.1729021      3.1504496      50218.233      36.893836      36.893836      36.893836    
   3140000   0.47008733    -7.8716574     -7.1665364      3.1852472      50218.233      36.893836      36.893836      36.893836    
   3150000   0.46796522    -7.8711441     -7.1692063      3.194241       50218.233      36.893836      36.893836      36.893836    
   3160000   0.4688151     -7.8711949     -7.1679822      3.1984987      50218.233      36.893836      36.893836      36.893836    
   3170000   0.46913157    -7.8680331     -7.1643458      3.2177654      50218.233      36.893836      36.893836      36.893836    
   3180000   0.47064579    -7.8722882     -7.1663296      3.1805558      50218.233      36.893836      36.893836      36.893836    
   3190000   0.47003011    -7.8759308     -7.1708957      3.1536243      50218.233      36.893836      36.893836      36.893836    
   3200000   0.46704542    -7.8731173     -7.1725592      3.1621628      50218.233      36.893836      36.893836      36.893836    
   3210000   0.46791922    -7.8752625     -7.1733937      3.1698972      50218.233      36.893836      36.893836      36.893836    
   3220000   0.47188907    -7.873525      -7.1657015      3.1815188      50218.233      36.893836      36.893836      36.893836    
   3230000   0.46766304    -7.8710411     -7.1695565      3.193196       50218.233      36.893836      36.893836      36.893836    
   3240000   0.46822287    -7.8720284     -7.1697041      3.1839912      50218.233      36.893836      36.893836      36.893836    
   3250000   0.46821061    -7.8777145     -7.1754086      3.1376603      50218.233      36.893836      36.893836      36.893836    
   3260000   0.46978657    -7.8750639     -7.1703941      3.1615267      50218.233      36.893836      36.893836      36.893836    
   3270000   0.46911249    -7.8739132     -7.1702545      3.1711145      50218.233      36.893836      36.893836      36.893836    
   3280000   0.47100074    -7.8736019     -7.1671109      3.1701134      50218.233      36.893836      36.893836      36.893836    
   3290000   0.46916231    -7.8723523     -7.1686189      3.189818       50218.233      36.893836      36.893836      36.893836    
   3300000   0.46911275    -7.8761119     -7.1724528      3.1601159      50218.233      36.893836      36.893836      36.893836    
   3310000   0.47038656    -7.8725297     -7.1669599      3.1845747      50218.233      36.893836      36.893836      36.893836    
   3320000   0.47019179    -7.8730268     -7.1677492      3.1819561      50218.233      36.893836      36.893836      36.893836    
   3330000   0.47311089    -7.8709833     -7.1613271      3.1959871      50218.233      36.893836      36.893836      36.893836    
   3340000   0.47064291    -7.8737185     -7.1677641      3.1834419      50218.233      36.893836      36.893836      36.893836    
   3350000   0.4719174     -7.8735843     -7.1657182      3.18514        50218.233      36.893836      36.893836      36.893836    
   3360000   0.4713534     -7.8767263     -7.1697063      3.1596005      50218.233      36.893836      36.893836      36.893836    
   3370000   0.46852267    -7.8721393     -7.1693653      3.1809913      50218.233      36.893836      36.893836      36.893836    
   3380000   0.46833172    -7.8728519     -7.1703643      3.1818681      50218.233      36.893836      36.893836      36.893836    
   3390000   0.47157966    -7.8688132     -7.1614537      3.2148313      50218.233      36.893836      36.893836      36.893836    
   3400000   0.46849126    -7.8751935     -7.1724666      3.1617501      50218.233      36.893836      36.893836      36.893836    
   3410000   0.47048825    -7.8729954     -7.167273       3.1882348      50218.233      36.893836      36.893836      36.893836    
   3420000   0.46966069    -7.8722689     -7.1677879      3.1877126      50218.233      36.893836      36.893836      36.893836    
   3430000   0.46928377    -7.8733379     -7.1694222      3.189805       50218.233      36.893836      36.893836      36.893836    
   3440000   0.47144412    -7.8747441     -7.167588       3.165288       50218.233      36.893836      36.893836      36.893836    
   3450000   0.47045139    -7.8777448     -7.1720777      3.1467932      50218.233      36.893836      36.893836      36.893836    
   3460000   0.47043649    -7.869421      -7.1637763      3.2111302      50218.233      36.893836      36.893836      36.893836    
   3470000   0.468336      -7.8739778     -7.1714838      3.1740114      50218.233      36.893836      36.893836      36.893836    
   3480000   0.46899145    -7.8735842     -7.170107       3.1697178      50218.233      36.893836      36.893836      36.893836    
   3490000   0.46939846    -7.8715161     -7.1674284      3.1902001      50218.233      36.893836      36.893836      36.893836    
   3500000   0.47099872    -7.8699927     -7.1635047      3.2076501      50218.233      36.893836      36.893836      36.893836    
   3510000   0.47239997    -7.873189      -7.1645991      3.1849034      50218.233      36.893836      36.893836      36.893836    
   3520000   0.4716922     -7.872589      -7.1650608      3.1912363      50218.233      36.893836      36.893836      36.893836    
   3530000   0.46815762    -7.8743352     -7.1721087      3.1641326      50218.233      36.893836      36.893836      36.893836    
   3540000   0.46981419    -7.8728729     -7.1681616      3.1899232      50218.233      36.893836      36.893836      36.893836    
   3550000   0.4671821     -7.8726152     -7.171852       3.1865362      50218.233      36.893836      36.893836      36.893836    
   3560000   0.46744225    -7.8708062     -7.1696527      3.1965873      50218.233      36.893836      36.893836      36.893836    
   3570000   0.47127528    -7.8744464     -7.1675435      3.175347       50218.233      36.893836      36.893836      36.893836    
   3580000   0.46861363    -7.8755818     -7.1726714      3.1735879      50218.233      36.893836      36.893836      36.893836    
   3590000   0.46998796    -7.8720589     -7.1670869      3.1897824      50218.233      36.893836      36.893836      36.893836    
   3600000   0.47092398    -7.872001      -7.1656251      3.1988295      50218.233      36.893836      36.893836      36.893836    
   3610000   0.46924502    -7.8736815     -7.169824       3.1751988      50218.233      36.893836      36.893836      36.893836    
   3620000   0.47218835    -7.873176      -7.1649035      3.1834766      50218.233      36.893836      36.893836      36.893836    
   3630000   0.46883828    -7.8693433     -7.1660959      3.2120935      50218.233      36.893836      36.893836      36.893836    
   3640000   0.47268203    -7.8726787     -7.1636658      3.1986059      50218.233      36.893836      36.893836      36.893836    
   3650000   0.47059763    -7.8726735     -7.1667871      3.1918189      50218.233      36.893836      36.893836      36.893836    
   3660000   0.47000541    -7.8723947     -7.1673967      3.1942593      50218.233      36.893836      36.893836      36.893836    
   3670000   0.46915595    -7.8770212     -7.1732973      3.1498872      50218.233      36.893836      36.893836      36.893836    
   3680000   0.4687963     -7.8709311     -7.1677467      3.2001832      50218.233      36.893836      36.893836      36.893836    
   3690000   0.46952182    -7.8773191     -7.1730464      3.1448389      50218.233      36.893836      36.893836      36.893836    
   3700000   0.46917062    -7.869929      -7.1661831      3.2001845      50218.233      36.893836      36.893836      36.893836    
   3710000   0.46700631    -7.8728273     -7.1723278      3.1776904      50218.233      36.893836      36.893836      36.893836    
   3720000   0.46988696    -7.871909      -7.1670885      3.1969638      50218.233      36.893836      36.893836      36.893836    
   3730000   0.47109882    -7.8726214     -7.1659832      3.1846088      50218.233      36.893836      36.893836      36.893836    
   3740000   0.47078269    -7.8726735     -7.1665095      3.1832947      50218.233      36.893836      36.893836      36.893836    
   3750000   0.46918692    -7.871505      -7.1677347      3.2080308      50218.233      36.893836      36.893836      36.893836    
   3760000   0.47259772    -7.8749435     -7.166057       3.1746761      50218.233      36.893836      36.893836      36.893836    
   3770000   0.46757473    -7.8744004     -7.1730483      3.1549749      50218.233      36.893836      36.893836      36.893836    
   3780000   0.47063884    -7.872317      -7.1663688      3.190929       50218.233      36.893836      36.893836      36.893836    
   3790000   0.46747247    -7.8723117     -7.1711129      3.1873445      50218.233      36.893836      36.893836      36.893836    
   3800000   0.46748151    -7.8737537     -7.1725414      3.1735747      50218.233      36.893836      36.893836      36.893836    
   3810000   0.47037429    -7.8737322     -7.1681808      3.1677199      50218.233      36.893836      36.893836      36.893836    
   3820000   0.46939765    -7.8731978     -7.1691114      3.1787448      50218.233      36.893836      36.893836      36.893836    
   3830000   0.46925755    -7.8734978     -7.1696215      3.1806701      50218.233      36.893836      36.893836      36.893836    
   3840000   0.46979687    -7.8749394     -7.1702542      3.1630053      50218.233      36.893836      36.893836      36.893836    
   3850000   0.4710905     -7.8691212     -7.1624955      3.2201304      50218.233      36.893836      36.893836      36.893836    
   3860000   0.47135079    -7.8754933     -7.1684772      3.1774372      50218.233      36.893836      36.893836      36.893836    
   3870000   0.46989232    -7.8737651     -7.1689366      3.1801977      50218.233      36.893836      36.893836      36.893836    
   3880000   0.4702751     -7.8754174     -7.1700148      3.1599794      50218.233      36.893836      36.893836      36.893836    
   3890000   0.46857779    -7.8739508     -7.1710941      3.169705       50218.233      36.893836      36.893836      36.893836    
   3900000   0.46930387    -7.8765514     -7.1726056      3.1613439      50218.233      36.893836      36.893836      36.893836    
   3910000   0.4667391     -7.8693101     -7.1692114      3.2083133      50218.233      36.893836      36.893836      36.893836    
   3920000   0.46998114    -7.8709021     -7.1659404      3.1995002      50218.233      36.893836      36.893836      36.893836    
   3930000   0.46774151    -7.8731224     -7.1715201      3.1881011      50218.233      36.893836      36.893836      36.893836    
   3940000   0.4684227     -7.8747505     -7.1721265      3.1681547      50218.233      36.893836      36.893836      36.893836    
   3950000   0.47246834    -7.8716406     -7.1629482      3.2099212      50218.233      36.893836      36.893836      36.893836    
   3960000   0.46903812    -7.871544      -7.1679968      3.2028386      50218.233      36.893836      36.893836      36.893836    
   3970000   0.46761378    -7.8709971     -7.1695864      3.1927189      50218.233      36.893836      36.893836      36.893836    
   3980000   0.47042799    -7.8749036     -7.1692716      3.1650946      50218.233      36.893836      36.893836      36.893836    
   3990000   0.4677281     -7.8711805     -7.1695983      3.1834294      50218.233      36.893836      36.893836      36.893836    
   4000000   0.46958127    -7.8717185     -7.1673566      3.1949167      50218.233      36.893836      36.893836      36.893836    
   4010000   0.47017609    -7.8707637     -7.1655096      3.2039126      50218.233      36.893836      36.893836      36.893836    
   4020000   0.47003553    -7.8684447     -7.1634014      3.2182422      50218.233      36.893836      36.893836      36.893836    
   4030000   0.47009221    -7.8720456     -7.1669173      3.1965588      50218.233      36.893836      36.893836      36.893836    
   4040000   0.47280728    -7.8746607     -7.1654599      3.1723516      50218.233      36.893836      36.893836      36.893836    
   4050000   0.47261969    -7.8755006     -7.1665811      3.1776812      50218.233      36.893836      36.893836      36.893836    
   4060000   0.4710206     -7.8709045     -7.1643836      3.1930662      50218.233      36.893836      36.893836      36.893836    
   4070000   0.47032022    -7.8727001     -7.1672298      3.1948806      50218.233      36.893836      36.893836      36.893836    
   4080000   0.46795831    -7.8696745     -7.167747       3.2048351      50218.233      36.893836      36.893836      36.893836    
   4090000   0.46903478    -7.8712112     -7.167669       3.1922539      50218.233      36.893836      36.893836      36.893836    
   4100000   0.46794938    -7.874639      -7.1727249      3.1698225      50218.233      36.893836      36.893836      36.893836    
   4110000   0.47211959    -7.8714047     -7.1632354      3.203416       50218.233      36.893836      36.893836      36.893836    
   4120000   0.47169974    -7.8740558     -7.1665163      3.1777441      50218.233      36.893836      36.893836      36.893836    
   4130000   0.47047965    -7.8725713     -7.1668618      3.1812669      50218.233      36.893836      36.893836      36.893836    
   4140000   0.46896722    -7.8722524     -7.1688116      3.1773421      50218.233      36.893836      36.893836      36.893836    
   4150000   0.47006183    -7.8673837     -7.1623009      3.2197582      50218.233      36.893836      36.893836      36.893836    
   4160000   0.46929568    -7.8717482     -7.1678147      3.1881299      50218.233      36.893836      36.893836      36.893836    
   4170000   0.46900831    -7.8749269     -7.1714244      3.1686645      50218.233      36.893836      36.893836      36.893836    
   4180000   0.47126742    -7.869512      -7.162621       3.2118713      50218.233      36.893836      36.893836      36.893836    
   4190000   0.46980434    -7.870289      -7.1655926      3.2100179      50218.233      36.893836      36.893836      36.893836    
   4200000   0.47045465    -7.8710877     -7.1654157      3.1901745      50218.233      36.893836      36.893836      36.893836    
   4210000   0.47084066    -7.8705363     -7.1642854      3.2023308      50218.233      36.893836      36.893836      36.893836    
   4220000   0.47099814    -7.8754112     -7.1689241      3.1573835      50218.233      36.893836      36.893836      36.893836    
   4230000   0.470347      -7.8740521     -7.1685416      3.1691513      50218.233      36.893836      36.893836      36.893836    
   4240000   0.47032838    -7.8744096     -7.1689271      3.1757944      50218.233      36.893836      36.893836      36.893836    
   4250000   0.46879159    -7.8714298     -7.1682524      3.2022997      50218.233      36.893836      36.893836      36.893836    
   4260000   0.4703034     -7.8725168     -7.1670718      3.1856213      50218.233      36.893836      36.893836      36.893836    
   4270000   0.47106848    -7.8687729     -7.1621802      3.2099923      50218.233      36.893836      36.893836      36.893836    
   4280000   0.47132732    -7.8719589     -7.164978       3.1965006      50218.233      36.893836      36.893836      36.893836    
   4290000   0.46980442    -7.8750646     -7.170368       3.1675173      50218.233      36.893836      36.893836      36.893836    
   4300000   0.46865158    -7.8729999     -7.1700325      3.1887502      50218.233      36.893836      36.893836      36.893836    
   4310000   0.47124558    -7.8702272     -7.1633689      3.2145856      50218.233      36.893836      36.893836      36.893836    
   4320000   0.46961637    -7.8715926     -7.167178       3.2005719      50218.233      36.893836      36.893836      36.893836    
   4330000   0.46865954    -7.872397      -7.1694177      3.1955031      50218.233      36.893836      36.893836      36.893836    
   4340000   0.46842708    -7.8741371     -7.1715064      3.1789736      50218.233      36.893836      36.893836      36.893836    
   4350000   0.46776552    -7.8720108     -7.1703725      3.1909805      50218.233      36.893836      36.893836      36.893836    
   4360000   0.46871381    -7.8693608     -7.1663001      3.2038245      50218.233      36.893836      36.893836      36.893836    
   4370000   0.47030247    -7.8712099     -7.1657663      3.1962771      50218.233      36.893836      36.893836      36.893836    
   4380000   0.47036897    -7.8706519     -7.1651085      3.2098668      50218.233      36.893836      36.893836      36.893836    
   4390000   0.46879057    -7.8710194     -7.1678436      3.2024107      50218.233      36.893836      36.893836      36.893836    
   4400000   0.46844267    -7.8713764     -7.1687224      3.2004577      50218.233      36.893836      36.893836      36.893836    
   4410000   0.47013514    -7.8702019     -7.1650092      3.212356       50218.233      36.893836      36.893836      36.893836    
   4420000   0.47064438    -7.8752895     -7.169333       3.1796505      50218.233      36.893836      36.893836      36.893836    
   4430000   0.46944842    -7.8754949     -7.1713323      3.1669592      50218.233      36.893836      36.893836      36.893836    
   4440000   0.46916853    -7.8731436     -7.1694008      3.1904084      50218.233      36.893836      36.893836      36.893836    
   4450000   0.47129662    -7.8710856     -7.1641508      3.2060442      50218.233      36.893836      36.893836      36.893836    
   4460000   0.46863924    -7.8733373     -7.1703885      3.1798399      50218.233      36.893836      36.893836      36.893836    
   4470000   0.47040263    -7.8742128     -7.1686189      3.1753604      50218.233      36.893836      36.893836      36.893836    
   4480000   0.4692205     -7.8735288     -7.1697081      3.1797676      50218.233      36.893836      36.893836      36.893836    
   4490000   0.47218223    -7.8738615     -7.1655982      3.1830005      50218.233      36.893836      36.893836      36.893836    
   4500000   0.46976753    -7.8708549     -7.1662136      3.2105229      50218.233      36.893836      36.893836      36.893836    
   4510000   0.46685757    -7.8763764     -7.1761         3.1528447      50218.233      36.893836      36.893836      36.893836    
   4520000   0.47093021    -7.869371      -7.1629858      3.2042134      50218.233      36.893836      36.893836      36.893836    
   4530000   0.46827091    -7.8752346     -7.1728382      3.1666635      50218.233      36.893836      36.893836      36.893836    
   4540000   0.4703266     -7.8704191     -7.1649392      3.2060155      50218.233      36.893836      36.893836      36.893836    
   4550000   0.47313735    -7.8702737     -7.1605778      3.2106372      50218.233      36.893836      36.893836      36.893836    
   4560000   0.46703505    -7.8689689     -7.1684263      3.2102461      50218.233      36.893836      36.893836      36.893836    
   4570000   0.46925994    -7.8702608     -7.1663809      3.2003137      50218.233      36.893836      36.893836      36.893836    
   4580000   0.47033557    -7.8754373     -7.169944       3.1659998      50218.233      36.893836      36.893836      36.893836    
   4590000   0.46953119    -7.8686173     -7.1643305      3.2144307      50218.233      36.893836      36.893836      36.893836    
   4600000   0.47108327    -7.8655962     -7.1589814      3.237271       50218.233      36.893836      36.893836      36.893836    
   4610000   0.47116523    -7.8715988     -7.164861       3.1930603      50218.233      36.893836      36.893836      36.893836    
   4620000   0.46915771    -7.8749667     -7.1712402      3.1717449      50218.233      36.893836      36.893836      36.893836    
   4630000   0.46820688    -7.8738342     -7.1715339      3.1664637      50218.233      36.893836      36.893836      36.893836    
   4640000   0.46909543    -7.8692514     -7.1656183      3.219375       50218.233      36.893836      36.893836      36.893836    
   4650000   0.46882642    -7.8707863     -7.1675567      3.1941892      50218.233      36.893836      36.893836      36.893836    
   4660000   0.46882236    -7.8693832     -7.1661596      3.2052043      50218.233      36.893836      36.893836      36.893836    
   4670000   0.47168533    -7.8719037     -7.1643858      3.2000729      50218.233      36.893836      36.893836      36.893836    
   4680000   0.46971116    -7.8722484     -7.1676917      3.1879944      50218.233      36.893836      36.893836      36.893836    
   4690000   0.46765971    -7.8685462     -7.1670666      3.218631       50218.233      36.893836      36.893836      36.893836    
   4700000   0.47000927    -7.873939      -7.1689351      3.1716118      50218.233      36.893836      36.893836      36.893836    
   4710000   0.47195774    -7.8696137     -7.1616872      3.2168623      50218.233      36.893836      36.893836      36.893836    
   4720000   0.47175838    -7.8692425     -7.161615       3.2062615      50218.233      36.893836      36.893836      36.893836    
   4730000   0.47107604    -7.8723225     -7.1657185      3.1940642      50218.233      36.893836      36.893836      36.893836    
   4740000   0.46837944    -7.8744831     -7.1719239      3.1736602      50218.233      36.893836      36.893836      36.893836    
   4750000   0.46730166    -7.8693169     -7.1683744      3.2035511      50218.233      36.893836      36.893836      36.893836    
   4760000   0.47031928    -7.8725365     -7.1670676      3.1804242      50218.233      36.893836      36.893836      36.893836    
   4770000   0.47250222    -7.8719474     -7.1632041      3.1896126      50218.233      36.893836      36.893836      36.893836    
   4780000   0.47003464    -7.8708664     -7.1658245      3.1940855      50218.233      36.893836      36.893836      36.893836    
   4790000   0.46953115    -7.8710005     -7.1667138      3.2054776      50218.233      36.893836      36.893836      36.893836    
   4800000   0.47002973    -7.8745086     -7.169474       3.1787083      50218.233      36.893836      36.893836      36.893836    
   4810000   0.47258441    -7.8667847     -7.1579181      3.2471546      50218.233      36.893836      36.893836      36.893836    
   4820000   0.47062114    -7.8704531     -7.1645314      3.2025035      50218.233      36.893836      36.893836      36.893836    
   4830000   0.46843329    -7.8755873     -7.1729474      3.1590536      50218.233      36.893836      36.893836      36.893836    
   4840000   0.47200737    -7.8728967     -7.1648957      3.1813468      50218.233      36.893836      36.893836      36.893836    
   4850000   0.46735676    -7.8691189     -7.1680938      3.2174062      50218.233      36.893836      36.893836      36.893836    
   4860000   0.4713535     -7.8708986     -7.1638784      3.2051616      50218.233      36.893836      36.893836      36.893836    
   4870000   0.47129361    -7.872319      -7.1653887      3.1960176      50218.233      36.893836      36.893836      36.893836    
   4880000   0.46861599    -7.8714634     -7.1685495      3.2018328      50218.233      36.893836      36.893836      36.893836    
   4890000   0.47135608    -7.8752947     -7.1682706      3.1790097      50218.233      36.893836      36.893836      36.893836    
   4900000   0.47062913    -7.8711219     -7.1651883      3.2014709      50218.233      36.893836      36.893836      36.893836    
   4910000   0.4722129     -7.8701434     -7.1618341      3.214811       50218.233      36.893836      36.893836      36.893836    
   4920000   0.46960491    -7.8704513     -7.166054       3.2103637      50218.233      36.893836      36.893836      36.893836    
   4930000   0.47244321    -7.8734396     -7.1647848      3.198342       50218.233      36.893836      36.893836      36.893836    
   4940000   0.46993891    -7.8718139     -7.1669155      3.2011107      50218.233      36.893836      36.893836      36.893836    
   4950000   0.47042189    -7.8720472     -7.1664244      3.1987844      50218.233      36.893836      36.893836      36.893836    
   4960000   0.47088936    -7.8706351     -7.1643111      3.214322       50218.233      36.893836      36.893836      36.893836    
   4970000   0.47216489    -7.8676727     -7.1594354      3.2297989      50218.233      36.893836      36.893836      36.893836    
   4980000   0.47127932    -7.8705513     -7.1636424      3.2103156      50218.233      36.893836      36.893836      36.893836    
   4990000   0.47239614    -7.8718025     -7.1632184      3.20164        50218.233      36.893836      36.893836      36.893836    
   5000000   0.4680059     -7.8755088     -7.17351        3.1580059      50218.233      36.893836      36.893836      36.893836    
   5010000   0.46932643    -7.8753724     -7.1713927      3.1701816      50218.233      36.893836      36.893836      36.893836    
   5020000   0.47095193    -7.8722082     -7.1657904      3.1905513      50218.233      36.893836      36.893836      36.893836    
   5030000   0.47131191    -7.872666      -7.1657082      3.1987243      50218.233      36.893836      36.893836      36.893836    
   5040000   0.47123521    -7.8747564     -7.1679137      3.1784196      50218.233      36.893836      36.893836      36.893836    
   5050000   0.47182941    -7.8753999     -7.1676659      3.1713914      50218.233      36.893836      36.893836      36.893836    
   5060000   0.46997084    -7.8744394     -7.1694932      3.1693134      50218.233      36.893836      36.893836      36.893836    
   5070000   0.46871024    -7.8775694     -7.1745141      3.1473254      50218.233      36.893836      36.893836      36.893836    
   5080000   0.47138552    -7.8655894     -7.1585212      3.2473749      50218.233      36.893836      36.893836      36.893836    
   5090000   0.47257967    -7.8725464     -7.163687       3.1969534      50218.233      36.893836      36.893836      36.893836    
   5100000   0.47080138    -7.872893      -7.166701       3.1874057      50218.233      36.893836      36.893836      36.893836    
   5110000   0.47009803    -7.8753455     -7.1702085      3.172089       50218.233      36.893836      36.893836      36.893836    
   5120000   0.46939967    -7.872318      -7.1682285      3.1793956      50218.233      36.893836      36.893836      36.893836    
   5130000   0.47050151    -7.8746381     -7.1688959      3.1656221      50218.233      36.893836      36.893836      36.893836    
   5140000   0.46945647    -7.8733003     -7.1691256      3.1731039      50218.233      36.893836      36.893836      36.893836    
   5150000   0.4705584     -7.8743119     -7.1684843      3.178927       50218.233      36.893836      36.893836      36.893836    
   5160000   0.46963788    -7.8730554     -7.1686086      3.1779094      50218.233      36.893836      36.893836      36.893836    
   5170000   0.47058046    -7.8739125     -7.1680519      3.1854418      50218.233      36.893836      36.893836      36.893836    
   5180000   0.47059403    -7.8735667     -7.1676857      3.1843164      50218.233      36.893836      36.893836      36.893836    
   5190000   0.47007765    -7.8704181     -7.1653116      3.2049059      50218.233      36.893836      36.893836      36.893836    
   5200000   0.4684877     -7.8713972     -7.1686756      3.2030994      50218.233      36.893836      36.893836      36.893836    
   5210000   0.47372427    -7.8758092     -7.1652329      3.1827048      50218.233      36.893836      36.893836      36.893836    
   5220000   0.46870879    -7.8703866     -7.1673334      3.2012334      50218.233      36.893836      36.893836      36.893836    
   5230000   0.47007792    -7.8729644     -7.1678576      3.1865989      50218.233      36.893836      36.893836      36.893836    
   5240000   0.47000191    -7.8696432     -7.1646504      3.2072359      50218.233      36.893836      36.893836      36.893836    
   5250000   0.46912072    -7.8730233     -7.1693522      3.1842652      50218.233      36.893836      36.893836      36.893836    
   5260000   0.46733954    -7.8748902     -7.1738909      3.1778778      50218.233      36.893836      36.893836      36.893836    
   5270000   0.47150479    -7.872363      -7.1651159      3.2050478      50218.233      36.893836      36.893836      36.893836    
   5280000   0.46687127    -7.8735678     -7.1732709      3.1926404      50218.233      36.893836      36.893836      36.893836    
   5290000   0.47030037    -7.8740779     -7.1686374      3.1767167      50218.233      36.893836      36.893836      36.893836    
   5300000   0.47166591    -7.8718311     -7.1643423      3.2009687      50218.233      36.893836      36.893836      36.893836    
   5310000   0.47017205    -7.8716582     -7.1664102      3.2095224      50218.233      36.893836      36.893836      36.893836    
   5320000   0.46816372    -7.8755027     -7.1732671      3.1648841      50218.233      36.893836      36.893836      36.893836    
   5330000   0.46849417    -7.8731077     -7.1703764      3.174373       50218.233      36.893836      36.893836      36.893836    
   5340000   0.47021402    -7.8704862     -7.1651752      3.2011548      50218.233      36.893836      36.893836      36.893836    
   5350000   0.47144084    -7.8721358     -7.1649846      3.1914703      50218.233      36.893836      36.893836      36.893836    
   5360000   0.47024237    -7.8730069     -7.1676534      3.1824093      50218.233      36.893836      36.893836      36.893836    
   5370000   0.47042714    -7.8757299     -7.1700992      3.1718536      50218.233      36.893836      36.893836      36.893836    
   5380000   0.47067756    -7.8742179     -7.1682116      3.180915       50218.233      36.893836      36.893836      36.893836    
   5390000   0.47208653    -7.8745629     -7.1664432      3.1778457      50218.233      36.893836      36.893836      36.893836    
   5400000   0.47094174    -7.8699275     -7.1635249      3.2274602      50218.233      36.893836      36.893836      36.893836    
   5410000   0.47289948    -7.8754677     -7.1661285      3.1767648      50218.233      36.893836      36.893836      36.893836    
   5420000   0.4686701     -7.8769219     -7.1739268      3.1646013      50218.233      36.893836      36.893836      36.893836    
   5430000   0.4689124     -7.8714429     -7.1680843      3.1988232      50218.233      36.893836      36.893836      36.893836    
   5440000   0.4715054     -7.8693763     -7.1621282      3.2253777      50218.233      36.893836      36.893836      36.893836    
   5450000   0.47005362    -7.8722286     -7.1671582      3.1894957      50218.233      36.893836      36.893836      36.893836    
   5460000   0.46831347    -7.8743514     -7.1718912      3.1796205      50218.233      36.893836      36.893836      36.893836    
   5470000   0.47131736    -7.8735224     -7.1665564      3.1903386      50218.233      36.893836      36.893836      36.893836    
   5480000   0.46970641    -7.8732722     -7.1687226      3.1860579      50218.233      36.893836      36.893836      36.893836    
   5490000   0.472058      -7.8729798     -7.1649028      3.1836169      50218.233      36.893836      36.893836      36.893836    
   5500000   0.46666635    -7.8694368     -7.1694472      3.2210755      50218.233      36.893836      36.893836      36.893836    
   5510000   0.47121146    -7.8776339     -7.1708268      3.1576122      50218.233      36.893836      36.893836      36.893836    
   5520000   0.46848873    -7.8756187     -7.1728956      3.1686651      50218.233      36.893836      36.893836      36.893836    
   5530000   0.4677606     -7.8763642     -7.1747333      3.168806       50218.233      36.893836      36.893836      36.893836    
   5540000   0.46862837    -7.8721201     -7.1691875      3.1895392      50218.233      36.893836      36.893836      36.893836    
   5550000   0.46831065    -7.8742932     -7.1718372      3.1756269      50218.233      36.893836      36.893836      36.893836    
   5560000   0.46735206    -7.8729414     -7.1719233      3.1914817      50218.233      36.893836      36.893836      36.893836    
   5570000   0.4702129     -7.8737014     -7.168392       3.1832331      50218.233      36.893836      36.893836      36.893836    
   5580000   0.46898163    -7.87196       -7.1684975      3.1977671      50218.233      36.893836      36.893836      36.893836    
   5590000   0.47010799    -7.8722767     -7.1671247      3.1931999      50218.233      36.893836      36.893836      36.893836    
   5600000   0.46629974    -7.874344      -7.1749044      3.1765802      50218.233      36.893836      36.893836      36.893836    
   5610000   0.46691117    -7.87273       -7.1723732      3.1888485      50218.233      36.893836      36.893836      36.893836    
   5620000   0.46878136    -7.8721809     -7.1690189      3.195876       50218.233      36.893836      36.893836      36.893836    
   5630000   0.46890959    -7.8745753     -7.1712209      3.1790461      50218.233      36.893836      36.893836      36.893836    
   5640000   0.46775339    -7.8745676     -7.1729475      3.1782689      50218.233      36.893836      36.893836      36.893836    
   5650000   0.46862806    -7.8718642     -7.1689321      3.1947486      50218.233      36.893836      36.893836      36.893836    
   5660000   0.46827446    -7.8693361     -7.1669344      3.2143391      50218.233      36.893836      36.893836      36.893836    
   5670000   0.46844615    -7.8723883     -7.1697291      3.1972722      50218.233      36.893836      36.893836      36.893836    
   5680000   0.46885946    -7.8726318     -7.1693526      3.1929542      50218.233      36.893836      36.893836      36.893836    
   5690000   0.46957342    -7.8755763     -7.1712262      3.1687079      50218.233      36.893836      36.893836      36.893836    
   5700000   0.47101419    -7.8740376     -7.1675264      3.1759211      50218.233      36.893836      36.893836      36.893836    
   5710000   0.47076664    -7.8682416     -7.1621017      3.2359188      50218.233      36.893836      36.893836      36.893836    
   5720000   0.46985463    -7.8736755     -7.1689036      3.1884152      50218.233      36.893836      36.893836      36.893836    
   5730000   0.47049483    -7.8712656     -7.1655334      3.1989378      50218.233      36.893836      36.893836      36.893836    
   5740000   0.47183436    -7.872862      -7.1651206      3.185557       50218.233      36.893836      36.893836      36.893836    
   5750000   0.47362455    -7.8721934     -7.1617667      3.1981869      50218.233      36.893836      36.893836      36.893836    
   5760000   0.46976854    -7.8758022     -7.1711594      3.1673627      50218.233      36.893836      36.893836      36.893836    
   5770000   0.4689124     -7.8710226     -7.167664       3.2150165      50218.233      36.893836      36.893836      36.893836    
   5780000   0.47104402    -7.8708783     -7.1643224      3.209518       50218.233      36.893836      36.893836      36.893836    
   5790000   0.46920788    -7.8745084     -7.1707066      3.1733435      50218.233      36.893836      36.893836      36.893836    
   5800000   0.46738833    -7.8735526     -7.1724801      3.1786447      50218.233      36.893836      36.893836      36.893836    
   5810000   0.46996219    -7.8674138     -7.1624805      3.2418408      50218.233      36.893836      36.893836      36.893836    
   5820000   0.46896638    -7.870651      -7.1672114      3.2036428      50218.233      36.893836      36.893836      36.893836    
   5830000   0.46968983    -7.8727437     -7.1682189      3.1945183      50218.233      36.893836      36.893836      36.893836    
   5840000   0.47092528    -7.8755126     -7.1691347      3.1742323      50218.233      36.893836      36.893836      36.893836    
   5850000   0.46897351    -7.8731511     -7.1697008      3.1906877      50218.233      36.893836      36.893836      36.893836    
   5860000   0.4683749     -7.8694264     -7.1668741      3.2216721      50218.233      36.893836      36.893836      36.893836    
   5870000   0.46999543    -7.8736783     -7.1686952      3.1798925      50218.233      36.893836      36.893836      36.893836    
   5880000   0.47257153    -7.8725334     -7.1636861      3.1993273      50218.233      36.893836      36.893836      36.893836    
   5890000   0.47019657    -7.8741579     -7.168873       3.1858577      50218.233      36.893836      36.893836      36.893836    
   5900000   0.47118762    -7.8739893     -7.1672179      3.1737184      50218.233      36.893836      36.893836      36.893836    
   5910000   0.46932198    -7.8730438     -7.1690708      3.1915518      50218.233      36.893836      36.893836      36.893836    
   5920000   0.47176436    -7.8743292     -7.1666927      3.1783411      50218.233      36.893836      36.893836      36.893836    
   5930000   0.47259801    -7.8740899     -7.165203       3.1812207      50218.233      36.893836      36.893836      36.893836    
   5940000   0.47029368    -7.8713106     -7.1658801      3.2061235      50218.233      36.893836      36.893836      36.893836    
   5950000   0.4698063     -7.8681868     -7.1634874      3.2278348      50218.233      36.893836      36.893836      36.893836    
   5960000   0.46862403    -7.8731224     -7.1701963      3.1807365      50218.233      36.893836      36.893836      36.893836    
   5970000   0.4685745     -7.8754994     -7.1726476      3.168896       50218.233      36.893836      36.893836      36.893836    
   5980000   0.47129746    -7.875367      -7.1684309      3.1680422      50218.233      36.893836      36.893836      36.893836    
   5990000   0.46880542    -7.8764466     -7.1732485      3.1624987      50218.233      36.893836      36.893836      36.893836    
   6000000   0.46998203    -7.87246       -7.167497       3.1912074      50218.233      36.893836      36.893836      36.893836    
   6010000   0.47052963    -7.8778823     -7.1720979      3.1575051      50218.233      36.893836      36.893836      36.893836    
   6020000   0.47023708    -7.8769626     -7.171617       3.160331       50218.233      36.893836      36.893836      36.893836    
   6030000   0.47104963    -7.8710747     -7.1645103      3.210485       50218.233      36.893836      36.893836      36.893836    
   6040000   0.47121497    -7.8779751     -7.1711627      3.1625489      50218.233      36.893836      36.893836      36.893836    
   6050000   0.46878741    -7.8737971     -7.170626       3.1870803      50218.233      36.893836      36.893836      36.893836    
   6060000   0.47023037    -7.8736787     -7.1683432      3.1893995      50218.233      36.893836      36.893836      36.893836    
   6070000   0.46893657    -7.8727248     -7.16933        3.1762234      50218.233      36.893836      36.893836      36.893836    
   6080000   0.46957694    -7.8733528     -7.1689974      3.1804275      50218.233      36.893836      36.893836      36.893836    
   6090000   0.4718756     -7.8752259     -7.1674226      3.1776067      50218.233      36.893836      36.893836      36.893836    
   6100000   0.468965      -7.8747357     -7.1712982      3.1730796      50218.233      36.893836      36.893836      36.893836    
   6110000   0.47104211    -7.871411      -7.1648579      3.1913646      50218.233      36.893836      36.893836      36.893836    
   6120000   0.47050737    -7.8743239     -7.1685729      3.1778576      50218.233      36.893836      36.893836      36.893836    
   6130000   0.46921187    -7.871987      -7.1681792      3.2020134      50218.233      36.893836      36.893836      36.893836    
   6140000   0.4722826     -7.8732832     -7.1648693      3.177555       50218.233      36.893836      36.893836      36.893836    
   6150000   0.4698842     -7.8739372     -7.169121       3.1928654      50218.233      36.893836      36.893836      36.893836    
   6160000   0.46668325    -7.8721077     -7.1720928      3.1992985      50218.233      36.893836      36.893836      36.893836    
   6170000   0.46806257    -7.8753204     -7.1732365      3.1727066      50218.233      36.893836      36.893836      36.893836    
   6180000   0.46927888    -7.8707993     -7.166891       3.2069802      50218.233      36.893836      36.893836      36.893836    
   6190000   0.46975083    -7.874684      -7.1700678      3.1778977      50218.233      36.893836      36.893836      36.893836    
   6200000   0.46922981    -7.8761783     -7.1723436      3.1606952      50218.233      36.893836      36.893836      36.893836    
   6210000   0.46834744    -7.8744991     -7.1719879      3.1893914      50218.233      36.893836      36.893836      36.893836    
   6220000   0.4722043     -7.8744623     -7.166166       3.1803372      50218.233      36.893836      36.893836      36.893836    
   6230000   0.46943563    -7.8693663     -7.1652229      3.2217332      50218.233      36.893836      36.893836      36.893836    
   6240000   0.46902732    -7.8718274     -7.1682964      3.1912312      50218.233      36.893836      36.893836      36.893836    
   6250000   0.47158569    -7.8746173     -7.1672489      3.184032       50218.233      36.893836      36.893836      36.893836    
   6260000   0.47178786    -7.8734381     -7.1657664      3.1958225      50218.233      36.893836      36.893836      36.893836    
   6270000   0.47193214    -7.8718894     -7.1640013      3.2016807      50218.233      36.893836      36.893836      36.893836    
   6280000   0.47154659    -7.8713629     -7.1640531      3.1968217      50218.233      36.893836      36.893836      36.893836    
   6290000   0.46853867    -7.8757212     -7.1729232      3.1588908      50218.233      36.893836      36.893836      36.893836    
   6300000   0.46826941    -7.8732174     -7.1708233      3.1829845      50218.233      36.893836      36.893836      36.893836    
   6310000   0.47161286    -7.8750793     -7.16767        3.1772918      50218.233      36.893836      36.893836      36.893836    
   6320000   0.47070317    -7.8743609     -7.1683162      3.1806111      50218.233      36.893836      36.893836      36.893836    
   6330000   0.46822285    -7.8714036     -7.1690793      3.2069346      50218.233      36.893836      36.893836      36.893836    
   6340000   0.47086768    -7.8742525     -7.167961       3.1824343      50218.233      36.893836      36.893836      36.893836    
   6350000   0.47173667    -7.8751969     -7.167602       3.1691323      50218.233      36.893836      36.893836      36.893836    
   6360000   0.472317      -7.8710254     -7.16256        3.1984919      50218.233      36.893836      36.893836      36.893836    
   6370000   0.46902867    -7.8716356     -7.1681026      3.2094275      50218.233      36.893836      36.893836      36.893836    
   6380000   0.46996334    -7.8702108     -7.1652758      3.2038847      50218.233      36.893836      36.893836      36.893836    
   6390000   0.46885405    -7.8724553     -7.1691843      3.1900912      50218.233      36.893836      36.893836      36.893836    
   6400000   0.46947973    -7.8756169     -7.1714074      3.1683637      50218.233      36.893836      36.893836      36.893836    
   6410000   0.47043895    -7.8755076     -7.1698592      3.16134        50218.233      36.893836      36.893836      36.893836    
   6420000   0.46786632    -7.874248      -7.1724585      3.1762244      50218.233      36.893836      36.893836      36.893836    
   6430000   0.47018122    -7.8704325     -7.1651707      3.2002575      50218.233      36.893836      36.893836      36.893836    
   6440000   0.46961457    -7.8749899     -7.170578       3.1605468      50218.233      36.893836      36.893836      36.893836    
   6450000   0.47030237    -7.8740788     -7.1686352      3.1779575      50218.233      36.893836      36.893836      36.893836    
   6460000   0.46874593    -7.875296      -7.1721871      3.1696975      50218.233      36.893836      36.893836      36.893836    
   6470000   0.46959187    -7.8741375     -7.1697597      3.1842908      50218.233      36.893836      36.893836      36.893836    
   6480000   0.47113229    -7.8713735     -7.1646852      3.2039889      50218.233      36.893836      36.893836      36.893836    
   6490000   0.4725254     -7.8746934     -7.1659154      3.1838326      50218.233      36.893836      36.893836      36.893836    
   6500000   0.46921186    -7.8756239     -7.1718162      3.1578664      50218.233      36.893836      36.893836      36.893836    
   6510000   0.46889752    -7.8760423     -7.172706       3.1588324      50218.233      36.893836      36.893836      36.893836    
   6520000   0.47035243    -7.871365      -7.1658464      3.1948009      50218.233      36.893836      36.893836      36.893836    
   6530000   0.47088166    -7.8705121     -7.1641997      3.2099407      50218.233      36.893836      36.893836      36.893836    
   6540000   0.47028305    -7.8707259     -7.1653113      3.2097177      50218.233      36.893836      36.893836      36.893836    
   6550000   0.47002192    -7.8788812     -7.1738584      3.1413679      50218.233      36.893836      36.893836      36.893836    
   6560000   0.46983449    -7.8734817     -7.16874        3.1861799      50218.233      36.893836      36.893836      36.893836    
   6570000   0.46934818    -7.8712632     -7.167251       3.1993051      50218.233      36.893836      36.893836      36.893836    
   6580000   0.4700744     -7.8681549     -7.1630533      3.2268052      50218.233      36.893836      36.893836      36.893836    
   6590000   0.47186995    -7.87269       -7.1648951      3.1891688      50218.233      36.893836      36.893836      36.893836    
   6600000   0.47033149    -7.8701831     -7.1646959      3.2137773      50218.233      36.893836      36.893836      36.893836    
   6610000   0.46973749    -7.8723169     -7.1677207      3.1983235      50218.233      36.893836      36.893836      36.893836    
   6620000   0.46953863    -7.8748326     -7.1705347      3.184111       50218.233      36.893836      36.893836      36.893836    
   6630000   0.47263551    -7.871862      -7.1629188      3.2138415      50218.233      36.893836      36.893836      36.893836    
   6640000   0.47339425    -7.8716266     -7.1615453      3.2047582      50218.233      36.893836      36.893836      36.893836    
   6650000   0.46941268    -7.8673189     -7.1632099      3.2284063      50218.233      36.893836      36.893836      36.893836    
   6660000   0.46841873    -7.8727426     -7.1701245      3.1967118      50218.233      36.893836      36.893836      36.893836    
   6670000   0.47179849    -7.8709517     -7.1632641      3.2202971      50218.233      36.893836      36.893836      36.893836    
   6680000   0.47029102    -7.871625      -7.1661985      3.2060832      50218.233      36.893836      36.893836      36.893836    
   6690000   0.46787433    -7.8720651     -7.1702636      3.196007       50218.233      36.893836      36.893836      36.893836    
   6700000   0.47030441    -7.869423      -7.1639764      3.2262139      50218.233      36.893836      36.893836      36.893836    
   6710000   0.47045914    -7.8731445     -7.1674658      3.1902947      50218.233      36.893836      36.893836      36.893836    
   6720000   0.47099713    -7.8730086     -7.166523       3.1987463      50218.233      36.893836      36.893836      36.893836    
   6730000   0.46940817    -7.8746386     -7.1705363      3.1740973      50218.233      36.893836      36.893836      36.893836    
   6740000   0.46976347    -7.8738092     -7.169174       3.1882539      50218.233      36.893836      36.893836      36.893836    
   6750000   0.47004229    -7.8700953     -7.1650419      3.2123118      50218.233      36.893836      36.893836      36.893836    
   6760000   0.46903711    -7.8734402     -7.1698945      3.19285        50218.233      36.893836      36.893836      36.893836    
   6770000   0.46849704    -7.8712778     -7.1685423      3.1926485      50218.233      36.893836      36.893836      36.893836    
   6780000   0.4721885     -7.8678375     -7.1595648      3.2310644      50218.233      36.893836      36.893836      36.893836    
   6790000   0.47185632    -7.8686728     -7.1608984      3.2265105      50218.233      36.893836      36.893836      36.893836    
   6800000   0.47168659    -7.8657808     -7.158261       3.244292       50218.233      36.893836      36.893836      36.893836    
   6810000   0.47058258    -7.870501      -7.1646372      3.2092208      50218.233      36.893836      36.893836      36.893836    
   6820000   0.472051      -7.870634      -7.1625676      3.2095841      50218.233      36.893836      36.893836      36.893836    
   6830000   0.46963097    -7.875084      -7.1706476      3.1781977      50218.233      36.893836      36.893836      36.893836    
   6840000   0.46927729    -7.8708786     -7.1669726      3.2116322      50218.233      36.893836      36.893836      36.893836    
   6850000   0.4689362     -7.8746499     -7.1712556      3.1798155      50218.233      36.893836      36.893836      36.893836    
   6860000   0.47230743    -7.8745576     -7.1661066      3.1909421      50218.233      36.893836      36.893836      36.893836    
   6870000   0.46919307    -7.8779471     -7.1741675      3.1539364      50218.233      36.893836      36.893836      36.893836    
   6880000   0.46934959    -7.8710834     -7.1670691      3.2083758      50218.233      36.893836      36.893836      36.893836    
   6890000   0.46917806    -7.8724895     -7.1687325      3.1904218      50218.233      36.893836      36.893836      36.893836    
   6900000   0.47377596    -7.8696392     -7.1589854      3.2174717      50218.233      36.893836      36.893836      36.893836    
   6910000   0.46845467    -7.8738267     -7.1711547      3.1661888      50218.233      36.893836      36.893836      36.893836    
   6920000   0.46826814    -7.8718389     -7.1694467      3.1959002      50218.233      36.893836      36.893836      36.893836    
   6930000   0.46996073    -7.8745931     -7.169662       3.1739081      50218.233      36.893836      36.893836      36.893836    
   6940000   0.46935339    -7.8728235     -7.1688035      3.1963435      50218.233      36.893836      36.893836      36.893836    
   6950000   0.46633953    -7.8732485     -7.1737492      3.1836798      50218.233      36.893836      36.893836      36.893836    
   6960000   0.47227322    -7.8719695     -7.1635698      3.1968257      50218.233      36.893836      36.893836      36.893836    
   6970000   0.46970372    -7.8739801     -7.1694345      3.18282        50218.233      36.893836      36.893836      36.893836    
   6980000   0.4696644     -7.8737897     -7.1693032      3.1822577      50218.233      36.893836      36.893836      36.893836    
   6990000   0.47097047    -7.8741519     -7.1677062      3.1888305      50218.233      36.893836      36.893836      36.893836    
   7000000   0.46944102    -7.873662      -7.1695105      3.1891645      50218.233      36.893836      36.893836      36.893836    
   7010000   0.46858284    -7.8756368     -7.1727726      3.1715078      50218.233      36.893836      36.893836      36.893836    
   7020000   0.47073595    -7.8755389     -7.1694451      3.1808241      50218.233      36.893836      36.893836      36.893836    
   7030000   0.47058003    -7.8741414     -7.1682814      3.1874688      50218.233      36.893836      36.893836      36.893836    
   7040000   0.46969282    -7.876086      -7.1715568      3.1708705      50218.233      36.893836      36.893836      36.893836    
   7050000   0.47064796    -7.8757643     -7.1698024      3.1586617      50218.233      36.893836      36.893836      36.893836    
   7060000   0.47035241    -7.8740739     -7.1685553      3.1856548      50218.233      36.893836      36.893836      36.893836    
   7070000   0.46912725    -7.8745146     -7.1708338      3.1716148      50218.233      36.893836      36.893836      36.893836    
   7080000   0.47217222    -7.8771563     -7.1689081      3.1465201      50218.233      36.893836      36.893836      36.893836    
   7090000   0.4694366     -7.8718791     -7.1677342      3.1944256      50218.233      36.893836      36.893836      36.893836    
   7100000   0.47144986    -7.8725563     -7.1653916      3.1945499      50218.233      36.893836      36.893836      36.893836    
   7110000   0.46981599    -7.8720058     -7.1672919      3.1894818      50218.233      36.893836      36.893836      36.893836    
   7120000   0.4709203     -7.8753445     -7.1689741      3.1625689      50218.233      36.893836      36.893836      36.893836    
   7130000   0.4708597     -7.8697373     -7.1634578      3.2097165      50218.233      36.893836      36.893836      36.893836    
   7140000   0.47010364    -7.8741486     -7.1690032      3.1752106      50218.233      36.893836      36.893836      36.893836    
   7150000   0.47022304    -7.8719178     -7.1665932      3.1953644      50218.233      36.893836      36.893836      36.893836    
   7160000   0.46986871    -7.8756997     -7.1709066      3.1611405      50218.233      36.893836      36.893836      36.893836    
   7170000   0.47010701    -7.8720215     -7.166871       3.2102976      50218.233      36.893836      36.893836      36.893836    
   7180000   0.47173725    -7.8756269     -7.1680311      3.1692331      50218.233      36.893836      36.893836      36.893836    
   7190000   0.46910513    -7.8731425     -7.1694948      3.1852869      50218.233      36.893836      36.893836      36.893836    
   7200000   0.46998866    -7.8747705     -7.1697976      3.1787801      50218.233      36.893836      36.893836      36.893836    
   7210000   0.46897192    -7.8753165     -7.1718686      3.1631941      50218.233      36.893836      36.893836      36.893836    
   7220000   0.4703881     -7.8726709     -7.1670988      3.1903221      50218.233      36.893836      36.893836      36.893836    
   7230000   0.47065392    -7.87525       -7.1692792      3.1706439      50218.233      36.893836      36.893836      36.893836    
   7240000   0.47281337    -7.8705483     -7.1613384      3.2113725      50218.233      36.893836      36.893836      36.893836    
   7250000   0.4676054     -7.8727024     -7.1713042      3.1812797      50218.233      36.893836      36.893836      36.893836    
   7260000   0.46738781    -7.8685008     -7.1674291      3.2141013      50218.233      36.893836      36.893836      36.893836    
   7270000   0.4696799     -7.8720962     -7.1675864      3.1843096      50218.233      36.893836      36.893836      36.893836    
   7280000   0.46764306    -7.8731717     -7.1717171      3.1868997      50218.233      36.893836      36.893836      36.893836    
   7290000   0.46935135    -7.8746037     -7.1705867      3.173734       50218.233      36.893836      36.893836      36.893836    
   7300000   0.46998559    -7.871259      -7.1662906      3.2125173      50218.233      36.893836      36.893836      36.893836    
   7310000   0.46870412    -7.8706668     -7.1676206      3.1962169      50218.233      36.893836      36.893836      36.893836    
   7320000   0.4721506     -7.875217      -7.1670012      3.1616241      50218.233      36.893836      36.893836      36.893836    
   7330000   0.46988952    -7.8737351     -7.1689108      3.1699281      50218.233      36.893836      36.893836      36.893836    
   7340000   0.46975147    -7.8741888     -7.1695716      3.1750375      50218.233      36.893836      36.893836      36.893836    
   7350000   0.4698635     -7.8737691     -7.1689839      3.1932792      50218.233      36.893836      36.893836      36.893836    
   7360000   0.4705816     -7.8691289     -7.1632665      3.2211697      50218.233      36.893836      36.893836      36.893836    
   7370000   0.4704394     -7.8744198     -7.1687707      3.1770664      50218.233      36.893836      36.893836      36.893836    
   7380000   0.46950977    -7.873109      -7.1688544      3.1932246      50218.233      36.893836      36.893836      36.893836    
   7390000   0.46863186    -7.8751885     -7.1722507      3.1651572      50218.233      36.893836      36.893836      36.893836    
   7400000   0.47038913    -7.8749513     -7.1693777      3.1699163      50218.233      36.893836      36.893836      36.893836    
   7410000   0.47127128    -7.872948      -7.1660512      3.1889931      50218.233      36.893836      36.893836      36.893836    
   7420000   0.46827877    -7.8718213     -7.1694131      3.1885843      50218.233      36.893836      36.893836      36.893836    
   7430000   0.47013532    -7.8706578     -7.1654648      3.2087971      50218.233      36.893836      36.893836      36.893836    
   7440000   0.47169267    -7.873781      -7.1662521      3.1789949      50218.233      36.893836      36.893836      36.893836    
   7450000   0.47174513    -7.877992      -7.1703844      3.1476062      50218.233      36.893836      36.893836      36.893836    
   7460000   0.47007841    -7.8785805     -7.1734729      3.1469877      50218.233      36.893836      36.893836      36.893836    
   7470000   0.47020931    -7.8730148     -7.1677108      3.1874503      50218.233      36.893836      36.893836      36.893836    
   7480000   0.46708543    -7.8722287     -7.1716105      3.1916684      50218.233      36.893836      36.893836      36.893836    
   7490000   0.46905527    -7.876599      -7.1730261      3.1648603      50218.233      36.893836      36.893836      36.893836    
   7500000   0.46889702    -7.8760518     -7.1727162      3.1666497      50218.233      36.893836      36.893836      36.893836    
   7510000   0.47047393    -7.8760826     -7.1703817      3.1653859      50218.233      36.893836      36.893836      36.893836    
   7520000   0.47094546    -7.8748141     -7.168406       3.173295       50218.233      36.893836      36.893836      36.893836    
   7530000   0.471151      -7.8716492     -7.1649328      3.2040821      50218.233      36.893836      36.893836      36.893836    
   7540000   0.46997442    -7.8757896     -7.170838       3.1648249      50218.233      36.893836      36.893836      36.893836    
   7550000   0.4697011     -7.8754634     -7.1709218      3.1803857      50218.233      36.893836      36.893836      36.893836    
   7560000   0.4715164     -7.8785581     -7.1712935      3.1370584      50218.233      36.893836      36.893836      36.893836    
   7570000   0.46814568    -7.8754715     -7.173263       3.170107       50218.233      36.893836      36.893836      36.893836    
   7580000   0.47018734    -7.8719409     -7.1666699      3.1947858      50218.233      36.893836      36.893836      36.893836    
   7590000   0.46942519    -7.8781051     -7.1739774      3.142586       50218.233      36.893836      36.893836      36.893836    
   7600000   0.47034558    -7.8704818     -7.1649735      3.2054942      50218.233      36.893836      36.893836      36.893836    
   7610000   0.46808146    -7.8725999     -7.1704877      3.1858416      50218.233      36.893836      36.893836      36.893836    
   7620000   0.46979837    -7.8748988     -7.1702113      3.1571396      50218.233      36.893836      36.893836      36.893836    
   7630000   0.46988944    -7.8767032     -7.1718791      3.1626826      50218.233      36.893836      36.893836      36.893836    
   7640000   0.46909905    -7.870198      -7.1665595      3.2022136      50218.233      36.893836      36.893836      36.893836    
   7650000   0.47023193    -7.8745361     -7.1691983      3.1719223      50218.233      36.893836      36.893836      36.893836    
   7660000   0.46836601    -7.8685441     -7.1660051      3.2116244      50218.233      36.893836      36.893836      36.893836    
   7670000   0.46972921    -7.8737286     -7.1691449      3.1769257      50218.233      36.893836      36.893836      36.893836    
   7680000   0.4685636     -7.8739146     -7.1710792      3.1769453      50218.233      36.893836      36.893836      36.893836    
   7690000   0.46943157    -7.8742609     -7.1701235      3.1778347      50218.233      36.893836      36.893836      36.893836    
   7700000   0.4678951     -7.8741372     -7.1723046      3.1683359      50218.233      36.893836      36.893836      36.893836    
   7710000   0.47172636    -7.8724678     -7.1648884      3.1971797      50218.233      36.893836      36.893836      36.893836    
   7720000   0.47127601    -7.8709492     -7.1640452      3.1999952      50218.233      36.893836      36.893836      36.893836    
   7730000   0.47079218    -7.8708398     -7.1646615      3.1960246      50218.233      36.893836      36.893836      36.893836    
   7740000   0.47085682    -7.8730374     -7.1667623      3.1843487      50218.233      36.893836      36.893836      36.893836    
   7750000   0.47110673    -7.8703262     -7.1636762      3.2065511      50218.233      36.893836      36.893836      36.893836    
   7760000   0.46801687    -7.8714559     -7.1694406      3.1855356      50218.233      36.893836      36.893836      36.893836    
   7770000   0.47105198    -7.8700668     -7.1634989      3.2049929      50218.233      36.893836      36.893836      36.893836    
   7780000   0.47032637    -7.8690215     -7.1635419      3.2112712      50218.233      36.893836      36.893836      36.893836    
   7790000   0.47139758    -7.87512       -7.1680336      3.1717436      50218.233      36.893836      36.893836      36.893836    
   7800000   0.47244216    -7.8706333     -7.1619802      3.2045284      50218.233      36.893836      36.893836      36.893836    
   7810000   0.47136251    -7.8717007     -7.164667       3.1979572      50218.233      36.893836      36.893836      36.893836    
   7820000   0.47117553    -7.873482      -7.1667288      3.1794308      50218.233      36.893836      36.893836      36.893836    
   7830000   0.47025151    -7.8746925     -7.1693253      3.1845216      50218.233      36.893836      36.893836      36.893836    
   7840000   0.47145577    -7.8746238     -7.1674502      3.1697284      50218.233      36.893836      36.893836      36.893836    
   7850000   0.46782444    -7.8702033     -7.1684766      3.2084489      50218.233      36.893836      36.893836      36.893836    
   7860000   0.46983308    -7.8751141     -7.1703745      3.1672534      50218.233      36.893836      36.893836      36.893836    
   7870000   0.46871171    -7.8726158     -7.1695582      3.1815181      50218.233      36.893836      36.893836      36.893836    
   7880000   0.47373442    -7.8754607     -7.1648691      3.1704767      50218.233      36.893836      36.893836      36.893836    
   7890000   0.47138862    -7.8746902     -7.1676173      3.1855887      50218.233      36.893836      36.893836      36.893836    
   7900000   0.46963388    -7.8742588     -7.169818       3.1717583      50218.233      36.893836      36.893836      36.893836    
   7910000   0.46985728    -7.8735896     -7.1688137      3.1820972      50218.233      36.893836      36.893836      36.893836    
   7920000   0.47120484    -7.8757441     -7.1689468      3.155212       50218.233      36.893836      36.893836      36.893836    
   7930000   0.46863651    -7.8750103     -7.1720656      3.1720056      50218.233      36.893836      36.893836      36.893836    
   7940000   0.46815254    -7.8709474     -7.1687286      3.2022041      50218.233      36.893836      36.893836      36.893836    
   7950000   0.47003175    -7.8724452     -7.1674075      3.204264       50218.233      36.893836      36.893836      36.893836    
   7960000   0.46988308    -7.8729736     -7.168159       3.1858367      50218.233      36.893836      36.893836      36.893836    
   7970000   0.47138524    -7.8742111     -7.1671433      3.1867762      50218.233      36.893836      36.893836      36.893836    
   7980000   0.46994116    -7.873659      -7.1687572      3.1782653      50218.233      36.893836      36.893836      36.893836    
   7990000   0.47057615    -7.8732699     -7.1674157      3.1876984      50218.233      36.893836      36.893836      36.893836    
   8000000   0.47134162    -7.8733585     -7.1663561      3.1878249      50218.233      36.893836      36.893836      36.893836    
Loop time of 12616.4 on 5 procs for 8000000 steps with 70304 atoms

Performance: 547859.060 tau/day, 634.096 timesteps/s, 44.579 Matom-step/s
94.6% CPU use with 5 MPI tasks x 1 OpenMP threads

MPI task timing breakdown:
Section |  min time  |  avg time  |  max time  |%varavg| %total
---------------------------------------------------------------
Pair    | 4374.2     | 4985.7     | 5360       | 492.9 | 39.52
Neigh   | 39.522     | 42.511     | 45.974     |  32.2 |  0.34
Comm    | 1868.8     | 1883.4     | 1913.9     |  41.9 | 14.93
Output  | 0.14442    | 0.14934    | 0.15846    |   1.3 |  0.00
Modify  | 4722.3     | 5082.6     | 5713.1     | 492.7 | 40.29
Other   |            | 622        |            |       |  4.93

Nlocal:        14060.8 ave       14125 max       14011 min
Histogram: 1 0 0 2 0 1 0 0 0 1
Nghost:          18761 ave       18794 max       18709 min
Histogram: 1 0 0 0 1 0 1 0 0 2
Neighs:              0 ave           0 max           0 min
Histogram: 5 0 0 0 0 0 0 0 0 0

Total # of neighbors = 0
Ave neighs/atom = 0
Neighbor list builds = 1615478
Dangerous builds = 0
clear
OMP_NUM_THREADS environment is not set. Defaulting to 1 thread. (src/comm.cpp:98)
  using 1 OpenMP thread(s) per MPI task
package gpu 0
jump dms450.lmp

variable T equal 450
# T = 1000* (temp in LJ unit)
variable f equal 10000
log log.${T}
log log.450
