variable TLJ equal (${T}/1000)
variable TLJ equal (540/1000)
variable NCyle equal 10
variable iStep equal (${f})
variable iStep equal (10000)
variable dumpStep equal (${f}*100)
variable dumpStep equal (10000*100)
variable runStep equal (${f}*100*${NCyle})
variable runStep equal (10000*100*${NCyle})
variable runStep equal (10000*100*10)

units       lj
atom_style  atomic
dimension 3
boundary     p p p
pair_style  lj/cut 2.5
read_data  ../data/T${T}.dat
read_data  ../data/T540.dat
Reading data file ...
  orthogonal box = (0.97250269 0.97250269 0.97250269) to (37.866338 37.866338 37.866338)
  1 by 1 by 5 MPI processor grid
  reading atoms ...
  70304 atoms
  reading velocities ...
  70304 velocities
  read_data CPU = 0.209 seconds
change_box all triclinic
Changing box ...
  triclinic box = (0.97250269 0.97250269 0.97250269) to (37.866338 37.866338 37.866338) with tilt (0 0 0)
mass 1 1
mass 2 1
pair_modify shift yes
pair_coeff  1 1 1 1
pair_coeff  1 2 1.5 0.8
pair_coeff  2 2 0.5 0.88


timestep 0.01
thermo ${iStep}
thermo 10000
reset_timestep 0
thermo_style custom step temp pe etotal press vol lx ly lz
fix             1 all nvt temp ${TLJ}  ${TLJ}  0.1
fix             1 all nvt temp 0.54  ${TLJ}  0.1
fix             1 all nvt temp 0.54  0.54  0.1
thermo_modify flush yes

fix dsf all deform 1 xy  wiggle 0.5  ${f}   units box
fix dsf all deform 1 xy  wiggle 0.5  10000   units box
fix ps1 all ave/time 1 1 ${iStep} c_thermo_press[1] c_thermo_press[2]  c_thermo_press[3] c_thermo_press[4]  c_thermo_press[5] c_thermo_press[6]  file  stress.${T}
fix ps1 all ave/time 1 1 10000 c_thermo_press[1] c_thermo_press[2]  c_thermo_press[3] c_thermo_press[4]  c_thermo_press[5] c_thermo_press[6]  file  stress.${T}
fix ps1 all ave/time 1 1 10000 c_thermo_press[1] c_thermo_press[2]  c_thermo_press[3] c_thermo_press[4]  c_thermo_press[5] c_thermo_press[6]  file  stress.540
dump            1 all custom ${dumpStep} dump.${T} id type x y z
dump            1 all custom 1000000 dump.${T} id type x y z
dump            1 all custom 1000000 dump.540 id type x y z
dump_modify 1 sort id
fix nodrift all momentum 1  linear 1 1 1
fix com_seed all recenter INIT INIT INIT shift all
run ${runStep}
run 10000000
Generated 0 of 1 mixed pair_coeff terms from geometric mixing rule
Per MPI rank memory allocation (min/avg/max) = 6.668 | 8.47 | 8.922 Mbytes
   Step          Temp          PotEng         TotEng         Press          Volume           Lx             Ly             Lz      
         0   0.53940878    -7.7369398     -6.9278382      4.2909817      50218.233      36.893836      36.893836      36.893836    
     10000   0.53973201    -7.7251867     -6.9156002      4.3742495      50218.233      36.893836      36.893836      36.893836    
     20000   0.54131798    -7.7258939     -6.9139284      4.3822607      50218.233      36.893836      36.893836      36.893836    
     30000   0.53873249    -7.7305795     -6.9224922      4.3389098      50218.233      36.893836      36.893836      36.893836    
     40000   0.54016584    -7.7245601     -6.9143229      4.3742661      50218.233      36.893836      36.893836      36.893836    
     50000   0.54230716    -7.7283249     -6.9148758      4.359286       50218.233      36.893836      36.893836      36.893836    
     60000   0.54340198    -7.7256185     -6.9105272      4.3775419      50218.233      36.893836      36.893836      36.893836    
     70000   0.53870282    -7.7264045     -6.9183617      4.3679624      50218.233      36.893836      36.893836      36.893836    
     80000   0.53822615    -7.7283129     -6.9209851      4.3530094      50218.233      36.893836      36.893836      36.893836    
     90000   0.53943813    -7.7327894     -6.9236438      4.3177252      50218.233      36.893836      36.893836      36.893836    
    100000   0.5408615     -7.7238931     -6.9126124      4.388921       50218.233      36.893836      36.893836      36.893836    
    110000   0.53976041    -7.7304921     -6.920863       4.3335932      50218.233      36.893836      36.893836      36.893836    
    120000   0.54087406    -7.7296324     -6.9183329      4.3415927      50218.233      36.893836      36.893836      36.893836    
    130000   0.53886867    -7.7283986     -6.9201071      4.3594647      50218.233      36.893836      36.893836      36.893836    
    140000   0.5397216     -7.7289499     -6.919379       4.3516288      50218.233      36.893836      36.893836      36.893836    
    150000   0.54305809    -7.7284948     -6.9139193      4.3520079      50218.233      36.893836      36.893836      36.893836    
    160000   0.54193537    -7.7253839     -6.9124925      4.3710885      50218.233      36.893836      36.893836      36.893836    
    170000   0.54008323    -7.7294292     -6.9193158      4.3430978      50218.233      36.893836      36.893836      36.893836    
    180000   0.53955903    -7.7283023     -6.9189752      4.3542424      50218.233      36.893836      36.893836      36.893836    
    190000   0.54062237    -7.725627      -6.914705       4.3654972      50218.233      36.893836      36.893836      36.893836    
    200000   0.53880634    -7.726963      -6.918765       4.3681285      50218.233      36.893836      36.893836      36.893836    
    210000   0.53698617    -7.7275207     -6.9220529      4.3549057      50218.233      36.893836      36.893836      36.893836    
    220000   0.540462      -7.7280326     -6.9173511      4.3664403      50218.233      36.893836      36.893836      36.893836    
    230000   0.53700497    -7.7267736     -6.9212776      4.3581941      50218.233      36.893836      36.893836      36.893836    
    240000   0.5437274     -7.7301288     -6.9145493      4.3441438      50218.233      36.893836      36.893836      36.893836    
    250000   0.53950508    -7.7271912     -6.9179451      4.3627941      50218.233      36.893836      36.893836      36.893836    
    260000   0.54020844    -7.7286832     -6.918382       4.3632115      50218.233      36.893836      36.893836      36.893836    
    270000   0.53879425    -7.7285284     -6.9203485      4.3611984      50218.233      36.893836      36.893836      36.893836    
    280000   0.54118238    -7.7306491     -6.9188871      4.3372803      50218.233      36.893836      36.893836      36.893836    
    290000   0.54071734    -7.7246704     -6.9136059      4.3737347      50218.233      36.893836      36.893836      36.893836    
    300000   0.53908691    -7.725289      -6.9166701      4.3759795      50218.233      36.893836      36.893836      36.893836    
    310000   0.5409286     -7.7261809     -6.9147995      4.3803408      50218.233      36.893836      36.893836      36.893836    
    320000   0.54093174    -7.7309486     -6.9195625      4.3443062      50218.233      36.893836      36.893836      36.893836    
    330000   0.53872209    -7.7282411     -6.9201694      4.3559049      50218.233      36.893836      36.893836      36.893836    
    340000   0.53875402    -7.7276384     -6.9195188      4.3601889      50218.233      36.893836      36.893836      36.893836    
    350000   0.53903136    -7.7248461     -6.9163106      4.3709723      50218.233      36.893836      36.893836      36.893836    
    360000   0.53887803    -7.7286469     -6.9203413      4.3537666      50218.233      36.893836      36.893836      36.893836    
    370000   0.53872312    -7.7298661     -6.9217929      4.3398274      50218.233      36.893836      36.893836      36.893836    
    380000   0.54329081    -7.7253843     -6.9104597      4.3821832      50218.233      36.893836      36.893836      36.893836    
    390000   0.53895683    -7.731595      -6.9231712      4.3265712      50218.233      36.893836      36.893836      36.893836    
    400000   0.53914663    -7.7310325     -6.9223241      4.3347711      50218.233      36.893836      36.893836      36.893836    
    410000   0.53965637    -7.7247059     -6.9152329      4.3748343      50218.233      36.893836      36.893836      36.893836    
    420000   0.54001053    -7.7249177     -6.9149134      4.3780437      50218.233      36.893836      36.893836      36.893836    
    430000   0.54386718    -7.7221347     -6.9063455      4.4012963      50218.233      36.893836      36.893836      36.893836    
    440000   0.54027242    -7.7260393     -6.9156422      4.3647753      50218.233      36.893836      36.893836      36.893836    
    450000   0.53746567    -7.7257745     -6.9195875      4.3711936      50218.233      36.893836      36.893836      36.893836    
    460000   0.53794074    -7.7272118     -6.9203122      4.3677546      50218.233      36.893836      36.893836      36.893836    
    470000   0.54129982    -7.7258309     -6.9138927      4.3818144      50218.233      36.893836      36.893836      36.893836    
    480000   0.53540521    -7.7262048     -6.9231084      4.3424718      50218.233      36.893836      36.893836      36.893836    
    490000   0.53995869    -7.7275427     -6.9176161      4.3636923      50218.233      36.893836      36.893836      36.893836    
    500000   0.53823159    -7.7251233     -6.9177874      4.3696209      50218.233      36.893836      36.893836      36.893836    
    510000   0.53898552    -7.7275681     -6.9191013      4.3588828      50218.233      36.893836      36.893836      36.893836    
    520000   0.54067906    -7.7233997     -6.9123927      4.3842332      50218.233      36.893836      36.893836      36.893836    
    530000   0.54176669    -7.7252287     -6.9125903      4.3834455      50218.233      36.893836      36.893836      36.893836    
    540000   0.54165055    -7.7209825     -6.9085183      4.4050179      50218.233      36.893836      36.893836      36.893836    
    550000   0.53905258    -7.7281876     -6.9196202      4.3453463      50218.233      36.893836      36.893836      36.893836    
    560000   0.53738056    -7.7250175     -6.9189581      4.384649       50218.233      36.893836      36.893836      36.893836    
    570000   0.54061936    -7.7256414     -6.9147239      4.3608404      50218.233      36.893836      36.893836      36.893836    
    580000   0.54134853    -7.7284194     -6.9164081      4.3409612      50218.233      36.893836      36.893836      36.893836    
    590000   0.53895204    -7.7236645     -6.9152479      4.3927717      50218.233      36.893836      36.893836      36.893836    
    600000   0.5395743     -7.7281515     -6.9188016      4.360975       50218.233      36.893836      36.893836      36.893836    
    610000   0.54206959    -7.7305514     -6.9174586      4.3386998      50218.233      36.893836      36.893836      36.893836    
    620000   0.53937361    -7.7253908     -6.9163419      4.3658838      50218.233      36.893836      36.893836      36.893836    
    630000   0.53834284    -7.7249226     -6.9174198      4.3719983      50218.233      36.893836      36.893836      36.893836    
    640000   0.53952577    -7.7297349     -6.9204577      4.3500663      50218.233      36.893836      36.893836      36.893836    
    650000   0.54317194    -7.7264934     -6.9117471      4.376339       50218.233      36.893836      36.893836      36.893836    
    660000   0.54021093    -7.7229792     -6.9126743      4.4026595      50218.233      36.893836      36.893836      36.893836    
    670000   0.5392836     -7.7298767     -6.9209628      4.3391854      50218.233      36.893836      36.893836      36.893836    
    680000   0.54168989    -7.7312513     -6.918728       4.3404546      50218.233      36.893836      36.893836      36.893836    
    690000   0.53863822    -7.7312519     -6.9233061      4.3237634      50218.233      36.893836      36.893836      36.893836    
    700000   0.53926848    -7.7288277     -6.9199365      4.3451702      50218.233      36.893836      36.893836      36.893836    
    710000   0.53593333    -7.726366      -6.9224775      4.3855607      50218.233      36.893836      36.893836      36.893836    
    720000   0.54231602    -7.7287001     -6.9152376      4.356686       50218.233      36.893836      36.893836      36.893836    
    730000   0.54185556    -7.7302034     -6.9174317      4.3448217      50218.233      36.893836      36.893836      36.893836    
    740000   0.54182794    -7.7279927     -6.9152624      4.3605468      50218.233      36.893836      36.893836      36.893836    
    750000   0.53771617    -7.7288665     -6.9223037      4.3634333      50218.233      36.893836      36.893836      36.893836    
    760000   0.5417426     -7.7294745     -6.9168721      4.3465082      50218.233      36.893836      36.893836      36.893836    
    770000   0.53773364    -7.7285736     -6.9219846      4.3557353      50218.233      36.893836      36.893836      36.893836    
    780000   0.5400996     -7.7348541     -6.9247163      4.3143589      50218.233      36.893836      36.893836      36.893836    
    790000   0.53890224    -7.7224076     -6.9140658      4.3939286      50218.233      36.893836      36.893836      36.893836    
    800000   0.54089303    -7.7283352     -6.9170072      4.358339       50218.233      36.893836      36.893836      36.893836    
    810000   0.53916152    -7.727593      -6.9188622      4.3658679      50218.233      36.893836      36.893836      36.893836    
    820000   0.54243272    -7.7299217     -6.9162842      4.3397946      50218.233      36.893836      36.893836      36.893836    
    830000   0.54163741    -7.7263366     -6.913892       4.3756291      50218.233      36.893836      36.893836      36.893836    
    840000   0.53989271    -7.7229913     -6.9131637      4.3871765      50218.233      36.893836      36.893836      36.893836    
    850000   0.54100524    -7.7239379     -6.9124415      4.3931438      50218.233      36.893836      36.893836      36.893836    
    860000   0.5413932     -7.7237802     -6.9117019      4.3713257      50218.233      36.893836      36.893836      36.893836    
    870000   0.53727465    -7.7265974     -6.9206968      4.3552112      50218.233      36.893836      36.893836      36.893836    
    880000   0.54019966    -7.7239002     -6.9136122      4.3822929      50218.233      36.893836      36.893836      36.893836    
    890000   0.54185962    -7.7297726     -6.9169948      4.3531321      50218.233      36.893836      36.893836      36.893836    
    900000   0.53691312    -7.7318136     -6.9264554      4.3212322      50218.233      36.893836      36.893836      36.893836    
    910000   0.54124681    -7.7285088     -6.9166501      4.3652575      50218.233      36.893836      36.893836      36.893836    
    920000   0.5391911     -7.7286187     -6.9198436      4.3451186      50218.233      36.893836      36.893836      36.893836    
    930000   0.54012174    -7.7271786     -6.9170075      4.3683413      50218.233      36.893836      36.893836      36.893836    
    940000   0.54171927    -7.7243581     -6.9117908      4.3866836      50218.233      36.893836      36.893836      36.893836    
    950000   0.5393568     -7.7243433     -6.9153196      4.3901827      50218.233      36.893836      36.893836      36.893836    
    960000   0.543694      -7.7266062     -6.9110768      4.3695014      50218.233      36.893836      36.893836      36.893836    
    970000   0.53778217    -7.720623      -6.9139612      4.4187252      50218.233      36.893836      36.893836      36.893836    
    980000   0.54017827    -7.7189301     -6.9086742      4.4266404      50218.233      36.893836      36.893836      36.893836    
    990000   0.54018919    -7.7292836     -6.9190114      4.3420478      50218.233      36.893836      36.893836      36.893836    
   1000000   0.53654675    -7.7200305     -6.9152218      4.4111356      50218.233      36.893836      36.893836      36.893836    
   1010000   0.5377477     -7.731865      -6.925255       4.3182478      50218.233      36.893836      36.893836      36.893836    
   1020000   0.53783189    -7.7284331     -6.9216967      4.3431615      50218.233      36.893836      36.893836      36.893836    
   1030000   0.54119838    -7.7193474     -6.9075614      4.4086228      50218.233      36.893836      36.893836      36.893836    
   1040000   0.53753628    -7.7246423     -6.9183493      4.3783361      50218.233      36.893836      36.893836      36.893836    
   1050000   0.53883346    -7.7267031     -6.9184645      4.3539106      50218.233      36.893836      36.893836      36.893836    
   1060000   0.54093151    -7.7301171     -6.9187314      4.3344093      50218.233      36.893836      36.893836      36.893836    
   1070000   0.53895734    -7.7300962     -6.9216717      4.3243224      50218.233      36.893836      36.893836      36.893836    
   1080000   0.5419033     -7.7267883     -6.9139449      4.3617367      50218.233      36.893836      36.893836      36.893836    
   1090000   0.53915754    -7.7282879     -6.9195631      4.3517788      50218.233      36.893836      36.893836      36.893836    
   1100000   0.54269371    -7.7275581     -6.9135291      4.3741693      50218.233      36.893836      36.893836      36.893836    
   1110000   0.53974954    -7.7279253     -6.9183125      4.3556466      50218.233      36.893836      36.893836      36.893836    
   1120000   0.53853618    -7.7301584     -6.9223656      4.3318926      50218.233      36.893836      36.893836      36.893836    
   1130000   0.54115802    -7.724829      -6.9131035      4.3708387      50218.233      36.893836      36.893836      36.893836    
   1140000   0.54315704    -7.7300002     -6.9152762      4.3308153      50218.233      36.893836      36.893836      36.893836    
   1150000   0.54146108    -7.7238041     -6.9116241      4.3801904      50218.233      36.893836      36.893836      36.893836    
   1160000   0.54031005    -7.7300692     -6.9196157      4.3401921      50218.233      36.893836      36.893836      36.893836    
   1170000   0.53913909    -7.7297688     -6.9210717      4.334982       50218.233      36.893836      36.893836      36.893836    
   1180000   0.54010895    -7.729186      -6.9190341      4.3384206      50218.233      36.893836      36.893836      36.893836    
   1190000   0.53754143    -7.7284785     -6.9221779      4.3423758      50218.233      36.893836      36.893836      36.893836    
   1200000   0.54162134    -7.7224991     -6.9100786      4.3863497      50218.233      36.893836      36.893836      36.893836    
   1210000   0.53755914    -7.725768      -6.9194408      4.3671367      50218.233      36.893836      36.893836      36.893836    
   1220000   0.54102262    -7.7210958     -6.9095734      4.4055392      50218.233      36.893836      36.893836      36.893836    
   1230000   0.54107276    -7.7222139     -6.9106164      4.3955142      50218.233      36.893836      36.893836      36.893836    
   1240000   0.54121005    -7.7267951     -6.9149915      4.3540725      50218.233      36.893836      36.893836      36.893836    
   1250000   0.53982213    -7.7238442     -6.9141226      4.3818994      50218.233      36.893836      36.893836      36.893836    
   1260000   0.54164531    -7.7284163     -6.9159598      4.3598185      50218.233      36.893836      36.893836      36.893836    
   1270000   0.53944766    -7.7269188     -6.9177588      4.364316       50218.233      36.893836      36.893836      36.893836    
   1280000   0.53839728    -7.7257699     -6.9181855      4.3593397      50218.233      36.893836      36.893836      36.893836    
   1290000   0.54265277    -7.7264733     -6.9125057      4.3606905      50218.233      36.893836      36.893836      36.893836    
   1300000   0.539727      -7.7247713     -6.9151923      4.371062       50218.233      36.893836      36.893836      36.893836    
   1310000   0.5394314     -7.725185      -6.9160494      4.3670902      50218.233      36.893836      36.893836      36.893836    
   1320000   0.53984076    -7.724087      -6.9143374      4.3880185      50218.233      36.893836      36.893836      36.893836    
   1330000   0.54056218    -7.7267593     -6.9159276      4.3554779      50218.233      36.893836      36.893836      36.893836    
   1340000   0.54133419    -7.7232408     -6.9112511      4.3886476      50218.233      36.893836      36.893836      36.893836    
   1350000   0.53887757    -7.725532      -6.9172271      4.376257       50218.233      36.893836      36.893836      36.893836    
   1360000   0.53981451    -7.7256596     -6.9159494      4.3709063      50218.233      36.893836      36.893836      36.893836    
   1370000   0.54018082    -7.7204651     -6.9102054      4.402333       50218.233      36.893836      36.893836      36.893836    
   1380000   0.54124687    -7.7259778     -6.914119       4.3683782      50218.233      36.893836      36.893836      36.893836    
   1390000   0.53994763    -7.7298683     -6.9199584      4.3425832      50218.233      36.893836      36.893836      36.893836    
   1400000   0.54275002    -7.7327593     -6.9186458      4.3250219      50218.233      36.893836      36.893836      36.893836    
   1410000   0.53852732    -7.7287946     -6.9210151      4.3466474      50218.233      36.893836      36.893836      36.893836    
   1420000   0.54259203    -7.7318135     -6.917937       4.3319851      50218.233      36.893836      36.893836      36.893836    
   1430000   0.53989361    -7.7281796     -6.9183507      4.3604766      50218.233      36.893836      36.893836      36.893836    
   1440000   0.54312369    -7.7236591     -6.9089851      4.3934588      50218.233      36.893836      36.893836      36.893836    
   1450000   0.53873737    -7.7209774     -6.9128828      4.4037007      50218.233      36.893836      36.893836      36.893836    
   1460000   0.53938147    -7.7336964     -6.9246357      4.31028        50218.233      36.893836      36.893836      36.893836    
   1470000   0.5423704     -7.7292691     -6.9157251      4.3431382      50218.233      36.893836      36.893836      36.893836    
   1480000   0.54126912    -7.7307574     -6.9188653      4.3227253      50218.233      36.893836      36.893836      36.893836    
   1490000   0.54056745    -7.7250359     -6.9141962      4.3712623      50218.233      36.893836      36.893836      36.893836    
   1500000   0.54302293    -7.7265267     -6.9120039      4.368305       50218.233      36.893836      36.893836      36.893836    
   1510000   0.53993472    -7.7292516     -6.919361       4.342425       50218.233      36.893836      36.893836      36.893836    
   1520000   0.5396478     -7.7231053     -6.9136451      4.3934192      50218.233      36.893836      36.893836      36.893836    
   1530000   0.5400333     -7.7264799     -6.9164415      4.3688606      50218.233      36.893836      36.893836      36.893836    
   1540000   0.53938702    -7.7306407     -6.9215716      4.3446263      50218.233      36.893836      36.893836      36.893836    
   1550000   0.53916785    -7.7255526     -6.9168124      4.3770155      50218.233      36.893836      36.893836      36.893836    
   1560000   0.54086484    -7.72959       -6.9183043      4.3618668      50218.233      36.893836      36.893836      36.893836    
   1570000   0.54302304    -7.7235054     -6.9089825      4.3898178      50218.233      36.893836      36.893836      36.893836    
   1580000   0.54010031    -7.7280351     -6.9178962      4.359449       50218.233      36.893836      36.893836      36.893836    
   1590000   0.53773164    -7.7275058     -6.9209198      4.3694836      50218.233      36.893836      36.893836      36.893836    
   1600000   0.53882825    -7.7263982     -6.9181673      4.3568293      50218.233      36.893836      36.893836      36.893836    
   1610000   0.53859014    -7.7282662     -6.9203925      4.3547047      50218.233      36.893836      36.893836      36.893836    
   1620000   0.54103492    -7.7269783     -6.9154375      4.3662261      50218.233      36.893836      36.893836      36.893836    
   1630000   0.53960242    -7.728021      -6.9186289      4.3614406      50218.233      36.893836      36.893836      36.893836    
   1640000   0.54023821    -7.7271718     -6.916826       4.3577261      50218.233      36.893836      36.893836      36.893836    
   1650000   0.54014357    -7.7226236     -6.9124197      4.4051901      50218.233      36.893836      36.893836      36.893836    
   1660000   0.53913708    -7.7303992     -6.9217051      4.3368578      50218.233      36.893836      36.893836      36.893836    
   1670000   0.5411169     -7.7327827     -6.9211189      4.3152426      50218.233      36.893836      36.893836      36.893836    
   1680000   0.54039502    -7.7236716     -6.9130906      4.3961874      50218.233      36.893836      36.893836      36.893836    
   1690000   0.54229407    -7.7279086     -6.914479       4.3718664      50218.233      36.893836      36.893836      36.893836    
   1700000   0.54641375    -7.7295678     -6.9099589      4.3521385      50218.233      36.893836      36.893836      36.893836    
   1710000   0.53813599    -7.729058      -6.9218655      4.3492888      50218.233      36.893836      36.893836      36.893836    
   1720000   0.53773368    -7.7266107     -6.9200216      4.356211       50218.233      36.893836      36.893836      36.893836    
   1730000   0.54169921    -7.7250666     -6.9125294      4.3846428      50218.233      36.893836      36.893836      36.893836    
   1740000   0.54027144    -7.721124      -6.9107284      4.3990218      50218.233      36.893836      36.893836      36.893836    
   1750000   0.53977423    -7.7295219     -6.9198721      4.3502147      50218.233      36.893836      36.893836      36.893836    
   1760000   0.54277734    -7.7306845     -6.9165301      4.3499962      50218.233      36.893836      36.893836      36.893836    
   1770000   0.5390737     -7.7256871     -6.917088       4.3690764      50218.233      36.893836      36.893836      36.893836    
   1780000   0.54201735    -7.7294461     -6.9164316      4.3384202      50218.233      36.893836      36.893836      36.893836    
   1790000   0.54095835    -7.7299917     -6.9185657      4.3402864      50218.233      36.893836      36.893836      36.893836    
   1800000   0.5398133     -7.7285673     -6.9188588      4.3512058      50218.233      36.893836      36.893836      36.893836    
   1810000   0.54011149    -7.7260848     -6.9159291      4.3589105      50218.233      36.893836      36.893836      36.893836    
   1820000   0.53995337    -7.7243911     -6.9144725      4.396741       50218.233      36.893836      36.893836      36.893836    
   1830000   0.54018816    -7.7283597     -6.918089       4.3583468      50218.233      36.893836      36.893836      36.893836    
   1840000   0.54119322    -7.7253427     -6.9135644      4.3758711      50218.233      36.893836      36.893836      36.893836    
   1850000   0.54025945    -7.7296139     -6.9192363      4.3479429      50218.233      36.893836      36.893836      36.893836    
   1860000   0.5410581     -7.7284871     -6.9169115      4.3675426      50218.233      36.893836      36.893836      36.893836    
   1870000   0.54198923    -7.7320095     -6.9190372      4.3331847      50218.233      36.893836      36.893836      36.893836    
   1880000   0.5393822     -7.7295961     -6.9205343      4.3479131      50218.233      36.893836      36.893836      36.893836    
   1890000   0.54276286    -7.7297595     -6.9156268      4.3326585      50218.233      36.893836      36.893836      36.893836    
   1900000   0.54040377    -7.727568      -6.9169738      4.3561852      50218.233      36.893836      36.893836      36.893836    
   1910000   0.54076921    -7.7231431     -6.9120008      4.3795772      50218.233      36.893836      36.893836      36.893836    
   1920000   0.53957784    -7.727929      -6.9185737      4.3567114      50218.233      36.893836      36.893836      36.893836    
   1930000   0.53861687    -7.7282075     -6.9202936      4.3411233      50218.233      36.893836      36.893836      36.893836    
   1940000   0.54135928    -7.7303952     -6.9183679      4.3192837      50218.233      36.893836      36.893836      36.893836    
   1950000   0.54116487    -7.7268718     -6.915136       4.3626488      50218.233      36.893836      36.893836      36.893836    
   1960000   0.54090137    -7.7241688     -6.9128283      4.3868087      50218.233      36.893836      36.893836      36.893836    
   1970000   0.54302438    -7.7306678     -6.9161428      4.3423481      50218.233      36.893836      36.893836      36.893836    
   1980000   0.53903611    -7.7276276     -6.919085       4.3731442      50218.233      36.893836      36.893836      36.893836    
   1990000   0.5382554     -7.7259612     -6.9185896      4.3648273      50218.233      36.893836      36.893836      36.893836    
   2000000   0.53996487    -7.7250072     -6.9150714      4.3820843      50218.233      36.893836      36.893836      36.893836    
   2010000   0.54031596    -7.7261646     -6.9157022      4.3649181      50218.233      36.893836      36.893836      36.893836    
   2020000   0.53916844    -7.7250592     -6.916318       4.3664004      50218.233      36.893836      36.893836      36.893836    
   2030000   0.53996752    -7.7270785     -6.9171388      4.3623691      50218.233      36.893836      36.893836      36.893836    
   2040000   0.54082074    -7.7254194     -6.9141999      4.3696743      50218.233      36.893836      36.893836      36.893836    
   2050000   0.53957434    -7.7294657     -6.9201157      4.3330862      50218.233      36.893836      36.893836      36.893836    
   2060000   0.53852215    -7.7296614     -6.9218897      4.3442057      50218.233      36.893836      36.893836      36.893836    
   2070000   0.54108484    -7.7305091     -6.9188934      4.3293889      50218.233      36.893836      36.893836      36.893836    
   2080000   0.53935152    -7.733479      -6.9244632      4.3176439      50218.233      36.893836      36.893836      36.893836    
   2090000   0.53894779    -7.7319382     -6.923528       4.3127124      50218.233      36.893836      36.893836      36.893836    
   2100000   0.54121083    -7.7251444     -6.9133397      4.3706686      50218.233      36.893836      36.893836      36.893836    
   2110000   0.54137996    -7.728302      -6.9162436      4.346747       50218.233      36.893836      36.893836      36.893836    
   2120000   0.54108605    -7.7284881     -6.9168706      4.3494142      50218.233      36.893836      36.893836      36.893836    
   2130000   0.53767658    -7.730705      -6.9242016      4.3335617      50218.233      36.893836      36.893836      36.893836    
   2140000   0.54137397    -7.7345459     -6.9224965      4.3047167      50218.233      36.893836      36.893836      36.893836    
   2150000   0.54110951    -7.73057       -6.9189172      4.3315799      50218.233      36.893836      36.893836      36.893836    
   2160000   0.54088166    -7.7295288     -6.9182179      4.34361        50218.233      36.893836      36.893836      36.893836    
   2170000   0.53962745    -7.7310133     -6.9215836      4.3366405      50218.233      36.893836      36.893836      36.893836    
   2180000   0.53615614    -7.7249745     -6.9207518      4.3665038      50218.233      36.893836      36.893836      36.893836    
   2190000   0.5415063     -7.726445      -6.9141971      4.3645128      50218.233      36.893836      36.893836      36.893836    
   2200000   0.54135526    -7.726355      -6.9143337      4.3666598      50218.233      36.893836      36.893836      36.893836    
   2210000   0.54101072    -7.7307535     -6.9192489      4.3269337      50218.233      36.893836      36.893836      36.893836    
   2220000   0.54208797    -7.730638      -6.9175176      4.3550397      50218.233      36.893836      36.893836      36.893836    
   2230000   0.53995761    -7.7247506     -6.9148257      4.3744914      50218.233      36.893836      36.893836      36.893836    
   2240000   0.54139484    -7.7302277     -6.918147       4.3450861      50218.233      36.893836      36.893836      36.893836    
   2250000   0.54176187    -7.7266553     -6.914024       4.3615521      50218.233      36.893836      36.893836      36.893836    
   2260000   0.54163693    -7.7290795     -6.9166356      4.3524767      50218.233      36.893836      36.893836      36.893836    
   2270000   0.54025687    -7.7272167     -6.9168429      4.3607944      50218.233      36.893836      36.893836      36.893836    
   2280000   0.53778953    -7.7315729     -6.9249001      4.3277301      50218.233      36.893836      36.893836      36.893836    
   2290000   0.53980126    -7.7317656     -6.9220753      4.323001       50218.233      36.893836      36.893836      36.893836    
   2300000   0.54105772    -7.728855      -6.9172799      4.355104       50218.233      36.893836      36.893836      36.893836    
   2310000   0.54058021    -7.7298774     -6.9190186      4.3285506      50218.233      36.893836      36.893836      36.893836    
   2320000   0.53894566    -7.7234591     -6.9150521      4.3832407      50218.233      36.893836      36.893836      36.893836    
   2330000   0.53774434    -7.7265814     -6.9199764      4.3672123      50218.233      36.893836      36.893836      36.893836    
   2340000   0.54163239    -7.730451      -6.9180139      4.3328561      50218.233      36.893836      36.893836      36.893836    
   2350000   0.53981735    -7.7251766     -6.9154621      4.3746487      50218.233      36.893836      36.893836      36.893836    
   2360000   0.542406      -7.733057      -6.9194596      4.3195427      50218.233      36.893836      36.893836      36.893836    
   2370000   0.53946453    -7.7319383     -6.922753       4.3228459      50218.233      36.893836      36.893836      36.893836    
   2380000   0.53936097    -7.7264481     -6.9174182      4.3911138      50218.233      36.893836      36.893836      36.893836    
   2390000   0.5383281     -7.7278099     -6.9203293      4.3507426      50218.233      36.893836      36.893836      36.893836    
   2400000   0.54081786    -7.7294603     -6.918245       4.3427618      50218.233      36.893836      36.893836      36.893836    
   2410000   0.53730114    -7.7306294     -6.9246891      4.3249891      50218.233      36.893836      36.893836      36.893836    
   2420000   0.53948581    -7.7226837     -6.9134665      4.3856013      50218.233      36.893836      36.893836      36.893836    
   2430000   0.54079598    -7.7278508     -6.9166684      4.3631299      50218.233      36.893836      36.893836      36.893836    
   2440000   0.5422315     -7.727657      -6.9143213      4.3549385      50218.233      36.893836      36.893836      36.893836    
   2450000   0.53982358    -7.7268868     -6.917163       4.3632922      50218.233      36.893836      36.893836      36.893836    
   2460000   0.54433968    -7.7262954     -6.9097975      4.3629544      50218.233      36.893836      36.893836      36.893836    
   2470000   0.53996164    -7.7251018     -6.9151709      4.3661712      50218.233      36.893836      36.893836      36.893836    
   2480000   0.53909604    -7.724569      -6.9159364      4.3701215      50218.233      36.893836      36.893836      36.893836    
   2490000   0.53986818    -7.7316477     -6.9218569      4.3168949      50218.233      36.893836      36.893836      36.893836    
   2500000   0.54085259    -7.7306666     -6.9193992      4.3357538      50218.233      36.893836      36.893836      36.893836    
   2510000   0.53955832    -7.7271018     -6.9177758      4.3527929      50218.233      36.893836      36.893836      36.893836    
   2520000   0.53836258    -7.7254784     -6.917946       4.3823303      50218.233      36.893836      36.893836      36.893836    
   2530000   0.54067734    -7.725242      -6.9142375      4.3608461      50218.233      36.893836      36.893836      36.893836    
   2540000   0.53908007    -7.7291548     -6.9205462      4.3433113      50218.233      36.893836      36.893836      36.893836    
   2550000   0.54097515    -7.724963      -6.9135118      4.3667285      50218.233      36.893836      36.893836      36.893836    
   2560000   0.54061794    -7.7326873     -6.921772       4.3172301      50218.233      36.893836      36.893836      36.893836    
   2570000   0.54279506    -7.7254656     -6.9112846      4.3769625      50218.233      36.893836      36.893836      36.893836    
   2580000   0.54147884    -7.7293312     -6.9171245      4.3446351      50218.233      36.893836      36.893836      36.893836    
   2590000   0.53797243    -7.7230914     -6.9161443      4.3771819      50218.233      36.893836      36.893836      36.893836    
   2600000   0.53776606    -7.7245024     -6.9178648      4.3706948      50218.233      36.893836      36.893836      36.893836    
   2610000   0.53825146    -7.7245643     -6.9171986      4.3689223      50218.233      36.893836      36.893836      36.893836    
   2620000   0.54051809    -7.7265323     -6.9157667      4.3579714      50218.233      36.893836      36.893836      36.893836    
   2630000   0.54228313    -7.726177      -6.9127639      4.3756258      50218.233      36.893836      36.893836      36.893836    
   2640000   0.54074841    -7.7214476     -6.9103365      4.3963241      50218.233      36.893836      36.893836      36.893836    
   2650000   0.53813978    -7.7303821     -6.9231839      4.3365096      50218.233      36.893836      36.893836      36.893836    
   2660000   0.53823283    -7.7294639     -6.9221262      4.3412536      50218.233      36.893836      36.893836      36.893836    
   2670000   0.54087046    -7.7233698     -6.9120756      4.3830256      50218.233      36.893836      36.893836      36.893836    
   2680000   0.54103238    -7.7246898     -6.9131527      4.3809007      50218.233      36.893836      36.893836      36.893836    
   2690000   0.53887103    -7.7268638     -6.9185688      4.3656531      50218.233      36.893836      36.893836      36.893836    
   2700000   0.53953555    -7.7216634     -6.9123716      4.3929613      50218.233      36.893836      36.893836      36.893836    
   2710000   0.54002911    -7.7272352     -6.9172031      4.3562114      50218.233      36.893836      36.893836      36.893836    
   2720000   0.53868642    -7.7269314     -6.9189132      4.3545596      50218.233      36.893836      36.893836      36.893836    
   2730000   0.53868104    -7.7252057     -6.9171956      4.3686779      50218.233      36.893836      36.893836      36.893836    
   2740000   0.54064506    -7.7285575     -6.9176014      4.349669       50218.233      36.893836      36.893836      36.893836    
   2750000   0.53913632    -7.7313339     -6.922641       4.3279362      50218.233      36.893836      36.893836      36.893836    
   2760000   0.54262881    -7.7288659     -6.9149343      4.3647052      50218.233      36.893836      36.893836      36.893836    
   2770000   0.53769235    -7.7316559     -6.9251289      4.320281       50218.233      36.893836      36.893836      36.893836    
   2780000   0.54130615    -7.7295452     -6.9175975      4.3586776      50218.233      36.893836      36.893836      36.893836    
   2790000   0.53808647    -7.7256141     -6.9184959      4.3790037      50218.233      36.893836      36.893836      36.893836    
   2800000   0.53782281    -7.7305947     -6.9238719      4.3473346      50218.233      36.893836      36.893836      36.893836    
   2810000   0.54073028    -7.7265246     -6.9154407      4.3674293      50218.233      36.893836      36.893836      36.893836    
   2820000   0.54113365    -7.7292706     -6.9175817      4.3477009      50218.233      36.893836      36.893836      36.893836    
   2830000   0.53863314    -7.7291971     -6.9212589      4.351981       50218.233      36.893836      36.893836      36.893836    
   2840000   0.53953192    -7.7284945     -6.9192081      4.3502471      50218.233      36.893836      36.893836      36.893836    
   2850000   0.54126968    -7.728713      -6.91682        4.3577351      50218.233      36.893836      36.893836      36.893836    
   2860000   0.54154877    -7.7327217     -6.9204101      4.3250321      50218.233      36.893836      36.893836      36.893836    
   2870000   0.53908127    -7.7258275     -6.9172171      4.3646456      50218.233      36.893836      36.893836      36.893836    
   2880000   0.54073167    -7.7312208     -6.9201348      4.3319456      50218.233      36.893836      36.893836      36.893836    
   2890000   0.53997102    -7.7271789     -6.9172339      4.3662269      50218.233      36.893836      36.893836      36.893836    
   2900000   0.53974034    -7.727327      -6.917728       4.3698235      50218.233      36.893836      36.893836      36.893836    
   2910000   0.54043385    -7.7265495     -6.9159102      4.3652063      50218.233      36.893836      36.893836      36.893836    
   2920000   0.54181728    -7.7275043     -6.9147899      4.3703811      50218.233      36.893836      36.893836      36.893836    
   2930000   0.53989328    -7.7250873     -6.9152589      4.3881727      50218.233      36.893836      36.893836      36.893836    
   2940000   0.53716606    -7.7262048     -6.9204671      4.3702491      50218.233      36.893836      36.893836      36.893836    
   2950000   0.53940739    -7.7283192     -6.9192197      4.3553566      50218.233      36.893836      36.893836      36.893836    
   2960000   0.53753206    -7.7267259     -6.9204393      4.3686999      50218.233      36.893836      36.893836      36.893836    
   2970000   0.539025      -7.7264743     -6.9179483      4.357409       50218.233      36.893836      36.893836      36.893836    
   2980000   0.54170285    -7.7245442     -6.9120015      4.3709526      50218.233      36.893836      36.893836      36.893836    
   2990000   0.54021611    -7.7252246     -6.9149119      4.362909       50218.233      36.893836      36.893836      36.893836    
   3000000   0.53731589    -7.7261142     -6.9201518      4.3618092      50218.233      36.893836      36.893836      36.893836    
   3010000   0.54023084    -7.7250564     -6.9147216      4.3829249      50218.233      36.893836      36.893836      36.893836    
   3020000   0.53915603    -7.723292      -6.9145695      4.383079       50218.233      36.893836      36.893836      36.893836    
   3030000   0.53782048    -7.7287811     -6.9220618      4.3324627      50218.233      36.893836      36.893836      36.893836    
   3040000   0.53953944    -7.7256731     -6.9163755      4.3671688      50218.233      36.893836      36.893836      36.893836    
   3050000   0.53940498    -7.7277153     -6.9186193      4.3431664      50218.233      36.893836      36.893836      36.893836    
   3060000   0.53729323    -7.7259725     -6.9200441      4.3714877      50218.233      36.893836      36.893836      36.893836    
   3070000   0.54322864    -7.7232021     -6.9083707      4.3946263      50218.233      36.893836      36.893836      36.893836    
   3080000   0.54021815    -7.7223012     -6.9119855      4.4011699      50218.233      36.893836      36.893836      36.893836    
   3090000   0.54180601    -7.7207828     -6.9080853      4.4010846      50218.233      36.893836      36.893836      36.893836    
   3100000   0.53931259    -7.722617      -6.9136596      4.3769491      50218.233      36.893836      36.893836      36.893836    
   3110000   0.54174273    -7.7262226     -6.91362        4.359174       50218.233      36.893836      36.893836      36.893836    
   3120000   0.53887735    -7.7272581     -6.9189536      4.3654359      50218.233      36.893836      36.893836      36.893836    
   3130000   0.53910418    -7.7266025     -6.9179578      4.3723437      50218.233      36.893836      36.893836      36.893836    
   3140000   0.54103928    -7.7274588     -6.9159114      4.3691245      50218.233      36.893836      36.893836      36.893836    
   3150000   0.53786332    -7.7259827     -6.9191992      4.3609752      50218.233      36.893836      36.893836      36.893836    
   3160000   0.54004107    -7.7230251     -6.912975       4.3793962      50218.233      36.893836      36.893836      36.893836    
   3170000   0.54100055    -7.7257695     -6.9142802      4.3708791      50218.233      36.893836      36.893836      36.893836    
   3180000   0.53939814    -7.7308582     -6.9217725      4.3263473      50218.233      36.893836      36.893836      36.893836    
   3190000   0.54078323    -7.7308268     -6.9196635      4.3344205      50218.233      36.893836      36.893836      36.893836    
   3200000   0.53836826    -7.7289405     -6.9213996      4.3412513      50218.233      36.893836      36.893836      36.893836    
   3210000   0.53929665    -7.7241332     -6.9151997      4.3897796      50218.233      36.893836      36.893836      36.893836    
   3220000   0.54239294    -7.7252607     -6.9116829      4.3624678      50218.233      36.893836      36.893836      36.893836    
   3230000   0.54218971    -7.7236226     -6.9103496      4.3887712      50218.233      36.893836      36.893836      36.893836    
   3240000   0.53957086    -7.7256758     -6.9163311      4.3647452      50218.233      36.893836      36.893836      36.893836    
   3250000   0.5401063     -7.7272704     -6.9171225      4.3680577      50218.233      36.893836      36.893836      36.893836    
   3260000   0.53904597    -7.7239609     -6.9154034      4.3899991      50218.233      36.893836      36.893836      36.893836    
   3270000   0.53975691    -7.724102      -6.9144781      4.3745184      50218.233      36.893836      36.893836      36.893836    
   3280000   0.53958884    -7.7242404     -6.9148687      4.3791161      50218.233      36.893836      36.893836      36.893836    
   3290000   0.54011794    -7.7217787     -6.9116133      4.3934661      50218.233      36.893836      36.893836      36.893836    
   3300000   0.54006707    -7.7255808     -6.9154917      4.3612232      50218.233      36.893836      36.893836      36.893836    
   3310000   0.54032927    -7.7238512     -6.9133689      4.3813844      50218.233      36.893836      36.893836      36.893836    
   3320000   0.53917211    -7.7254935     -6.9167469      4.3659222      50218.233      36.893836      36.893836      36.893836    
   3330000   0.53826065    -7.7198937     -6.9125142      4.4032154      50218.233      36.893836      36.893836      36.893836    
   3340000   0.5414025     -7.726105      -6.9140128      4.3578152      50218.233      36.893836      36.893836      36.893836    
   3350000   0.54048937    -7.7196959     -6.9089734      4.4108641      50218.233      36.893836      36.893836      36.893836    
   3360000   0.54185144    -7.7209785     -6.9082129      4.4095771      50218.233      36.893836      36.893836      36.893836    
   3370000   0.53647221    -7.7232988     -6.9186019      4.3900618      50218.233      36.893836      36.893836      36.893836    
   3380000   0.54191536    -7.7208173     -6.9079558      4.4114107      50218.233      36.893836      36.893836      36.893836    
   3390000   0.54033662    -7.7231563     -6.9126629      4.3855891      50218.233      36.893836      36.893836      36.893836    
   3400000   0.53924501    -7.7174098     -6.9085538      4.4316631      50218.233      36.893836      36.893836      36.893836    
   3410000   0.54068296    -7.7285875     -6.9175746      4.3525252      50218.233      36.893836      36.893836      36.893836    
   3420000   0.54060796    -7.7215627     -6.9106623      4.3935995      50218.233      36.893836      36.893836      36.893836    
   3430000   0.5397688     -7.7190619     -6.9094202      4.420317       50218.233      36.893836      36.893836      36.893836    
   3440000   0.53669217    -7.7200098     -6.914983       4.3968414      50218.233      36.893836      36.893836      36.893836    
   3450000   0.53862396    -7.7251474     -6.9172229      4.370818       50218.233      36.893836      36.893836      36.893836    
   3460000   0.54322107    -7.7190459     -6.9042258      4.4086157      50218.233      36.893836      36.893836      36.893836    
   3470000   0.54115304    -7.7268612     -6.9151432      4.3638685      50218.233      36.893836      36.893836      36.893836    
   3480000   0.53959629    -7.7207411     -6.9113581      4.4023434      50218.233      36.893836      36.893836      36.893836    
   3490000   0.53495243    -7.7235106     -6.9210934      4.3608407      50218.233      36.893836      36.893836      36.893836    
   3500000   0.54107888    -7.7250135     -6.9134068      4.374853       50218.233      36.893836      36.893836      36.893836    
   3510000   0.54149224    -7.7293781     -6.9171513      4.3376596      50218.233      36.893836      36.893836      36.893836    
   3520000   0.53842416    -7.7233776     -6.9157529      4.391943       50218.233      36.893836      36.893836      36.893836    
   3530000   0.54045974    -7.7263448     -6.9156667      4.3622056      50218.233      36.893836      36.893836      36.893836    
   3540000   0.54193901    -7.7189959     -6.906099       4.4204834      50218.233      36.893836      36.893836      36.893836    
   3550000   0.54128759    -7.7247239     -6.9128041      4.3832292      50218.233      36.893836      36.893836      36.893836    
   3560000   0.54235158    -7.7267166     -6.9132008      4.3650313      50218.233      36.893836      36.893836      36.893836    
   3570000   0.54175958    -7.7201693     -6.9075415      4.4160117      50218.233      36.893836      36.893836      36.893836    
   3580000   0.5391016     -7.7239511     -6.9153102      4.389792       50218.233      36.893836      36.893836      36.893836    
   3590000   0.54118636    -7.7277319     -6.9159639      4.3606291      50218.233      36.893836      36.893836      36.893836    
   3600000   0.54026299    -7.7228183     -6.9124354      4.3941972      50218.233      36.893836      36.893836      36.893836    
   3610000   0.53779012    -7.7210039     -6.9143302      4.3945795      50218.233      36.893836      36.893836      36.893836    
   3620000   0.54282399    -7.7217993     -6.9075749      4.3954751      50218.233      36.893836      36.893836      36.893836    
   3630000   0.54053279    -7.7203571     -6.9095694      4.4190994      50218.233      36.893836      36.893836      36.893836    
   3640000   0.54295945    -7.7267287     -6.9123011      4.3706002      50218.233      36.893836      36.893836      36.893836    
   3650000   0.53900531    -7.7212003     -6.9127039      4.3946694      50218.233      36.893836      36.893836      36.893836    
   3660000   0.53855937    -7.723339      -6.9155114      4.3860059      50218.233      36.893836      36.893836      36.893836    
   3670000   0.53920933    -7.7208156     -6.9120131      4.4018018      50218.233      36.893836      36.893836      36.893836    
   3680000   0.53856054    -7.719856      -6.9120267      4.4186609      50218.233      36.893836      36.893836      36.893836    
   3690000   0.541883      -7.7223522     -6.9095393      4.4010251      50218.233      36.893836      36.893836      36.893836    
   3700000   0.53997509    -7.7205361     -6.910585       4.4131533      50218.233      36.893836      36.893836      36.893836    
   3710000   0.53867612    -7.7266834     -6.9186807      4.3711288      50218.233      36.893836      36.893836      36.893836    
   3720000   0.53968893    -7.727252      -6.9177301      4.3519761      50218.233      36.893836      36.893836      36.893836    
   3730000   0.54198955    -7.7201297     -6.907157       4.4124438      50218.233      36.893836      36.893836      36.893836    
   3740000   0.53618259    -7.721444      -6.9171815      4.4056293      50218.233      36.893836      36.893836      36.893836    
   3750000   0.54258247    -7.7297429     -6.9158807      4.3342271      50218.233      36.893836      36.893836      36.893836    
   3760000   0.54154051    -7.7221555     -6.9098562      4.3997235      50218.233      36.893836      36.893836      36.893836    
   3770000   0.53996893    -7.7248226     -6.9148807      4.3895189      50218.233      36.893836      36.893836      36.893836    
   3780000   0.54006339    -7.7239521     -6.9138685      4.3838085      50218.233      36.893836      36.893836      36.893836    
   3790000   0.5390234     -7.7223158     -6.9137922      4.3956157      50218.233      36.893836      36.893836      36.893836    
   3800000   0.53997494    -7.7311448     -6.921194       4.3267953      50218.233      36.893836      36.893836      36.893836    
   3810000   0.53944459    -7.7256368     -6.9164815      4.3721297      50218.233      36.893836      36.893836      36.893836    
   3820000   0.53719321    -7.7243361     -6.9185578      4.3752463      50218.233      36.893836      36.893836      36.893836    
   3830000   0.53762259    -7.7256299     -6.9192075      4.3680219      50218.233      36.893836      36.893836      36.893836    
   3840000   0.54037391    -7.7261126     -6.9155633      4.3662955      50218.233      36.893836      36.893836      36.893836    
   3850000   0.53781895    -7.7246977     -6.9179807      4.3826787      50218.233      36.893836      36.893836      36.893836    
   3860000   0.53953116    -7.7209686     -6.9116834      4.4095445      50218.233      36.893836      36.893836      36.893836    
   3870000   0.53998816    -7.7299678     -6.9199971      4.3395086      50218.233      36.893836      36.893836      36.893836    
   3880000   0.5433302     -7.7250866     -6.9101029      4.3676479      50218.233      36.893836      36.893836      36.893836    
   3890000   0.54276764    -7.7289785     -6.9148386      4.3484413      50218.233      36.893836      36.893836      36.893836    
   3900000   0.54237772    -7.7254265     -6.9118715      4.3680323      50218.233      36.893836      36.893836      36.893836    
   3910000   0.53974757    -7.7237046     -6.9140947      4.3716645      50218.233      36.893836      36.893836      36.893836    
   3920000   0.54143775    -7.722721      -6.910576       4.3930541      50218.233      36.893836      36.893836      36.893836    
   3930000   0.54127569    -7.7275167     -6.9156147      4.3522814      50218.233      36.893836      36.893836      36.893836    
   3940000   0.54033724    -7.7254125     -6.9149182      4.3681043      50218.233      36.893836      36.893836      36.893836    
   3950000   0.53983779    -7.7238608     -6.9141156      4.3726291      50218.233      36.893836      36.893836      36.893836    
   3960000   0.53989427    -7.7224307     -6.9126008      4.3993244      50218.233      36.893836      36.893836      36.893836    
   3970000   0.54290502    -7.7229658     -6.9086198      4.3902997      50218.233      36.893836      36.893836      36.893836    
   3980000   0.53873348    -7.7146269     -6.9065382      4.4430941      50218.233      36.893836      36.893836      36.893836    
   3990000   0.54018104    -7.7210741     -6.9108141      4.4043987      50218.233      36.893836      36.893836      36.893836    
   4000000   0.54293701    -7.7218391     -6.9074452      4.3975575      50218.233      36.893836      36.893836      36.893836    
   4010000   0.53830818    -7.7229511     -6.9155003      4.382403       50218.233      36.893836      36.893836      36.893836    
   4020000   0.53834015    -7.7175851     -6.9100864      4.4272952      50218.233      36.893836      36.893836      36.893836    
   4030000   0.54033271    -7.7248573     -6.9143698      4.3773396      50218.233      36.893836      36.893836      36.893836    
   4040000   0.53941522    -7.721187      -6.9120757      4.3875209      50218.233      36.893836      36.893836      36.893836    
   4050000   0.53849135    -7.7187126     -6.910987       4.4266077      50218.233      36.893836      36.893836      36.893836    
   4060000   0.54122819    -7.7235895     -6.9117587      4.3815157      50218.233      36.893836      36.893836      36.893836    
   4070000   0.53736113    -7.7226831     -6.9166529      4.3936128      50218.233      36.893836      36.893836      36.893836    
   4080000   0.54140303    -7.7240945     -6.9120015      4.3717133      50218.233      36.893836      36.893836      36.893836    
   4090000   0.54017286    -7.7270743     -6.9168266      4.3664743      50218.233      36.893836      36.893836      36.893836    
   4100000   0.54194584    -7.7266917     -6.9137845      4.3763855      50218.233      36.893836      36.893836      36.893836    
   4110000   0.5367492     -7.7217652     -6.9166528      4.4005808      50218.233      36.893836      36.893836      36.893836    
   4120000   0.53936231    -7.7252133     -6.9161813      4.3694714      50218.233      36.893836      36.893836      36.893836    
   4130000   0.53795506    -7.7279152     -6.9209941      4.3530019      50218.233      36.893836      36.893836      36.893836    
   4140000   0.53995552    -7.7239893     -6.9140675      4.3777728      50218.233      36.893836      36.893836      36.893836    
   4150000   0.54048319    -7.7238193     -6.913106       4.3864435      50218.233      36.893836      36.893836      36.893836    
   4160000   0.53668571    -7.7182698     -6.9132527      4.4133798      50218.233      36.893836      36.893836      36.893836    
   4170000   0.53881799    -7.7247207     -6.9165052      4.3845162      50218.233      36.893836      36.893836      36.893836    
   4180000   0.53929974    -7.7295026     -6.9205645      4.341518       50218.233      36.893836      36.893836      36.893836    
   4190000   0.54101965    -7.7229409     -6.911423       4.3969505      50218.233      36.893836      36.893836      36.893836    
   4200000   0.53982215    -7.7252977     -6.915576       4.3861944      50218.233      36.893836      36.893836      36.893836    
   4210000   0.53780694    -7.7230865     -6.9163875      4.38228        50218.233      36.893836      36.893836      36.893836    
   4220000   0.54167399    -7.7234437     -6.9109442      4.3841873      50218.233      36.893836      36.893836      36.893836    
   4230000   0.53834447    -7.7248797     -6.9173744      4.3786045      50218.233      36.893836      36.893836      36.893836    
   4240000   0.53944184    -7.7228967     -6.9137454      4.3901849      50218.233      36.893836      36.893836      36.893836    
   4250000   0.53902576    -7.7257186     -6.9171915      4.3615765      50218.233      36.893836      36.893836      36.893836    
   4260000   0.5390354     -7.7229527     -6.9144111      4.3826919      50218.233      36.893836      36.893836      36.893836    
   4270000   0.54026917    -7.7245563     -6.914164       4.3680439      50218.233      36.893836      36.893836      36.893836    
   4280000   0.54161557    -7.7248474     -6.9124356      4.3814557      50218.233      36.893836      36.893836      36.893836    
   4290000   0.53901807    -7.7257688     -6.9172532      4.3645047      50218.233      36.893836      36.893836      36.893836    
   4300000   0.5442596     -7.7251018     -6.908724       4.3699306      50218.233      36.893836      36.893836      36.893836    
   4310000   0.53868776    -7.7279576     -6.9199375      4.3475779      50218.233      36.893836      36.893836      36.893836    
   4320000   0.53856945    -7.7209643     -6.9131216      4.3954864      50218.233      36.893836      36.893836      36.893836    
   4330000   0.5395846     -7.720436      -6.9110707      4.4146935      50218.233      36.893836      36.893836      36.893836    
   4340000   0.53950542    -7.7271645     -6.9179179      4.353303       50218.233      36.893836      36.893836      36.893836    
   4350000   0.53814006    -7.7288986     -6.9217         4.3618274      50218.233      36.893836      36.893836      36.893836    
   4360000   0.53888849    -7.7197078     -6.9113866      4.4174826      50218.233      36.893836      36.893836      36.893836    
   4370000   0.53867549    -7.7247522     -6.9167504      4.3764642      50218.233      36.893836      36.893836      36.893836    
   4380000   0.53877481    -7.7223774     -6.9142267      4.3954308      50218.233      36.893836      36.893836      36.893836    
   4390000   0.5404904     -7.723791      -6.9130669      4.3887529      50218.233      36.893836      36.893836      36.893836    
   4400000   0.54161126    -7.7235484     -6.9111431      4.3784585      50218.233      36.893836      36.893836      36.893836    
   4410000   0.5377221     -7.7254451     -6.9188734      4.3748352      50218.233      36.893836      36.893836      36.893836    
   4420000   0.53853906    -7.7258209     -6.9180238      4.3605397      50218.233      36.893836      36.893836      36.893836    
   4430000   0.53910694    -7.7244456     -6.9157966      4.3656804      50218.233      36.893836      36.893836      36.893836    
   4440000   0.54028069    -7.7296191     -6.9192096      4.346839       50218.233      36.893836      36.893836      36.893836    
   4450000   0.53745501    -7.7234517     -6.9172807      4.380571       50218.233      36.893836      36.893836      36.893836    
   4460000   0.53957109    -7.7250279     -6.9156827      4.3726477      50218.233      36.893836      36.893836      36.893836    
   4470000   0.537672      -7.7281103     -6.9216138      4.3581503      50218.233      36.893836      36.893836      36.893836    
   4480000   0.53984014    -7.7275318     -6.9177831      4.3516637      50218.233      36.893836      36.893836      36.893836    
   4490000   0.54260138    -7.7251025     -6.911212       4.3674729      50218.233      36.893836      36.893836      36.893836    
   4500000   0.54125475    -7.7255264     -6.9136558      4.3782049      50218.233      36.893836      36.893836      36.893836    
   4510000   0.53810372    -7.7234283     -6.9162842      4.3861449      50218.233      36.893836      36.893836      36.893836    
   4520000   0.53930228    -7.7291489     -6.920207       4.3349374      50218.233      36.893836      36.893836      36.893836    
   4530000   0.54036374    -7.7236002     -6.9130661      4.3833215      50218.233      36.893836      36.893836      36.893836    
   4540000   0.54047237    -7.7250659     -6.9143689      4.3682089      50218.233      36.893836      36.893836      36.893836    
   4550000   0.54122626    -7.722316      -6.9104881      4.3950571      50218.233      36.893836      36.893836      36.893836    
   4560000   0.53963628    -7.7295404     -6.9200975      4.3405631      50218.233      36.893836      36.893836      36.893836    
   4570000   0.53996808    -7.7215454     -6.9116048      4.4004842      50218.233      36.893836      36.893836      36.893836    
   4580000   0.54252293    -7.7277838     -6.914011       4.3631556      50218.233      36.893836      36.893836      36.893836    
   4590000   0.54108626    -7.7264084     -6.9147905      4.3575412      50218.233      36.893836      36.893836      36.893836    
   4600000   0.53911121    -7.7271726     -6.9185173      4.3542694      50218.233      36.893836      36.893836      36.893836    
   4610000   0.54041891    -7.7262417     -6.9156249      4.3651361      50218.233      36.893836      36.893836      36.893836    
   4620000   0.54037027    -7.7251053     -6.9145614      4.3707285      50218.233      36.893836      36.893836      36.893836    
   4630000   0.53906599    -7.723997      -6.9154095      4.3814338      50218.233      36.893836      36.893836      36.893836    
   4640000   0.53667882    -7.72244       -6.9174332      4.3824692      50218.233      36.893836      36.893836      36.893836    
   4650000   0.53768063    -7.7251695     -6.91866        4.3719687      50218.233      36.893836      36.893836      36.893836    
   4660000   0.54128333    -7.7237029     -6.9117894      4.3801502      50218.233      36.893836      36.893836      36.893836    
   4670000   0.54104968    -7.7296059     -6.9180429      4.341867       50218.233      36.893836      36.893836      36.893836    
   4680000   0.53834592    -7.7271877     -6.9196803      4.3557579      50218.233      36.893836      36.893836      36.893836    
   4690000   0.54313617    -7.7236657     -6.908973       4.394425       50218.233      36.893836      36.893836      36.893836    
   4700000   0.54316884    -7.7261614     -6.9114197      4.3605811      50218.233      36.893836      36.893836      36.893836    
   4710000   0.54116045    -7.7254754     -6.9137462      4.3733056      50218.233      36.893836      36.893836      36.893836    
   4720000   0.53984945    -7.7269892     -6.9172266      4.3736361      50218.233      36.893836      36.893836      36.893836    
   4730000   0.53714973    -7.7248248     -6.9191116      4.3766506      50218.233      36.893836      36.893836      36.893836    
   4740000   0.5416863     -7.7260032     -6.9134853      4.3815342      50218.233      36.893836      36.893836      36.893836    
   4750000   0.54183069    -7.7260279     -6.9132935      4.380385       50218.233      36.893836      36.893836      36.893836    
   4760000   0.54130764    -7.7257489     -6.913799       4.3703959      50218.233      36.893836      36.893836      36.893836    
   4770000   0.54120425    -7.7237548     -6.91196        4.3840891      50218.233      36.893836      36.893836      36.893836    
   4780000   0.54132376    -7.7254463     -6.9134722      4.372598       50218.233      36.893836      36.893836      36.893836    
   4790000   0.54268047    -7.7282729     -6.9142638      4.3490372      50218.233      36.893836      36.893836      36.893836    
   4800000   0.54067516    -7.726406      -6.9154048      4.3600298      50218.233      36.893836      36.893836      36.893836    
   4810000   0.53857367    -7.7280442     -6.9201951      4.3488032      50218.233      36.893836      36.893836      36.893836    
   4820000   0.54228623    -7.7280459     -6.9146281      4.3708025      50218.233      36.893836      36.893836      36.893836    
   4830000   0.5443304     -7.7209827     -6.9044987      4.4173916      50218.233      36.893836      36.893836      36.893836    
   4840000   0.54299236    -7.7303302     -6.9158532      4.3386203      50218.233      36.893836      36.893836      36.893836    
   4850000   0.54006483    -7.7290837     -6.9189979      4.3481298      50218.233      36.893836      36.893836      36.893836    
   4860000   0.54025437    -7.7261935     -6.9158234      4.378003       50218.233      36.893836      36.893836      36.893836    
   4870000   0.53856965    -7.7283253     -6.9204823      4.3504802      50218.233      36.893836      36.893836      36.893836    
   4880000   0.54094856    -7.7283459     -6.9169347      4.35624        50218.233      36.893836      36.893836      36.893836    
   4890000   0.54129535    -7.7271093     -6.9151779      4.3649586      50218.233      36.893836      36.893836      36.893836    
   4900000   0.54051544    -7.730873      -6.9201114      4.3425449      50218.233      36.893836      36.893836      36.893836    
   4910000   0.54057155    -7.7264468     -6.915601       4.3642348      50218.233      36.893836      36.893836      36.893836    
   4920000   0.53830689    -7.7264167     -6.9189679      4.3700372      50218.233      36.893836      36.893836      36.893836    
   4930000   0.54202958    -7.7250128     -6.91198        4.3654569      50218.233      36.893836      36.893836      36.893836    
   4940000   0.53946835    -7.7254415     -6.9162505      4.357467       50218.233      36.893836      36.893836      36.893836    
   4950000   0.53999138    -7.7299029     -6.9199273      4.3423807      50218.233      36.893836      36.893836      36.893836    
   4960000   0.53739677    -7.7284559     -6.9223723      4.351471       50218.233      36.893836      36.893836      36.893836    
   4970000   0.54146837    -7.7296299     -6.9174389      4.340481       50218.233      36.893836      36.893836      36.893836    
   4980000   0.53857097    -7.7281402     -6.9202952      4.3428013      50218.233      36.893836      36.893836      36.893836    
   4990000   0.54390082    -7.7245186     -6.908679       4.3787403      50218.233      36.893836      36.893836      36.893836    
   5000000   0.53778192    -7.7281461     -6.9214847      4.3558118      50218.233      36.893836      36.893836      36.893836    
   5010000   0.54039688    -7.7209458     -6.910362       4.4158288      50218.233      36.893836      36.893836      36.893836    
   5020000   0.53993934    -7.7280748     -6.9181773      4.3509737      50218.233      36.893836      36.893836      36.893836    
   5030000   0.53941079    -7.7272764     -6.9181717      4.3656622      50218.233      36.893836      36.893836      36.893836    
   5040000   0.53968167    -7.721069      -6.911558       4.4070054      50218.233      36.893836      36.893836      36.893836    
   5050000   0.54080545    -7.7269212     -6.9157246      4.3739933      50218.233      36.893836      36.893836      36.893836    
   5060000   0.54265357    -7.7226761     -6.9087073      4.3866617      50218.233      36.893836      36.893836      36.893836    
   5070000   0.54113828    -7.7242719     -6.912576       4.3728337      50218.233      36.893836      36.893836      36.893836    
   5080000   0.54239869    -7.7224035     -6.908817       4.4003399      50218.233      36.893836      36.893836      36.893836    
   5090000   0.53943295    -7.7265134     -6.9173755      4.3673442      50218.233      36.893836      36.893836      36.893836    
   5100000   0.54107375    -7.7262749     -6.9146758      4.3732261      50218.233      36.893836      36.893836      36.893836    
   5110000   0.54130928    -7.7284589     -6.9165065      4.3448653      50218.233      36.893836      36.893836      36.893836    
   5120000   0.54072127    -7.7254857     -6.9144153      4.3704247      50218.233      36.893836      36.893836      36.893836    
   5130000   0.53752675    -7.721447      -6.9151683      4.4000503      50218.233      36.893836      36.893836      36.893836    
   5140000   0.53813394    -7.7253503     -6.9181609      4.3773336      50218.233      36.893836      36.893836      36.893836    
   5150000   0.53996997    -7.7205526     -6.9106092      4.4089826      50218.233      36.893836      36.893836      36.893836    
   5160000   0.53914415    -7.7258589     -6.9171542      4.3707166      50218.233      36.893836      36.893836      36.893836    
   5170000   0.53784205    -7.7286591     -6.9219075      4.3393242      50218.233      36.893836      36.893836      36.893836    
   5180000   0.54072151    -7.7323091     -6.9212384      4.3161972      50218.233      36.893836      36.893836      36.893836    
   5190000   0.54234861    -7.7260067     -6.9124954      4.3710135      50218.233      36.893836      36.893836      36.893836    
   5200000   0.53896319    -7.7322693     -6.923836       4.3179248      50218.233      36.893836      36.893836      36.893836    
   5210000   0.54021018    -7.7271775     -6.9168737      4.3633777      50218.233      36.893836      36.893836      36.893836    
   5220000   0.53969914    -7.7259923     -6.9164551      4.3687872      50218.233      36.893836      36.893836      36.893836    
   5230000   0.53807298    -7.7351464     -6.9280484      4.2912484      50218.233      36.893836      36.893836      36.893836    
   5240000   0.54164209    -7.7286441     -6.9161926      4.3477727      50218.233      36.893836      36.893836      36.893836    
   5250000   0.54089376    -7.7210002     -6.9096711      4.4102611      50218.233      36.893836      36.893836      36.893836    
   5260000   0.53980999    -7.7226196     -6.9129161      4.3934741      50218.233      36.893836      36.893836      36.893836    
   5270000   0.5389054     -7.7243826     -6.916036       4.3761981      50218.233      36.893836      36.893836      36.893836    
   5280000   0.54084584    -7.729872      -6.9186148      4.3483204      50218.233      36.893836      36.893836      36.893836    
   5290000   0.53887978    -7.7293794     -6.9210712      4.3395401      50218.233      36.893836      36.893836      36.893836    
   5300000   0.5403557     -7.727976      -6.9174539      4.3458972      50218.233      36.893836      36.893836      36.893836    
   5310000   0.53880203    -7.727783      -6.9195915      4.3488732      50218.233      36.893836      36.893836      36.893836    
   5320000   0.53873278    -7.7263396     -6.9182519      4.3442875      50218.233      36.893836      36.893836      36.893836    
   5330000   0.54148271    -7.7259771     -6.9137646      4.375115       50218.233      36.893836      36.893836      36.893836    
   5340000   0.53694619    -7.7298432     -6.9244354      4.3217162      50218.233      36.893836      36.893836      36.893836    
   5350000   0.5420248     -7.7255045     -6.9124789      4.3768255      50218.233      36.893836      36.893836      36.893836    
   5360000   0.54187783    -7.7278577     -6.9150525      4.3578178      50218.233      36.893836      36.893836      36.893836    
   5370000   0.54052102    -7.7280051     -6.9172351      4.350027       50218.233      36.893836      36.893836      36.893836    
   5380000   0.54075576    -7.7325227     -6.9214006      4.3207966      50218.233      36.893836      36.893836      36.893836    
   5390000   0.54258816    -7.7282207     -6.91435        4.3496895      50218.233      36.893836      36.893836      36.893836    
   5400000   0.53751004    -7.7241537     -6.9179001      4.3810331      50218.233      36.893836      36.893836      36.893836    
   5410000   0.53923635    -7.7202518     -6.9114088      4.4232537      50218.233      36.893836      36.893836      36.893836    
   5420000   0.54052288    -7.7223149     -6.9115421      4.4010202      50218.233      36.893836      36.893836      36.893836    
   5430000   0.53845605    -7.7301561     -6.9224836      4.3508423      50218.233      36.893836      36.893836      36.893836    
   5440000   0.54335695    -7.7263818     -6.911358       4.3567363      50218.233      36.893836      36.893836      36.893836    
   5450000   0.53789622    -7.7267527     -6.9199198      4.3716432      50218.233      36.893836      36.893836      36.893836    
   5460000   0.54087125    -7.7255311     -6.9142358      4.3727121      50218.233      36.893836      36.893836      36.893836    
   5470000   0.53924751    -7.7241163     -6.9152566      4.3849184      50218.233      36.893836      36.893836      36.893836    
   5480000   0.53721321    -7.7320472     -6.9262389      4.3355184      50218.233      36.893836      36.893836      36.893836    
   5490000   0.54220374    -7.7231944     -6.9099003      4.3946557      50218.233      36.893836      36.893836      36.893836    
   5500000   0.53742041    -7.7249204     -6.9188013      4.3753183      50218.233      36.893836      36.893836      36.893836    
   5510000   0.54037824    -7.7209596     -6.9104038      4.4112731      50218.233      36.893836      36.893836      36.893836    
   5520000   0.53978741    -7.7248936     -6.915224       4.3769696      50218.233      36.893836      36.893836      36.893836    
   5530000   0.54121398    -7.7256103     -6.9138009      4.3845733      50218.233      36.893836      36.893836      36.893836    
   5540000   0.54004634    -7.7274098     -6.9173518      4.3678336      50218.233      36.893836      36.893836      36.893836    
   5550000   0.54040359    -7.7283111     -6.9177173      4.35351        50218.233      36.893836      36.893836      36.893836    
   5560000   0.54184907    -7.7269535     -6.9141915      4.3613051      50218.233      36.893836      36.893836      36.893836    
   5570000   0.53714277    -7.72295       -6.9172473      4.3784012      50218.233      36.893836      36.893836      36.893836    
   5580000   0.5410725     -7.7248514     -6.9132542      4.3718201      50218.233      36.893836      36.893836      36.893836    
   5590000   0.54106823    -7.7258501     -6.9142593      4.3796239      50218.233      36.893836      36.893836      36.893836    
   5600000   0.53914043    -7.7192563     -6.9105572      4.4228781      50218.233      36.893836      36.893836      36.893836    
   5610000   0.54102694    -7.7213499     -6.909821       4.4057694      50218.233      36.893836      36.893836      36.893836    
   5620000   0.53931531    -7.7281151     -6.9191536      4.3432169      50218.233      36.893836      36.893836      36.893836    
   5630000   0.5398461     -7.7213209     -6.9115632      4.3975898      50218.233      36.893836      36.893836      36.893836    
   5640000   0.5417493     -7.7267788     -6.9141664      4.3598599      50218.233      36.893836      36.893836      36.893836    
   5650000   0.5392458     -7.7236689     -6.9148117      4.3885246      50218.233      36.893836      36.893836      36.893836    
   5660000   0.53853591    -7.7260483     -6.918256       4.3699205      50218.233      36.893836      36.893836      36.893836    
   5670000   0.53865885    -7.720751      -6.9127742      4.404828       50218.233      36.893836      36.893836      36.893836    
   5680000   0.54011343    -7.7312247     -6.9210661      4.3348051      50218.233      36.893836      36.893836      36.893836    
   5690000   0.53938519    -7.7292791     -6.9202129      4.348757       50218.233      36.893836      36.893836      36.893836    
   5700000   0.54136384    -7.7220067     -6.9099725      4.3992048      50218.233      36.893836      36.893836      36.893836    
   5710000   0.54056697    -7.7249188     -6.9140798      4.3866037      50218.233      36.893836      36.893836      36.893836    
   5720000   0.54385247    -7.7242234     -6.9084563      4.3860134      50218.233      36.893836      36.893836      36.893836    
   5730000   0.54316274    -7.7297747     -6.9150422      4.3525263      50218.233      36.893836      36.893836      36.893836    
   5740000   0.54260307    -7.7257003     -6.9118073      4.3747052      50218.233      36.893836      36.893836      36.893836    
   5750000   0.53962329    -7.7270518     -6.9176284      4.3692463      50218.233      36.893836      36.893836      36.893836    
   5760000   0.54182458    -7.7191479     -6.9064225      4.4221881      50218.233      36.893836      36.893836      36.893836    
   5770000   0.54180039    -7.7277481     -6.9150591      4.3690411      50218.233      36.893836      36.893836      36.893836    
   5780000   0.53969394    -7.7218076     -6.9122782      4.3956919      50218.233      36.893836      36.893836      36.893836    
   5790000   0.5394387     -7.7255159     -6.9163693      4.3833703      50218.233      36.893836      36.893836      36.893836    
   5800000   0.54145399    -7.7246531     -6.9124837      4.3831838      50218.233      36.893836      36.893836      36.893836    
   5810000   0.54228488    -7.7270606     -6.9136448      4.3734148      50218.233      36.893836      36.893836      36.893836    
   5820000   0.54034518    -7.7304351     -6.9199288      4.3457386      50218.233      36.893836      36.893836      36.893836    
   5830000   0.54064891    -7.7240213     -6.9130594      4.3874317      50218.233      36.893836      36.893836      36.893836    
   5840000   0.54124233    -7.7287511     -6.9168991      4.3571498      50218.233      36.893836      36.893836      36.893836    
   5850000   0.53842312    -7.7252088     -6.9175856      4.375994       50218.233      36.893836      36.893836      36.893836    
   5860000   0.53871586    -7.722652      -6.9145897      4.3974112      50218.233      36.893836      36.893836      36.893836    
   5870000   0.53934634    -7.7237248     -6.9147168      4.3942642      50218.233      36.893836      36.893836      36.893836    
   5880000   0.53834324    -7.7244011     -6.9168977      4.3944908      50218.233      36.893836      36.893836      36.893836    
   5890000   0.54105858    -7.7263096     -6.9147332      4.3681068      50218.233      36.893836      36.893836      36.893836    
   5900000   0.53915906    -7.7255789     -6.9168519      4.3726054      50218.233      36.893836      36.893836      36.893836    
   5910000   0.5384167     -7.7284672     -6.9208537      4.3449755      50218.233      36.893836      36.893836      36.893836    
   5920000   0.54125574    -7.7286501     -6.9167781      4.3694738      50218.233      36.893836      36.893836      36.893836    
   5930000   0.54088809    -7.7239391     -6.9126185      4.3922547      50218.233      36.893836      36.893836      36.893836    
   5940000   0.54241561    -7.7282115     -6.9145997      4.3579786      50218.233      36.893836      36.893836      36.893836    
   5950000   0.53922172    -7.731664      -6.922843       4.3200138      50218.233      36.893836      36.893836      36.893836    
   5960000   0.53789426    -7.7270149     -6.9201849      4.3656978      50218.233      36.893836      36.893836      36.893836    
   5970000   0.54113109    -7.7256262     -6.9139411      4.3740184      50218.233      36.893836      36.893836      36.893836    
   5980000   0.53872533    -7.7273392     -6.9192627      4.3533909      50218.233      36.893836      36.893836      36.893836    
   5990000   0.53917794    -7.7255793     -6.9168239      4.3771602      50218.233      36.893836      36.893836      36.893836    
   6000000   0.53739688    -7.7232694     -6.9171855      4.3848025      50218.233      36.893836      36.893836      36.893836    
   6010000   0.5425815     -7.7273572     -6.9134966      4.3531824      50218.233      36.893836      36.893836      36.893836    
   6020000   0.54341287    -7.7280495     -6.9129418      4.3476417      50218.233      36.893836      36.893836      36.893836    
   6030000   0.53840775    -7.7256046     -6.9180044      4.3618891      50218.233      36.893836      36.893836      36.893836    
   6040000   0.53977358    -7.7290888     -6.9194399      4.345835       50218.233      36.893836      36.893836      36.893836    
   6050000   0.53942726    -7.7238848     -6.9147554      4.3837884      50218.233      36.893836      36.893836      36.893836    
   6060000   0.54201443    -7.723629      -6.9106189      4.3885871      50218.233      36.893836      36.893836      36.893836    
   6070000   0.54023568    -7.7257964     -6.9154544      4.3732437      50218.233      36.893836      36.893836      36.893836    
   6080000   0.53912089    -7.7246624     -6.9159925      4.3752447      50218.233      36.893836      36.893836      36.893836    
   6090000   0.53946263    -7.722648      -6.9134656      4.3962043      50218.233      36.893836      36.893836      36.893836    
   6100000   0.54208218    -7.7241603     -6.9110486      4.3828934      50218.233      36.893836      36.893836      36.893836    
   6110000   0.53930676    -7.7242901     -6.9153414      4.3830621      50218.233      36.893836      36.893836      36.893836    
   6120000   0.54024773    -7.7254236     -6.9150635      4.3732583      50218.233      36.893836      36.893836      36.893836    
   6130000   0.5415332     -7.722643      -6.9103547      4.3925278      50218.233      36.893836      36.893836      36.893836    
   6140000   0.53863091    -7.7244681     -6.9165332      4.3888454      50218.233      36.893836      36.893836      36.893836    
   6150000   0.54047442    -7.7239146     -6.9132145      4.3888848      50218.233      36.893836      36.893836      36.893836    
   6160000   0.54010531    -7.7300696     -6.9199232      4.3445144      50218.233      36.893836      36.893836      36.893836    
   6170000   0.53676462    -7.7279722     -6.9228367      4.3483534      50218.233      36.893836      36.893836      36.893836    
   6180000   0.54056672    -7.7319217     -6.9210831      4.3189202      50218.233      36.893836      36.893836      36.893836    
   6190000   0.53969467    -7.7258783     -6.9163478      4.3814103      50218.233      36.893836      36.893836      36.893836    
   6200000   0.53901083    -7.726103      -6.9175983      4.3653408      50218.233      36.893836      36.893836      36.893836    
   6210000   0.53858465    -7.7309334     -6.9230679      4.329752       50218.233      36.893836      36.893836      36.893836    
   6220000   0.53924637    -7.7241682     -6.9153102      4.3795233      50218.233      36.893836      36.893836      36.893836    
   6230000   0.54002488    -7.7270272     -6.9170014      4.3603312      50218.233      36.893836      36.893836      36.893836    
   6240000   0.54227237    -7.7294644     -6.9160674      4.3467118      50218.233      36.893836      36.893836      36.893836    
   6250000   0.54183873    -7.7266793     -6.9139328      4.3750645      50218.233      36.893836      36.893836      36.893836    
   6260000   0.54127044    -7.7219813     -6.9100871      4.4097903      50218.233      36.893836      36.893836      36.893836    
   6270000   0.54310634    -7.721022      -6.9063741      4.4135501      50218.233      36.893836      36.893836      36.893836    
   6280000   0.53866792    -7.7314333     -6.9234429      4.3311585      50218.233      36.893836      36.893836      36.893836    
   6290000   0.54074242    -7.7274743     -6.9163722      4.356552       50218.233      36.893836      36.893836      36.893836    
   6300000   0.54133045    -7.728568      -6.9165838      4.3575255      50218.233      36.893836      36.893836      36.893836    
   6310000   0.53960597    -7.7263031     -6.9169056      4.3714933      50218.233      36.893836      36.893836      36.893836    
   6320000   0.53687338    -7.7295274     -6.9242288      4.3274378      50218.233      36.893836      36.893836      36.893836    
   6330000   0.53897478    -7.7268714     -6.9184207      4.3706889      50218.233      36.893836      36.893836      36.893836    
   6340000   0.54277297    -7.7266078     -6.91246        4.3704043      50218.233      36.893836      36.893836      36.893836    
   6350000   0.540906      -7.7271321     -6.9157847      4.3588965      50218.233      36.893836      36.893836      36.893836    
   6360000   0.5378331     -7.7256304     -6.9188922      4.3710359      50218.233      36.893836      36.893836      36.893836    
   6370000   0.54308745    -7.7248683     -6.9102487      4.3650011      50218.233      36.893836      36.893836      36.893836    
   6380000   0.54065806    -7.7259445     -6.9149689      4.3707267      50218.233      36.893836      36.893836      36.893836    
   6390000   0.54307298    -7.7234847     -6.9088868      4.3910781      50218.233      36.893836      36.893836      36.893836    
   6400000   0.54294061    -7.7217318     -6.9073325      4.412524       50218.233      36.893836      36.893836      36.893836    
   6410000   0.53931285    -7.7266907     -6.9177329      4.3663616      50218.233      36.893836      36.893836      36.893836    
   6420000   0.53951428    -7.7284103     -6.9191504      4.3584196      50218.233      36.893836      36.893836      36.893836    
   6430000   0.53843174    -7.7294122     -6.9217761      4.3464699      50218.233      36.893836      36.893836      36.893836    
   6440000   0.54034401    -7.7273126     -6.9168081      4.3570637      50218.233      36.893836      36.893836      36.893836    
   6450000   0.53854232    -7.7262106     -6.9184087      4.3624817      50218.233      36.893836      36.893836      36.893836    
   6460000   0.53915936    -7.725979      -6.9172514      4.3642665      50218.233      36.893836      36.893836      36.893836    
   6470000   0.5410586     -7.7277689     -6.9161925      4.3502558      50218.233      36.893836      36.893836      36.893836    
   6480000   0.54013189    -7.7262538     -6.9160675      4.3731408      50218.233      36.893836      36.893836      36.893836    
   6490000   0.53871122    -7.7274489     -6.9193935      4.348675       50218.233      36.893836      36.893836      36.893836    
   6500000   0.53872796    -7.7243051     -6.9162247      4.3845005      50218.233      36.893836      36.893836      36.893836    
   6510000   0.53944992    -7.7296613     -6.920498       4.3436882      50218.233      36.893836      36.893836      36.893836    
   6520000   0.53933584    -7.7234082     -6.914416       4.3853407      50218.233      36.893836      36.893836      36.893836    
   6530000   0.53968233    -7.7324047     -6.9228927      4.3236034      50218.233      36.893836      36.893836      36.893836    
   6540000   0.5397512     -7.7274696     -6.9178543      4.3633167      50218.233      36.893836      36.893836      36.893836    
   6550000   0.54284725    -7.7278798     -6.9136205      4.3606396      50218.233      36.893836      36.893836      36.893836    
   6560000   0.54022469    -7.7269153     -6.9165898      4.3725357      50218.233      36.893836      36.893836      36.893836    
   6570000   0.53956762    -7.7252099     -6.91587        4.3734895      50218.233      36.893836      36.893836      36.893836    
   6580000   0.53865003    -7.719974      -6.9120104      4.42645        50218.233      36.893836      36.893836      36.893836    
   6590000   0.53995339    -7.7253707     -6.9154522      4.3663788      50218.233      36.893836      36.893836      36.893836    
   6600000   0.54161541    -7.7261869     -6.9137753      4.3657318      50218.233      36.893836      36.893836      36.893836    
   6610000   0.53647918    -7.7271892     -6.9224819      4.3404327      50218.233      36.893836      36.893836      36.893836    
   6620000   0.53799726    -7.7248096     -6.9178252      4.3714101      50218.233      36.893836      36.893836      36.893836    
   6630000   0.54039303    -7.7249071     -6.9143291      4.3693974      50218.233      36.893836      36.893836      36.893836    
   6640000   0.54454325    -7.7261986     -6.9093953      4.3703313      50218.233      36.893836      36.893836      36.893836    
   6650000   0.53769356    -7.7249366     -6.9184077      4.3796446      50218.233      36.893836      36.893836      36.893836    
   6660000   0.54021011    -7.7244347     -6.9141311      4.3783584      50218.233      36.893836      36.893836      36.893836    
   6670000   0.54238866    -7.7225119     -6.9089405      4.4058349      50218.233      36.893836      36.893836      36.893836    
   6680000   0.53856336    -7.72712       -6.9192864      4.3561462      50218.233      36.893836      36.893836      36.893836    
   6690000   0.5407279     -7.7250461     -6.9139658      4.3756144      50218.233      36.893836      36.893836      36.893836    
   6700000   0.54321893    -7.7253588     -6.910542       4.3740753      50218.233      36.893836      36.893836      36.893836    
   6710000   0.54258461    -7.728492      -6.9146267      4.3396842      50218.233      36.893836      36.893836      36.893836    
   6720000   0.54013651    -7.7236781     -6.9134849      4.3917887      50218.233      36.893836      36.893836      36.893836    
   6730000   0.53869497    -7.725146      -6.917115       4.3667571      50218.233      36.893836      36.893836      36.893836    
   6740000   0.54188023    -7.7249326     -6.9121238      4.3722114      50218.233      36.893836      36.893836      36.893836    
   6750000   0.54083941    -7.7276143     -6.9163667      4.362053       50218.233      36.893836      36.893836      36.893836    
   6760000   0.539675      -7.7275209     -6.9180199      4.3650449      50218.233      36.893836      36.893836      36.893836    
   6770000   0.54167948    -7.7293328     -6.9168251      4.3510097      50218.233      36.893836      36.893836      36.893836    
   6780000   0.54088197    -7.7248496     -6.9135382      4.3758288      50218.233      36.893836      36.893836      36.893836    
   6790000   0.53796063    -7.7254935     -6.918564       4.3622042      50218.233      36.893836      36.893836      36.893836    
   6800000   0.54134239    -7.7235696     -6.9115676      4.3905448      50218.233      36.893836      36.893836      36.893836    
   6810000   0.53713306    -7.7271594     -6.9214713      4.3633817      50218.233      36.893836      36.893836      36.893836    
   6820000   0.53858779    -7.7231266     -6.9152564      4.3962407      50218.233      36.893836      36.893836      36.893836    
   6830000   0.53997428    -7.7194498     -6.9094999      4.4114253      50218.233      36.893836      36.893836      36.893836    
   6840000   0.5408526     -7.7224292     -6.9111618      4.3810292      50218.233      36.893836      36.893836      36.893836    
   6850000   0.53867578    -7.7250002     -6.916998       4.3813311      50218.233      36.893836      36.893836      36.893836    
   6860000   0.54104496    -7.7235107     -6.9119548      4.3875967      50218.233      36.893836      36.893836      36.893836    
   6870000   0.54105599    -7.7233081     -6.9117357      4.3873413      50218.233      36.893836      36.893836      36.893836    
   6880000   0.54065244    -7.7254763     -6.9145092      4.3813451      50218.233      36.893836      36.893836      36.893836    
   6890000   0.53947902    -7.7252305     -6.9160235      4.3774197      50218.233      36.893836      36.893836      36.893836    
   6900000   0.53747124    -7.7198017     -6.9136063      4.4186176      50218.233      36.893836      36.893836      36.893836    
   6910000   0.54001938    -7.7162542     -6.9062366      4.4395081      50218.233      36.893836      36.893836      36.893836    
   6920000   0.53857093    -7.7183126     -6.9104677      4.438506       50218.233      36.893836      36.893836      36.893836    
   6930000   0.54017252    -7.7239304     -6.9136831      4.3920795      50218.233      36.893836      36.893836      36.893836    
   6940000   0.53879188    -7.7189141     -6.9107377      4.4235032      50218.233      36.893836      36.893836      36.893836    
   6950000   0.54061539    -7.7249552     -6.9140436      4.3682403      50218.233      36.893836      36.893836      36.893836    
   6960000   0.54220973    -7.725262      -6.911959       4.38727        50218.233      36.893836      36.893836      36.893836    
   6970000   0.53994299    -7.7230752     -6.9131723      4.3937296      50218.233      36.893836      36.893836      36.893836    
   6980000   0.53990594    -7.7268685     -6.9170211      4.3566815      50218.233      36.893836      36.893836      36.893836    
   6990000   0.53844081    -7.7248443     -6.9171945      4.3697551      50218.233      36.893836      36.893836      36.893836    
   7000000   0.53888932    -7.7272949     -6.9189724      4.3558869      50218.233      36.893836      36.893836      36.893836    
   7010000   0.53779026    -7.724393      -6.9177191      4.3772613      50218.233      36.893836      36.893836      36.893836    
   7020000   0.54277993    -7.7244551     -6.9102968      4.3803975      50218.233      36.893836      36.893836      36.893836    
   7030000   0.53876435    -7.7255445     -6.9174094      4.3745199      50218.233      36.893836      36.893836      36.893836    
   7040000   0.53929284    -7.7225855     -6.9136578      4.3987838      50218.233      36.893836      36.893836      36.893836    
   7050000   0.54341799    -7.7228638     -6.9077485      4.4012454      50218.233      36.893836      36.893836      36.893836    
   7060000   0.54241391    -7.726503      -6.9128937      4.3669123      50218.233      36.893836      36.893836      36.893836    
   7070000   0.5373868     -7.7273682     -6.9212995      4.362081       50218.233      36.893836      36.893836      36.893836    
   7080000   0.54106356    -7.7245447     -6.9129609      4.3774043      50218.233      36.893836      36.893836      36.893836    
   7090000   0.53915343    -7.7251422     -6.9164236      4.3688521      50218.233      36.893836      36.893836      36.893836    
   7100000   0.53952832    -7.7206494     -6.9113684      4.4159135      50218.233      36.893836      36.893836      36.893836    
   7110000   0.53771434    -7.7237422     -6.9171822      4.3873562      50218.233      36.893836      36.893836      36.893836    
   7120000   0.54064861    -7.7244927     -6.9135313      4.3820142      50218.233      36.893836      36.893836      36.893836    
   7130000   0.54050029    -7.7312178     -6.920479       4.3358981      50218.233      36.893836      36.893836      36.893836    
   7140000   0.53955241    -7.7268067     -6.9174896      4.3640551      50218.233      36.893836      36.893836      36.893836    
   7150000   0.54043647    -7.7277338     -6.9170907      4.3584841      50218.233      36.893836      36.893836      36.893836    
   7160000   0.54108829    -7.7303446     -6.9187237      4.3426978      50218.233      36.893836      36.893836      36.893836    
   7170000   0.53850193    -7.7230381     -6.9152967      4.3692563      50218.233      36.893836      36.893836      36.893836    
   7180000   0.54032704    -7.7247282     -6.9142492      4.3816864      50218.233      36.893836      36.893836      36.893836    
   7190000   0.5401236     -7.7254002     -6.9152263      4.3701206      50218.233      36.893836      36.893836      36.893836    
   7200000   0.53705732    -7.7259042     -6.9203297      4.3593688      50218.233      36.893836      36.893836      36.893836    
   7210000   0.53998282    -7.7247357     -6.914773       4.3801509      50218.233      36.893836      36.893836      36.893836    
   7220000   0.5403573     -7.7234154     -6.912891       4.3964962      50218.233      36.893836      36.893836      36.893836    
   7230000   0.53875279    -7.7249655     -6.9168478      4.3620871      50218.233      36.893836      36.893836      36.893836    
   7240000   0.54049211    -7.7263086     -6.9155819      4.3624575      50218.233      36.893836      36.893836      36.893836    
   7250000   0.53901382    -7.727823      -6.9193138      4.3492548      50218.233      36.893836      36.893836      36.893836    
   7260000   0.53916713    -7.726097      -6.9173578      4.3636193      50218.233      36.893836      36.893836      36.893836    
   7270000   0.53976366    -7.7240283     -6.9143943      4.3775161      50218.233      36.893836      36.893836      36.893836    
   7280000   0.54092886    -7.7319        -6.9205183      4.3214542      50218.233      36.893836      36.893836      36.893836    
   7290000   0.54207687    -7.728139      -6.9150353      4.3640994      50218.233      36.893836      36.893836      36.893836    
   7300000   0.53972513    -7.7276626     -6.9180864      4.3551148      50218.233      36.893836      36.893836      36.893836    
   7310000   0.53806018    -7.7226168     -6.915538       4.3785261      50218.233      36.893836      36.893836      36.893836    
   7320000   0.54100107    -7.7282924     -6.9168024      4.3558288      50218.233      36.893836      36.893836      36.893836    
   7330000   0.54099597    -7.7268581     -6.9153757      4.3515476      50218.233      36.893836      36.893836      36.893836    
   7340000   0.53828841    -7.7224827     -6.9150615      4.3912897      50218.233      36.893836      36.893836      36.893836    
   7350000   0.53854747    -7.7298974     -6.9220877      4.3435313      50218.233      36.893836      36.893836      36.893836    
   7360000   0.54433       -7.7246891     -6.9082058      4.3934026      50218.233      36.893836      36.893836      36.893836    
   7370000   0.53996558    -7.7268373     -6.9169004      4.3714416      50218.233      36.893836      36.893836      36.893836    
   7380000   0.53680586    -7.7260457     -6.9208484      4.3740832      50218.233      36.893836      36.893836      36.893836    
   7390000   0.540431      -7.7219709     -6.911336       4.4063497      50218.233      36.893836      36.893836      36.893836    
   7400000   0.54126608    -7.7232108     -6.9113233      4.393562       50218.233      36.893836      36.893836      36.893836    
   7410000   0.53899799    -7.7193766     -6.9108911      4.4150231      50218.233      36.893836      36.893836      36.893836    
   7420000   0.54126068    -7.7272805     -6.915401       4.3649242      50218.233      36.893836      36.893836      36.893836    
   7430000   0.54025548    -7.7232781     -6.9129064      4.3993707      50218.233      36.893836      36.893836      36.893836    
   7440000   0.54173896    -7.7265891     -6.9139922      4.371855       50218.233      36.893836      36.893836      36.893836    
   7450000   0.53907184    -7.7273846     -6.9187883      4.3641853      50218.233      36.893836      36.893836      36.893836    
   7460000   0.5398346     -7.7269249     -6.9171845      4.370364       50218.233      36.893836      36.893836      36.893836    
   7470000   0.53920617    -7.7252451     -6.9164473      4.3758239      50218.233      36.893836      36.893836      36.893836    
   7480000   0.53728534    -7.7249455     -6.919029       4.3801983      50218.233      36.893836      36.893836      36.893836    
   7490000   0.54084468    -7.7256925     -6.914437       4.3962296      50218.233      36.893836      36.893836      36.893836    
   7500000   0.53804154    -7.7260174     -6.9189666      4.3779303      50218.233      36.893836      36.893836      36.893836    
   7510000   0.53821637    -7.7210233     -6.9137103      4.3999631      50218.233      36.893836      36.893836      36.893836    
   7520000   0.5446489     -7.7305511     -6.9135893      4.3491079      50218.233      36.893836      36.893836      36.893836    
   7530000   0.5431445     -7.7311103     -6.9164051      4.3412208      50218.233      36.893836      36.893836      36.893836    
   7540000   0.53869817    -7.7267247     -6.918689       4.3619623      50218.233      36.893836      36.893836      36.893836    
   7550000   0.53915216    -7.726415      -6.9176983      4.3759669      50218.233      36.893836      36.893836      36.893836    
   7560000   0.53978119    -7.7258257     -6.9161654      4.3668233      50218.233      36.893836      36.893836      36.893836    
   7570000   0.54031433    -7.7242289     -6.9137689      4.3855035      50218.233      36.893836      36.893836      36.893836    
   7580000   0.53898561    -7.722602      -6.9141351      4.3830668      50218.233      36.893836      36.893836      36.893836    
   7590000   0.53867783    -7.7298047     -6.9217995      4.3324169      50218.233      36.893836      36.893836      36.893836    
   7600000   0.54222393    -7.7264327     -6.9131084      4.3618997      50218.233      36.893836      36.893836      36.893836    
   7610000   0.53860628    -7.7273671     -6.9194692      4.3497414      50218.233      36.893836      36.893836      36.893836    
   7620000   0.54088876    -7.7278098     -6.9164882      4.3638424      50218.233      36.893836      36.893836      36.893836    
   7630000   0.53834052    -7.7282436     -6.9207443      4.3586552      50218.233      36.893836      36.893836      36.893836    
   7640000   0.53849025    -7.7256492     -6.9179253      4.3817309      50218.233      36.893836      36.893836      36.893836    
   7650000   0.53903422    -7.7243836     -6.9158438      4.3924967      50218.233      36.893836      36.893836      36.893836    
   7660000   0.54106155    -7.7204537     -6.9088729      4.4253605      50218.233      36.893836      36.893836      36.893836    
   7670000   0.5396068     -7.723561      -6.9141624      4.3874656      50218.233      36.893836      36.893836      36.893836    
   7680000   0.5397433     -7.7330707     -6.9234672      4.3209446      50218.233      36.893836      36.893836      36.893836    
   7690000   0.53841396    -7.7263604     -6.918751       4.377709       50218.233      36.893836      36.893836      36.893836    
   7700000   0.53845751    -7.7247677     -6.9170929      4.4020514      50218.233      36.893836      36.893836      36.893836    
   7710000   0.54038675    -7.7284044     -6.9178358      4.3593125      50218.233      36.893836      36.893836      36.893836    
   7720000   0.53900827    -7.7286703     -6.9201694      4.3487937      50218.233      36.893836      36.893836      36.893836    
   7730000   0.5424303     -7.7254008     -6.9117669      4.3774275      50218.233      36.893836      36.893836      36.893836    
   7740000   0.54070685    -7.7303297     -6.919281       4.341229       50218.233      36.893836      36.893836      36.893836    
   7750000   0.53944537    -7.7303596     -6.921203       4.3392753      50218.233      36.893836      36.893836      36.893836    
   7760000   0.54126362    -7.7263544     -6.9144705      4.3784708      50218.233      36.893836      36.893836      36.893836    
   7770000   0.54065179    -7.7297547     -6.9187886      4.3455185      50218.233      36.893836      36.893836      36.893836    
   7780000   0.54216625    -7.7263965     -6.9131587      4.3643172      50218.233      36.893836      36.893836      36.893836    
   7790000   0.53672124    -7.7303077     -6.9252372      4.3423354      50218.233      36.893836      36.893836      36.893836    
   7800000   0.54090405    -7.7298107     -6.9184662      4.3384006      50218.233      36.893836      36.893836      36.893836    
   7810000   0.54072055    -7.7300065     -6.9189372      4.3411234      50218.233      36.893836      36.893836      36.893836    
   7820000   0.53726628    -7.7321474     -6.9262595      4.3123305      50218.233      36.893836      36.893836      36.893836    
   7830000   0.54100165    -7.7249757     -6.9134847      4.3836447      50218.233      36.893836      36.893836      36.893836    
   7840000   0.53647185    -7.7278232     -6.9231269      4.3504043      50218.233      36.893836      36.893836      36.893836    
   7850000   0.537247      -7.7255426     -6.9196835      4.3778563      50218.233      36.893836      36.893836      36.893836    
   7860000   0.53908458    -7.7278669     -6.9192516      4.3556708      50218.233      36.893836      36.893836      36.893836    
   7870000   0.53972165    -7.7209416     -6.9113706      4.404503       50218.233      36.893836      36.893836      36.893836    
   7880000   0.53941077    -7.7238722     -6.9147675      4.382296       50218.233      36.893836      36.893836      36.893836    
   7890000   0.54070583    -7.727195      -6.9161478      4.3572133      50218.233      36.893836      36.893836      36.893836    
   7900000   0.5406698     -7.7198618     -6.9088687      4.4133704      50218.233      36.893836      36.893836      36.893836    
   7910000   0.54064928    -7.7265407     -6.9155783      4.3758151      50218.233      36.893836      36.893836      36.893836    
   7920000   0.53909559    -7.7247731     -6.9161412      4.3871529      50218.233      36.893836      36.893836      36.893836    
   7930000   0.53950118    -7.7227794     -6.9135392      4.3942723      50218.233      36.893836      36.893836      36.893836    
   7940000   0.54319282    -7.7187514     -6.9039738      4.432513       50218.233      36.893836      36.893836      36.893836    
   7950000   0.5365418     -7.7315134     -6.9267121      4.3280636      50218.233      36.893836      36.893836      36.893836    
   7960000   0.53821407    -7.7282071     -6.9208975      4.3627198      50218.233      36.893836      36.893836      36.893836    
   7970000   0.54014759    -7.723455      -6.9132451      4.3776087      50218.233      36.893836      36.893836      36.893836    
   7980000   0.53765391    -7.7255817     -6.9191123      4.3705241      50218.233      36.893836      36.893836      36.893836    
   7990000   0.5389759     -7.7253407     -6.9168883      4.3821671      50218.233      36.893836      36.893836      36.893836    
   8000000   0.5395785     -7.7298418     -6.9204855      4.3361394      50218.233      36.893836      36.893836      36.893836    
   8010000   0.54073418    -7.7236758     -6.9125861      4.3925256      50218.233      36.893836      36.893836      36.893836    
   8020000   0.54190158    -7.7258646     -6.9130238      4.3716127      50218.233      36.893836      36.893836      36.893836    
   8030000   0.54192031    -7.7314076     -6.9185387      4.334913       50218.233      36.893836      36.893836      36.893836    
   8040000   0.54246076    -7.7283185     -6.914639       4.3489017      50218.233      36.893836      36.893836      36.893836    
   8050000   0.53947349    -7.7306949     -6.9214961      4.3205862      50218.233      36.893836      36.893836      36.893836    
   8060000   0.54049106    -7.7293328     -6.9186077      4.3318096      50218.233      36.893836      36.893836      36.893836    
   8070000   0.53952776    -7.7234692     -6.9141891      4.3900748      50218.233      36.893836      36.893836      36.893836    
   8080000   0.53869631    -7.7294023     -6.9213693      4.3455557      50218.233      36.893836      36.893836      36.893836    
   8090000   0.53760225    -7.7225784     -6.9161865      4.384086       50218.233      36.893836      36.893836      36.893836    
   8100000   0.54020128    -7.7224724     -6.912182       4.3917969      50218.233      36.893836      36.893836      36.893836    
   8110000   0.54212636    -7.7277352     -6.9145572      4.3523367      50218.233      36.893836      36.893836      36.893836    
   8120000   0.54160227    -7.7253285     -6.9129366      4.3739261      50218.233      36.893836      36.893836      36.893836    
   8130000   0.53973804    -7.7221836     -6.9125881      4.3989424      50218.233      36.893836      36.893836      36.893836    
   8140000   0.54069482    -7.7289858     -6.9179551      4.3471043      50218.233      36.893836      36.893836      36.893836    
   8150000   0.54019316    -7.7264305     -6.9161523      4.3695322      50218.233      36.893836      36.893836      36.893836    
   8160000   0.54279701    -7.7279087     -6.9137247      4.3693106      50218.233      36.893836      36.893836      36.893836    
   8170000   0.54046579    -7.7228251     -6.9121379      4.4052107      50218.233      36.893836      36.893836      36.893836    
   8180000   0.54251984    -7.725795      -6.9120268      4.3777564      50218.233      36.893836      36.893836      36.893836    
   8190000   0.54164989    -7.7283917     -6.9159284      4.35836        50218.233      36.893836      36.893836      36.893836    
   8200000   0.54049002    -7.7267178     -6.9159943      4.3673834      50218.233      36.893836      36.893836      36.893836    
   8210000   0.54047687    -7.7255614     -6.9148576      4.3657264      50218.233      36.893836      36.893836      36.893836    
   8220000   0.53848778    -7.7285793     -6.9208591      4.3470122      50218.233      36.893836      36.893836      36.893836    
   8230000   0.53984221    -7.7259749     -6.9162231      4.3633391      50218.233      36.893836      36.893836      36.893836    
   8240000   0.54172317    -7.7289859     -6.9164127      4.3530321      50218.233      36.893836      36.893836      36.893836    
   8250000   0.54046697    -7.7313656     -6.9206767      4.323271       50218.233      36.893836      36.893836      36.893836    
   8260000   0.53631062    -7.7275192     -6.9230647      4.363311       50218.233      36.893836      36.893836      36.893836    
   8270000   0.54102324    -7.7277914     -6.916268       4.369344       50218.233      36.893836      36.893836      36.893836    
   8280000   0.53820797    -7.7283372     -6.9210367      4.3502957      50218.233      36.893836      36.893836      36.893836    
   8290000   0.53764955    -7.7269282     -6.9204653      4.3601644      50218.233      36.893836      36.893836      36.893836    
   8300000   0.53991267    -7.7281201     -6.9182626      4.3457248      50218.233      36.893836      36.893836      36.893836    
   8310000   0.54248183    -7.7262054     -6.9124943      4.3644125      50218.233      36.893836      36.893836      36.893836    
   8320000   0.54307231    -7.7272968     -6.9126999      4.3695042      50218.233      36.893836      36.893836      36.893836    
   8330000   0.54360459    -7.7247254     -6.9093301      4.3873419      50218.233      36.893836      36.893836      36.893836    
   8340000   0.54183663    -7.7276549     -6.9149115      4.3639635      50218.233      36.893836      36.893836      36.893836    
   8350000   0.53964107    -7.724695      -6.9152449      4.3727777      50218.233      36.893836      36.893836      36.893836    
   8360000   0.53926917    -7.7232246     -6.9143324      4.393212       50218.233      36.893836      36.893836      36.893836    
   8370000   0.53908573    -7.7271799     -6.9185628      4.3646614      50218.233      36.893836      36.893836      36.893836    
   8380000   0.54112521    -7.722611      -6.9109347      4.4062576      50218.233      36.893836      36.893836      36.893836    
   8390000   0.54268428    -7.7254332     -6.9114184      4.3686859      50218.233      36.893836      36.893836      36.893836    
   8400000   0.5409327     -7.7248438     -6.9134563      4.3671763      50218.233      36.893836      36.893836      36.893836    
   8410000   0.53831547    -7.7200001     -6.9125384      4.4007678      50218.233      36.893836      36.893836      36.893836    
   8420000   0.53698572    -7.728738      -6.9232709      4.3432142      50218.233      36.893836      36.893836      36.893836    
   8430000   0.53849207    -7.7229508     -6.9152242      4.3927982      50218.233      36.893836      36.893836      36.893836    
   8440000   0.53910208    -7.7218894     -6.9132477      4.4017131      50218.233      36.893836      36.893836      36.893836    
   8450000   0.54079237    -7.7207903     -6.9096133      4.4125295      50218.233      36.893836      36.893836      36.893836    
   8460000   0.53858423    -7.724777      -6.9169121      4.3765158      50218.233      36.893836      36.893836      36.893836    
   8470000   0.54293342    -7.7241615     -6.9097729      4.3830981      50218.233      36.893836      36.893836      36.893836    
   8480000   0.53835107    -7.7234743     -6.9159591      4.3899014      50218.233      36.893836      36.893836      36.893836    
   8490000   0.53904045    -7.7222562     -6.913707       4.4018205      50218.233      36.893836      36.893836      36.893836    
   8500000   0.53701957    -7.7182488     -6.9127309      4.4261941      50218.233      36.893836      36.893836      36.893836    
   8510000   0.53792917    -7.7227478     -6.9158655      4.3853063      50218.233      36.893836      36.893836      36.893836    
   8520000   0.54098592    -7.7234317     -6.9119643      4.3868508      50218.233      36.893836      36.893836      36.893836    
   8530000   0.53744122    -7.7236839     -6.9175336      4.3693977      50218.233      36.893836      36.893836      36.893836    
   8540000   0.54124468    -7.7229579     -6.9111024      4.3916476      50218.233      36.893836      36.893836      36.893836    
   8550000   0.54004708    -7.7237554     -6.9136963      4.388417       50218.233      36.893836      36.893836      36.893836    
   8560000   0.54043256    -7.7180959     -6.9074586      4.4333473      50218.233      36.893836      36.893836      36.893836    
   8570000   0.53828105    -7.7248047     -6.9173946      4.376184       50218.233      36.893836      36.893836      36.893836    
   8580000   0.54059255    -7.7223893     -6.911512       4.3888068      50218.233      36.893836      36.893836      36.893836    
   8590000   0.54117644    -7.7219526     -6.9101995      4.4035141      50218.233      36.893836      36.893836      36.893836    
   8600000   0.54022346    -7.7209529     -6.9106292      4.3963632      50218.233      36.893836      36.893836      36.893836    
   8610000   0.53983448    -7.7258611     -6.9161209      4.3703378      50218.233      36.893836      36.893836      36.893836    
   8620000   0.54307082    -7.7205649     -6.9059702      4.4102566      50218.233      36.893836      36.893836      36.893836    
   8630000   0.53821192    -7.7277773     -6.9204709      4.3560969      50218.233      36.893836      36.893836      36.893836    
   8640000   0.54117308    -7.727686      -6.915938       4.3684831      50218.233      36.893836      36.893836      36.893836    
   8650000   0.53976078    -7.7233274     -6.9136977      4.3891546      50218.233      36.893836      36.893836      36.893836    
   8660000   0.54097614    -7.7200756     -6.9086229      4.4135001      50218.233      36.893836      36.893836      36.893836    
   8670000   0.53716086    -7.7233412     -6.9176114      4.3811449      50218.233      36.893836      36.893836      36.893836    
   8680000   0.53964425    -7.7204447     -6.9109899      4.4178936      50218.233      36.893836      36.893836      36.893836    
   8690000   0.54240399    -7.7243711     -6.9107767      4.3785974      50218.233      36.893836      36.893836      36.893836    
   8700000   0.53880611    -7.7160523     -6.9078547      4.4471559      50218.233      36.893836      36.893836      36.893836    
   8710000   0.54118399    -7.7254696     -6.9137052      4.3749925      50218.233      36.893836      36.893836      36.893836    
   8720000   0.53976372    -7.7271337     -6.9174997      4.3635102      50218.233      36.893836      36.893836      36.893836    
   8730000   0.53959       -7.7255506     -6.9161771      4.3726458      50218.233      36.893836      36.893836      36.893836    
   8740000   0.53707093    -7.7294132     -6.9238183      4.3576961      50218.233      36.893836      36.893836      36.893836    
   8750000   0.54125639    -7.7214793     -6.9096063      4.4036969      50218.233      36.893836      36.893836      36.893836    
   8760000   0.54333259    -7.7288433     -6.913856       4.3633887      50218.233      36.893836      36.893836      36.893836    
   8770000   0.53946375    -7.7216759     -6.9124918      4.3898759      50218.233      36.893836      36.893836      36.893836    
   8780000   0.54067372    -7.7244632     -6.9134641      4.3697503      50218.233      36.893836      36.893836      36.893836    
   8790000   0.53983173    -7.7259689     -6.9162328      4.3758575      50218.233      36.893836      36.893836      36.893836    
   8800000   0.53854483    -7.7261354     -6.9183297      4.3694764      50218.233      36.893836      36.893836      36.893836    
   8810000   0.54316165    -7.7263666     -6.9116357      4.3691928      50218.233      36.893836      36.893836      36.893836    
   8820000   0.54294048    -7.7216839     -6.9072848      4.4096944      50218.233      36.893836      36.893836      36.893836    
   8830000   0.54050261    -7.7246207     -6.9138784      4.3624817      50218.233      36.893836      36.893836      36.893836    
   8840000   0.53679522    -7.7254348     -6.9202534      4.3676426      50218.233      36.893836      36.893836      36.893836    
   8850000   0.53975079    -7.7256687     -6.916054       4.3817821      50218.233      36.893836      36.893836      36.893836    
   8860000   0.54025477    -7.7220334     -6.9116628      4.3936129      50218.233      36.893836      36.893836      36.893836    
   8870000   0.5374929     -7.7240499     -6.917822       4.3843307      50218.233      36.893836      36.893836      36.893836    
   8880000   0.53993316    -7.7238314     -6.9139432      4.3840519      50218.233      36.893836      36.893836      36.893836    
   8890000   0.54068533    -7.7263624     -6.915346       4.3887179      50218.233      36.893836      36.893836      36.893836    
   8900000   0.54038155    -7.7271844     -6.9166236      4.3630563      50218.233      36.893836      36.893836      36.893836    
   8910000   0.53839047    -7.7265073     -6.9189331      4.3632064      50218.233      36.893836      36.893836      36.893836    
   8920000   0.54303832    -7.7221445     -6.9075986      4.4046298      50218.233      36.893836      36.893836      36.893836    
   8930000   0.5407432     -7.7222263     -6.9111231      4.3921775      50218.233      36.893836      36.893836      36.893836    
   8940000   0.54017796    -7.726825      -6.9165696      4.3697716      50218.233      36.893836      36.893836      36.893836    
   8950000   0.5416165     -7.7248331     -6.9124199      4.3806629      50218.233      36.893836      36.893836      36.893836    
   8960000   0.54231742    -7.7309123     -6.9174478      4.3288565      50218.233      36.893836      36.893836      36.893836    
   8970000   0.53903455    -7.7245808     -6.9160405      4.3835278      50218.233      36.893836      36.893836      36.893836    
   8980000   0.54076151    -7.7260165     -6.9148858      4.3721603      50218.233      36.893836      36.893836      36.893836    
   8990000   0.54241182    -7.72227       -6.9086638      4.3876965      50218.233      36.893836      36.893836      36.893836    
   9000000   0.53913102    -7.7216553     -6.9129703      4.3948981      50218.233      36.893836      36.893836      36.893836    
   9010000   0.53762539    -7.7270337     -6.920607       4.3528769      50218.233      36.893836      36.893836      36.893836    
   9020000   0.54078859    -7.724337      -6.9131657      4.4004289      50218.233      36.893836      36.893836      36.893836    
   9030000   0.53858691    -7.7201838     -6.912315       4.4105468      50218.233      36.893836      36.893836      36.893836    
   9040000   0.54073148    -7.7233832     -6.9122975      4.3751221      50218.233      36.893836      36.893836      36.893836    
   9050000   0.54021527    -7.7223757     -6.9120643      4.3919326      50218.233      36.893836      36.893836      36.893836    
   9060000   0.54033651    -7.7237481     -6.9132548      4.3872703      50218.233      36.893836      36.893836      36.893836    
   9070000   0.53742693    -7.7210888     -6.9149598      4.3968094      50218.233      36.893836      36.893836      36.893836    
   9080000   0.54050238    -7.7245673     -6.9138252      4.3825545      50218.233      36.893836      36.893836      36.893836    
   9090000   0.53814039    -7.7221318     -6.9149327      4.3939696      50218.233      36.893836      36.893836      36.893836    
   9100000   0.53867069    -7.7254491     -6.9174546      4.3634858      50218.233      36.893836      36.893836      36.893836    
   9110000   0.54068122    -7.7192547     -6.9082444      4.4052069      50218.233      36.893836      36.893836      36.893836    
   9120000   0.54182642    -7.7212629     -6.9085349      4.4135999      50218.233      36.893836      36.893836      36.893836    
   9130000   0.5381496     -7.722306      -6.9150931      4.3898593      50218.233      36.893836      36.893836      36.893836    
   9140000   0.53984251    -7.7256012     -6.9158489      4.3807605      50218.233      36.893836      36.893836      36.893836    
   9150000   0.5416913     -7.7258469     -6.9133215      4.3822055      50218.233      36.893836      36.893836      36.893836    
   9160000   0.53854403    -7.7221529     -6.9143483      4.409801       50218.233      36.893836      36.893836      36.893836    
   9170000   0.53765222    -7.7243036     -6.9178368      4.3888239      50218.233      36.893836      36.893836      36.893836    
   9180000   0.53857353    -7.722223      -6.9143742      4.3877292      50218.233      36.893836      36.893836      36.893836    
   9190000   0.5414362     -7.7264676     -6.9143248      4.3821654      50218.233      36.893836      36.893836      36.893836    
   9200000   0.54090144    -7.723612      -6.9122713      4.3883913      50218.233      36.893836      36.893836      36.893836    
   9210000   0.54188972    -7.7225164     -6.9096934      4.3940072      50218.233      36.893836      36.893836      36.893836    
   9220000   0.54030844    -7.720987      -6.9105358      4.412698       50218.233      36.893836      36.893836      36.893836    
   9230000   0.53903814    -7.7270792     -6.9185335      4.3601748      50218.233      36.893836      36.893836      36.893836    
   9240000   0.53981452    -7.7195341     -6.9098238      4.4166995      50218.233      36.893836      36.893836      36.893836    
   9250000   0.541227      -7.72242       -6.9105911      4.4059509      50218.233      36.893836      36.893836      36.893836    
   9260000   0.53892121    -7.7237741     -6.9154038      4.3873682      50218.233      36.893836      36.893836      36.893836    
   9270000   0.53981451    -7.7225475     -6.9128372      4.3923029      50218.233      36.893836      36.893836      36.893836    
   9280000   0.53997496    -7.72746       -6.9175091      4.3622175      50218.233      36.893836      36.893836      36.893836    
   9290000   0.54135008    -7.724985      -6.9129715      4.3762391      50218.233      36.893836      36.893836      36.893836    
   9300000   0.53919669    -7.7280372     -6.9192537      4.3456045      50218.233      36.893836      36.893836      36.893836    
   9310000   0.54060313    -7.7251724     -6.9142792      4.3683535      50218.233      36.893836      36.893836      36.893836    
   9320000   0.54214036    -7.7256706     -6.9124717      4.3686402      50218.233      36.893836      36.893836      36.893836    
   9330000   0.5398389     -7.7281622     -6.9184154      4.3469107      50218.233      36.893836      36.893836      36.893836    
   9340000   0.54105093    -7.7264195     -6.9148547      4.3635862      50218.233      36.893836      36.893836      36.893836    
   9350000   0.53856112    -7.7300318     -6.9222016      4.3329235      50218.233      36.893836      36.893836      36.893836    
   9360000   0.53948847    -7.7273602     -6.918139       4.3662972      50218.233      36.893836      36.893836      36.893836    
   9370000   0.53856143    -7.7246501     -6.9168194      4.3885403      50218.233      36.893836      36.893836      36.893836    
   9380000   0.53542915    -7.7245438     -6.9214115      4.3789476      50218.233      36.893836      36.893836      36.893836    
   9390000   0.53917934    -7.7250735     -6.916316       4.3818963      50218.233      36.893836      36.893836      36.893836    
   9400000   0.54309549    -7.7239834     -6.9093517      4.396966       50218.233      36.893836      36.893836      36.893836    
   9410000   0.54050533    -7.7278278     -6.9170813      4.3591006      50218.233      36.893836      36.893836      36.893836    
   9420000   0.54225316    -7.7260895     -6.9127213      4.3722433      50218.233      36.893836      36.893836      36.893836    
   9430000   0.53760936    -7.7275993     -6.9211967      4.3599027      50218.233      36.893836      36.893836      36.893836    
   9440000   0.5392973     -7.730272      -6.9213375      4.3522652      50218.233      36.893836      36.893836      36.893836    
   9450000   0.53749479    -7.7258836     -6.9196529      4.3707728      50218.233      36.893836      36.893836      36.893836    
   9460000   0.5406974     -7.7258147     -6.9147801      4.3730098      50218.233      36.893836      36.893836      36.893836    
   9470000   0.54242024    -7.7258026     -6.9121838      4.3755081      50218.233      36.893836      36.893836      36.893836    
   9480000   0.5389488     -7.7230583     -6.9146466      4.3962507      50218.233      36.893836      36.893836      36.893836    
   9490000   0.53923734    -7.7290773     -6.9202328      4.3546064      50218.233      36.893836      36.893836      36.893836    
   9500000   0.53756021    -7.7219263     -6.9155975      4.4049825      50218.233      36.893836      36.893836      36.893836    
   9510000   0.54144373    -7.7238884     -6.9117344      4.3854742      50218.233      36.893836      36.893836      36.893836    
   9520000   0.54219184    -7.7268606     -6.9135844      4.3636984      50218.233      36.893836      36.893836      36.893836    
   9530000   0.54083661    -7.7250557     -6.9138123      4.3794546      50218.233      36.893836      36.893836      36.893836    
   9540000   0.54034198    -7.7189026     -6.9084012      4.4166509      50218.233      36.893836      36.893836      36.893836    
   9550000   0.53922827    -7.7222712     -6.9134403      4.3936023      50218.233      36.893836      36.893836      36.893836    
   9560000   0.54266942    -7.724597      -6.9106044      4.3846266      50218.233      36.893836      36.893836      36.893836    
   9570000   0.54043913    -7.7278164     -6.9171692      4.3633178      50218.233      36.893836      36.893836      36.893836    
   9580000   0.54090395    -7.7262447     -6.9149004      4.3836842      50218.233      36.893836      36.893836      36.893836    
   9590000   0.54156772    -7.7233828     -6.9110428      4.394596       50218.233      36.893836      36.893836      36.893836    
   9600000   0.53852368    -7.7237511     -6.9159771      4.3816527      50218.233      36.893836      36.893836      36.893836    
   9610000   0.53882099    -7.7238816     -6.9156616      4.3786898      50218.233      36.893836      36.893836      36.893836    
   9620000   0.53937963    -7.7255692     -6.9165112      4.3649558      50218.233      36.893836      36.893836      36.893836    
   9630000   0.53800606    -7.7218672     -6.9148696      4.402542       50218.233      36.893836      36.893836      36.893836    
   9640000   0.53968758    -7.7228015     -6.9132816      4.3957791      50218.233      36.893836      36.893836      36.893836    
   9650000   0.53934805    -7.7224603     -6.9134498      4.4035591      50218.233      36.893836      36.893836      36.893836    
   9660000   0.53941262    -7.7257967     -6.9166892      4.3723432      50218.233      36.893836      36.893836      36.893836    
   9670000   0.53823969    -7.7201731     -6.9128251      4.4091395      50218.233      36.893836      36.893836      36.893836    
   9680000   0.54128008    -7.7223927     -6.9104841      4.4046792      50218.233      36.893836      36.893836      36.893836    
   9690000   0.54320988    -7.7219173     -6.9071141      4.4024934      50218.233      36.893836      36.893836      36.893836    
   9700000   0.54038731    -7.7243069     -6.9137375      4.3759089      50218.233      36.893836      36.893836      36.893836    
   9710000   0.53825751    -7.7255998     -6.9182251      4.3745695      50218.233      36.893836      36.893836      36.893836    
   9720000   0.5390678     -7.7220625     -6.9134723      4.4005683      50218.233      36.893836      36.893836      36.893836    
   9730000   0.54109312    -7.7249516     -6.9133234      4.3753048      50218.233      36.893836      36.893836      36.893836    
   9740000   0.54058743    -7.7222288     -6.9113591      4.3802749      50218.233      36.893836      36.893836      36.893836    
   9750000   0.5379796     -7.7176803     -6.9107224      4.4203851      50218.233      36.893836      36.893836      36.893836    
   9760000   0.54012036    -7.7221596     -6.9119905      4.3924597      50218.233      36.893836      36.893836      36.893836    
   9770000   0.53642664    -7.7258571     -6.9212285      4.3653462      50218.233      36.893836      36.893836      36.893836    
   9780000   0.53996604    -7.7230559     -6.9131184      4.3837374      50218.233      36.893836      36.893836      36.893836    
   9790000   0.53858803    -7.7248113     -6.9169408      4.3872587      50218.233      36.893836      36.893836      36.893836    
   9800000   0.54166692    -7.7249431     -6.9124542      4.3832246      50218.233      36.893836      36.893836      36.893836    
   9810000   0.54155017    -7.723827      -6.9115133      4.3947143      50218.233      36.893836      36.893836      36.893836    
   9820000   0.54053707    -7.7218017     -6.9110076      4.4014771      50218.233      36.893836      36.893836      36.893836    
   9830000   0.5409399     -7.7210514     -6.9096531      4.4060108      50218.233      36.893836      36.893836      36.893836    
   9840000   0.5389089     -7.7237164     -6.9153646      4.3801723      50218.233      36.893836      36.893836      36.893836    
   9850000   0.53885741    -7.7238247     -6.9155501      4.3826905      50218.233      36.893836      36.893836      36.893836    
   9860000   0.54123813    -7.7263579     -6.9145122      4.3598853      50218.233      36.893836      36.893836      36.893836    
   9870000   0.53860276    -7.7242314     -6.9163387      4.3687101      50218.233      36.893836      36.893836      36.893836    
   9880000   0.53835299    -7.7241855     -6.9166676      4.3782765      50218.233      36.893836      36.893836      36.893836    
   9890000   0.53754048    -7.723708      -6.9174088      4.377318       50218.233      36.893836      36.893836      36.893836    
   9900000   0.53955529    -7.7224234     -6.9131019      4.4081368      50218.233      36.893836      36.893836      36.893836    
   9910000   0.53714106    -7.7244518     -6.9187517      4.3739413      50218.233      36.893836      36.893836      36.893836    
   9920000   0.54170325    -7.7253141     -6.9127708      4.3766556      50218.233      36.893836      36.893836      36.893836    
   9930000   0.54116321    -7.7234578     -6.9117245      4.3922556      50218.233      36.893836      36.893836      36.893836    
   9940000   0.54230117    -7.7268178     -6.9133777      4.3620883      50218.233      36.893836      36.893836      36.893836    
   9950000   0.53955559    -7.726748      -6.9174262      4.3616524      50218.233      36.893836      36.893836      36.893836    
   9960000   0.53848661    -7.728887      -6.9211686      4.3521319      50218.233      36.893836      36.893836      36.893836    
   9970000   0.54337251    -7.7243068     -6.9092596      4.3707283      50218.233      36.893836      36.893836      36.893836    
   9980000   0.54068346    -7.7277287     -6.916715       4.3459326      50218.233      36.893836      36.893836      36.893836    
   9990000   0.54054411    -7.7217707     -6.9109661      4.4090643      50218.233      36.893836      36.893836      36.893836    
  10000000   0.53960208    -7.7236605     -6.9142689      4.3778449      50218.233      36.893836      36.893836      36.893836    
Loop time of 13649.3 on 5 procs for 10000000 steps with 70304 atoms

Performance: 632998.119 tau/day, 732.637 timesteps/s, 51.507 Matom-step/s
94.8% CPU use with 5 MPI tasks x 1 OpenMP threads

MPI task timing breakdown:
Section |  min time  |  avg time  |  max time  |%varavg| %total
---------------------------------------------------------------
Pair    | 3969.5     | 4605.6     | 5473.9     | 773.4 | 33.74
Neigh   | 47.273     | 54.667     | 61.361     |  63.2 |  0.40
Comm    | 2364.9     | 2443       | 2503.4     | 101.5 | 17.90
Output  | 0.17678    | 0.18222    | 0.19047    |   1.1 |  0.00
Modify  | 4884.9     | 5794.3     | 6371.8     | 694.3 | 42.45
Other   |            | 751.6      |            |       |  5.51

Nlocal:        14060.8 ave       14094 max       14025 min
Histogram: 2 0 0 0 0 1 0 0 0 2
Nghost:        18735.8 ave       18778 max       18697 min
Histogram: 1 0 0 0 2 1 0 0 0 1
Neighs:              0 ave           0 max           0 min
Histogram: 5 0 0 0 0 0 0 0 0 0

Total # of neighbors = 0
Ave neighs/atom = 0
Neighbor list builds = 2122485
Dangerous builds = 0
clear
OMP_NUM_THREADS environment is not set. Defaulting to 1 thread. (src/comm.cpp:98)
  using 1 OpenMP thread(s) per MPI task
package gpu 0
jump dms520.lmp

variable T equal 520
# T = 1000* (temp in LJ unit)
variable f equal 10000
log log.${T}
log log.520
