variable TLJ equal (${T}/1000)
variable TLJ equal (530/1000)
variable NCyle equal 8
variable iStep equal (${f})
variable iStep equal (10000)
variable dumpStep equal (${f}*100)
variable dumpStep equal (10000*100)
variable runStep equal (${f}*100*${NCyle})
variable runStep equal (10000*100*${NCyle})
variable runStep equal (10000*100*8)

units       lj
atom_style  atomic
dimension 3
boundary     p p p
pair_style  lj/cut 2.5
read_data  ../data/T${T}.dat
read_data  ../data/T530.dat
Reading data file ...
  orthogonal box = (0.97250269 0.97250269 0.97250269) to (37.866338 37.866338 37.866338)
  1 by 1 by 5 MPI processor grid
  reading atoms ...
  70304 atoms
  reading velocities ...
  70304 velocities
  read_data CPU = 0.211 seconds
change_box all triclinic
Changing box ...
  triclinic box = (0.97250269 0.97250269 0.97250269) to (37.866338 37.866338 37.866338) with tilt (0 0 0)
mass 1 1
mass 2 1
pair_modify shift yes
pair_coeff  1 1 1 1
pair_coeff  1 2 1.5 0.8
pair_coeff  2 2 0.5 0.88


timestep 0.01
thermo ${iStep}
thermo 10000
reset_timestep 0
thermo_style custom step temp pe etotal press vol lx ly lz
fix             1 all nvt temp ${TLJ}  ${TLJ}  0.1
fix             1 all nvt temp 0.53  ${TLJ}  0.1
fix             1 all nvt temp 0.53  0.53  0.1
thermo_modify flush yes

fix dsf all deform 1 xy  wiggle 0.5  ${f}   units box
fix dsf all deform 1 xy  wiggle 0.5  10000   units box
fix ps1 all ave/time 1 1 ${iStep} c_thermo_press[1] c_thermo_press[2]  c_thermo_press[3] c_thermo_press[4]  c_thermo_press[5] c_thermo_press[6]  file  stress.${T}
fix ps1 all ave/time 1 1 10000 c_thermo_press[1] c_thermo_press[2]  c_thermo_press[3] c_thermo_press[4]  c_thermo_press[5] c_thermo_press[6]  file  stress.${T}
fix ps1 all ave/time 1 1 10000 c_thermo_press[1] c_thermo_press[2]  c_thermo_press[3] c_thermo_press[4]  c_thermo_press[5] c_thermo_press[6]  file  stress.530
dump            1 all custom ${dumpStep} dump.${T} id type x y z
dump            1 all custom 1000000 dump.${T} id type x y z
dump            1 all custom 1000000 dump.530 id type x y z
dump_modify 1 sort id
fix nodrift all momentum 1  linear 1 1 1
fix com_seed all recenter INIT INIT INIT shift all
run ${runStep}
run 8000000
Generated 0 of 1 mixed pair_coeff terms from geometric mixing rule
Per MPI rank memory allocation (min/avg/max) = 6.664 | 8.017 | 8.922 Mbytes
   Step          Temp          PotEng         TotEng         Press          Volume           Lx             Ly             Lz      
         0   0.53158081    -7.7646825     -6.9673226      4.0761466      50218.233      36.893836      36.893836      36.893836    
     10000   0.52982548    -7.7571339     -6.962407       4.136393       50218.233      36.893836      36.893836      36.893836    
     20000   0.53059374    -7.7499901     -6.9541108      4.1825127      50218.233      36.893836      36.893836      36.893836    
     30000   0.52820004    -7.7514128     -6.959124       4.1841457      50218.233      36.893836      36.893836      36.893836    
     40000   0.52923133    -7.7528794     -6.9590437      4.1651258      50218.233      36.893836      36.893836      36.893836    
     50000   0.52910518    -7.7518227     -6.9581762      4.1710557      50218.233      36.893836      36.893836      36.893836    
     60000   0.53322272    -7.7528294     -6.9530067      4.1682281      50218.233      36.893836      36.893836      36.893836    
     70000   0.53264354    -7.7550846     -6.9561307      4.1468691      50218.233      36.893836      36.893836      36.893836    
     80000   0.53238285    -7.7522478     -6.9536849      4.1760481      50218.233      36.893836      36.893836      36.893836    
     90000   0.52939706    -7.7577016     -6.9636173      4.1221364      50218.233      36.893836      36.893836      36.893836    
    100000   0.53199044    -7.7541606     -6.9561863      4.1630742      50218.233      36.893836      36.893836      36.893836    
    110000   0.52846231    -7.7485502     -6.9558681      4.1958457      50218.233      36.893836      36.893836      36.893836    
    120000   0.53097858    -7.7505389     -6.9540824      4.1794466      50218.233      36.893836      36.893836      36.893836    
    130000   0.53303477    -7.7537785     -6.9542377      4.1589432      50218.233      36.893836      36.893836      36.893836    
    140000   0.5297244     -7.7555546     -6.9609793      4.1354636      50218.233      36.893836      36.893836      36.893836    
    150000   0.52961913    -7.749965      -6.9555476      4.1918462      50218.233      36.893836      36.893836      36.893836    
    160000   0.53116758    -7.7519548     -6.9552148      4.1733937      50218.233      36.893836      36.893836      36.893836    
    170000   0.53275057    -7.7542219     -6.9551074      4.1526529      50218.233      36.893836      36.893836      36.893836    
    180000   0.530837      -7.7501308     -6.9538866      4.171878       50218.233      36.893836      36.893836      36.893836    
    190000   0.53234158    -7.7523744     -6.9538734      4.1619884      50218.233      36.893836      36.893836      36.893836    
    200000   0.52841802    -7.7528586     -6.9602428      4.1607081      50218.233      36.893836      36.893836      36.893836    
    210000   0.52840245    -7.7570925     -6.9645001      4.1284792      50218.233      36.893836      36.893836      36.893836    
    220000   0.53073788    -7.7498325     -6.9537369      4.1857017      50218.233      36.893836      36.893836      36.893836    
    230000   0.52774972    -7.7535076     -6.9618943      4.1636743      50218.233      36.893836      36.893836      36.893836    
    240000   0.5317823     -7.7538702     -6.9562081      4.1604571      50218.233      36.893836      36.893836      36.893836    
    250000   0.52971475    -7.753228      -6.9586672      4.142637       50218.233      36.893836      36.893836      36.893836    
    260000   0.52759637    -7.7524458     -6.9610625      4.156418       50218.233      36.893836      36.893836      36.893836    
    270000   0.53014454    -7.7548638     -6.9596583      4.1357222      50218.233      36.893836      36.893836      36.893836    
    280000   0.52918208    -7.7477688     -6.9540069      4.2075051      50218.233      36.893836      36.893836      36.893836    
    290000   0.53058186    -7.7527635     -6.9569021      4.1535474      50218.233      36.893836      36.893836      36.893836    
    300000   0.53110495    -7.75009       -6.9534439      4.1797267      50218.233      36.893836      36.893836      36.893836    
    310000   0.52719715    -7.7503648     -6.9595803      4.1681225      50218.233      36.893836      36.893836      36.893836    
    320000   0.53054484    -7.7541515     -6.9583456      4.1497769      50218.233      36.893836      36.893836      36.893836    
    330000   0.53064481    -7.75215       -6.9561941      4.1622707      50218.233      36.893836      36.893836      36.893836    
    340000   0.53264472    -7.7474508     -6.9484951      4.1949538      50218.233      36.893836      36.893836      36.893836    
    350000   0.53161061    -7.7546735     -6.9572689      4.1465217      50218.233      36.893836      36.893836      36.893836    
    360000   0.5305946     -7.7543821     -6.9585015      4.1520631      50218.233      36.893836      36.893836      36.893836    
    370000   0.52842071    -7.7534323     -6.9608125      4.1458345      50218.233      36.893836      36.893836      36.893836    
    380000   0.52991754    -7.7522474     -6.9573824      4.161399       50218.233      36.893836      36.893836      36.893836    
    390000   0.52881803    -7.7540611     -6.9608454      4.1433869      50218.233      36.893836      36.893836      36.893836    
    400000   0.52871054    -7.749488      -6.9564335      4.1757474      50218.233      36.893836      36.893836      36.893836    
    410000   0.53051726    -7.7499778     -6.9542132      4.1684336      50218.233      36.893836      36.893836      36.893836    
    420000   0.52971292    -7.7471928     -6.9526347      4.2123296      50218.233      36.893836      36.893836      36.893836    
    430000   0.53175592    -7.749801      -6.9521784      4.1894245      50218.233      36.893836      36.893836      36.893836    
    440000   0.5297868     -7.7519065     -6.9572376      4.166831       50218.233      36.893836      36.893836      36.893836    
    450000   0.52832734    -7.7502322     -6.9577525      4.1752329      50218.233      36.893836      36.893836      36.893836    
    460000   0.5300705     -7.748935      -6.9538405      4.1759236      50218.233      36.893836      36.893836      36.893836    
    470000   0.52808704    -7.7488179     -6.9566987      4.2042691      50218.233      36.893836      36.893836      36.893836    
    480000   0.52990538    -7.7520311     -6.9571843      4.1569119      50218.233      36.893836      36.893836      36.893836    
    490000   0.52897104    -7.7499995     -6.9565542      4.1792015      50218.233      36.893836      36.893836      36.893836    
    500000   0.52886758    -7.7510666     -6.9577766      4.1752855      50218.233      36.893836      36.893836      36.893836    
    510000   0.529709      -7.7499698     -6.9554176      4.1882083      50218.233      36.893836      36.893836      36.893836    
    520000   0.5300169     -7.7509495     -6.9559355      4.1590496      50218.233      36.893836      36.893836      36.893836    
    530000   0.53151796    -7.7476553     -6.9503897      4.1869209      50218.233      36.893836      36.893836      36.893836    
    540000   0.53165465    -7.7475661     -6.9500954      4.2042327      50218.233      36.893836      36.893836      36.893836    
    550000   0.52828856    -7.7491837     -6.9567621      4.1953476      50218.233      36.893836      36.893836      36.893836    
    560000   0.52904513    -7.7491359     -6.9555794      4.1908359      50218.233      36.893836      36.893836      36.893836    
    570000   0.52921878    -7.7517682     -6.9579514      4.1670288      50218.233      36.893836      36.893836      36.893836    
    580000   0.53283757    -7.7527255     -6.9534805      4.1680438      50218.233      36.893836      36.893836      36.893836    
    590000   0.52825722    -7.7474326     -6.955058       4.1956323      50218.233      36.893836      36.893836      36.893836    
    600000   0.5291833     -7.7505785     -6.9568148      4.1674527      50218.233      36.893836      36.893836      36.893836    
    610000   0.53006374    -7.7443481     -6.9492638      4.2142122      50218.233      36.893836      36.893836      36.893836    
    620000   0.52879945    -7.7472052     -6.9540173      4.2071732      50218.233      36.893836      36.893836      36.893836    
    630000   0.5300145     -7.7463581     -6.9513477      4.2082355      50218.233      36.893836      36.893836      36.893836    
    640000   0.53034163    -7.7507735     -6.9552724      4.1661708      50218.233      36.893836      36.893836      36.893836    
    650000   0.53131329    -7.7481448     -6.9511862      4.2064019      50218.233      36.893836      36.893836      36.893836    
    660000   0.52980796    -7.7532326     -6.958532       4.1662894      50218.233      36.893836      36.893836      36.893836    
    670000   0.53179674    -7.7490091     -6.9513253      4.1936266      50218.233      36.893836      36.893836      36.893836    
    680000   0.52947326    -7.7482243     -6.9540257      4.1921392      50218.233      36.893836      36.893836      36.893836    
    690000   0.53163009    -7.7545859     -6.9571521      4.1331961      50218.233      36.893836      36.893836      36.893836    
    700000   0.53072458    -7.7500393     -6.9539638      4.1878897      50218.233      36.893836      36.893836      36.893836    
    710000   0.52792239    -7.7492263     -6.957354       4.1887307      50218.233      36.893836      36.893836      36.893836    
    720000   0.52998941    -7.7482147     -6.9532419      4.1935859      50218.233      36.893836      36.893836      36.893836    
    730000   0.53054503    -7.748987      -6.9531807      4.1960714      50218.233      36.893836      36.893836      36.893836    
    740000   0.52737361    -7.7484211     -6.9573719      4.1845696      50218.233      36.893836      36.893836      36.893836    
    750000   0.53070445    -7.751629      -6.9555837      4.1567806      50218.233      36.893836      36.893836      36.893836    
    760000   0.53022234    -7.748187      -6.9528648      4.1789025      50218.233      36.893836      36.893836      36.893836    
    770000   0.52927027    -7.7481893     -6.9542952      4.1782629      50218.233      36.893836      36.893836      36.893836    
    780000   0.53182666    -7.7460317     -6.9483031      4.2094422      50218.233      36.893836      36.893836      36.893836    
    790000   0.52886398    -7.7481884     -6.9549037      4.1769711      50218.233      36.893836      36.893836      36.893836    
    800000   0.52823308    -7.7516594     -6.9593211      4.1561849      50218.233      36.893836      36.893836      36.893836    
    810000   0.52972872    -7.744645      -6.9500632      4.2106837      50218.233      36.893836      36.893836      36.893836    
    820000   0.52980823    -7.7467871     -6.9520861      4.1976365      50218.233      36.893836      36.893836      36.893836    
    830000   0.53154786    -7.7464109     -6.9491005      4.2081103      50218.233      36.893836      36.893836      36.893836    
    840000   0.53273631    -7.7492698     -6.9501767      4.1806665      50218.233      36.893836      36.893836      36.893836    
    850000   0.52854702    -7.747829      -6.9550197      4.1915025      50218.233      36.893836      36.893836      36.893836    
    860000   0.5298576     -7.7489662     -6.9541911      4.1823197      50218.233      36.893836      36.893836      36.893836    
    870000   0.53062971    -7.747719      -6.9517858      4.1892933      50218.233      36.893836      36.893836      36.893836    
    880000   0.52986846    -7.7468241     -6.9520327      4.1962548      50218.233      36.893836      36.893836      36.893836    
    890000   0.5316003     -7.7498012     -6.9524121      4.1724983      50218.233      36.893836      36.893836      36.893836    
    900000   0.52857351    -7.7434156     -6.9505666      4.2236474      50218.233      36.893836      36.893836      36.893836    
    910000   0.53225331    -7.7446451     -6.9462765      4.2238752      50218.233      36.893836      36.893836      36.893836    
    920000   0.52937369    -7.7496025     -6.9555532      4.184482       50218.233      36.893836      36.893836      36.893836    
    930000   0.53047721    -7.7459125     -6.950208       4.1998893      50218.233      36.893836      36.893836      36.893836    
    940000   0.53113929    -7.7475576     -6.95086        4.2046597      50218.233      36.893836      36.893836      36.893836    
    950000   0.5330458     -7.7470143     -6.947457       4.2014181      50218.233      36.893836      36.893836      36.893836    
    960000   0.53064122    -7.7481113     -6.9521608      4.1799089      50218.233      36.893836      36.893836      36.893836    
    970000   0.53027961    -7.7531724     -6.9577643      4.1433916      50218.233      36.893836      36.893836      36.893836    
    980000   0.5328102     -7.7477198     -6.9485158      4.187853       50218.233      36.893836      36.893836      36.893836    
    990000   0.5295097     -7.7462898     -6.9520366      4.1993531      50218.233      36.893836      36.893836      36.893836    
   1000000   0.52710466    -7.7517252     -6.9610794      4.1578017      50218.233      36.893836      36.893836      36.893836    
   1010000   0.52964082    -7.7524027     -6.9579528      4.1536819      50218.233      36.893836      36.893836      36.893836    
   1020000   0.53121369    -7.7435232     -6.946714       4.2339632      50218.233      36.893836      36.893836      36.893836    
   1030000   0.53036385    -7.7436436     -6.9481091      4.2333347      50218.233      36.893836      36.893836      36.893836    
   1040000   0.5311789     -7.749757      -6.953          4.1886293      50218.233      36.893836      36.893836      36.893836    
   1050000   0.52954221    -7.7523777     -6.9580756      4.1623639      50218.233      36.893836      36.893836      36.893836    
   1060000   0.53035503    -7.748994      -6.9534728      4.192411       50218.233      36.893836      36.893836      36.893836    
   1070000   0.5266046     -7.7500221     -6.9601265      4.1693924      50218.233      36.893836      36.893836      36.893836    
   1080000   0.53211874    -7.7448191     -6.9466524      4.2168478      50218.233      36.893836      36.893836      36.893836    
   1090000   0.52888714    -7.7452725     -6.9519531      4.2158612      50218.233      36.893836      36.893836      36.893836    
   1100000   0.53082389    -7.7487662     -6.9525417      4.1921775      50218.233      36.893836      36.893836      36.893836    
   1110000   0.53032024    -7.7492196     -6.9537506      4.1821845      50218.233      36.893836      36.893836      36.893836    
   1120000   0.53187637    -7.7493615     -6.9515583      4.1807176      50218.233      36.893836      36.893836      36.893836    
   1130000   0.52973538    -7.7451729     -6.9505811      4.2073974      50218.233      36.893836      36.893836      36.893836    
   1140000   0.52960585    -7.7424742     -6.9480768      4.2179895      50218.233      36.893836      36.893836      36.893836    
   1150000   0.53157965    -7.7435146     -6.9461565      4.2307732      50218.233      36.893836      36.893836      36.893836    
   1160000   0.52873444    -7.7509398     -6.9578494      4.178335       50218.233      36.893836      36.893836      36.893836    
   1170000   0.53175873    -7.7423521     -6.9447254      4.246318       50218.233      36.893836      36.893836      36.893836    
   1180000   0.5270099     -7.7436795     -6.9531759      4.2241803      50218.233      36.893836      36.893836      36.893836    
   1190000   0.52674564    -7.7500301     -6.9599229      4.1611738      50218.233      36.893836      36.893836      36.893836    
   1200000   0.52645366    -7.7470021     -6.9573328      4.1887417      50218.233      36.893836      36.893836      36.893836    
   1210000   0.52992731    -7.7479232     -6.9530436      4.1841524      50218.233      36.893836      36.893836      36.893836    
   1220000   0.53255219    -7.7484643     -6.9496474      4.1963896      50218.233      36.893836      36.893836      36.893836    
   1230000   0.52766279    -7.7432498     -6.9517669      4.2181215      50218.233      36.893836      36.893836      36.893836    
   1240000   0.52704395    -7.750518      -6.9599633      4.176984       50218.233      36.893836      36.893836      36.893836    
   1250000   0.53078584    -7.7503356     -6.9541681      4.1852042      50218.233      36.893836      36.893836      36.893836    
   1260000   0.53116468    -7.7415002     -6.9447645      4.2458914      50218.233      36.893836      36.893836      36.893836    
   1270000   0.52790186    -7.747049      -6.9552075      4.2167582      50218.233      36.893836      36.893836      36.893836    
   1280000   0.52906269    -7.7440482     -6.9504655      4.2093366      50218.233      36.893836      36.893836      36.893836    
   1290000   0.52889031    -7.7424461     -6.949122       4.2306189      50218.233      36.893836      36.893836      36.893836    
   1300000   0.53107366    -7.7482377     -6.9516386      4.1944959      50218.233      36.893836      36.893836      36.893836    
   1310000   0.53009218    -7.751294      -6.9561671      4.1693406      50218.233      36.893836      36.893836      36.893836    
   1320000   0.53126642    -7.7471984     -6.9503101      4.2070639      50218.233      36.893836      36.893836      36.893836    
   1330000   0.53042329    -7.7466437     -6.9510201      4.2017039      50218.233      36.893836      36.893836      36.893836    
   1340000   0.53081535    -7.7458845     -6.9496728      4.2134508      50218.233      36.893836      36.893836      36.893836    
   1350000   0.5302745     -7.7448233     -6.9494229      4.2176726      50218.233      36.893836      36.893836      36.893836    
   1360000   0.5321361     -7.7498602     -6.9516674      4.1741612      50218.233      36.893836      36.893836      36.893836    
   1370000   0.52943193    -7.7506224     -6.9564858      4.1617135      50218.233      36.893836      36.893836      36.893836    
   1380000   0.52752737    -7.74844       -6.9571602      4.1876804      50218.233      36.893836      36.893836      36.893836    
   1390000   0.53057607    -7.7436419     -6.9477892      4.2265265      50218.233      36.893836      36.893836      36.893836    
   1400000   0.5297336     -7.7492387     -6.9546496      4.1808307      50218.233      36.893836      36.893836      36.893836    
   1410000   0.53019189    -7.7522515     -6.956975       4.1609043      50218.233      36.893836      36.893836      36.893836    
   1420000   0.53055023    -7.7460241     -6.95021        4.2081307      50218.233      36.893836      36.893836      36.893836    
   1430000   0.53035574    -7.7474272     -6.9519049      4.2025355      50218.233      36.893836      36.893836      36.893836    
   1440000   0.52952918    -7.7500788     -6.9557963      4.1735416      50218.233      36.893836      36.893836      36.893836    
   1450000   0.53105061    -7.7471114     -6.9505468      4.1962382      50218.233      36.893836      36.893836      36.893836    
   1460000   0.52573986    -7.7501166     -6.9615181      4.1643183      50218.233      36.893836      36.893836      36.893836    
   1470000   0.52961115    -7.74977       -6.9553646      4.1724891      50218.233      36.893836      36.893836      36.893836    
   1480000   0.52859219    -7.7491133     -6.9562363      4.1876628      50218.233      36.893836      36.893836      36.893836    
   1490000   0.53250766    -7.7487608     -6.9500107      4.1941325      50218.233      36.893836      36.893836      36.893836    
   1500000   0.52794183    -7.748507      -6.9566055      4.1822763      50218.233      36.893836      36.893836      36.893836    
   1510000   0.52878797    -7.7473882     -6.9542175      4.2114206      50218.233      36.893836      36.893836      36.893836    
   1520000   0.53057359    -7.7464132     -6.9505642      4.2171859      50218.233      36.893836      36.893836      36.893836    
   1530000   0.52799042    -7.7520487     -6.9600744      4.1671057      50218.233      36.893836      36.893836      36.893836    
   1540000   0.5316762     -7.7486387     -6.9511358      4.1964275      50218.233      36.893836      36.893836      36.893836    
   1550000   0.53040261    -7.7492766     -6.953684       4.1723345      50218.233      36.893836      36.893836      36.893836    
   1560000   0.52959611    -7.7503678     -6.9559849      4.1752437      50218.233      36.893836      36.893836      36.893836    
   1570000   0.52919331    -7.7471408     -6.9533621      4.1975778      50218.233      36.893836      36.893836      36.893836    
   1580000   0.53004854    -7.7451355     -6.950074       4.2120428      50218.233      36.893836      36.893836      36.893836    
   1590000   0.53166295    -7.7469231     -6.94944        4.1959377      50218.233      36.893836      36.893836      36.893836    
   1600000   0.52710075    -7.7468033     -6.9561634      4.1983295      50218.233      36.893836      36.893836      36.893836    
   1610000   0.52969369    -7.7510479     -6.9565187      4.1687566      50218.233      36.893836      36.893836      36.893836    
   1620000   0.52851633    -7.7465518     -6.9537886      4.1915137      50218.233      36.893836      36.893836      36.893836    
   1630000   0.5302487     -7.7486215     -6.9532597      4.1831719      50218.233      36.893836      36.893836      36.893836    
   1640000   0.53087976    -7.7486685     -6.9523602      4.1866005      50218.233      36.893836      36.893836      36.893836    
   1650000   0.53180987    -7.7482253     -6.9505219      4.188455       50218.233      36.893836      36.893836      36.893836    
   1660000   0.52885932    -7.7527189     -6.9594412      4.1481074      50218.233      36.893836      36.893836      36.893836    
   1670000   0.53347012    -7.7491441     -6.9489503      4.1851531      50218.233      36.893836      36.893836      36.893836    
   1680000   0.52746374    -7.7458251     -6.9546407      4.2021284      50218.233      36.893836      36.893836      36.893836    
   1690000   0.527262      -7.7465537     -6.9556719      4.1887989      50218.233      36.893836      36.893836      36.893836    
   1700000   0.52948978    -7.7480187     -6.9537953      4.1871318      50218.233      36.893836      36.893836      36.893836    
   1710000   0.5322869     -7.7492927     -6.9508737      4.1864548      50218.233      36.893836      36.893836      36.893836    
   1720000   0.52722933    -7.7477422     -6.9569094      4.1889899      50218.233      36.893836      36.893836      36.893836    
   1730000   0.52906924    -7.7483738     -6.9547812      4.1857686      50218.233      36.893836      36.893836      36.893836    
   1740000   0.5286741     -7.7490779     -6.956078       4.1764573      50218.233      36.893836      36.893836      36.893836    
   1750000   0.52816979    -7.7459051     -6.9536617      4.1986029      50218.233      36.893836      36.893836      36.893836    
   1760000   0.52997826    -7.7467602     -6.9518042      4.195945       50218.233      36.893836      36.893836      36.893836    
   1770000   0.53304246    -7.7508891     -6.9513367      4.1799901      50218.233      36.893836      36.893836      36.893836    
   1780000   0.53308581    -7.7486011     -6.9489838      4.186812       50218.233      36.893836      36.893836      36.893836    
   1790000   0.53095869    -7.7485512     -6.9521245      4.1856403      50218.233      36.893836      36.893836      36.893836    
   1800000   0.53029698    -7.7472593     -6.9518252      4.1957042      50218.233      36.893836      36.893836      36.893836    
   1810000   0.52868684    -7.7473839     -6.9543649      4.1958418      50218.233      36.893836      36.893836      36.893836    
   1820000   0.53089432    -7.7438        -6.9474698      4.2152477      50218.233      36.893836      36.893836      36.893836    
   1830000   0.53191674    -7.7482604     -6.9503966      4.2087686      50218.233      36.893836      36.893836      36.893836    
   1840000   0.53165567    -7.7517705     -6.9542984      4.1641903      50218.233      36.893836      36.893836      36.893836    
   1850000   0.53148127    -7.7430871     -6.9458766      4.2323342      50218.233      36.893836      36.893836      36.893836    
   1860000   0.53166762    -7.7465445     -6.9490544      4.201123       50218.233      36.893836      36.893836      36.893836    
   1870000   0.52889474    -7.7445194     -6.9511885      4.205427       50218.233      36.893836      36.893836      36.893836    
   1880000   0.52838225    -7.7454255     -6.9528634      4.2022827      50218.233      36.893836      36.893836      36.893836    
   1890000   0.52740009    -7.7485956     -6.9575067      4.1918729      50218.233      36.893836      36.893836      36.893836    
   1900000   0.53131774    -7.7425078     -6.9455425      4.2320682      50218.233      36.893836      36.893836      36.893836    
   1910000   0.5287206     -7.7429114     -6.9498418      4.2143703      50218.233      36.893836      36.893836      36.893836    
   1920000   0.52853358    -7.74317       -6.9503809      4.212267       50218.233      36.893836      36.893836      36.893836    
   1930000   0.53115237    -7.7537983     -6.957081       4.1527481      50218.233      36.893836      36.893836      36.893836    
   1940000   0.52960326    -7.7459806     -6.9515871      4.1943362      50218.233      36.893836      36.893836      36.893836    
   1950000   0.52843774    -7.7501224     -6.957477       4.1737087      50218.233      36.893836      36.893836      36.893836    
   1960000   0.53072022    -7.7421853     -6.9461163      4.2395213      50218.233      36.893836      36.893836      36.893836    
   1970000   0.53053789    -7.7436302     -6.9478347      4.2331641      50218.233      36.893836      36.893836      36.893836    
   1980000   0.53059936    -7.746095      -6.9502073      4.2011137      50218.233      36.893836      36.893836      36.893836    
   1990000   0.52907354    -7.7430664     -6.9494674      4.2129328      50218.233      36.893836      36.893836      36.893836    
   2000000   0.52922202    -7.7493266     -6.9555049      4.1742582      50218.233      36.893836      36.893836      36.893836    
   2010000   0.53080217    -7.7461256     -6.9499336      4.2034669      50218.233      36.893836      36.893836      36.893836    
   2020000   0.52916402    -7.7444297     -6.950695       4.2252799      50218.233      36.893836      36.893836      36.893836    
   2030000   0.53039226    -7.7450133     -6.9494362      4.2217702      50218.233      36.893836      36.893836      36.893836    
   2040000   0.53023759    -7.7415715     -6.9462264      4.2380919      50218.233      36.893836      36.893836      36.893836    
   2050000   0.52955863    -7.7443753     -6.9500487      4.2079328      50218.233      36.893836      36.893836      36.893836    
   2060000   0.53364889    -7.7484818     -6.9480199      4.1996783      50218.233      36.893836      36.893836      36.893836    
   2070000   0.52719394    -7.7481941     -6.9574145      4.1922683      50218.233      36.893836      36.893836      36.893836    
   2080000   0.53070075    -7.7425295     -6.9464897      4.2340623      50218.233      36.893836      36.893836      36.893836    
   2090000   0.52935297    -7.7446564     -6.9506382      4.2139942      50218.233      36.893836      36.893836      36.893836    
   2100000   0.52908477    -7.7458197     -6.9522038      4.2043514      50218.233      36.893836      36.893836      36.893836    
   2110000   0.53288476    -7.7493117     -6.949996       4.1855915      50218.233      36.893836      36.893836      36.893836    
   2120000   0.53045619    -7.7463159     -6.950643       4.200084       50218.233      36.893836      36.893836      36.893836    
   2130000   0.52790131    -7.7452026     -6.9533619      4.2139259      50218.233      36.893836      36.893836      36.893836    
   2140000   0.5292426     -7.7469871     -6.9531344      4.1999802      50218.233      36.893836      36.893836      36.893836    
   2150000   0.53009042    -7.744266      -6.9491416      4.2155443      50218.233      36.893836      36.893836      36.893836    
   2160000   0.52815881    -7.7471864     -6.9549594      4.1992418      50218.233      36.893836      36.893836      36.893836    
   2170000   0.52991228    -7.7512102     -6.9563531      4.1766802      50218.233      36.893836      36.893836      36.893836    
   2180000   0.53006012    -7.7515475     -6.9564687      4.1641531      50218.233      36.893836      36.893836      36.893836    
   2190000   0.52834691    -7.7522821     -6.959773       4.1611793      50218.233      36.893836      36.893836      36.893836    
   2200000   0.53015072    -7.7499066     -6.9546919      4.1810583      50218.233      36.893836      36.893836      36.893836    
   2210000   0.52795802    -7.7492352     -6.9573095      4.1727474      50218.233      36.893836      36.893836      36.893836    
   2220000   0.52996345    -7.7460463     -6.9511124      4.2065059      50218.233      36.893836      36.893836      36.893836    
   2230000   0.53249544    -7.7438145     -6.9450827      4.2152335      50218.233      36.893836      36.893836      36.893836    
   2240000   0.53253839    -7.746961      -6.9481648      4.1924596      50218.233      36.893836      36.893836      36.893836    
   2250000   0.53058764    -7.746745      -6.9508748      4.197374       50218.233      36.893836      36.893836      36.893836    
   2260000   0.52947169    -7.7495179     -6.9553217      4.1904457      50218.233      36.893836      36.893836      36.893836    
   2270000   0.53342265    -7.7471309     -6.9470083      4.2057325      50218.233      36.893836      36.893836      36.893836    
   2280000   0.52970778    -7.7446193     -6.9500689      4.2135118      50218.233      36.893836      36.893836      36.893836    
   2290000   0.53283261    -7.7506127     -6.9513751      4.1815099      50218.233      36.893836      36.893836      36.893836    
   2300000   0.53070424    -7.750539      -6.9544939      4.1697607      50218.233      36.893836      36.893836      36.893836    
   2310000   0.53248764    -7.7471881     -6.948468       4.2032943      50218.233      36.893836      36.893836      36.893836    
   2320000   0.53051193    -7.7473725     -6.951616       4.1945128      50218.233      36.893836      36.893836      36.893836    
   2330000   0.53007652    -7.7443207     -6.9492172      4.215734       50218.233      36.893836      36.893836      36.893836    
   2340000   0.52809398    -7.7417821     -6.9496524      4.2336655      50218.233      36.893836      36.893836      36.893836    
   2350000   0.53064076    -7.7506991     -6.9547493      4.1827003      50218.233      36.893836      36.893836      36.893836    
   2360000   0.52909746    -7.7470461     -6.9534112      4.2095158      50218.233      36.893836      36.893836      36.893836    
   2370000   0.52984572    -7.7491423     -6.9543851      4.1799979      50218.233      36.893836      36.893836      36.893836    
   2380000   0.53123673    -7.7492371     -6.9523934      4.1871005      50218.233      36.893836      36.893836      36.893836    
   2390000   0.53014854    -7.7456385     -6.950427       4.2172575      50218.233      36.893836      36.893836      36.893836    
   2400000   0.52750093    -7.747513      -6.9562729      4.1932955      50218.233      36.893836      36.893836      36.893836    
   2410000   0.53029802    -7.7487854     -6.9533497      4.1912689      50218.233      36.893836      36.893836      36.893836    
   2420000   0.5287016     -7.7485508     -6.9555097      4.1780723      50218.233      36.893836      36.893836      36.893836    
   2430000   0.52818142    -7.7457624     -6.9535015      4.2025021      50218.233      36.893836      36.893836      36.893836    
   2440000   0.52841189    -7.7484246     -6.9558181      4.1922157      50218.233      36.893836      36.893836      36.893836    
   2450000   0.53053479    -7.7483584     -6.9525675      4.1960363      50218.233      36.893836      36.893836      36.893836    
   2460000   0.53171896    -7.7430582     -6.9454911      4.2287985      50218.233      36.893836      36.893836      36.893836    
   2470000   0.53053319    -7.7488076     -6.9530192      4.1770212      50218.233      36.893836      36.893836      36.893836    
   2480000   0.52993929    -7.7431838     -6.9482861      4.2223443      50218.233      36.893836      36.893836      36.893836    
   2490000   0.53076216    -7.7439325     -6.9478006      4.2154835      50218.233      36.893836      36.893836      36.893836    
   2500000   0.52726029    -7.7444927     -6.9536135      4.212824       50218.233      36.893836      36.893836      36.893836    
   2510000   0.52973632    -7.7415072     -6.946914       4.2429295      50218.233      36.893836      36.893836      36.893836    
   2520000   0.5304526     -7.7494934     -6.9538258      4.1883606      50218.233      36.893836      36.893836      36.893836    
   2530000   0.53094714    -7.7462253     -6.9498159      4.2018973      50218.233      36.893836      36.893836      36.893836    
   2540000   0.53068744    -7.745462      -6.9494421      4.2130053      50218.233      36.893836      36.893836      36.893836    
   2550000   0.52927237    -7.7490956     -6.9551983      4.189965       50218.233      36.893836      36.893836      36.893836    
   2560000   0.5318249     -7.7491806     -6.9514546      4.1922652      50218.233      36.893836      36.893836      36.893836    
   2570000   0.52859791    -7.7448115     -6.9519259      4.2176011      50218.233      36.893836      36.893836      36.893836    
   2580000   0.53235559    -7.7467566     -6.9482346      4.2025674      50218.233      36.893836      36.893836      36.893836    
   2590000   0.52860153    -7.7457307     -6.9528396      4.2171231      50218.233      36.893836      36.893836      36.893836    
   2600000   0.53008913    -7.7430602     -6.9479378      4.2250314      50218.233      36.893836      36.893836      36.893836    
   2610000   0.5310991     -7.7426161     -6.9459787      4.2262879      50218.233      36.893836      36.893836      36.893836    
   2620000   0.52977654    -7.7458114     -6.9511579      4.2145546      50218.233      36.893836      36.893836      36.893836    
   2630000   0.52753181    -7.7437381     -6.9524516      4.2270106      50218.233      36.893836      36.893836      36.893836    
   2640000   0.53263301    -7.7457396     -6.9468015      4.2257118      50218.233      36.893836      36.893836      36.893836    
   2650000   0.5315478     -7.7415517     -6.9442414      4.2495558      50218.233      36.893836      36.893836      36.893836    
   2660000   0.52903425    -7.745385      -6.9518449      4.2108625      50218.233      36.893836      36.893836      36.893836    
   2670000   0.52874593    -7.7487236     -6.955616       4.190418       50218.233      36.893836      36.893836      36.893836    
   2680000   0.52975969    -7.7463198     -6.9516916      4.2060005      50218.233      36.893836      36.893836      36.893836    
   2690000   0.52727826    -7.7509519     -6.9600457      4.1826327      50218.233      36.893836      36.893836      36.893836    
   2700000   0.52954743    -7.749679      -6.9553692      4.1822837      50218.233      36.893836      36.893836      36.893836    
   2710000   0.5292266     -7.7477881     -6.9539595      4.1828261      50218.233      36.893836      36.893836      36.893836    
   2720000   0.52802615    -7.749909      -6.957881       4.1805438      50218.233      36.893836      36.893836      36.893836    
   2730000   0.53303283    -7.746647      -6.9471091      4.2098619      50218.233      36.893836      36.893836      36.893836    
   2740000   0.53079877    -7.7464236     -6.9502368      4.2161197      50218.233      36.893836      36.893836      36.893836    
   2750000   0.52861358    -7.7436818     -6.9507727      4.2247691      50218.233      36.893836      36.893836      36.893836    
   2760000   0.53118126    -7.7446028     -6.9478422      4.2181174      50218.233      36.893836      36.893836      36.893836    
   2770000   0.53228959    -7.7459143     -6.9474913      4.2210496      50218.233      36.893836      36.893836      36.893836    
   2780000   0.52969526    -7.7429034     -6.9483718      4.2283071      50218.233      36.893836      36.893836      36.893836    
   2790000   0.52957454    -7.7417524     -6.9474019      4.22407        50218.233      36.893836      36.893836      36.893836    
   2800000   0.53256848    -7.7444859     -6.9456446      4.2222422      50218.233      36.893836      36.893836      36.893836    
   2810000   0.53250973    -7.7443674     -6.9456142      4.2195902      50218.233      36.893836      36.893836      36.893836    
   2820000   0.53188523    -7.7459099     -6.9480934      4.2108511      50218.233      36.893836      36.893836      36.893836    
   2830000   0.53087249    -7.7446712     -6.9483737      4.2243054      50218.233      36.893836      36.893836      36.893836    
   2840000   0.53011854    -7.7471786     -6.9520121      4.2081907      50218.233      36.893836      36.893836      36.893836    
   2850000   0.52937063    -7.7473008     -6.9532561      4.1980858      50218.233      36.893836      36.893836      36.893836    
   2860000   0.53093642    -7.7488444     -6.9524511      4.1709349      50218.233      36.893836      36.893836      36.893836    
   2870000   0.53048492    -7.7456711     -6.9499551      4.2129282      50218.233      36.893836      36.893836      36.893836    
   2880000   0.53324721    -7.7472193     -6.9473599      4.2059269      50218.233      36.893836      36.893836      36.893836    
   2890000   0.5338633     -7.7464379     -6.9456544      4.2047855      50218.233      36.893836      36.893836      36.893836    
   2900000   0.52911347    -7.7450211     -6.9513622      4.2181094      50218.233      36.893836      36.893836      36.893836    
   2910000   0.5283538     -7.7504156     -6.9578962      4.1731031      50218.233      36.893836      36.893836      36.893836    
   2920000   0.5278373     -7.7468143     -6.9550696      4.1926856      50218.233      36.893836      36.893836      36.893836    
   2930000   0.52901405    -7.7440528     -6.950543       4.2206226      50218.233      36.893836      36.893836      36.893836    
   2940000   0.52935276    -7.7456        -6.9515822      4.1998679      50218.233      36.893836      36.893836      36.893836    
   2950000   0.532488      -7.7450482     -6.9463276      4.2167622      50218.233      36.893836      36.893836      36.893836    
   2960000   0.52984736    -7.7421827     -6.9474229      4.2248083      50218.233      36.893836      36.893836      36.893836    
   2970000   0.5301367     -7.748535      -6.9533413      4.1857654      50218.233      36.893836      36.893836      36.893836    
   2980000   0.52862106    -7.7453993     -6.952479       4.2018271      50218.233      36.893836      36.893836      36.893836    
   2990000   0.52942287    -7.7495522     -6.9554292      4.1813896      50218.233      36.893836      36.893836      36.893836    
   3000000   0.53022911    -7.7444899     -6.9491576      4.2232565      50218.233      36.893836      36.893836      36.893836    
   3010000   0.53088689    -7.7469996     -6.9506806      4.1940538      50218.233      36.893836      36.893836      36.893836    
   3020000   0.53091253    -7.7480907     -6.9517332      4.187213       50218.233      36.893836      36.893836      36.893836    
   3030000   0.53088205    -7.7494089     -6.9530972      4.1845412      50218.233      36.893836      36.893836      36.893836    
   3040000   0.52718583    -7.7507845     -6.960017       4.1768256      50218.233      36.893836      36.893836      36.893836    
   3050000   0.52846435    -7.745569      -6.9528838      4.203506       50218.233      36.893836      36.893836      36.893836    
   3060000   0.5295216     -7.744798      -6.9505269      4.2116879      50218.233      36.893836      36.893836      36.893836    
   3070000   0.52801142    -7.7485884     -6.9565825      4.1817278      50218.233      36.893836      36.893836      36.893836    
   3080000   0.53161622    -7.7482316     -6.9508186      4.1868579      50218.233      36.893836      36.893836      36.893836    
   3090000   0.53079643    -7.7446067     -6.9484234      4.2151269      50218.233      36.893836      36.893836      36.893836    
   3100000   0.53060206    -7.7409649     -6.9450731      4.2400982      50218.233      36.893836      36.893836      36.893836    
   3110000   0.53196669    -7.7437508     -6.9458121      4.2293311      50218.233      36.893836      36.893836      36.893836    
   3120000   0.53121579    -7.7446589     -6.9478465      4.2231845      50218.233      36.893836      36.893836      36.893836    
   3130000   0.5291618     -7.7437805     -6.950049       4.214005       50218.233      36.893836      36.893836      36.893836    
   3140000   0.52743982    -7.7451467     -6.9539982      4.2108611      50218.233      36.893836      36.893836      36.893836    
   3150000   0.52956184    -7.7464196     -6.9520881      4.202824       50218.233      36.893836      36.893836      36.893836    
   3160000   0.53079411    -7.7491835     -6.9530037      4.1878031      50218.233      36.893836      36.893836      36.893836    
   3170000   0.53018691    -7.749332      -6.9540629      4.183464       50218.233      36.893836      36.893836      36.893836    
   3180000   0.52598971    -7.748108      -6.9591347      4.1887006      50218.233      36.893836      36.893836      36.893836    
   3190000   0.5279901     -7.7441368     -6.952163       4.2189248      50218.233      36.893836      36.893836      36.893836    
   3200000   0.52918742    -7.7464372     -6.9526673      4.1919412      50218.233      36.893836      36.893836      36.893836    
   3210000   0.53022415    -7.7434884     -6.9481635      4.218224       50218.233      36.893836      36.893836      36.893836    
   3220000   0.52815949    -7.7432498     -6.9510218      4.2140345      50218.233      36.893836      36.893836      36.893836    
   3230000   0.52858287    -7.746817      -6.953954       4.1926176      50218.233      36.893836      36.893836      36.893836    
   3240000   0.53002731    -7.7445771     -6.9495474      4.2145823      50218.233      36.893836      36.893836      36.893836    
   3250000   0.53144871    -7.7450112     -6.9478495      4.2219878      50218.233      36.893836      36.893836      36.893836    
   3260000   0.52987347    -7.7483142     -6.9535153      4.1917456      50218.233      36.893836      36.893836      36.893836    
   3270000   0.53312846    -7.7436509     -6.9439696      4.2311808      50218.233      36.893836      36.893836      36.893836    
   3280000   0.53065346    -7.742937      -6.9469681      4.2225607      50218.233      36.893836      36.893836      36.893836    
   3290000   0.53146773    -7.7538851     -6.9566949      4.1383548      50218.233      36.893836      36.893836      36.893836    
   3300000   0.52999569    -7.7454573     -6.9504751      4.2164629      50218.233      36.893836      36.893836      36.893836    
   3310000   0.53169364    -7.7514905     -6.9539614      4.1499036      50218.233      36.893836      36.893836      36.893836    
   3320000   0.52823295    -7.7496024     -6.9572642      4.1725006      50218.233      36.893836      36.893836      36.893836    
   3330000   0.53242503    -7.7493144     -6.9506882      4.1994553      50218.233      36.893836      36.893836      36.893836    
   3340000   0.53170988    -7.7481853     -6.9506318      4.1929272      50218.233      36.893836      36.893836      36.893836    
   3350000   0.53055284    -7.7442567     -6.9484387      4.2160634      50218.233      36.893836      36.893836      36.893836    
   3360000   0.52926385    -7.7450761     -6.9511916      4.2112637      50218.233      36.893836      36.893836      36.893836    
   3370000   0.52890432    -7.7490049     -6.9556597      4.1886679      50218.233      36.893836      36.893836      36.893836    
   3380000   0.53236965    -7.7440028     -6.9454596      4.2126861      50218.233      36.893836      36.893836      36.893836    
   3390000   0.52975577    -7.7473614     -6.952739       4.1903369      50218.233      36.893836      36.893836      36.893836    
   3400000   0.53376114    -7.7473142     -6.9466839      4.1936066      50218.233      36.893836      36.893836      36.893836    
   3410000   0.52938117    -7.746433      -6.9523725      4.2027861      50218.233      36.893836      36.893836      36.893836    
   3420000   0.53248354    -7.745128      -6.9464141      4.2273168      50218.233      36.893836      36.893836      36.893836    
   3430000   0.52962127    -7.7464348     -6.9520142      4.2028868      50218.233      36.893836      36.893836      36.893836    
   3440000   0.52931437    -7.7440563     -6.950096       4.2088731      50218.233      36.893836      36.893836      36.893836    
   3450000   0.53057611    -7.7514736     -6.9556208      4.1736508      50218.233      36.893836      36.893836      36.893836    
   3460000   0.53040436    -7.7479691     -6.9523739      4.1897859      50218.233      36.893836      36.893836      36.893836    
   3470000   0.52651373    -7.7479148     -6.9581554      4.1851534      50218.233      36.893836      36.893836      36.893836    
   3480000   0.52878411    -7.7481245     -6.9549596      4.2035696      50218.233      36.893836      36.893836      36.893836    
   3490000   0.53098185    -7.7490077     -6.9525462      4.1862793      50218.233      36.893836      36.893836      36.893836    
   3500000   0.52875106    -7.7465772     -6.9534619      4.2077309      50218.233      36.893836      36.893836      36.893836    
   3510000   0.52868618    -7.7445965     -6.9515785      4.2007148      50218.233      36.893836      36.893836      36.893836    
   3520000   0.52943909    -7.7461148     -6.9519674      4.215659       50218.233      36.893836      36.893836      36.893836    
   3530000   0.52906336    -7.7478972     -6.9543135      4.1982584      50218.233      36.893836      36.893836      36.893836    
   3540000   0.53045111    -7.7487142     -6.9530488      4.20267        50218.233      36.893836      36.893836      36.893836    
   3550000   0.53272774    -7.7480995     -6.9490193      4.1987275      50218.233      36.893836      36.893836      36.893836    
   3560000   0.52963592    -7.7452603     -6.9508177      4.2175864      50218.233      36.893836      36.893836      36.893836    
   3570000   0.52895786    -7.7553222     -6.9618967      4.1404411      50218.233      36.893836      36.893836      36.893836    
   3580000   0.52437113    -7.7488876     -6.9623421      4.1890897      50218.233      36.893836      36.893836      36.893836    
   3590000   0.52751585    -7.7479137     -6.9566512      4.1957376      50218.233      36.893836      36.893836      36.893836    
   3600000   0.53008768    -7.7449914     -6.9498712      4.2257641      50218.233      36.893836      36.893836      36.893836    
   3610000   0.52909718    -7.7474142     -6.9537797      4.1905945      50218.233      36.893836      36.893836      36.893836    
   3620000   0.52952857    -7.7493676     -6.955086       4.1770446      50218.233      36.893836      36.893836      36.893836    
   3630000   0.53161432    -7.7514921     -6.954082       4.1814263      50218.233      36.893836      36.893836      36.893836    
   3640000   0.53208372    -7.7515369     -6.9534226      4.1744461      50218.233      36.893836      36.893836      36.893836    
   3650000   0.53119101    -7.7503193     -6.9535441      4.1793198      50218.233      36.893836      36.893836      36.893836    
   3660000   0.53253664    -7.7498007     -6.9510071      4.1853865      50218.233      36.893836      36.893836      36.893836    
   3670000   0.52887625    -7.7502519     -6.9569488      4.1710972      50218.233      36.893836      36.893836      36.893836    
   3680000   0.53025252    -7.7523545     -6.9569871      4.1700903      50218.233      36.893836      36.893836      36.893836    
   3690000   0.52720575    -7.7466959     -6.9558985      4.198157       50218.233      36.893836      36.893836      36.893836    
   3700000   0.52979704    -7.7530138     -6.9583295      4.1631455      50218.233      36.893836      36.893836      36.893836    
   3710000   0.52777173    -7.7437024     -6.9520561      4.2173181      50218.233      36.893836      36.893836      36.893836    
   3720000   0.53128983    -7.7469338     -6.9500104      4.2046653      50218.233      36.893836      36.893836      36.893836    
   3730000   0.53000077    -7.7504924     -6.9555026      4.1708488      50218.233      36.893836      36.893836      36.893836    
   3740000   0.53334204    -7.7486133     -6.9486116      4.1921423      50218.233      36.893836      36.893836      36.893836    
   3750000   0.52840742    -7.7439446     -6.9513447      4.2145809      50218.233      36.893836      36.893836      36.893836    
   3760000   0.52977027    -7.7484434     -6.9537993      4.1802396      50218.233      36.893836      36.893836      36.893836    
   3770000   0.52859492    -7.7473364     -6.9544553      4.2000445      50218.233      36.893836      36.893836      36.893836    
   3780000   0.52975556    -7.7461269     -6.9515048      4.207868       50218.233      36.893836      36.893836      36.893836    
   3790000   0.52745706    -7.7493914     -6.9582171      4.1789135      50218.233      36.893836      36.893836      36.893836    
   3800000   0.5283196     -7.7475196     -6.9550514      4.1926171      50218.233      36.893836      36.893836      36.893836    
   3810000   0.52953066    -7.7458386     -6.9515539      4.2145801      50218.233      36.893836      36.893836      36.893836    
   3820000   0.52927402    -7.7450927     -6.951193       4.2120672      50218.233      36.893836      36.893836      36.893836    
   3830000   0.52956734    -7.750669      -6.9563292      4.1785531      50218.233      36.893836      36.893836      36.893836    
   3840000   0.53230622    -7.7494007     -6.9509528      4.1817901      50218.233      36.893836      36.893836      36.893836    
   3850000   0.52996152    -7.7461211     -6.9511902      4.2226251      50218.233      36.893836      36.893836      36.893836    
   3860000   0.53033681    -7.7451021     -6.9496082      4.2132045      50218.233      36.893836      36.893836      36.893836    
   3870000   0.52717447    -7.7491439     -6.9583935      4.1778354      50218.233      36.893836      36.893836      36.893836    
   3880000   0.53009955    -7.7415568     -6.9464188      4.2492493      50218.233      36.893836      36.893836      36.893836    
   3890000   0.52942214    -7.7490526     -6.9549307      4.191871       50218.233      36.893836      36.893836      36.893836    
   3900000   0.53116037    -7.7396616     -6.9429324      4.2575511      50218.233      36.893836      36.893836      36.893836    
   3910000   0.52772791    -7.7467852     -6.9552046      4.2000402      50218.233      36.893836      36.893836      36.893836    
   3920000   0.52875381    -7.7465581     -6.9534387      4.1948293      50218.233      36.893836      36.893836      36.893836    
   3930000   0.52893443    -7.7480747     -6.9546844      4.1976387      50218.233      36.893836      36.893836      36.893836    
   3940000   0.53023759    -7.7481003     -6.9527553      4.208594       50218.233      36.893836      36.893836      36.893836    
   3950000   0.52837168    -7.7484899     -6.9559437      4.1884169      50218.233      36.893836      36.893836      36.893836    
   3960000   0.53000365    -7.7455932     -6.950599       4.2060205      50218.233      36.893836      36.893836      36.893836    
   3970000   0.53049286    -7.7479997     -6.9522718      4.1926967      50218.233      36.893836      36.893836      36.893836    
   3980000   0.52908096    -7.7454403     -6.9518302      4.1998578      50218.233      36.893836      36.893836      36.893836    
   3990000   0.52873845    -7.7491497     -6.9560533      4.1868681      50218.233      36.893836      36.893836      36.893836    
   4000000   0.5273864     -7.7449872     -6.9539189      4.2147762      50218.233      36.893836      36.893836      36.893836    
   4010000   0.52717425    -7.7457836     -6.9550334      4.2098967      50218.233      36.893836      36.893836      36.893836    
   4020000   0.52966477    -7.7415376     -6.9470518      4.2567794      50218.233      36.893836      36.893836      36.893836    
   4030000   0.52931311    -7.7442505     -6.9502921      4.2207784      50218.233      36.893836      36.893836      36.893836    
   4040000   0.52936456    -7.7503686     -6.9563331      4.1856051      50218.233      36.893836      36.893836      36.893836    
   4050000   0.5288135     -7.7450912     -6.9518822      4.1977947      50218.233      36.893836      36.893836      36.893836    
   4060000   0.52848233    -7.7432866     -6.9505744      4.232268       50218.233      36.893836      36.893836      36.893836    
   4070000   0.52904569    -7.7456688     -6.9521115      4.2043606      50218.233      36.893836      36.893836      36.893836    
   4080000   0.52695472    -7.7484288     -6.958008       4.1779819      50218.233      36.893836      36.893836      36.893836    
   4090000   0.52840618    -7.7426069     -6.9500089      4.2264613      50218.233      36.893836      36.893836      36.893836    
   4100000   0.52965185    -7.7485547     -6.9540882      4.1795575      50218.233      36.893836      36.893836      36.893836    
   4110000   0.52846219    -7.7434732     -6.9507912      4.2188422      50218.233      36.893836      36.893836      36.893836    
   4120000   0.53035896    -7.7468198     -6.9512927      4.2061365      50218.233      36.893836      36.893836      36.893836    
   4130000   0.52964753    -7.7447544     -6.9502944      4.2232114      50218.233      36.893836      36.893836      36.893836    
   4140000   0.52963184    -7.7474407     -6.9530042      4.1871197      50218.233      36.893836      36.893836      36.893836    
   4150000   0.53062902    -7.744924      -6.9489918      4.2137859      50218.233      36.893836      36.893836      36.893836    
   4160000   0.52821742    -7.7464957     -6.9541808      4.1955926      50218.233      36.893836      36.893836      36.893836    
   4170000   0.52926318    -7.7455162     -6.9516328      4.2078696      50218.233      36.893836      36.893836      36.893836    
   4180000   0.53164944    -7.7439866     -6.9465238      4.2278683      50218.233      36.893836      36.893836      36.893836    
   4190000   0.53127266    -7.7452832     -6.9483855      4.2039885      50218.233      36.893836      36.893836      36.893836    
   4200000   0.5313782     -7.7450081     -6.9479521      4.217434       50218.233      36.893836      36.893836      36.893836    
   4210000   0.53034562    -7.7470596     -6.9515524      4.2054828      50218.233      36.893836      36.893836      36.893836    
   4220000   0.52741122    -7.7496417     -6.9585362      4.1831244      50218.233      36.893836      36.893836      36.893836    
   4230000   0.530499      -7.746878      -6.9511408      4.2146787      50218.233      36.893836      36.893836      36.893836    
   4240000   0.53437227    -7.7532653     -6.9517183      4.1617197      50218.233      36.893836      36.893836      36.893836    
   4250000   0.52994517    -7.7440673     -6.9491608      4.2294315      50218.233      36.893836      36.893836      36.893836    
   4260000   0.52679477    -7.7444513     -6.9542704      4.217783       50218.233      36.893836      36.893836      36.893836    
   4270000   0.53050174    -7.7469868     -6.9512455      4.2002726      50218.233      36.893836      36.893836      36.893836    
   4280000   0.52829959    -7.7455307     -6.9530926      4.2126935      50218.233      36.893836      36.893836      36.893836    
   4290000   0.53063292    -7.746231      -6.9502929      4.2088196      50218.233      36.893836      36.893836      36.893836    
   4300000   0.53217269    -7.750365      -6.9521173      4.1869378      50218.233      36.893836      36.893836      36.893836    
   4310000   0.53142362    -7.7484421     -6.951318       4.1771851      50218.233      36.893836      36.893836      36.893836    
   4320000   0.52849732    -7.7474006     -6.9546659      4.1954827      50218.233      36.893836      36.893836      36.893836    
   4330000   0.52647603    -7.7536572     -6.9639544      4.1481944      50218.233      36.893836      36.893836      36.893836    
   4340000   0.52938752    -7.7488036     -6.9547336      4.1814262      50218.233      36.893836      36.893836      36.893836    
   4350000   0.52927243    -7.7480139     -6.9541166      4.1931005      50218.233      36.893836      36.893836      36.893836    
   4360000   0.5304493     -7.7467839     -6.9511213      4.2132968      50218.233      36.893836      36.893836      36.893836    
   4370000   0.53065781    -7.7485556     -6.9525802      4.1957967      50218.233      36.893836      36.893836      36.893836    
   4380000   0.52729016    -7.7470289     -6.9561049      4.1934309      50218.233      36.893836      36.893836      36.893836    
   4390000   0.53004616    -7.7536105     -6.9585525      4.1415922      50218.233      36.893836      36.893836      36.893836    
   4400000   0.52843891    -7.7471182     -6.9544712      4.2054139      50218.233      36.893836      36.893836      36.893836    
   4410000   0.53101093    -7.7476806     -6.9511755      4.1827857      50218.233      36.893836      36.893836      36.893836    
   4420000   0.52752062    -7.7511362     -6.9598666      4.1649151      50218.233      36.893836      36.893836      36.893836    
   4430000   0.5290412     -7.7492742     -6.9557237      4.1766184      50218.233      36.893836      36.893836      36.893836    
   4440000   0.52829152    -7.7534202     -6.9609942      4.1469509      50218.233      36.893836      36.893836      36.893836    
   4450000   0.52951007    -7.7509832     -6.9567294      4.1646551      50218.233      36.893836      36.893836      36.893836    
   4460000   0.52992176    -7.7484459     -6.9535746      4.1897474      50218.233      36.893836      36.893836      36.893836    
   4470000   0.53211601    -7.7445646     -6.946402       4.2255879      50218.233      36.893836      36.893836      36.893836    
   4480000   0.52861764    -7.7435048     -6.9505896      4.2246494      50218.233      36.893836      36.893836      36.893836    
   4490000   0.52934377    -7.7441165     -6.9501122      4.2328625      50218.233      36.893836      36.893836      36.893836    
   4500000   0.52895561    -7.7488249     -6.9554027      4.2006785      50218.233      36.893836      36.893836      36.893836    
   4510000   0.52817607    -7.7434479     -6.951195       4.2201308      50218.233      36.893836      36.893836      36.893836    
   4520000   0.52957895    -7.7468702     -6.9525131      4.1967747      50218.233      36.893836      36.893836      36.893836    
   4530000   0.52708944    -7.7463683     -6.9557454      4.2053511      50218.233      36.893836      36.893836      36.893836    
   4540000   0.52933857    -7.7416901     -6.9476935      4.2498863      50218.233      36.893836      36.893836      36.893836    
   4550000   0.53116339    -7.744652      -6.9479182      4.2190264      50218.233      36.893836      36.893836      36.893836    
   4560000   0.53233251    -7.7488892     -6.9504018      4.1891474      50218.233      36.893836      36.893836      36.893836    
   4570000   0.53021883    -7.7467866     -6.9514697      4.2131646      50218.233      36.893836      36.893836      36.893836    
   4580000   0.53026696    -7.7502787     -6.9548896      4.1796819      50218.233      36.893836      36.893836      36.893836    
   4590000   0.52988269    -7.744707      -6.9498943      4.2258998      50218.233      36.893836      36.893836      36.893836    
   4600000   0.53076198    -7.75078       -6.9546483      4.179064       50218.233      36.893836      36.893836      36.893836    
   4610000   0.52947977    -7.7445714     -6.950363       4.2214749      50218.233      36.893836      36.893836      36.893836    
   4620000   0.53029403    -7.7440459     -6.9486161      4.2270302      50218.233      36.893836      36.893836      36.893836    
   4630000   0.53167368    -7.7472553     -6.9497561      4.209925       50218.233      36.893836      36.893836      36.893836    
   4640000   0.53092385    -7.7494357     -6.9530612      4.1718584      50218.233      36.893836      36.893836      36.893836    
   4650000   0.53111979    -7.7454286     -6.9487602      4.1996264      50218.233      36.893836      36.893836      36.893836    
   4660000   0.52941933    -7.7459084     -6.9517907      4.217529       50218.233      36.893836      36.893836      36.893836    
   4670000   0.52932428    -7.7428398     -6.9488646      4.2265089      50218.233      36.893836      36.893836      36.893836    
   4680000   0.53015449    -7.7451759     -6.9499554      4.2157348      50218.233      36.893836      36.893836      36.893836    
   4690000   0.52860361    -7.7471886     -6.9542944      4.1961673      50218.233      36.893836      36.893836      36.893836    
   4700000   0.53059121    -7.7500158     -6.9541403      4.1759167      50218.233      36.893836      36.893836      36.893836    
   4710000   0.53077301    -7.7433701     -6.9472219      4.2255048      50218.233      36.893836      36.893836      36.893836    
   4720000   0.52550808    -7.7452132     -6.9569623      4.2087231      50218.233      36.893836      36.893836      36.893836    
   4730000   0.5291797     -7.7489585     -6.9552002      4.1877737      50218.233      36.893836      36.893836      36.893836    
   4740000   0.52836609    -7.7435095     -6.9509716      4.2190549      50218.233      36.893836      36.893836      36.893836    
   4750000   0.52953244    -7.7499338     -6.9556464      4.171761       50218.233      36.893836      36.893836      36.893836    
   4760000   0.53127074    -7.7439984     -6.9471036      4.2301565      50218.233      36.893836      36.893836      36.893836    
   4770000   0.52971065    -7.7438841     -6.9493294      4.2274314      50218.233      36.893836      36.893836      36.893836    
   4780000   0.52875294    -7.7420258     -6.9489076      4.2364371      50218.233      36.893836      36.893836      36.893836    
   4790000   0.53069654    -7.747037      -6.9510035      4.1985816      50218.233      36.893836      36.893836      36.893836    
   4800000   0.52693165    -7.7435704     -6.9531842      4.2201045      50218.233      36.893836      36.893836      36.893836    
   4810000   0.52652036    -7.7443577     -6.9545884      4.2134584      50218.233      36.893836      36.893836      36.893836    
   4820000   0.53101973    -7.7451925     -6.9486742      4.2099763      50218.233      36.893836      36.893836      36.893836    
   4830000   0.53233092    -7.7460406     -6.9475556      4.2067341      50218.233      36.893836      36.893836      36.893836    
   4840000   0.52953154    -7.7436799     -6.9493939      4.22246        50218.233      36.893836      36.893836      36.893836    
   4850000   0.52933388    -7.7480956     -6.9541061      4.1960264      50218.233      36.893836      36.893836      36.893836    
   4860000   0.52980424    -7.744295      -6.9495999      4.224278       50218.233      36.893836      36.893836      36.893836    
   4870000   0.52813586    -7.7421416     -6.9499491      4.2278366      50218.233      36.893836      36.893836      36.893836    
   4880000   0.52818923    -7.7372598     -6.9449872      4.2622595      50218.233      36.893836      36.893836      36.893836    
   4890000   0.52998072    -7.7455872     -6.9506274      4.2041957      50218.233      36.893836      36.893836      36.893836    
   4900000   0.5265396     -7.7459899     -6.9561917      4.2031223      50218.233      36.893836      36.893836      36.893836    
   4910000   0.53026256    -7.7424925     -6.94711        4.2461991      50218.233      36.893836      36.893836      36.893836    
   4920000   0.52853882    -7.7480939     -6.955297       4.1880123      50218.233      36.893836      36.893836      36.893836    
   4930000   0.52770931    -7.7504716     -6.9589189      4.1719872      50218.233      36.893836      36.893836      36.893836    
   4940000   0.53089444    -7.7404        -6.9440697      4.2440684      50218.233      36.893836      36.893836      36.893836    
   4950000   0.52833202    -7.7390591     -6.9465723      4.2469869      50218.233      36.893836      36.893836      36.893836    
   4960000   0.52909971    -7.740894      -6.9472557      4.228771       50218.233      36.893836      36.893836      36.893836    
   4970000   0.53085817    -7.7430081     -6.9467322      4.2230679      50218.233      36.893836      36.893836      36.893836    
   4980000   0.52930619    -7.7456432     -6.9516952      4.1998788      50218.233      36.893836      36.893836      36.893836    
   4990000   0.53046044    -7.7467903     -6.951111       4.1914782      50218.233      36.893836      36.893836      36.893836    
   5000000   0.53095917    -7.7445321     -6.9481047      4.2087691      50218.233      36.893836      36.893836      36.893836    
   5010000   0.52935913    -7.7440437     -6.9500163      4.2234274      50218.233      36.893836      36.893836      36.893836    
   5020000   0.52942251    -7.7492135     -6.955091       4.1732357      50218.233      36.893836      36.893836      36.893836    
   5030000   0.52959782    -7.7489013     -6.9545159      4.1823154      50218.233      36.893836      36.893836      36.893836    
   5040000   0.53034128    -7.7509446     -6.955444       4.1674013      50218.233      36.893836      36.893836      36.893836    
   5050000   0.53031924    -7.7481418     -6.9526743      4.1941749      50218.233      36.893836      36.893836      36.893836    
   5060000   0.52984503    -7.7466592     -6.951903       4.2017653      50218.233      36.893836      36.893836      36.893836    
   5070000   0.52968418    -7.7471754     -6.9526604      4.1973608      50218.233      36.893836      36.893836      36.893836    
   5080000   0.53181203    -7.7449302     -6.9472235      4.2215204      50218.233      36.893836      36.893836      36.893836    
   5090000   0.53150916    -7.7485579     -6.9513055      4.1880486      50218.233      36.893836      36.893836      36.893836    
   5100000   0.53126551    -7.744245      -6.947358       4.2166986      50218.233      36.893836      36.893836      36.893836    
   5110000   0.53014265    -7.7456121     -6.9504094      4.2126882      50218.233      36.893836      36.893836      36.893836    
   5120000   0.52950065    -7.7429589     -6.9487192      4.2184615      50218.233      36.893836      36.893836      36.893836    
   5130000   0.53071087    -7.7453953     -6.9493403      4.2142109      50218.233      36.893836      36.893836      36.893836    
   5140000   0.52761184    -7.7415623     -6.9501558      4.2362816      50218.233      36.893836      36.893836      36.893836    
   5150000   0.52968132    -7.745929      -6.9514183      4.2149441      50218.233      36.893836      36.893836      36.893836    
   5160000   0.53039822    -7.7480523     -6.9524662      4.1876722      50218.233      36.893836      36.893836      36.893836    
   5170000   0.52552868    -7.7437256     -6.9554438      4.2091819      50218.233      36.893836      36.893836      36.893836    
   5180000   0.5309428     -7.7446707     -6.9482678      4.2195294      50218.233      36.893836      36.893836      36.893836    
   5190000   0.52970046    -7.7415701     -6.9470307      4.2361957      50218.233      36.893836      36.893836      36.893836    
   5200000   0.52899655    -7.7475157     -6.9540322      4.192959       50218.233      36.893836      36.893836      36.893836    
   5210000   0.53153397    -7.7436625     -6.9463729      4.2397888      50218.233      36.893836      36.893836      36.893836    
   5220000   0.52907058    -7.7461507     -6.9525561      4.2048482      50218.233      36.893836      36.893836      36.893836    
   5230000   0.52768887    -7.7431931     -6.9516711      4.2225476      50218.233      36.893836      36.893836      36.893836    
   5240000   0.53041191    -7.7417502     -6.9461437      4.2413542      50218.233      36.893836      36.893836      36.893836    
   5250000   0.52920888    -7.7434097     -6.9496076      4.2285766      50218.233      36.893836      36.893836      36.893836    
   5260000   0.52875823    -7.7483573     -6.9552312      4.1751412      50218.233      36.893836      36.893836      36.893836    
   5270000   0.52788082    -7.7471093     -6.9552993      4.1889613      50218.233      36.893836      36.893836      36.893836    
   5280000   0.52915105    -7.74488       -6.9511647      4.211123       50218.233      36.893836      36.893836      36.893836    
   5290000   0.5276654     -7.7467671     -6.9552803      4.2031303      50218.233      36.893836      36.893836      36.893836    
   5300000   0.53036686    -7.7479046     -6.9523656      4.1908424      50218.233      36.893836      36.893836      36.893836    
   5310000   0.52763743    -7.7473701     -6.9559253      4.192939       50218.233      36.893836      36.893836      36.893836    
   5320000   0.53013363    -7.7487482     -6.9535591      4.1804707      50218.233      36.893836      36.893836      36.893836    
   5330000   0.53014737    -7.7452456     -6.9500359      4.2227738      50218.233      36.893836      36.893836      36.893836    
   5340000   0.53234543    -7.749261      -6.9507542      4.1914236      50218.233      36.893836      36.893836      36.893836    
   5350000   0.52802902    -7.7465214     -6.9544891      4.1963669      50218.233      36.893836      36.893836      36.893836    
   5360000   0.5325912     -7.7502062     -6.9513308      4.176633       50218.233      36.893836      36.893836      36.893836    
   5370000   0.53223036    -7.747501      -6.9491668      4.1965089      50218.233      36.893836      36.893836      36.893836    
   5380000   0.52964288    -7.7445824     -6.9501294      4.2122176      50218.233      36.893836      36.893836      36.893836    
   5390000   0.52712372    -7.7469682     -6.9562939      4.1904302      50218.233      36.893836      36.893836      36.893836    
   5400000   0.52896109    -7.749978      -6.9565477      4.1734195      50218.233      36.893836      36.893836      36.893836    
   5410000   0.53065551    -7.7428779     -6.9469059      4.2277885      50218.233      36.893836      36.893836      36.893836    
   5420000   0.53189143    -7.7437891     -6.9459633      4.2310735      50218.233      36.893836      36.893836      36.893836    
   5430000   0.52802944    -7.7455637     -6.9535308      4.2115774      50218.233      36.893836      36.893836      36.893836    
   5440000   0.53056252    -7.7476153     -6.9517828      4.1941195      50218.233      36.893836      36.893836      36.893836    
   5450000   0.52941614    -7.7443711     -6.9502582      4.2186777      50218.233      36.893836      36.893836      36.893836    
   5460000   0.52937225    -7.7463508     -6.9523038      4.1969817      50218.233      36.893836      36.893836      36.893836    
   5470000   0.52920551    -7.7464735     -6.9526766      4.195318       50218.233      36.893836      36.893836      36.893836    
   5480000   0.52877108    -7.7488123     -6.955667       4.1769754      50218.233      36.893836      36.893836      36.893836    
   5490000   0.5307075     -7.7512098     -6.9551599      4.1803602      50218.233      36.893836      36.893836      36.893836    
   5500000   0.52844335    -7.7500927     -6.9574389      4.1693661      50218.233      36.893836      36.893836      36.893836    
   5510000   0.53053926    -7.7494945     -6.953697       4.1770378      50218.233      36.893836      36.893836      36.893836    
   5520000   0.52871961    -7.7487525     -6.9556844      4.1797423      50218.233      36.893836      36.893836      36.893836    
   5530000   0.52988479    -7.744337      -6.9495211      4.2184096      50218.233      36.893836      36.893836      36.893836    
   5540000   0.53247514    -7.7504798     -6.9517785      4.1676419      50218.233      36.893836      36.893836      36.893836    
   5550000   0.53122592    -7.7486599     -6.9518323      4.1865265      50218.233      36.893836      36.893836      36.893836    
   5560000   0.53029058    -7.7452702     -6.9498456      4.2180883      50218.233      36.893836      36.893836      36.893836    
   5570000   0.52964952    -7.7496707     -6.9552077      4.180121       50218.233      36.893836      36.893836      36.893836    
   5580000   0.53090551    -7.7449017     -6.9485548      4.2150424      50218.233      36.893836      36.893836      36.893836    
   5590000   0.53006544    -7.7449121     -6.9498253      4.2091788      50218.233      36.893836      36.893836      36.893836    
   5600000   0.5281228     -7.7487173     -6.9565443      4.1847157      50218.233      36.893836      36.893836      36.893836    
   5610000   0.5298085     -7.7493406     -6.9546391      4.1873283      50218.233      36.893836      36.893836      36.893836    
   5620000   0.52988982    -7.7504357     -6.9556123      4.1785495      50218.233      36.893836      36.893836      36.893836    
   5630000   0.53165253    -7.7502198     -6.9527524      4.1795737      50218.233      36.893836      36.893836      36.893836    
   5640000   0.53127711    -7.7470992     -6.9501949      4.1866661      50218.233      36.893836      36.893836      36.893836    
   5650000   0.53082444    -7.7497693     -6.953544       4.1744241      50218.233      36.893836      36.893836      36.893836    
   5660000   0.53106053    -7.7478285     -6.9512491      4.2048145      50218.233      36.893836      36.893836      36.893836    
   5670000   0.53266817    -7.7443776     -6.9453867      4.212582       50218.233      36.893836      36.893836      36.893836    
   5680000   0.52737738    -7.7455066     -6.9544517      4.2159586      50218.233      36.893836      36.893836      36.893836    
   5690000   0.5310954     -7.7474703     -6.9508385      4.1998083      50218.233      36.893836      36.893836      36.893836    
   5700000   0.52867484    -7.7460738     -6.9530728      4.213787       50218.233      36.893836      36.893836      36.893836    
   5710000   0.52660551    -7.7521038     -6.9622068      4.1643939      50218.233      36.893836      36.893836      36.893836    
   5720000   0.52902248    -7.7502644     -6.9567419      4.1801567      50218.233      36.893836      36.893836      36.893836    
   5730000   0.52855266    -7.7486178     -6.9558001      4.1903014      50218.233      36.893836      36.893836      36.893836    
   5740000   0.53315263    -7.7430404     -6.9433228      4.2322484      50218.233      36.893836      36.893836      36.893836    
   5750000   0.53022413    -7.7463239     -6.9509991      4.1923041      50218.233      36.893836      36.893836      36.893836    
   5760000   0.52839473    -7.7474484     -6.9548675      4.1867032      50218.233      36.893836      36.893836      36.893836    
   5770000   0.53340804    -7.7521909     -6.9520902      4.1740585      50218.233      36.893836      36.893836      36.893836    
   5780000   0.52817615    -7.7476402     -6.9553873      4.1937647      50218.233      36.893836      36.893836      36.893836    
   5790000   0.52825869    -7.7506853     -6.9583085      4.1634691      50218.233      36.893836      36.893836      36.893836    
   5800000   0.53016164    -7.748949      -6.9537178      4.1918278      50218.233      36.893836      36.893836      36.893836    
   5810000   0.53150418    -7.7479397     -6.9506948      4.1797185      50218.233      36.893836      36.893836      36.893836    
   5820000   0.52818456    -7.7469918     -6.9547262      4.2066308      50218.233      36.893836      36.893836      36.893836    
   5830000   0.52925421    -7.7505065     -6.9566365      4.1644421      50218.233      36.893836      36.893836      36.893836    
   5840000   0.53064165    -7.7526792     -6.956728       4.1569528      50218.233      36.893836      36.893836      36.893836    
   5850000   0.52758818    -7.7502332     -6.9588622      4.1709235      50218.233      36.893836      36.893836      36.893836    
   5860000   0.53009492    -7.7510307     -6.9558996      4.1614977      50218.233      36.893836      36.893836      36.893836    
   5870000   0.53012751    -7.7479695     -6.9527895      4.1830309      50218.233      36.893836      36.893836      36.893836    
   5880000   0.52871956    -7.7529348     -6.9598667      4.1553003      50218.233      36.893836      36.893836      36.893836    
   5890000   0.53097877    -7.7523729     -6.9559161      4.1584151      50218.233      36.893836      36.893836      36.893836    
   5900000   0.52730637    -7.7481914     -6.9572431      4.1927331      50218.233      36.893836      36.893836      36.893836    
   5910000   0.52770665    -7.748168      -6.9566193      4.1820742      50218.233      36.893836      36.893836      36.893836    
   5920000   0.52943504    -7.7481403     -6.953999       4.1841631      50218.233      36.893836      36.893836      36.893836    
   5930000   0.52757687    -7.7442707     -6.9529167      4.2094209      50218.233      36.893836      36.893836      36.893836    
   5940000   0.53088707    -7.745776      -6.9494567      4.2110708      50218.233      36.893836      36.893836      36.893836    
   5950000   0.52942128    -7.7476444     -6.9535237      4.1859623      50218.233      36.893836      36.893836      36.893836    
   5960000   0.52983619    -7.7448555     -6.9501125      4.2115587      50218.233      36.893836      36.893836      36.893836    
   5970000   0.52900031    -7.753739      -6.9602498      4.1445729      50218.233      36.893836      36.893836      36.893836    
   5980000   0.529571      -7.7532441     -6.9588989      4.1525409      50218.233      36.893836      36.893836      36.893836    
   5990000   0.53117684    -7.7448964     -6.9481425      4.2096032      50218.233      36.893836      36.893836      36.893836    
   6000000   0.53127855    -7.7488169     -6.9519104      4.1800263      50218.233      36.893836      36.893836      36.893836    
   6010000   0.52873294    -7.7426116     -6.9495235      4.2307285      50218.233      36.893836      36.893836      36.893836    
   6020000   0.52949072    -7.7494327     -6.9552079      4.1824734      50218.233      36.893836      36.893836      36.893836    
   6030000   0.53165906    -7.7465558     -6.9490786      4.2175982      50218.233      36.893836      36.893836      36.893836    
   6040000   0.5310321     -7.7446553     -6.9481185      4.2095448      50218.233      36.893836      36.893836      36.893836    
   6050000   0.53111413    -7.750212      -6.9535521      4.1759507      50218.233      36.893836      36.893836      36.893836    
   6060000   0.52965078    -7.7457644     -6.9512996      4.2170849      50218.233      36.893836      36.893836      36.893836    
   6070000   0.53187962    -7.7449946     -6.9471865      4.2171813      50218.233      36.893836      36.893836      36.893836    
   6080000   0.52925314    -7.7499764     -6.956108       4.1762224      50218.233      36.893836      36.893836      36.893836    
   6090000   0.53074253    -7.7467269     -6.9506244      4.2085037      50218.233      36.893836      36.893836      36.893836    
   6100000   0.52966369    -7.74366       -6.9491757      4.2146033      50218.233      36.893836      36.893836      36.893836    
   6110000   0.52679649    -7.7487308     -6.9585473      4.1783718      50218.233      36.893836      36.893836      36.893836    
   6120000   0.53246891    -7.7428563     -6.9441643      4.2371471      50218.233      36.893836      36.893836      36.893836    
   6130000   0.53246388    -7.7492265     -6.950542       4.1968057      50218.233      36.893836      36.893836      36.893836    
   6140000   0.5303534     -7.7487475     -6.9532287      4.1846348      50218.233      36.893836      36.893836      36.893836    
   6150000   0.53065868    -7.7457204     -6.9497437      4.2211464      50218.233      36.893836      36.893836      36.893836    
   6160000   0.53269781    -7.750771      -6.9517356      4.1823472      50218.233      36.893836      36.893836      36.893836    
   6170000   0.52925818    -7.7486975     -6.9548215      4.1706457      50218.233      36.893836      36.893836      36.893836    
   6180000   0.5281004     -7.745197      -6.9530577      4.2058592      50218.233      36.893836      36.893836      36.893836    
   6190000   0.52740229    -7.748102      -6.9570099      4.1893226      50218.233      36.893836      36.893836      36.893836    
   6200000   0.5308208     -7.7470821     -6.9508622      4.2049445      50218.233      36.893836      36.893836      36.893836    
   6210000   0.52781662    -7.7465738     -6.9548602      4.2080614      50218.233      36.893836      36.893836      36.893836    
   6220000   0.53055949    -7.747836      -6.9520081      4.1968022      50218.233      36.893836      36.893836      36.893836    
   6230000   0.52971548    -7.7453671     -6.9508052      4.2105261      50218.233      36.893836      36.893836      36.893836    
   6240000   0.5296768     -7.7459368     -6.951433       4.2054018      50218.233      36.893836      36.893836      36.893836    
   6250000   0.53055237    -7.7490383     -6.9532211      4.1825998      50218.233      36.893836      36.893836      36.893836    
   6260000   0.53160267    -7.7469802     -6.9495876      4.2197389      50218.233      36.893836      36.893836      36.893836    
   6270000   0.53056404    -7.7498537     -6.954019       4.1896099      50218.233      36.893836      36.893836      36.893836    
   6280000   0.52946721    -7.7476775     -6.953488       4.1892076      50218.233      36.893836      36.893836      36.893836    
   6290000   0.53110862    -7.7483835     -6.9517319      4.1876715      50218.233      36.893836      36.893836      36.893836    
   6300000   0.5331207     -7.7442447     -6.944575       4.221124       50218.233      36.893836      36.893836      36.893836    
   6310000   0.5314751     -7.7464535     -6.9492522      4.203072       50218.233      36.893836      36.893836      36.893836    
   6320000   0.52893293    -7.7492745     -6.9558864      4.17333        50218.233      36.893836      36.893836      36.893836    
   6330000   0.52931856    -7.7464987     -6.9525322      4.1942561      50218.233      36.893836      36.893836      36.893836    
   6340000   0.52783655    -7.7492933     -6.9575497      4.1941226      50218.233      36.893836      36.893836      36.893836    
   6350000   0.53180348    -7.7512425     -6.9535486      4.1727496      50218.233      36.893836      36.893836      36.893836    
   6360000   0.52962879    -7.7503952     -6.9559633      4.175636       50218.233      36.893836      36.893836      36.893836    
   6370000   0.53263269    -7.7473439     -6.9484062      4.2083136      50218.233      36.893836      36.893836      36.893836    
   6380000   0.53028038    -7.7463035     -6.9508942      4.2069362      50218.233      36.893836      36.893836      36.893836    
   6390000   0.53013473    -7.7481501     -6.9529593      4.1894116      50218.233      36.893836      36.893836      36.893836    
   6400000   0.52880658    -7.7465947     -6.9533961      4.1867995      50218.233      36.893836      36.893836      36.893836    
   6410000   0.52919327    -7.74658       -6.9528014      4.2126033      50218.233      36.893836      36.893836      36.893836    
   6420000   0.53022709    -7.7481089     -6.9527796      4.198191       50218.233      36.893836      36.893836      36.893836    
   6430000   0.53029533    -7.7474829     -6.9520512      4.2043049      50218.233      36.893836      36.893836      36.893836    
   6440000   0.52855855    -7.7480902     -6.9552637      4.1910406      50218.233      36.893836      36.893836      36.893836    
   6450000   0.53049917    -7.7474026     -6.9516652      4.2065314      50218.233      36.893836      36.893836      36.893836    
   6460000   0.53153795    -7.7498878     -6.9525922      4.1806848      50218.233      36.893836      36.893836      36.893836    
   6470000   0.53048939    -7.7500082     -6.9542855      4.1879536      50218.233      36.893836      36.893836      36.893836    
   6480000   0.53036357    -7.7482076     -6.9526735      4.2032691      50218.233      36.893836      36.893836      36.893836    
   6490000   0.53030033    -7.7481887     -6.9527496      4.2031077      50218.233      36.893836      36.893836      36.893836    
   6500000   0.53075236    -7.7489898     -6.9528726      4.1942888      50218.233      36.893836      36.893836      36.893836    
   6510000   0.5349677     -7.7504836     -6.9480435      4.1741119      50218.233      36.893836      36.893836      36.893836    
   6520000   0.532154      -7.745923      -6.9477033      4.2061707      50218.233      36.893836      36.893836      36.893836    
   6530000   0.5283288     -7.7504032     -6.9579212      4.1790876      50218.233      36.893836      36.893836      36.893836    
   6540000   0.5297061     -7.7468343     -6.9522865      4.1982294      50218.233      36.893836      36.893836      36.893836    
   6550000   0.5314017     -7.7528701     -6.9557789      4.162643       50218.233      36.893836      36.893836      36.893836    
   6560000   0.53071741    -7.7504849     -6.9544201      4.1773056      50218.233      36.893836      36.893836      36.893836    
   6570000   0.53154443    -7.7526875     -6.9553822      4.1524556      50218.233      36.893836      36.893836      36.893836    
   6580000   0.53032527    -7.7479296     -6.952453       4.1953525      50218.233      36.893836      36.893836      36.893836    
   6590000   0.53044474    -7.7444144     -6.9487586      4.2255547      50218.233      36.893836      36.893836      36.893836    
   6600000   0.52938837    -7.7513446     -6.9572733      4.1737969      50218.233      36.893836      36.893836      36.893836    
   6610000   0.53204527    -7.7484196     -6.9503631      4.1944359      50218.233      36.893836      36.893836      36.893836    
   6620000   0.53043056    -7.7499237     -6.9542892      4.1834802      50218.233      36.893836      36.893836      36.893836    
   6630000   0.53114285    -7.749165      -6.9524621      4.1818499      50218.233      36.893836      36.893836      36.893836    
   6640000   0.52902691    -7.7504717     -6.9569427      4.1803632      50218.233      36.893836      36.893836      36.893836    
   6650000   0.52804469    -7.7523777     -6.9603219      4.1592539      50218.233      36.893836      36.893836      36.893836    
   6660000   0.53183211    -7.7496292     -6.9518924      4.1822885      50218.233      36.893836      36.893836      36.893836    
   6670000   0.5294294     -7.7472204     -6.9530876      4.2035081      50218.233      36.893836      36.893836      36.893836    
   6680000   0.53121268    -7.7542107     -6.957403       4.1426953      50218.233      36.893836      36.893836      36.893836    
   6690000   0.53019993    -7.746645      -6.9513565      4.2049154      50218.233      36.893836      36.893836      36.893836    
   6700000   0.52734806    -7.7494362     -6.9584254      4.1872285      50218.233      36.893836      36.893836      36.893836    
   6710000   0.5303568     -7.7437379     -6.948214       4.2256199      50218.233      36.893836      36.893836      36.893836    
   6720000   0.53258382    -7.7529852     -6.9541208      4.1629734      50218.233      36.893836      36.893836      36.893836    
   6730000   0.53078679    -7.748421      -6.9522522      4.1997431      50218.233      36.893836      36.893836      36.893836    
   6740000   0.52889394    -7.7528838     -6.9595542      4.1643724      50218.233      36.893836      36.893836      36.893836    
   6750000   0.53087203    -7.7497146     -6.9534179      4.1826056      50218.233      36.893836      36.893836      36.893836    
   6760000   0.5322562     -7.7479378     -6.9495649      4.1967101      50218.233      36.893836      36.893836      36.893836    
   6770000   0.52686119    -7.7477391     -6.9574586      4.1913139      50218.233      36.893836      36.893836      36.893836    
   6780000   0.52928188    -7.7502392     -6.9563277      4.1773293      50218.233      36.893836      36.893836      36.893836    
   6790000   0.53101765    -7.7509444     -6.9544292      4.1716424      50218.233      36.893836      36.893836      36.893836    
   6800000   0.53141789    -7.7483624     -6.9512469      4.1889527      50218.233      36.893836      36.893836      36.893836    
   6810000   0.52998253    -7.7498768     -6.9549143      4.174838       50218.233      36.893836      36.893836      36.893836    
   6820000   0.53210806    -7.7468276     -6.9486769      4.2057198      50218.233      36.893836      36.893836      36.893836    
   6830000   0.52923393    -7.7468752     -6.9530356      4.2128733      50218.233      36.893836      36.893836      36.893836    
   6840000   0.53195412    -7.7517966     -6.9538767      4.1731613      50218.233      36.893836      36.893836      36.893836    
   6850000   0.52851802    -7.7511568     -6.958391       4.159868       50218.233      36.893836      36.893836      36.893836    
   6860000   0.5283294     -7.7500256     -6.9575428      4.1868888      50218.233      36.893836      36.893836      36.893836    
   6870000   0.53524744    -7.7456665     -6.9428067      4.2237112      50218.233      36.893836      36.893836      36.893836    
   6880000   0.52887947    -7.7497196     -6.9564117      4.1877245      50218.233      36.893836      36.893836      36.893836    
   6890000   0.52911963    -7.7486192     -6.9549511      4.1903558      50218.233      36.893836      36.893836      36.893836    
   6900000   0.52919901    -7.7485039     -6.9547166      4.1991999      50218.233      36.893836      36.893836      36.893836    
   6910000   0.53140563    -7.7472762     -6.9501791      4.1956361      50218.233      36.893836      36.893836      36.893836    
   6920000   0.52891108    -7.7518245     -6.9584692      4.1651421      50218.233      36.893836      36.893836      36.893836    
   6930000   0.52999702    -7.7491665     -6.9541823      4.1780983      50218.233      36.893836      36.893836      36.893836    
   6940000   0.52570508    -7.7488381     -6.9602917      4.1848716      50218.233      36.893836      36.893836      36.893836    
   6950000   0.52987367    -7.7473723     -6.9525731      4.2083107      50218.233      36.893836      36.893836      36.893836    
   6960000   0.52922192    -7.7506977     -6.9568761      4.1760004      50218.233      36.893836      36.893836      36.893836    
   6970000   0.52955645    -7.7496655     -6.9553421      4.1842307      50218.233      36.893836      36.893836      36.893836    
   6980000   0.53001695    -7.7482433     -6.9532292      4.1905977      50218.233      36.893836      36.893836      36.893836    
   6990000   0.53299518    -7.7537187     -6.9542373      4.1665599      50218.233      36.893836      36.893836      36.893836    
   7000000   0.52624325    -7.7489116     -6.959558       4.169949       50218.233      36.893836      36.893836      36.893836    
   7010000   0.53018967    -7.7513477     -6.9560745      4.1615436      50218.233      36.893836      36.893836      36.893836    
   7020000   0.53026845    -7.7462196     -6.9508282      4.1986943      50218.233      36.893836      36.893836      36.893836    
   7030000   0.5317478     -7.7502164     -6.952606       4.1710222      50218.233      36.893836      36.893836      36.893836    
   7040000   0.53109251    -7.7518729     -6.9552454      4.1687921      50218.233      36.893836      36.893836      36.893836    
   7050000   0.53269897    -7.7487893     -6.9497522      4.195234       50218.233      36.893836      36.893836      36.893836    
   7060000   0.53187749    -7.757641      -6.9598362      4.123495       50218.233      36.893836      36.893836      36.893836    
   7070000   0.53168249    -7.7477575     -6.9502451      4.1926549      50218.233      36.893836      36.893836      36.893836    
   7080000   0.52893882    -7.7509562     -6.9575593      4.1699278      50218.233      36.893836      36.893836      36.893836    
   7090000   0.53015191    -7.7525988     -6.9573823      4.1518532      50218.233      36.893836      36.893836      36.893836    
   7100000   0.52968288    -7.7511545     -6.9566415      4.1613345      50218.233      36.893836      36.893836      36.893836    
   7110000   0.53117011    -7.7504713     -6.9537275      4.1875243      50218.233      36.893836      36.893836      36.893836    
   7120000   0.53118619    -7.7456064     -6.9488385      4.2000065      50218.233      36.893836      36.893836      36.893836    
   7130000   0.52970947    -7.7513622     -6.9568093      4.1674248      50218.233      36.893836      36.893836      36.893836    
   7140000   0.52930669    -7.7475428     -6.9535941      4.1872311      50218.233      36.893836      36.893836      36.893836    
   7150000   0.52812852    -7.7501249     -6.9579434      4.1653981      50218.233      36.893836      36.893836      36.893836    
   7160000   0.53167857    -7.7510259     -6.9535194      4.1590121      50218.233      36.893836      36.893836      36.893836    
   7170000   0.5299837     -7.7492671     -6.9543028      4.1626857      50218.233      36.893836      36.893836      36.893836    
   7180000   0.53144422    -7.7498063     -6.9526513      4.1649271      50218.233      36.893836      36.893836      36.893836    
   7190000   0.53076533    -7.7451894     -6.9490527      4.2198678      50218.233      36.893836      36.893836      36.893836    
   7200000   0.53054261    -7.7468876     -6.951085       4.2061817      50218.233      36.893836      36.893836      36.893836    
   7210000   0.52993871    -7.7460959     -6.9511991      4.1972559      50218.233      36.893836      36.893836      36.893836    
   7220000   0.52928693    -7.7475248     -6.9536057      4.1859643      50218.233      36.893836      36.893836      36.893836    
   7230000   0.5319681     -7.7504086     -6.9524678      4.1921969      50218.233      36.893836      36.893836      36.893836    
   7240000   0.53007724    -7.7495927     -6.9544882      4.1615052      50218.233      36.893836      36.893836      36.893836    
   7250000   0.5303231     -7.7490045     -6.9535312      4.1855546      50218.233      36.893836      36.893836      36.893836    
   7260000   0.53190001    -7.7501818     -6.9523432      4.1800805      50218.233      36.893836      36.893836      36.893836    
   7270000   0.5313403     -7.7475106     -6.9505115      4.2008327      50218.233      36.893836      36.893836      36.893836    
   7280000   0.53227283    -7.7461414     -6.9477435      4.2088261      50218.233      36.893836      36.893836      36.893836    
   7290000   0.53174163    -7.7466258     -6.9490247      4.2093592      50218.233      36.893836      36.893836      36.893836    
   7300000   0.52931308    -7.7514912     -6.9575329      4.1583554      50218.233      36.893836      36.893836      36.893836    
   7310000   0.53312046    -7.7494716     -6.9498023      4.1933965      50218.233      36.893836      36.893836      36.893836    
   7320000   0.5295728     -7.7464478     -6.9520999      4.2073488      50218.233      36.893836      36.893836      36.893836    
   7330000   0.52834663    -7.7468033     -6.9542946      4.1856384      50218.233      36.893836      36.893836      36.893836    
   7340000   0.5314878     -7.7418232     -6.9446028      4.2238112      50218.233      36.893836      36.893836      36.893836    
   7350000   0.53001824    -7.7493398     -6.9543238      4.1742524      50218.233      36.893836      36.893836      36.893836    
   7360000   0.53199105    -7.7497083     -6.9517331      4.179596       50218.233      36.893836      36.893836      36.893836    
   7370000   0.52958759    -7.7486733     -6.9543032      4.1791011      50218.233      36.893836      36.893836      36.893836    
   7380000   0.53163898    -7.7479202     -6.9504731      4.1929326      50218.233      36.893836      36.893836      36.893836    
   7390000   0.53038836    -7.7448581     -6.9492869      4.2081681      50218.233      36.893836      36.893836      36.893836    
   7400000   0.5264095     -7.7526759     -6.9630728      4.1475759      50218.233      36.893836      36.893836      36.893836    
   7410000   0.53348841    -7.7475115     -6.9472903      4.2015384      50218.233      36.893836      36.893836      36.893836    
   7420000   0.53130689    -7.7508305     -6.9538815      4.1826159      50218.233      36.893836      36.893836      36.893836    
   7430000   0.53001142    -7.7469287     -6.9519229      4.2084322      50218.233      36.893836      36.893836      36.893836    
   7440000   0.53026732    -7.7514107     -6.9560211      4.1505092      50218.233      36.893836      36.893836      36.893836    
   7450000   0.52860081    -7.7486303     -6.9557404      4.1827702      50218.233      36.893836      36.893836      36.893836    
   7460000   0.53167719    -7.7531189     -6.9556145      4.158271       50218.233      36.893836      36.893836      36.893836    
   7470000   0.52948344    -7.7471348     -6.952921       4.2043247      50218.233      36.893836      36.893836      36.893836    
   7480000   0.52960259    -7.7472054     -6.9528128      4.2037304      50218.233      36.893836      36.893836      36.893836    
   7490000   0.53044072    -7.7501442     -6.9544945      4.1763123      50218.233      36.893836      36.893836      36.893836    
   7500000   0.53053104    -7.7516128     -6.9558275      4.1697856      50218.233      36.893836      36.893836      36.893836    
   7510000   0.52779515    -7.7498265     -6.9581451      4.1757585      50218.233      36.893836      36.893836      36.893836    
   7520000   0.53162005    -7.7477989     -6.9503801      4.1965663      50218.233      36.893836      36.893836      36.893836    
   7530000   0.53015144    -7.7440509     -6.948835       4.2204964      50218.233      36.893836      36.893836      36.893836    
   7540000   0.52977364    -7.7465676     -6.9519184      4.1984399      50218.233      36.893836      36.893836      36.893836    
   7550000   0.52738642    -7.7487719     -6.9577035      4.17716        50218.233      36.893836      36.893836      36.893836    
   7560000   0.53056952    -7.7474071     -6.9515641      4.1904208      50218.233      36.893836      36.893836      36.893836    
   7570000   0.52884258    -7.7468509     -6.9535983      4.1952992      50218.233      36.893836      36.893836      36.893836    
   7580000   0.52732527    -7.7451083     -6.9541316      4.2073299      50218.233      36.893836      36.893836      36.893836    
   7590000   0.52981423    -7.7435466     -6.9488366      4.2302171      50218.233      36.893836      36.893836      36.893836    
   7600000   0.53033036    -7.7426419     -6.9471577      4.2283712      50218.233      36.893836      36.893836      36.893836    
   7610000   0.53115876    -7.7444997     -6.9477729      4.2174419      50218.233      36.893836      36.893836      36.893836    
   7620000   0.53051109    -7.7472346     -6.9514793      4.1890293      50218.233      36.893836      36.893836      36.893836    
   7630000   0.52785426    -7.7436962     -6.951926       4.209811       50218.233      36.893836      36.893836      36.893836    
   7640000   0.52669733    -7.7420416     -6.9520068      4.2228986      50218.233      36.893836      36.893836      36.893836    
   7650000   0.53068441    -7.7441199     -6.9481046      4.2016183      50218.233      36.893836      36.893836      36.893836    
   7660000   0.52860801    -7.7409272     -6.9480265      4.2306112      50218.233      36.893836      36.893836      36.893836    
   7670000   0.52863961    -7.7483463     -6.9553982      4.1762673      50218.233      36.893836      36.893836      36.893836    
   7680000   0.53046539    -7.7494932     -6.9538064      4.1714803      50218.233      36.893836      36.893836      36.893836    
   7690000   0.53072369    -7.7509015     -6.9548273      4.1770173      50218.233      36.893836      36.893836      36.893836    
   7700000   0.52956449    -7.7484483     -6.9541129      4.1759353      50218.233      36.893836      36.893836      36.893836    
   7710000   0.52805799    -7.7475862     -6.9555105      4.1817902      50218.233      36.893836      36.893836      36.893836    
   7720000   0.53037457    -7.7480891     -6.9525385      4.1864049      50218.233      36.893836      36.893836      36.893836    
   7730000   0.5288111     -7.7488648     -6.9556594      4.1653059      50218.233      36.893836      36.893836      36.893836    
   7740000   0.52973126    -7.7481132     -6.9535276      4.1829273      50218.233      36.893836      36.893836      36.893836    
   7750000   0.52822181    -7.7440022     -6.9516807      4.2176688      50218.233      36.893836      36.893836      36.893836    
   7760000   0.52898543    -7.7490603     -6.9555935      4.1647292      50218.233      36.893836      36.893836      36.893836    
   7770000   0.52946166    -7.7427566     -6.9485754      4.2274488      50218.233      36.893836      36.893836      36.893836    
   7780000   0.52692664    -7.7469376     -6.9565589      4.1963107      50218.233      36.893836      36.893836      36.893836    
   7790000   0.52919908    -7.7443973     -6.95061        4.2012709      50218.233      36.893836      36.893836      36.893836    
   7800000   0.53007143    -7.7450315     -6.9499357      4.2031102      50218.233      36.893836      36.893836      36.893836    
   7810000   0.52754422    -7.7452537     -6.9539486      4.2118757      50218.233      36.893836      36.893836      36.893836    
   7820000   0.53163284    -7.7456956     -6.9482577      4.206438       50218.233      36.893836      36.893836      36.893836    
   7830000   0.5284555     -7.7458555     -6.9531835      4.2093065      50218.233      36.893836      36.893836      36.893836    
   7840000   0.52940669    -7.7442186     -6.9501198      4.217706       50218.233      36.893836      36.893836      36.893836    
   7850000   0.52901248    -7.7437583     -6.9502509      4.2191576      50218.233      36.893836      36.893836      36.893836    
   7860000   0.5275367     -7.7489055     -6.9576117      4.1681065      50218.233      36.893836      36.893836      36.893836    
   7870000   0.5292723     -7.7469289     -6.9530318      4.1968927      50218.233      36.893836      36.893836      36.893836    
   7880000   0.52640084    -7.7487419     -6.9591519      4.1722162      50218.233      36.893836      36.893836      36.893836    
   7890000   0.52959433    -7.7461365     -6.9517563      4.2113094      50218.233      36.893836      36.893836      36.893836    
   7900000   0.52996946    -7.7490651     -6.9541222      4.1909607      50218.233      36.893836      36.893836      36.893836    
   7910000   0.52891425    -7.7527454     -6.9593853      4.1577107      50218.233      36.893836      36.893836      36.893836    
   7920000   0.52820278    -7.7475668     -6.9552739      4.1752578      50218.233      36.893836      36.893836      36.893836    
   7930000   0.53220217    -7.7474924     -6.9492005      4.1949605      50218.233      36.893836      36.893836      36.893836    
   7940000   0.52961289    -7.7472991     -6.9528911      4.1980013      50218.233      36.893836      36.893836      36.893836    
   7950000   0.5304572     -7.7499362     -6.9542618      4.1765029      50218.233      36.893836      36.893836      36.893836    
   7960000   0.52807479    -7.7454757     -6.9533747      4.2044857      50218.233      36.893836      36.893836      36.893836    
   7970000   0.5290837     -7.7451249     -6.9515106      4.2062287      50218.233      36.893836      36.893836      36.893836    
   7980000   0.52857119    -7.7432994     -6.9504539      4.2187593      50218.233      36.893836      36.893836      36.893836    
   7990000   0.52909992    -7.7471613     -6.9535227      4.2007607      50218.233      36.893836      36.893836      36.893836    
   8000000   0.52811057    -7.7429047     -6.9507501      4.2268261      50218.233      36.893836      36.893836      36.893836    
Loop time of 12733.4 on 5 procs for 8000000 steps with 70304 atoms

Performance: 542824.542 tau/day, 628.269 timesteps/s, 44.170 Matom-step/s
94.4% CPU use with 5 MPI tasks x 1 OpenMP threads

MPI task timing breakdown:
Section |  min time  |  avg time  |  max time  |%varavg| %total
---------------------------------------------------------------
Pair    | 4600.5     | 5023.2     | 5452.1     | 420.5 | 39.45
Neigh   | 40.771     | 45.435     | 49.716     |  49.5 |  0.36
Comm    | 1883.6     | 1906.9     | 1929.2     |  43.5 | 14.98
Output  | 0.14365    | 0.14852    | 0.15723    |   1.2 |  0.00
Modify  | 4713.3     | 5134.8     | 5540.3     | 414.5 | 40.33
Other   |            | 622.9      |            |       |  4.89

Nlocal:        14060.8 ave       14098 max       14041 min
Histogram: 2 0 1 0 1 0 0 0 0 1
Nghost:        18708.6 ave       18734 max       18684 min
Histogram: 1 0 1 0 0 1 0 1 0 1
Neighs:              0 ave           0 max           0 min
Histogram: 5 0 0 0 0 0 0 0 0 0

Total # of neighbors = 0
Ave neighs/atom = 0
Neighbor list builds = 1678798
Dangerous builds = 0
clear
OMP_NUM_THREADS environment is not set. Defaulting to 1 thread. (src/comm.cpp:98)
  using 1 OpenMP thread(s) per MPI task
package gpu 0
jump dms510.lmp

variable T equal 510
# T = 1000* (temp in LJ unit)
variable f equal 10000
log log.${T}
log log.510
