variable TLJ equal (${T}/1000)
variable TLJ equal (600/1000)
variable NCyle equal 10
variable iStep equal (${f})
variable iStep equal (10000)
variable dumpStep equal (${f}*100)
variable dumpStep equal (10000*100)
variable runStep equal (${f}*100*${NCyle})
variable runStep equal (10000*100*${NCyle})
variable runStep equal (10000*100*10)

units       lj
atom_style  atomic
dimension 3
boundary     p p p
pair_style  lj/cut 2.5
read_data  ../data/T${T}.dat
read_data  ../data/T600.dat
Reading data file ...
  orthogonal box = (0.97250269 0.97250269 0.97250269) to (37.866338 37.866338 37.866338)
  1 by 1 by 5 MPI processor grid
  reading atoms ...
  70304 atoms
  reading velocities ...
  70304 velocities
  read_data CPU = 0.256 seconds
change_box all triclinic
Changing box ...
  triclinic box = (0.97250269 0.97250269 0.97250269) to (37.866338 37.866338 37.866338) with tilt (0 0 0)
mass 1 1
mass 2 1
pair_modify shift yes
pair_coeff  1 1 1 1
pair_coeff  1 2 1.5 0.8
pair_coeff  2 2 0.5 0.88


timestep 0.01
thermo ${iStep}
thermo 10000
reset_timestep 0
thermo_style custom step temp pe etotal press vol lx ly lz
fix             1 all nvt temp ${TLJ}  ${TLJ}  0.1
fix             1 all nvt temp 0.6  ${TLJ}  0.1
fix             1 all nvt temp 0.6  0.6  0.1
thermo_modify flush yes

fix dsf all deform 1 xy  wiggle 0.5  ${f}   units box
fix dsf all deform 1 xy  wiggle 0.5  10000   units box
fix ps1 all ave/time 1 1 ${iStep} c_thermo_press[1] c_thermo_press[2]  c_thermo_press[3] c_thermo_press[4]  c_thermo_press[5] c_thermo_press[6]  file  stress.${T}
fix ps1 all ave/time 1 1 10000 c_thermo_press[1] c_thermo_press[2]  c_thermo_press[3] c_thermo_press[4]  c_thermo_press[5] c_thermo_press[6]  file  stress.${T}
fix ps1 all ave/time 1 1 10000 c_thermo_press[1] c_thermo_press[2]  c_thermo_press[3] c_thermo_press[4]  c_thermo_press[5] c_thermo_press[6]  file  stress.600
dump            1 all custom ${dumpStep} dump.${T} id type x y z
dump            1 all custom 1000000 dump.${T} id type x y z
dump            1 all custom 1000000 dump.600 id type x y z
dump_modify 1 sort id
fix nodrift all momentum 1  linear 1 1 1
fix com_seed all recenter INIT INIT INIT shift all
run ${runStep}
run 10000000
Generated 0 of 1 mixed pair_coeff terms from geometric mixing rule
Per MPI rank memory allocation (min/avg/max) = 6.662 | 8.469 | 8.926 Mbytes
   Step          Temp          PotEng         TotEng         Press          Volume           Lx             Ly             Lz      
         0   0.60242536    -7.6060936     -6.7024684      5.3390346      50218.233      36.893836      36.893836      36.893836    
     10000   0.59851004    -7.5991186     -6.7013663      5.3843888      50218.233      36.893836      36.893836      36.893836    
     20000   0.60063857    -7.5977217     -6.6967767      5.4024714      50218.233      36.893836      36.893836      36.893836    
     30000   0.60060465    -7.5931583     -6.6922641      5.4202076      50218.233      36.893836      36.893836      36.893836    
     40000   0.59999663    -7.5928316     -6.6928495      5.4387211      50218.233      36.893836      36.893836      36.893836    
     50000   0.60047635    -7.5961804     -6.6954787      5.4152736      50218.233      36.893836      36.893836      36.893836    
     60000   0.60091555    -7.600623      -6.6992625      5.3834663      50218.233      36.893836      36.893836      36.893836    
     70000   0.59781939    -7.5929809     -6.6962645      5.4213632      50218.233      36.893836      36.893836      36.893836    
     80000   0.59995996    -7.5968613     -6.6969342      5.4081805      50218.233      36.893836      36.893836      36.893836    
     90000   0.6014817     -7.5972082     -6.6949985      5.3991793      50218.233      36.893836      36.893836      36.893836    
    100000   0.5981118     -7.5986513     -6.7014964      5.3748339      50218.233      36.893836      36.893836      36.893836    
    110000   0.59634984    -7.5915066     -6.6969945      5.435069       50218.233      36.893836      36.893836      36.893836    
    120000   0.59797879    -7.5947488     -6.6977934      5.4074495      50218.233      36.893836      36.893836      36.893836    
    130000   0.60355576    -7.6033378     -6.6980171      5.3516377      50218.233      36.893836      36.893836      36.893836    
    140000   0.59919123    -7.5982917     -6.6995177      5.3835541      50218.233      36.893836      36.893836      36.893836    
    150000   0.60042179    -7.6034328     -6.7028129      5.3568355      50218.233      36.893836      36.893836      36.893836    
    160000   0.59993538    -7.599934      -6.7000438      5.3628033      50218.233      36.893836      36.893836      36.893836    
    170000   0.5994958     -7.5943768     -6.6951459      5.4266406      50218.233      36.893836      36.893836      36.893836    
    180000   0.59761619    -7.6020776     -6.7056661      5.361401       50218.233      36.893836      36.893836      36.893836    
    190000   0.60242399    -7.5993767     -6.6957536      5.386621       50218.233      36.893836      36.893836      36.893836    
    200000   0.60217396    -7.5988206     -6.6955725      5.3874257      50218.233      36.893836      36.893836      36.893836    
    210000   0.60194237    -7.5970414     -6.6941407      5.3982355      50218.233      36.893836      36.893836      36.893836    
    220000   0.60119938    -7.6001411     -6.6983548      5.3747411      50218.233      36.893836      36.893836      36.893836    
    230000   0.60036837    -7.5977467     -6.697207       5.3897234      50218.233      36.893836      36.893836      36.893836    
    240000   0.60118042    -7.5943483     -6.6925905      5.4280522      50218.233      36.893836      36.893836      36.893836    
    250000   0.60037109    -7.5929335     -6.6923897      5.4364538      50218.233      36.893836      36.893836      36.893836    
    260000   0.59921386    -7.5964657     -6.6976577      5.4029452      50218.233      36.893836      36.893836      36.893836    
    270000   0.59997519    -7.5948371     -6.6948871      5.4179754      50218.233      36.893836      36.893836      36.893836    
    280000   0.60053742    -7.5959563     -6.695163       5.4039606      50218.233      36.893836      36.893836      36.893836    
    290000   0.59913111    -7.5901549     -6.691471       5.4527922      50218.233      36.893836      36.893836      36.893836    
    300000   0.60072339    -7.5955502     -6.6944779      5.4203314      50218.233      36.893836      36.893836      36.893836    
    310000   0.59850597    -7.5978463     -6.7001001      5.390971       50218.233      36.893836      36.893836      36.893836    
    320000   0.59861281    -7.5940706     -6.6961642      5.419316       50218.233      36.893836      36.893836      36.893836    
    330000   0.6006032     -7.5877059     -6.6868139      5.4709821      50218.233      36.893836      36.893836      36.893836    
    340000   0.6021891     -7.5936668     -6.690396       5.4262052      50218.233      36.893836      36.893836      36.893836    
    350000   0.60245834    -7.5926053     -6.6889306      5.4392971      50218.233      36.893836      36.893836      36.893836    
    360000   0.60025914    -7.5967156     -6.6963396      5.4020356      50218.233      36.893836      36.893836      36.893836    
    370000   0.60140867    -7.5919369     -6.6898367      5.4270695      50218.233      36.893836      36.893836      36.893836    
    380000   0.60129428    -7.5927061     -6.6907775      5.4429982      50218.233      36.893836      36.893836      36.893836    
    390000   0.60253907    -7.593262      -6.6894662      5.4342326      50218.233      36.893836      36.893836      36.893836    
    400000   0.59931469    -7.591687      -6.6927278      5.4393135      50218.233      36.893836      36.893836      36.893836    
    410000   0.60187695    -7.5965059     -6.6937033      5.407732       50218.233      36.893836      36.893836      36.893836    
    420000   0.60130891    -7.5951724     -6.6932218      5.42844        50218.233      36.893836      36.893836      36.893836    
    430000   0.5986968     -7.5921676     -6.6941351      5.4412339      50218.233      36.893836      36.893836      36.893836    
    440000   0.59995143    -7.5946524     -6.6947381      5.409608       50218.233      36.893836      36.893836      36.893836    
    450000   0.59782421    -7.5929106     -6.696187       5.4190075      50218.233      36.893836      36.893836      36.893836    
    460000   0.60138573    -7.5917569     -6.6896911      5.4464661      50218.233      36.893836      36.893836      36.893836    
    470000   0.59811185    -7.5922833     -6.6951282      5.4372412      50218.233      36.893836      36.893836      36.893836    
    480000   0.59911154    -7.5938917     -6.6952372      5.4038932      50218.233      36.893836      36.893836      36.893836    
    490000   0.60192507    -7.5963011     -6.6934264      5.4139606      50218.233      36.893836      36.893836      36.893836    
    500000   0.5996046     -7.590347      -6.6909529      5.4522228      50218.233      36.893836      36.893836      36.893836    
    510000   0.5991715     -7.5976018     -6.6988573      5.3896492      50218.233      36.893836      36.893836      36.893836    
    520000   0.60170044    -7.5956893     -6.6931515      5.4131513      50218.233      36.893836      36.893836      36.893836    
    530000   0.60149708    -7.5958832     -6.6936504      5.413347       50218.233      36.893836      36.893836      36.893836    
    540000   0.60006687    -7.5940669     -6.6939794      5.4208431      50218.233      36.893836      36.893836      36.893836    
    550000   0.59968667    -7.5990848     -6.6995676      5.3918118      50218.233      36.893836      36.893836      36.893836    
    560000   0.5995318     -7.5959444     -6.6966595      5.3944663      50218.233      36.893836      36.893836      36.893836    
    570000   0.60103616    -7.5982298     -6.6966884      5.3858296      50218.233      36.893836      36.893836      36.893836    
    580000   0.60275094    -7.5975313     -6.6934177      5.4110475      50218.233      36.893836      36.893836      36.893836    
    590000   0.59895218    -7.6001563     -6.7017408      5.3835393      50218.233      36.893836      36.893836      36.893836    
    600000   0.60119533    -7.5946609     -6.6928808      5.4283129      50218.233      36.893836      36.893836      36.893836    
    610000   0.60020841    -7.6008275     -6.7005277      5.3646097      50218.233      36.893836      36.893836      36.893836    
    620000   0.60049409    -7.596931      -6.6962027      5.4236473      50218.233      36.893836      36.893836      36.893836    
    630000   0.59644078    -7.5930549     -6.6984064      5.4219208      50218.233      36.893836      36.893836      36.893836    
    640000   0.60161109    -7.5945514     -6.6921476      5.4150035      50218.233      36.893836      36.893836      36.893836    
    650000   0.60077946    -7.5996625     -6.6985062      5.3850632      50218.233      36.893836      36.893836      36.893836    
    660000   0.59714763    -7.6027165     -6.7070078      5.3589476      50218.233      36.893836      36.893836      36.893836    
    670000   0.59900386    -7.5979277     -6.6994347      5.4006135      50218.233      36.893836      36.893836      36.893836    
    680000   0.60198283    -7.595935      -6.6929736      5.4107899      50218.233      36.893836      36.893836      36.893836    
    690000   0.60051061    -7.5975173     -6.6967642      5.3914306      50218.233      36.893836      36.893836      36.893836    
    700000   0.60308896    -7.5958516     -6.6912311      5.4301225      50218.233      36.893836      36.893836      36.893836    
    710000   0.60066636    -7.5962643     -6.6952775      5.4085816      50218.233      36.893836      36.893836      36.893836    
    720000   0.60051024    -7.600657      -6.6999045      5.3718606      50218.233      36.893836      36.893836      36.893836    
    730000   0.59998541    -7.5976831     -6.6977178      5.4076798      50218.233      36.893836      36.893836      36.893836    
    740000   0.59996002    -7.5932237     -6.6932965      5.4305408      50218.233      36.893836      36.893836      36.893836    
    750000   0.5987126     -7.5948578     -6.6968017      5.4073636      50218.233      36.893836      36.893836      36.893836    
    760000   0.60242125    -7.5899513     -6.6863322      5.4598258      50218.233      36.893836      36.893836      36.893836    
    770000   0.59942007    -7.6027213     -6.703604       5.3624185      50218.233      36.893836      36.893836      36.893836    
    780000   0.59756337    -7.5907881     -6.6944558      5.4460599      50218.233      36.893836      36.893836      36.893836    
    790000   0.60009301    -7.6006018     -6.7004751      5.3685703      50218.233      36.893836      36.893836      36.893836    
    800000   0.59655591    -7.5954956     -6.7006744      5.4113242      50218.233      36.893836      36.893836      36.893836    
    810000   0.59993316    -7.5964817     -6.6965948      5.4153751      50218.233      36.893836      36.893836      36.893836    
    820000   0.5998423     -7.5980936     -6.6983429      5.389268       50218.233      36.893836      36.893836      36.893836    
    830000   0.60146683    -7.6006        -6.6984126      5.3694924      50218.233      36.893836      36.893836      36.893836    
    840000   0.60203244    -7.5994989     -6.6964631      5.3839272      50218.233      36.893836      36.893836      36.893836    
    850000   0.59808681    -7.604731      -6.7076136      5.3402856      50218.233      36.893836      36.893836      36.893836    
    860000   0.60337894    -7.5983903     -6.6933347      5.3970059      50218.233      36.893836      36.893836      36.893836    
    870000   0.60154108    -7.5909518     -6.688653       5.4559468      50218.233      36.893836      36.893836      36.893836    
    880000   0.59848988    -7.5967794     -6.6990574      5.404778       50218.233      36.893836      36.893836      36.893836    
    890000   0.60173169    -7.5962961     -6.6937114      5.4120445      50218.233      36.893836      36.893836      36.893836    
    900000   0.60051064    -7.595415      -6.6946618      5.4118282      50218.233      36.893836      36.893836      36.893836    
    910000   0.60349543    -7.5954331     -6.6902028      5.4194654      50218.233      36.893836      36.893836      36.893836    
    920000   0.59955652    -7.5982082     -6.6988862      5.3900111      50218.233      36.893836      36.893836      36.893836    
    930000   0.5998536     -7.5970679     -6.6973003      5.4038128      50218.233      36.893836      36.893836      36.893836    
    940000   0.60043225    -7.5987908     -6.6981552      5.3913416      50218.233      36.893836      36.893836      36.893836    
    950000   0.59797476    -7.5993484     -6.7023991      5.3800735      50218.233      36.893836      36.893836      36.893836    
    960000   0.59916613    -7.5995045     -6.7007681      5.3858035      50218.233      36.893836      36.893836      36.893836    
    970000   0.59862454    -7.5969808     -6.6990567      5.4051554      50218.233      36.893836      36.893836      36.893836    
    980000   0.59929302    -7.5945263     -6.6955995      5.4176965      50218.233      36.893836      36.893836      36.893836    
    990000   0.59944301    -7.5955035     -6.6963518      5.413481       50218.233      36.893836      36.893836      36.893836    
   1000000   0.60184877    -7.5954831     -6.6927228      5.4207862      50218.233      36.893836      36.893836      36.893836    
   1010000   0.60022972    -7.5912622     -6.6909304      5.4354254      50218.233      36.893836      36.893836      36.893836    
   1020000   0.59788022    -7.5975937     -6.7007861      5.3919473      50218.233      36.893836      36.893836      36.893836    
   1030000   0.60105091    -7.5950965     -6.693533       5.416235       50218.233      36.893836      36.893836      36.893836    
   1040000   0.59912815    -7.5951022     -6.6964227      5.4091051      50218.233      36.893836      36.893836      36.893836    
   1050000   0.59731685    -7.5911842     -6.6952217      5.4241933      50218.233      36.893836      36.893836      36.893836    
   1060000   0.60028746    -7.5921358     -6.6917174      5.4334436      50218.233      36.893836      36.893836      36.893836    
   1070000   0.60049977    -7.5952948     -6.694558       5.4165881      50218.233      36.893836      36.893836      36.893836    
   1080000   0.59870525    -7.5910062     -6.6929611      5.4451759      50218.233      36.893836      36.893836      36.893836    
   1090000   0.60240843    -7.5925781     -6.6889783      5.4324024      50218.233      36.893836      36.893836      36.893836    
   1100000   0.60061587    -7.59479       -6.693879       5.4066342      50218.233      36.893836      36.893836      36.893836    
   1110000   0.60250389    -7.594656      -6.690913       5.4178686      50218.233      36.893836      36.893836      36.893836    
   1120000   0.59606679    -7.5967361     -6.7026486      5.3990427      50218.233      36.893836      36.893836      36.893836    
   1130000   0.59848517    -7.5977097     -6.6999947      5.3983574      50218.233      36.893836      36.893836      36.893836    
   1140000   0.59785193    -7.5951026     -6.6983374      5.422773       50218.233      36.893836      36.893836      36.893836    
   1150000   0.60212085    -7.6001761     -6.6970076      5.389312       50218.233      36.893836      36.893836      36.893836    
   1160000   0.59808875    -7.5951318     -6.6980114      5.4080835      50218.233      36.893836      36.893836      36.893836    
   1170000   0.6008082     -7.5945962     -6.6933967      5.4008797      50218.233      36.893836      36.893836      36.893836    
   1180000   0.59777025    -7.5984673     -6.7018246      5.3791007      50218.233      36.893836      36.893836      36.893836    
   1190000   0.60180314    -7.5957667     -6.6930748      5.4297351      50218.233      36.893836      36.893836      36.893836    
   1200000   0.5962153     -7.591578      -6.6972678      5.4270136      50218.233      36.893836      36.893836      36.893836    
   1210000   0.6018838     -7.5948321     -6.6920192      5.4216288      50218.233      36.893836      36.893836      36.893836    
   1220000   0.59892518    -7.5975919     -6.6992169      5.386684       50218.233      36.893836      36.893836      36.893836    
   1230000   0.59715164    -7.5960112     -6.7002965      5.395001       50218.233      36.893836      36.893836      36.893836    
   1240000   0.59953487    -7.5899617     -6.6906722      5.457624       50218.233      36.893836      36.893836      36.893836    
   1250000   0.60165177    -7.5967599     -6.6942951      5.4138766      50218.233      36.893836      36.893836      36.893836    
   1260000   0.59882695    -7.5924203     -6.6941926      5.4344677      50218.233      36.893836      36.893836      36.893836    
   1270000   0.60299981    -7.5936722     -6.6891853      5.4271071      50218.233      36.893836      36.893836      36.893836    
   1280000   0.5992235     -7.5943067     -6.6954842      5.4139678      50218.233      36.893836      36.893836      36.893836    
   1290000   0.60040195    -7.5965619     -6.6959718      5.4032875      50218.233      36.893836      36.893836      36.893836    
   1300000   0.59597024    -7.5947384     -6.7007958      5.4151961      50218.233      36.893836      36.893836      36.893836    
   1310000   0.60147937    -7.6005808     -6.6983746      5.3761674      50218.233      36.893836      36.893836      36.893836    
   1320000   0.60083071    -7.5954944     -6.6942611      5.396597       50218.233      36.893836      36.893836      36.893836    
   1330000   0.60018159    -7.5995299     -6.6992703      5.3693281      50218.233      36.893836      36.893836      36.893836    
   1340000   0.60123132    -7.5927142     -6.69088        5.445577       50218.233      36.893836      36.893836      36.893836    
   1350000   0.59919658    -7.592067      -6.6932849      5.4287826      50218.233      36.893836      36.893836      36.893836    
   1360000   0.59495708    -7.5970689     -6.704646       5.3996746      50218.233      36.893836      36.893836      36.893836    
   1370000   0.60009091    -7.5944926     -6.6943691      5.4172565      50218.233      36.893836      36.893836      36.893836    
   1380000   0.59766251    -7.5959004     -6.6994194      5.409567       50218.233      36.893836      36.893836      36.893836    
   1390000   0.59891954    -7.5953626     -6.6969961      5.4158527      50218.233      36.893836      36.893836      36.893836    
   1400000   0.59958999    -7.5950946     -6.6957224      5.413717       50218.233      36.893836      36.893836      36.893836    
   1410000   0.60165469    -7.5994617     -6.6969925      5.3894934      50218.233      36.893836      36.893836      36.893836    
   1420000   0.59933747    -7.5991696     -6.7001761      5.3909468      50218.233      36.893836      36.893836      36.893836    
   1430000   0.60300034    -7.5987632     -6.6942756      5.3821524      50218.233      36.893836      36.893836      36.893836    
   1440000   0.60079566    -7.5911276     -6.6899469      5.4383287      50218.233      36.893836      36.893836      36.893836    
   1450000   0.59934222    -7.5985164     -6.6995159      5.3852594      50218.233      36.893836      36.893836      36.893836    
   1460000   0.59899658    -7.5919927     -6.6935106      5.4363946      50218.233      36.893836      36.893836      36.893836    
   1470000   0.60125514    -7.5998846     -6.6980147      5.3813889      50218.233      36.893836      36.893836      36.893836    
   1480000   0.59824712    -7.5956792     -6.6983213      5.3985468      50218.233      36.893836      36.893836      36.893836    
   1490000   0.6009034     -7.5976782     -6.696336       5.3925185      50218.233      36.893836      36.893836      36.893836    
   1500000   0.59626581    -7.5980167     -6.7036307      5.3821191      50218.233      36.893836      36.893836      36.893836    
   1510000   0.59995131    -7.5984415     -6.6985274      5.386957       50218.233      36.893836      36.893836      36.893836    
   1520000   0.59847049    -7.5954188     -6.6977258      5.4157675      50218.233      36.893836      36.893836      36.893836    
   1530000   0.59972135    -7.5927857     -6.6932165      5.4199888      50218.233      36.893836      36.893836      36.893836    
   1540000   0.59997679    -7.6002323     -6.7002799      5.3780284      50218.233      36.893836      36.893836      36.893836    
   1550000   0.59841556    -7.5959937     -6.6983831      5.4165046      50218.233      36.893836      36.893836      36.893836    
   1560000   0.60266552    -7.5903587     -6.6863732      5.4581561      50218.233      36.893836      36.893836      36.893836    
   1570000   0.59866724    -7.5927795     -6.6947914      5.4406788      50218.233      36.893836      36.893836      36.893836    
   1580000   0.59952204    -7.5929055     -6.6936352      5.437499       50218.233      36.893836      36.893836      36.893836    
   1590000   0.59927314    -7.5948951     -6.6959982      5.4199154      50218.233      36.893836      36.893836      36.893836    
   1600000   0.59941303    -7.6017448     -6.702638       5.3561702      50218.233      36.893836      36.893836      36.893836    
   1610000   0.59903589    -7.5979181     -6.699377       5.3897571      50218.233      36.893836      36.893836      36.893836    
   1620000   0.59991158    -7.599192      -6.6993375      5.3839577      50218.233      36.893836      36.893836      36.893836    
   1630000   0.60095569    -7.5969234     -6.6955027      5.4064758      50218.233      36.893836      36.893836      36.893836    
   1640000   0.60030079    -7.5976593     -6.6972209      5.4039466      50218.233      36.893836      36.893836      36.893836    
   1650000   0.59976773    -7.5950992     -6.6954604      5.4118786      50218.233      36.893836      36.893836      36.893836    
   1660000   0.60264462    -7.5924344     -6.6884804      5.4358368      50218.233      36.893836      36.893836      36.893836    
   1670000   0.60071557    -7.5962214     -6.6951608      5.4086255      50218.233      36.893836      36.893836      36.893836    
   1680000   0.60259767    -7.5911507     -6.687267       5.4513192      50218.233      36.893836      36.893836      36.893836    
   1690000   0.59898742    -7.5922295     -6.6937612      5.4355239      50218.233      36.893836      36.893836      36.893836    
   1700000   0.60006837    -7.5924531     -6.6923633      5.446403       50218.233      36.893836      36.893836      36.893836    
   1710000   0.59947851    -7.5908617     -6.6916567      5.4443518      50218.233      36.893836      36.893836      36.893836    
   1720000   0.60157681    -7.5962831     -6.6939307      5.4074881      50218.233      36.893836      36.893836      36.893836    
   1730000   0.59878877    -7.5931223     -6.6949519      5.4185052      50218.233      36.893836      36.893836      36.893836    
   1740000   0.60295044    -7.5953433     -6.6909305      5.4240698      50218.233      36.893836      36.893836      36.893836    
   1750000   0.59820203    -7.5963861     -6.6990959      5.3953465      50218.233      36.893836      36.893836      36.893836    
   1760000   0.5963124     -7.5965388     -6.7020829      5.3993841      50218.233      36.893836      36.893836      36.893836    
   1770000   0.60368835    -7.5948526     -6.689333       5.4272148      50218.233      36.893836      36.893836      36.893836    
   1780000   0.59936275    -7.5947449     -6.6957136      5.413412       50218.233      36.893836      36.893836      36.893836    
   1790000   0.60030906    -7.5898804     -6.6894296      5.4469048      50218.233      36.893836      36.893836      36.893836    
   1800000   0.60015883    -7.5907189     -6.6904935      5.4392142      50218.233      36.893836      36.893836      36.893836    
   1810000   0.59801288    -7.5962597     -6.6992532      5.3989443      50218.233      36.893836      36.893836      36.893836    
   1820000   0.6000288     -7.593191      -6.6931606      5.436015       50218.233      36.893836      36.893836      36.893836    
   1830000   0.60096829    -7.595861      -6.6944214      5.419981       50218.233      36.893836      36.893836      36.893836    
   1840000   0.6015694     -7.5953075     -6.6929663      5.4133707      50218.233      36.893836      36.893836      36.893836    
   1850000   0.60037627    -7.5982845     -6.6977329      5.3761639      50218.233      36.893836      36.893836      36.893836    
   1860000   0.60204439    -7.5955984     -6.6925446      5.40875        50218.233      36.893836      36.893836      36.893836    
   1870000   0.60324906    -7.6014462     -6.6965855      5.3648642      50218.233      36.893836      36.893836      36.893836    
   1880000   0.59988068    -7.5926482     -6.69284        5.4310472      50218.233      36.893836      36.893836      36.893836    
   1890000   0.6000639     -7.5962604     -6.6961774      5.4063714      50218.233      36.893836      36.893836      36.893836    
   1900000   0.60041161    -7.5947711     -6.6941665      5.4284847      50218.233      36.893836      36.893836      36.893836    
   1910000   0.60400386    -7.5966216     -6.6906287      5.4141508      50218.233      36.893836      36.893836      36.893836    
   1920000   0.59843046    -7.5996685     -6.7020356      5.3758829      50218.233      36.893836      36.893836      36.893836    
   1930000   0.59962123    -7.5946449     -6.6952258      5.4245038      50218.233      36.893836      36.893836      36.893836    
   1940000   0.60229164    -7.5930653     -6.6896407      5.4285975      50218.233      36.893836      36.893836      36.893836    
   1950000   0.59911889    -7.5976651     -6.6989995      5.3920337      50218.233      36.893836      36.893836      36.893836    
   1960000   0.6015789     -7.5938213     -6.6914658      5.4239701      50218.233      36.893836      36.893836      36.893836    
   1970000   0.59887101    -7.5938353     -6.6955416      5.4357624      50218.233      36.893836      36.893836      36.893836    
   1980000   0.59842642    -7.5941298     -6.6965029      5.4291968      50218.233      36.893836      36.893836      36.893836    
   1990000   0.60062152    -7.5963183     -6.6953988      5.4108445      50218.233      36.893836      36.893836      36.893836    
   2000000   0.60077219    -7.5949506     -6.6938051      5.4186398      50218.233      36.893836      36.893836      36.893836    
   2010000   0.60195616    -7.592867      -6.6899456      5.4272418      50218.233      36.893836      36.893836      36.893836    
   2020000   0.60348139    -7.6027762     -6.6975669      5.3633489      50218.233      36.893836      36.893836      36.893836    
   2030000   0.59892719    -7.5968026     -6.6984246      5.4035167      50218.233      36.893836      36.893836      36.893836    
   2040000   0.59713435    -7.5951699     -6.6994811      5.4143504      50218.233      36.893836      36.893836      36.893836    
   2050000   0.60021397    -7.5879686     -6.6876605      5.4620562      50218.233      36.893836      36.893836      36.893836    
   2060000   0.60107027    -7.594328      -6.6927354      5.427892       50218.233      36.893836      36.893836      36.893836    
   2070000   0.59732417    -7.6014943     -6.7055208      5.3534767      50218.233      36.893836      36.893836      36.893836    
   2080000   0.59940969    -7.5978551     -6.6987534      5.3927015      50218.233      36.893836      36.893836      36.893836    
   2090000   0.59833318    -7.5925212     -6.6950342      5.4307606      50218.233      36.893836      36.893836      36.893836    
   2100000   0.59897678    -7.5922448     -6.6937924      5.4361553      50218.233      36.893836      36.893836      36.893836    
   2110000   0.60047388    -7.599938      -6.69924        5.3878667      50218.233      36.893836      36.893836      36.893836    
   2120000   0.60011893    -7.5963976     -6.696232       5.393252       50218.233      36.893836      36.893836      36.893836    
   2130000   0.60266291    -7.5940783     -6.6900968      5.4161857      50218.233      36.893836      36.893836      36.893836    
   2140000   0.60250376    -7.5952736     -6.6915309      5.4226773      50218.233      36.893836      36.893836      36.893836    
   2150000   0.59886947    -7.5962819     -6.6979904      5.416646       50218.233      36.893836      36.893836      36.893836    
   2160000   0.60193774    -7.598117      -6.6952232      5.395774       50218.233      36.893836      36.893836      36.893836    
   2170000   0.60120709    -7.5989168     -6.697119       5.3927355      50218.233      36.893836      36.893836      36.893836    
   2180000   0.59824333    -7.6023372     -6.7049849      5.351254       50218.233      36.893836      36.893836      36.893836    
   2190000   0.60077771    -7.5980568     -6.696903       5.3992135      50218.233      36.893836      36.893836      36.893836    
   2200000   0.5989334     -7.5964954     -6.6981081      5.3959326      50218.233      36.893836      36.893836      36.893836    
   2210000   0.60368448    -7.5972584     -6.6917446      5.4093012      50218.233      36.893836      36.893836      36.893836    
   2220000   0.6022117     -7.5991636     -6.6958589      5.3829769      50218.233      36.893836      36.893836      36.893836    
   2230000   0.60095       -7.5939925     -6.6925803      5.4262531      50218.233      36.893836      36.893836      36.893836    
   2240000   0.60284988    -7.598895      -6.6946331      5.3916734      50218.233      36.893836      36.893836      36.893836    
   2250000   0.60190894    -7.5955322     -6.6926816      5.4106837      50218.233      36.893836      36.893836      36.893836    
   2260000   0.59918258    -7.6003941     -6.701633       5.3707765      50218.233      36.893836      36.893836      36.893836    
   2270000   0.59825944    -7.5958981     -6.6985217      5.4077799      50218.233      36.893836      36.893836      36.893836    
   2280000   0.6016114     -7.5972005     -6.6947962      5.4086125      50218.233      36.893836      36.893836      36.893836    
   2290000   0.59934493    -7.5966527     -6.6976481      5.4010171      50218.233      36.893836      36.893836      36.893836    
   2300000   0.6020845     -7.5918451     -6.6887312      5.444634       50218.233      36.893836      36.893836      36.893836    
   2310000   0.59746789    -7.6011505     -6.7049614      5.3640957      50218.233      36.893836      36.893836      36.893836    
   2320000   0.59612674    -7.5973968     -6.7032194      5.3898588      50218.233      36.893836      36.893836      36.893836    
   2330000   0.60413569    -7.5936716     -6.687481       5.4302807      50218.233      36.893836      36.893836      36.893836    
   2340000   0.59904967    -7.5901362     -6.6915745      5.4448076      50218.233      36.893836      36.893836      36.893836    
   2350000   0.60129551    -7.5940585     -6.6921281      5.4146528      50218.233      36.893836      36.893836      36.893836    
   2360000   0.60010102    -7.5898685     -6.6897298      5.4544528      50218.233      36.893836      36.893836      36.893836    
   2370000   0.59859325    -7.589081      -6.6912039      5.4576324      50218.233      36.893836      36.893836      36.893836    
   2380000   0.59993849    -7.5900936     -6.6901986      5.442332       50218.233      36.893836      36.893836      36.893836    
   2390000   0.60291943    -7.5937451     -6.6893788      5.4375992      50218.233      36.893836      36.893836      36.893836    
   2400000   0.5982179     -7.5952333     -6.6979192      5.4084684      50218.233      36.893836      36.893836      36.893836    
   2410000   0.59971733    -7.5949169     -6.6953537      5.4248245      50218.233      36.893836      36.893836      36.893836    
   2420000   0.59666192    -7.5980056     -6.7030255      5.3854777      50218.233      36.893836      36.893836      36.893836    
   2430000   0.59868799    -7.5965532     -6.698534       5.4015666      50218.233      36.893836      36.893836      36.893836    
   2440000   0.59989656    -7.5945684     -6.6947364      5.422159       50218.233      36.893836      36.893836      36.893836    
   2450000   0.60098039    -7.5947082     -6.6932505      5.4259424      50218.233      36.893836      36.893836      36.893836    
   2460000   0.60058033    -7.5867405     -6.6858828      5.4652757      50218.233      36.893836      36.893836      36.893836    
   2470000   0.59943505    -7.5963524     -6.6972127      5.4043679      50218.233      36.893836      36.893836      36.893836    
   2480000   0.59908344    -7.5952386     -6.6966262      5.4083123      50218.233      36.893836      36.893836      36.893836    
   2490000   0.59895226    -7.5959685     -6.6975529      5.4047683      50218.233      36.893836      36.893836      36.893836    
   2500000   0.60112626    -7.5985011     -6.6968245      5.404772       50218.233      36.893836      36.893836      36.893836    
   2510000   0.60067401    -7.6004545     -6.6994563      5.3834088      50218.233      36.893836      36.893836      36.893836    
   2520000   0.59987958    -7.5953425     -6.6955359      5.4116449      50218.233      36.893836      36.893836      36.893836    
   2530000   0.59975818    -7.5945994     -6.694975       5.4208292      50218.233      36.893836      36.893836      36.893836    
   2540000   0.59836028    -7.5940082     -6.6964805      5.407101       50218.233      36.893836      36.893836      36.893836    
   2550000   0.60104105    -7.5935877     -6.6920389      5.4298659      50218.233      36.893836      36.893836      36.893836    
   2560000   0.60327616    -7.6006957     -6.6957943      5.3789402      50218.233      36.893836      36.893836      36.893836    
   2570000   0.60095309    -7.6024638     -6.701047       5.3712648      50218.233      36.893836      36.893836      36.893836    
   2580000   0.59810405    -7.5998601     -6.7027168      5.3876741      50218.233      36.893836      36.893836      36.893836    
   2590000   0.59848144    -7.5913188     -6.6936094      5.4310128      50218.233      36.893836      36.893836      36.893836    
   2600000   0.59784302    -7.596085      -6.6993333      5.4021313      50218.233      36.893836      36.893836      36.893836    
   2610000   0.60451105    -7.5977583     -6.6910047      5.3944154      50218.233      36.893836      36.893836      36.893836    
   2620000   0.59703955    -7.5921289     -6.6965823      5.4234003      50218.233      36.893836      36.893836      36.893836    
   2630000   0.60329614    -7.5924467     -6.6875153      5.4364552      50218.233      36.893836      36.893836      36.893836    
   2640000   0.59818519    -7.5930612     -6.6957961      5.4347485      50218.233      36.893836      36.893836      36.893836    
   2650000   0.59796383    -7.5946163     -6.6976833      5.4092858      50218.233      36.893836      36.893836      36.893836    
   2660000   0.59905524    -7.5917508     -6.6931807      5.4290673      50218.233      36.893836      36.893836      36.893836    
   2670000   0.60062506    -7.5876454     -6.6867206      5.4758601      50218.233      36.893836      36.893836      36.893836    
   2680000   0.59979273    -7.5948218     -6.6951456      5.41098        50218.233      36.893836      36.893836      36.893836    
   2690000   0.60037766    -7.5887793     -6.6882256      5.4679215      50218.233      36.893836      36.893836      36.893836    
   2700000   0.60080756    -7.5886345     -6.687436       5.4674269      50218.233      36.893836      36.893836      36.893836    
   2710000   0.59994757    -7.590648      -6.6907395      5.4377344      50218.233      36.893836      36.893836      36.893836    
   2720000   0.60069817    -7.5939211     -6.6928867      5.4208033      50218.233      36.893836      36.893836      36.893836    
   2730000   0.60030754    -7.5878432     -6.6873947      5.4629344      50218.233      36.893836      36.893836      36.893836    
   2740000   0.59948889    -7.5915681     -6.6923475      5.4300745      50218.233      36.893836      36.893836      36.893836    
   2750000   0.59962058    -7.5929614     -6.6935433      5.4195529      50218.233      36.893836      36.893836      36.893836    
   2760000   0.59954287    -7.5951137     -6.6958122      5.419151       50218.233      36.893836      36.893836      36.893836    
   2770000   0.60016684    -7.5880233     -6.6877858      5.4695981      50218.233      36.893836      36.893836      36.893836    
   2780000   0.59862847    -7.5914184     -6.6934885      5.4350142      50218.233      36.893836      36.893836      36.893836    
   2790000   0.59959249    -7.5979368     -6.6985609      5.3897844      50218.233      36.893836      36.893836      36.893836    
   2800000   0.59876579    -7.5952889     -6.697153       5.4231742      50218.233      36.893836      36.893836      36.893836    
   2810000   0.59769732    -7.5920276     -6.6954944      5.4342828      50218.233      36.893836      36.893836      36.893836    
   2820000   0.60050905    -7.5918115     -6.6910607      5.454655       50218.233      36.893836      36.893836      36.893836    
   2830000   0.59830909    -7.5997065     -6.7022557      5.3695804      50218.233      36.893836      36.893836      36.893836    
   2840000   0.60175873    -7.5939931     -6.6913678      5.4279535      50218.233      36.893836      36.893836      36.893836    
   2850000   0.59939522    -7.5870614     -6.6879814      5.4713567      50218.233      36.893836      36.893836      36.893836    
   2860000   0.60005412    -7.5953679     -6.6952995      5.4125669      50218.233      36.893836      36.893836      36.893836    
   2870000   0.60095418    -7.5935181     -6.6920997      5.4144743      50218.233      36.893836      36.893836      36.893836    
   2880000   0.60366715    -7.5942719     -6.6887841      5.4221452      50218.233      36.893836      36.893836      36.893836    
   2890000   0.59595333    -7.5972244     -6.7033071      5.3932908      50218.233      36.893836      36.893836      36.893836    
   2900000   0.59812758    -7.5898822     -6.6927036      5.4464286      50218.233      36.893836      36.893836      36.893836    
   2910000   0.60356382    -7.5954278     -6.6900949      5.4312312      50218.233      36.893836      36.893836      36.893836    
   2920000   0.59993157    -7.5921354     -6.6922509      5.4288062      50218.233      36.893836      36.893836      36.893836    
   2930000   0.59724164    -7.5978443     -6.7019946      5.3904677      50218.233      36.893836      36.893836      36.893836    
   2940000   0.59873472    -7.5955467     -6.6974574      5.3955504      50218.233      36.893836      36.893836      36.893836    
   2950000   0.60001117    -7.5964761     -6.6964721      5.4006411      50218.233      36.893836      36.893836      36.893836    
   2960000   0.60536521    -7.5916382     -6.6836033      5.4463799      50218.233      36.893836      36.893836      36.893836    
   2970000   0.59913345    -7.593198      -6.6945107      5.4230668      50218.233      36.893836      36.893836      36.893836    
   2980000   0.59839147    -7.5940619     -6.6964874      5.4173531      50218.233      36.893836      36.893836      36.893836    
   2990000   0.60023127    -7.5949437     -6.6946096      5.4189678      50218.233      36.893836      36.893836      36.893836    
   3000000   0.60120668    -7.5955581     -6.6937609      5.4208383      50218.233      36.893836      36.893836      36.893836    
   3010000   0.60262928    -7.605061      -6.7011299      5.3474735      50218.233      36.893836      36.893836      36.893836    
   3020000   0.60267677    -7.5959125     -6.6919102      5.4153063      50218.233      36.893836      36.893836      36.893836    
   3030000   0.60126456    -7.5896343     -6.6877503      5.4672442      50218.233      36.893836      36.893836      36.893836    
   3040000   0.59748588    -7.59538       -6.6991639      5.4090683      50218.233      36.893836      36.893836      36.893836    
   3050000   0.59805517    -7.5985326     -6.7014626      5.3798636      50218.233      36.893836      36.893836      36.893836    
   3060000   0.5940824     -7.5928716     -6.7017607      5.4303128      50218.233      36.893836      36.893836      36.893836    
   3070000   0.60067665    -7.5954273     -6.6944252      5.4111111      50218.233      36.893836      36.893836      36.893836    
   3080000   0.59918547    -7.5865297     -6.6877643      5.4832593      50218.233      36.893836      36.893836      36.893836    
   3090000   0.60040309    -7.5980652     -6.6974733      5.3997827      50218.233      36.893836      36.893836      36.893836    
   3100000   0.60142605    -7.5970921     -6.6949659      5.3962908      50218.233      36.893836      36.893836      36.893836    
   3110000   0.59941358    -7.5938417     -6.6947341      5.4148453      50218.233      36.893836      36.893836      36.893836    
   3120000   0.60001631    -7.6007941     -6.7007824      5.3721187      50218.233      36.893836      36.893836      36.893836    
   3130000   0.5996133     -7.6019848     -6.7025777      5.3654984      50218.233      36.893836      36.893836      36.893836    
   3140000   0.59881877    -7.5992073     -6.7009919      5.3915892      50218.233      36.893836      36.893836      36.893836    
   3150000   0.60017408    -7.5948366     -6.6945883      5.4155591      50218.233      36.893836      36.893836      36.893836    
   3160000   0.59523803    -7.5970041     -6.7041597      5.3881132      50218.233      36.893836      36.893836      36.893836    
   3170000   0.59880913    -7.5997468     -6.7015459      5.380822       50218.233      36.893836      36.893836      36.893836    
   3180000   0.60057156    -7.5939924     -6.6931479      5.4161005      50218.233      36.893836      36.893836      36.893836    
   3190000   0.59819892    -7.5993213     -6.7020357      5.3723538      50218.233      36.893836      36.893836      36.893836    
   3200000   0.59647988    -7.5956594     -6.7009523      5.4001657      50218.233      36.893836      36.893836      36.893836    
   3210000   0.60047744    -7.5998195     -6.6991162      5.3852204      50218.233      36.893836      36.893836      36.893836    
   3220000   0.59753706    -7.5977185     -6.7014256      5.3931922      50218.233      36.893836      36.893836      36.893836    
   3230000   0.60060662    -7.5947457     -6.6938486      5.4162052      50218.233      36.893836      36.893836      36.893836    
   3240000   0.59850166    -7.5972636     -6.6995239      5.3921132      50218.233      36.893836      36.893836      36.893836    
   3250000   0.5981143     -7.5940765     -6.6969178      5.4114407      50218.233      36.893836      36.893836      36.893836    
   3260000   0.59801015    -7.5960483     -6.6990459      5.4028657      50218.233      36.893836      36.893836      36.893836    
   3270000   0.59956493    -7.5985523     -6.6992177      5.3923614      50218.233      36.893836      36.893836      36.893836    
   3280000   0.60219389    -7.5952532     -6.6919752      5.4244313      50218.233      36.893836      36.893836      36.893836    
   3290000   0.59955351    -7.5993115     -6.699994       5.4080538      50218.233      36.893836      36.893836      36.893836    
   3300000   0.59929526    -7.5935719     -6.6946418      5.4126986      50218.233      36.893836      36.893836      36.893836    
   3310000   0.60019928    -7.5941915     -6.6939054      5.4295957      50218.233      36.893836      36.893836      36.893836    
   3320000   0.59825599    -7.5948461     -6.6974749      5.4198534      50218.233      36.893836      36.893836      36.893836    
   3330000   0.60092577    -7.5982791     -6.6969033      5.3910083      50218.233      36.893836      36.893836      36.893836    
   3340000   0.60156165    -7.595721      -6.6933914      5.4039364      50218.233      36.893836      36.893836      36.893836    
   3350000   0.59676614    -7.5930939     -6.6979574      5.4247659      50218.233      36.893836      36.893836      36.893836    
   3360000   0.59994378    -7.595749      -6.6958461      5.4064962      50218.233      36.893836      36.893836      36.893836    
   3370000   0.60028781    -7.5929898     -6.6925708      5.4311571      50218.233      36.893836      36.893836      36.893836    
   3380000   0.59850283    -7.5900613     -6.6923198      5.4456768      50218.233      36.893836      36.893836      36.893836    
   3390000   0.60074492    -7.5915161     -6.6904115      5.4342277      50218.233      36.893836      36.893836      36.893836    
   3400000   0.59803135    -7.5948715     -6.6978372      5.4213522      50218.233      36.893836      36.893836      36.893836    
   3410000   0.59541806    -7.5965538     -6.7034394      5.4132204      50218.233      36.893836      36.893836      36.893836    
   3420000   0.60177464    -7.5932852     -6.6906361      5.4287046      50218.233      36.893836      36.893836      36.893836    
   3430000   0.59804875    -7.5923198     -6.6952594      5.4397903      50218.233      36.893836      36.893836      36.893836    
   3440000   0.60044713    -7.5948259     -6.6941681      5.4145776      50218.233      36.893836      36.893836      36.893836    
   3450000   0.59885396    -7.5962711     -6.6980029      5.4073902      50218.233      36.893836      36.893836      36.893836    
   3460000   0.60089926    -7.5942974     -6.6929614      5.4237131      50218.233      36.893836      36.893836      36.893836    
   3470000   0.59725799    -7.5956442     -6.69977        5.4136382      50218.233      36.893836      36.893836      36.893836    
   3480000   0.60162682    -7.5987672     -6.6963398      5.3875471      50218.233      36.893836      36.893836      36.893836    
   3490000   0.59866223    -7.5970717     -6.6990912      5.4049287      50218.233      36.893836      36.893836      36.893836    
   3500000   0.59569788    -7.6004797     -6.7069456      5.3751492      50218.233      36.893836      36.893836      36.893836    
   3510000   0.60007942    -7.5996316     -6.6995253      5.3863256      50218.233      36.893836      36.893836      36.893836    
   3520000   0.60184055    -7.5925458     -6.6897978      5.4210587      50218.233      36.893836      36.893836      36.893836    
   3530000   0.5999729     -7.5989317     -6.6989851      5.3862628      50218.233      36.893836      36.893836      36.893836    
   3540000   0.60023365    -7.6014581     -6.7011204      5.3726644      50218.233      36.893836      36.893836      36.893836    
   3550000   0.60323107    -7.596478      -6.6916442      5.4142761      50218.233      36.893836      36.893836      36.893836    
   3560000   0.60033186    -7.5957864     -6.6953015      5.4203649      50218.233      36.893836      36.893836      36.893836    
   3570000   0.60367933    -7.5962413     -6.6907352      5.4077484      50218.233      36.893836      36.893836      36.893836    
   3580000   0.60466399    -7.6016467     -6.6946637      5.3704287      50218.233      36.893836      36.893836      36.893836    
   3590000   0.6044174     -7.5996853     -6.6930721      5.3960664      50218.233      36.893836      36.893836      36.893836    
   3600000   0.59894381    -7.593854      -6.695451       5.4327401      50218.233      36.893836      36.893836      36.893836    
   3610000   0.59950975    -7.5999939     -6.7007421      5.3819063      50218.233      36.893836      36.893836      36.893836    
   3620000   0.59867726    -7.5928318     -6.6948287      5.4250254      50218.233      36.893836      36.893836      36.893836    
   3630000   0.60288878    -7.5935341     -6.6892138      5.4428559      50218.233      36.893836      36.893836      36.893836    
   3640000   0.59540219    -7.6014572     -6.7083666      5.358969       50218.233      36.893836      36.893836      36.893836    
   3650000   0.59650311    -7.5986852     -6.7039433      5.3834838      50218.233      36.893836      36.893836      36.893836    
   3660000   0.59886043    -7.5908734     -6.6925956      5.4394555      50218.233      36.893836      36.893836      36.893836    
   3670000   0.60036151    -7.5927342     -6.6922048      5.4399476      50218.233      36.893836      36.893836      36.893836    
   3680000   0.60043631    -7.5900044     -6.6893628      5.4605985      50218.233      36.893836      36.893836      36.893836    
   3690000   0.6018551     -7.5947096     -6.6919398      5.4231902      50218.233      36.893836      36.893836      36.893836    
   3700000   0.5991025     -7.6004735     -6.7018326      5.3720043      50218.233      36.893836      36.893836      36.893836    
   3710000   0.60000516    -7.5961176     -6.6961226      5.3983221      50218.233      36.893836      36.893836      36.893836    
   3720000   0.59921554    -7.593946      -6.6951355      5.4144716      50218.233      36.893836      36.893836      36.893836    
   3730000   0.60053837    -7.5974381     -6.6966434      5.3938399      50218.233      36.893836      36.893836      36.893836    
   3740000   0.6000564     -7.5941643     -6.6940925      5.4191963      50218.233      36.893836      36.893836      36.893836    
   3750000   0.59778244    -7.5988675     -6.7022066      5.3859517      50218.233      36.893836      36.893836      36.893836    
   3760000   0.60472294    -7.5943173     -6.6872458      5.4254162      50218.233      36.893836      36.893836      36.893836    
   3770000   0.59847461    -7.5913369     -6.6936377      5.4451199      50218.233      36.893836      36.893836      36.893836    
   3780000   0.59531607    -7.5940968     -6.7011354      5.4044813      50218.233      36.893836      36.893836      36.893836    
   3790000   0.60232011    -7.5998187     -6.6963514      5.3780342      50218.233      36.893836      36.893836      36.893836    
   3800000   0.59898639    -7.5935222     -6.6950554      5.4232962      50218.233      36.893836      36.893836      36.893836    
   3810000   0.60101683    -7.5952708     -6.6937584      5.4195732      50218.233      36.893836      36.893836      36.893836    
   3820000   0.59959734    -7.5970542     -6.697671       5.4145193      50218.233      36.893836      36.893836      36.893836    
   3830000   0.600177      -7.5962305     -6.6959778      5.4174879      50218.233      36.893836      36.893836      36.893836    
   3840000   0.60163968    -7.5952112     -6.6927646      5.4194839      50218.233      36.893836      36.893836      36.893836    
   3850000   0.59994758    -7.5997913     -6.6998828      5.3897772      50218.233      36.893836      36.893836      36.893836    
   3860000   0.6002177     -7.5953275     -6.6950138      5.4159172      50218.233      36.893836      36.893836      36.893836    
   3870000   0.60007569    -7.5978364     -6.6977357      5.3835304      50218.233      36.893836      36.893836      36.893836    
   3880000   0.60028658    -7.5978014     -6.6973843      5.3980721      50218.233      36.893836      36.893836      36.893836    
   3890000   0.6008582     -7.592177      -6.6909025      5.445039       50218.233      36.893836      36.893836      36.893836    
   3900000   0.60153898    -7.5994056     -6.69711        5.3942037      50218.233      36.893836      36.893836      36.893836    
   3910000   0.59902224    -7.5995771     -6.7010565      5.395848       50218.233      36.893836      36.893836      36.893836    
   3920000   0.59973777    -7.6019718     -6.702378       5.3600605      50218.233      36.893836      36.893836      36.893836    
   3930000   0.60148066    -7.5990899     -6.6968818      5.3874514      50218.233      36.893836      36.893836      36.893836    
   3940000   0.59718692    -7.5966133     -6.7008457      5.4047224      50218.233      36.893836      36.893836      36.893836    
   3950000   0.59553124    -7.6018922     -6.708608       5.3595601      50218.233      36.893836      36.893836      36.893836    
   3960000   0.5976567     -7.5967538     -6.7002815      5.3952897      50218.233      36.893836      36.893836      36.893836    
   3970000   0.59682234    -7.5967151     -6.7014943      5.3963674      50218.233      36.893836      36.893836      36.893836    
   3980000   0.59952265    -7.5953959     -6.6961247      5.4086589      50218.233      36.893836      36.893836      36.893836    
   3990000   0.59948003    -7.596442      -6.6972348      5.4155267      50218.233      36.893836      36.893836      36.893836    
   4000000   0.60158637    -7.5911389     -6.6887722      5.4548161      50218.233      36.893836      36.893836      36.893836    
   4010000   0.59885958    -7.5924374     -6.6941608      5.4242376      50218.233      36.893836      36.893836      36.893836    
   4020000   0.59862097    -7.5885975     -6.6906788      5.4629589      50218.233      36.893836      36.893836      36.893836    
   4030000   0.59890664    -7.596077      -6.6977299      5.410542       50218.233      36.893836      36.893836      36.893836    
   4040000   0.59947983    -7.5919265     -6.6927195      5.429733       50218.233      36.893836      36.893836      36.893836    
   4050000   0.59942886    -7.589668      -6.6905375      5.4419752      50218.233      36.893836      36.893836      36.893836    
   4060000   0.59924562    -7.590824      -6.6919684      5.449156       50218.233      36.893836      36.893836      36.893836    
   4070000   0.6020214     -7.5982864     -6.6952671      5.3997496      50218.233      36.893836      36.893836      36.893836    
   4080000   0.60255825    -7.5974876     -6.693663       5.4152575      50218.233      36.893836      36.893836      36.893836    
   4090000   0.59871312    -7.5991357     -6.7010788      5.384977       50218.233      36.893836      36.893836      36.893836    
   4100000   0.59803314    -7.5999629     -6.702926       5.3753095      50218.233      36.893836      36.893836      36.893836    
   4110000   0.6010691     -7.5958185     -6.6942277      5.4116929      50218.233      36.893836      36.893836      36.893836    
   4120000   0.59932019    -7.5951782     -6.6962107      5.4075526      50218.233      36.893836      36.893836      36.893836    
   4130000   0.60239724    -7.5994046     -6.6958216      5.3856952      50218.233      36.893836      36.893836      36.893836    
   4140000   0.60033087    -7.5977184     -6.6972349      5.3826825      50218.233      36.893836      36.893836      36.893836    
   4150000   0.6008523     -7.5957949     -6.6945292      5.3955375      50218.233      36.893836      36.893836      36.893836    
   4160000   0.59900754    -7.5951783     -6.6966798      5.397295       50218.233      36.893836      36.893836      36.893836    
   4170000   0.60022847    -7.5945728     -6.6942429      5.4198659      50218.233      36.893836      36.893836      36.893836    
   4180000   0.59814798    -7.5929222     -6.695713       5.4193096      50218.233      36.893836      36.893836      36.893836    
   4190000   0.60175356    -7.5904652     -6.6878477      5.4581497      50218.233      36.893836      36.893836      36.893836    
   4200000   0.59933591    -7.5924303     -6.6934393      5.4338057      50218.233      36.893836      36.893836      36.893836    
   4210000   0.60002499    -7.5913524     -6.6913278      5.4364009      50218.233      36.893836      36.893836      36.893836    
   4220000   0.59824431    -7.5932341     -6.6958804      5.427029       50218.233      36.893836      36.893836      36.893836    
   4230000   0.59871506    -7.5982971     -6.7002373      5.3940606      50218.233      36.893836      36.893836      36.893836    
   4240000   0.60108582    -7.5966592     -6.6950433      5.395424       50218.233      36.893836      36.893836      36.893836    
   4250000   0.59968754    -7.5968131     -6.6972946      5.4174032      50218.233      36.893836      36.893836      36.893836    
   4260000   0.60271275    -7.5956933     -6.691637       5.4166926      50218.233      36.893836      36.893836      36.893836    
   4270000   0.59842768    -7.5950263     -6.6973975      5.4212896      50218.233      36.893836      36.893836      36.893836    
   4280000   0.60152874    -7.5908089     -6.6885286      5.4505188      50218.233      36.893836      36.893836      36.893836    
   4290000   0.59969622    -7.5998871     -6.7003555      5.3667585      50218.233      36.893836      36.893836      36.893836    
   4300000   0.60080711    -7.5918257     -6.6906279      5.4515908      50218.233      36.893836      36.893836      36.893836    
   4310000   0.5979256     -7.5955274     -6.6986518      5.4100076      50218.233      36.893836      36.893836      36.893836    
   4320000   0.60366026    -7.594289      -6.6888115      5.4325327      50218.233      36.893836      36.893836      36.893836    
   4330000   0.60010134    -7.5965016     -6.6963624      5.3942502      50218.233      36.893836      36.893836      36.893836    
   4340000   0.60077535    -7.5980932     -6.696943       5.4037612      50218.233      36.893836      36.893836      36.893836    
   4350000   0.59959398    -7.5995483     -6.7001702      5.3866033      50218.233      36.893836      36.893836      36.893836    
   4360000   0.59874419    -7.5955551     -6.6974516      5.4136513      50218.233      36.893836      36.893836      36.893836    
   4370000   0.59991331    -7.592483      -6.6926258      5.4218874      50218.233      36.893836      36.893836      36.893836    
   4380000   0.60114139    -7.6003047     -6.6986054      5.3872584      50218.233      36.893836      36.893836      36.893836    
   4390000   0.60131711    -7.5955727     -6.6936099      5.4308083      50218.233      36.893836      36.893836      36.893836    
   4400000   0.60196674    -7.5959223     -6.692985       5.4039445      50218.233      36.893836      36.893836      36.893836    
   4410000   0.59873919    -7.5953671     -6.6972711      5.4125624      50218.233      36.893836      36.893836      36.893836    
   4420000   0.60214199    -7.5937238     -6.6905236      5.4437557      50218.233      36.893836      36.893836      36.893836    
   4430000   0.60034893    -7.5951058     -6.6945953      5.4123021      50218.233      36.893836      36.893836      36.893836    
   4440000   0.60156534    -7.5960409     -6.6937057      5.4150386      50218.233      36.893836      36.893836      36.893836    
   4450000   0.59909086    -7.6007275     -6.702104       5.3625044      50218.233      36.893836      36.893836      36.893836    
   4460000   0.59926453    -7.5977748     -6.6988908      5.3870586      50218.233      36.893836      36.893836      36.893836    
   4470000   0.60032855    -7.6012272     -6.7007472      5.3715252      50218.233      36.893836      36.893836      36.893836    
   4480000   0.60168739    -7.5960756     -6.6935574      5.400394       50218.233      36.893836      36.893836      36.893836    
   4490000   0.59877869    -7.5956193     -6.6974641      5.4120952      50218.233      36.893836      36.893836      36.893836    
   4500000   0.6013114     -7.5966918     -6.6947375      5.4094133      50218.233      36.893836      36.893836      36.893836    
   4510000   0.59743336    -7.5966404     -6.7005031      5.3959267      50218.233      36.893836      36.893836      36.893836    
   4520000   0.60005334    -7.5912049     -6.6911377      5.4334915      50218.233      36.893836      36.893836      36.893836    
   4530000   0.59936647    -7.5940757     -6.6950388      5.4336979      50218.233      36.893836      36.893836      36.893836    
   4540000   0.60005499    -7.5952204     -6.6951507      5.4195579      50218.233      36.893836      36.893836      36.893836    
   4550000   0.59835951    -7.5953119     -6.6977854      5.4234056      50218.233      36.893836      36.893836      36.893836    
   4560000   0.59777713    -7.594997      -6.6983441      5.4180501      50218.233      36.893836      36.893836      36.893836    
   4570000   0.5997318     -7.5911352     -6.6915503      5.4497831      50218.233      36.893836      36.893836      36.893836    
   4580000   0.60071831    -7.5906338     -6.6895692      5.4453596      50218.233      36.893836      36.893836      36.893836    
   4590000   0.59930219    -7.5916942     -6.6927537      5.4469055      50218.233      36.893836      36.893836      36.893836    
   4600000   0.59994213    -7.5892613     -6.6893609      5.4572641      50218.233      36.893836      36.893836      36.893836    
   4610000   0.60081536    -7.5914445     -6.6902343      5.4436077      50218.233      36.893836      36.893836      36.893836    
   4620000   0.59754364    -7.5934886     -6.6971858      5.4292076      50218.233      36.893836      36.893836      36.893836    
   4630000   0.59733908    -7.5991635     -6.7031676      5.3822195      50218.233      36.893836      36.893836      36.893836    
   4640000   0.60143486    -7.5848693     -6.6827298      5.4915743      50218.233      36.893836      36.893836      36.893836    
   4650000   0.59908698    -7.5918664     -6.6932487      5.4323273      50218.233      36.893836      36.893836      36.893836    
   4660000   0.60054012    -7.5985835     -6.6977862      5.3783663      50218.233      36.893836      36.893836      36.893836    
   4670000   0.59864728    -7.5989154     -6.7009572      5.3756662      50218.233      36.893836      36.893836      36.893836    
   4680000   0.59773958    -7.5951767     -6.69858        5.4096933      50218.233      36.893836      36.893836      36.893836    
   4690000   0.59764398    -7.5905507     -6.6940975      5.4439819      50218.233      36.893836      36.893836      36.893836    
   4700000   0.60333244    -7.5980625     -6.6930767      5.4062574      50218.233      36.893836      36.893836      36.893836    
   4710000   0.60251858    -7.5996169     -6.6958519      5.3953344      50218.233      36.893836      36.893836      36.893836    
   4720000   0.60316372    -7.5989389     -6.6942062      5.38742        50218.233      36.893836      36.893836      36.893836    
   4730000   0.59698421    -7.6018995     -6.706436       5.3632621      50218.233      36.893836      36.893836      36.893836    
   4740000   0.59918436    -7.5924016     -6.6936379      5.4344096      50218.233      36.893836      36.893836      36.893836    
   4750000   0.59935786    -7.5916411     -6.692617       5.4378894      50218.233      36.893836      36.893836      36.893836    
   4760000   0.60142581    -7.5910475     -6.6889216      5.4447667      50218.233      36.893836      36.893836      36.893836    
   4770000   0.59850548    -7.5953445     -6.6975991      5.4248992      50218.233      36.893836      36.893836      36.893836    
   4780000   0.6032372     -7.5975998     -6.6927569      5.419986       50218.233      36.893836      36.893836      36.893836    
   4790000   0.59872806    -7.5942349     -6.6961556      5.4169823      50218.233      36.893836      36.893836      36.893836    
   4800000   0.59817746    -7.5951553     -6.6979019      5.4069439      50218.233      36.893836      36.893836      36.893836    
   4810000   0.6015892     -7.5942467     -6.6918757      5.4187329      50218.233      36.893836      36.893836      36.893836    
   4820000   0.59802521    -7.5979521     -6.7009271      5.4014048      50218.233      36.893836      36.893836      36.893836    
   4830000   0.60172828    -7.5950634     -6.6924838      5.4140133      50218.233      36.893836      36.893836      36.893836    
   4840000   0.59941841    -7.5931915     -6.6940767      5.4347202      50218.233      36.893836      36.893836      36.893836    
   4850000   0.59880339    -7.5975305     -6.6993381      5.3915636      50218.233      36.893836      36.893836      36.893836    
   4860000   0.59835415    -7.5996624     -6.7021439      5.3885238      50218.233      36.893836      36.893836      36.893836    
   4870000   0.60144457    -7.5913511     -6.689197       5.4541775      50218.233      36.893836      36.893836      36.893836    
   4880000   0.60016884    -7.5950205     -6.69478        5.4042341      50218.233      36.893836      36.893836      36.893836    
   4890000   0.60174999    -7.5955031     -6.692891       5.4135973      50218.233      36.893836      36.893836      36.893836    
   4900000   0.5991616     -7.5992804     -6.7005508      5.384554       50218.233      36.893836      36.893836      36.893836    
   4910000   0.602484      -7.5949481     -6.691235       5.4103516      50218.233      36.893836      36.893836      36.893836    
   4920000   0.6032691     -7.5931887     -6.6882979      5.435086       50218.233      36.893836      36.893836      36.893836    
   4930000   0.59820805    -7.5987769     -6.7014776      5.3822322      50218.233      36.893836      36.893836      36.893836    
   4940000   0.6024774     -7.5970912     -6.6933879      5.4023625      50218.233      36.893836      36.893836      36.893836    
   4950000   0.60109471    -7.5961157     -6.6944864      5.4007732      50218.233      36.893836      36.893836      36.893836    
   4960000   0.59971173    -7.5949842     -6.6954294      5.4086656      50218.233      36.893836      36.893836      36.893836    
   4970000   0.59906403    -7.5975271     -6.6989438      5.3977806      50218.233      36.893836      36.893836      36.893836    
   4980000   0.59896128    -7.5934312     -6.6950021      5.4158409      50218.233      36.893836      36.893836      36.893836    
   4990000   0.59990349    -7.5918931     -6.6920507      5.4352773      50218.233      36.893836      36.893836      36.893836    
   5000000   0.60068286    -7.5969663     -6.6959548      5.3923739      50218.233      36.893836      36.893836      36.893836    
   5010000   0.59962487    -7.5929427     -6.6935182      5.4312028      50218.233      36.893836      36.893836      36.893836    
   5020000   0.60184342    -7.5974177     -6.6946654      5.3995422      50218.233      36.893836      36.893836      36.893836    
   5030000   0.59914905    -7.5962313     -6.6975205      5.4002301      50218.233      36.893836      36.893836      36.893836    
   5040000   0.60033145    -7.5956164     -6.695132       5.4025298      50218.233      36.893836      36.893836      36.893836    
   5050000   0.60125088    -7.5996433     -6.6977798      5.3859222      50218.233      36.893836      36.893836      36.893836    
   5060000   0.59844026    -7.5956605     -6.6980129      5.4060749      50218.233      36.893836      36.893836      36.893836    
   5070000   0.59918305    -7.5934866     -6.6947248      5.4262033      50218.233      36.893836      36.893836      36.893836    
   5080000   0.6005761     -7.592819      -6.6919677      5.4440853      50218.233      36.893836      36.893836      36.893836    
   5090000   0.60078904    -7.5920177     -6.690847       5.4360046      50218.233      36.893836      36.893836      36.893836    
   5100000   0.60200677    -7.598629      -6.6956317      5.3960133      50218.233      36.893836      36.893836      36.893836    
   5110000   0.60015599    -7.589474      -6.6892528      5.4628975      50218.233      36.893836      36.893836      36.893836    
   5120000   0.60080577    -7.598314      -6.6971182      5.3898704      50218.233      36.893836      36.893836      36.893836    
   5130000   0.60055564    -7.5894672     -6.6886466      5.4514285      50218.233      36.893836      36.893836      36.893836    
   5140000   0.60014496    -7.6000164     -6.6998118      5.3699918      50218.233      36.893836      36.893836      36.893836    
   5150000   0.59922188    -7.5944965     -6.6956764      5.4154022      50218.233      36.893836      36.893836      36.893836    
   5160000   0.59731303    -7.6003028     -6.704346       5.3694124      50218.233      36.893836      36.893836      36.893836    
   5170000   0.60213527    -7.5995262     -6.6963362      5.3829269      50218.233      36.893836      36.893836      36.893836    
   5180000   0.6007054     -7.6005115     -6.6994662      5.3661093      50218.233      36.893836      36.893836      36.893836    
   5190000   0.60220807    -7.5971534     -6.6938541      5.3957466      50218.233      36.893836      36.893836      36.893836    
   5200000   0.60067188    -7.5925142     -6.6915192      5.436231       50218.233      36.893836      36.893836      36.893836    
   5210000   0.5981299     -7.5983424     -6.7011603      5.3896866      50218.233      36.893836      36.893836      36.893836    
   5220000   0.59703892    -7.5943233     -6.6987777      5.4247194      50218.233      36.893836      36.893836      36.893836    
   5230000   0.60121651    -7.5931132     -6.6913013      5.4238087      50218.233      36.893836      36.893836      36.893836    
   5240000   0.5997643     -7.5958461     -6.6962124      5.3841894      50218.233      36.893836      36.893836      36.893836    
   5250000   0.60003486    -7.5962322     -6.6961927      5.4071673      50218.233      36.893836      36.893836      36.893836    
   5260000   0.597796      -7.5930819     -6.6964006      5.4196817      50218.233      36.893836      36.893836      36.893836    
   5270000   0.59938044    -7.5958607     -6.6968029      5.4031297      50218.233      36.893836      36.893836      36.893836    
   5280000   0.60211063    -7.5978021     -6.694649       5.4064406      50218.233      36.893836      36.893836      36.893836    
   5290000   0.59816995    -7.598246      -6.7010038      5.3849185      50218.233      36.893836      36.893836      36.893836    
   5300000   0.59780354    -7.6021234     -6.7054308      5.3503041      50218.233      36.893836      36.893836      36.893836    
   5310000   0.59857327    -7.5996985     -6.7018513      5.3807927      50218.233      36.893836      36.893836      36.893836    
   5320000   0.59962108    -7.5996752     -6.7002564      5.3912106      50218.233      36.893836      36.893836      36.893836    
   5330000   0.59639535    -7.5967781     -6.7021978      5.3947453      50218.233      36.893836      36.893836      36.893836    
   5340000   0.60031177    -7.5957394     -6.6952845      5.4029898      50218.233      36.893836      36.893836      36.893836    
   5350000   0.59834419    -7.5956118     -6.6981083      5.4049107      50218.233      36.893836      36.893836      36.893836    
   5360000   0.59876127    -7.5980201     -6.699891       5.3886671      50218.233      36.893836      36.893836      36.893836    
   5370000   0.59767089    -7.5978747     -6.7013811      5.3832843      50218.233      36.893836      36.893836      36.893836    
   5380000   0.59850993    -7.5992037     -6.7014516      5.3923377      50218.233      36.893836      36.893836      36.893836    
   5390000   0.60094225    -7.5957212     -6.6943206      5.3965421      50218.233      36.893836      36.893836      36.893836    
   5400000   0.6019113     -7.5942756     -6.6914215      5.4016682      50218.233      36.893836      36.893836      36.893836    
   5410000   0.59929905    -7.5954064     -6.6964706      5.4037714      50218.233      36.893836      36.893836      36.893836    
   5420000   0.59770653    -7.5994043     -6.7028573      5.3777846      50218.233      36.893836      36.893836      36.893836    
   5430000   0.59865554    -7.598802      -6.7008315      5.3961615      50218.233      36.893836      36.893836      36.893836    
   5440000   0.60319285    -7.5945403     -6.6897639      5.4309061      50218.233      36.893836      36.893836      36.893836    
   5450000   0.60054704    -7.5931509     -6.6923431      5.4281691      50218.233      36.893836      36.893836      36.893836    
   5460000   0.59723695    -7.5954283     -6.6995856      5.4154916      50218.233      36.893836      36.893836      36.893836    
   5470000   0.59911527    -7.5975876     -6.6989275      5.3828313      50218.233      36.893836      36.893836      36.893836    
   5480000   0.5995329     -7.6020804     -6.7027939      5.360249       50218.233      36.893836      36.893836      36.893836    
   5490000   0.60279343    -7.5955859     -6.6914086      5.4015683      50218.233      36.893836      36.893836      36.893836    
   5500000   0.60351408    -7.5978314     -6.6925731      5.3973566      50218.233      36.893836      36.893836      36.893836    
   5510000   0.60337119    -7.5997126     -6.6946687      5.3873046      50218.233      36.893836      36.893836      36.893836    
   5520000   0.59935329    -7.589338      -6.6903209      5.4508328      50218.233      36.893836      36.893836      36.893836    
   5530000   0.60006845    -7.5908763     -6.6907864      5.4263796      50218.233      36.893836      36.893836      36.893836    
   5540000   0.60014072    -7.5971197     -6.6969214      5.4085662      50218.233      36.893836      36.893836      36.893836    
   5550000   0.60117514    -7.5973063     -6.6955564      5.3948894      50218.233      36.893836      36.893836      36.893836    
   5560000   0.59825787    -7.5987692     -6.7013952      5.3794392      50218.233      36.893836      36.893836      36.893836    
   5570000   0.60254317    -7.6016946     -6.6978927      5.36659        50218.233      36.893836      36.893836      36.893836    
   5580000   0.60194331    -7.5976468     -6.6947447      5.3863074      50218.233      36.893836      36.893836      36.893836    
   5590000   0.60095044    -7.5994535     -6.6980406      5.3884398      50218.233      36.893836      36.893836      36.893836    
   5600000   0.59690683    -7.5966362     -6.7012887      5.3981287      50218.233      36.893836      36.893836      36.893836    
   5610000   0.59969926    -7.5916318     -6.6920957      5.4416309      50218.233      36.893836      36.893836      36.893836    
   5620000   0.60164896    -7.6030411     -6.7005805      5.3640422      50218.233      36.893836      36.893836      36.893836    
   5630000   0.59896659    -7.5978382     -6.6994011      5.3939287      50218.233      36.893836      36.893836      36.893836    
   5640000   0.59877737    -7.5934451     -6.6952918      5.4336887      50218.233      36.893836      36.893836      36.893836    
   5650000   0.6020223     -7.5998102     -6.6967896      5.3944934      50218.233      36.893836      36.893836      36.893836    
   5660000   0.59707884    -7.5974437     -6.7018381      5.3900491      50218.233      36.893836      36.893836      36.893836    
   5670000   0.60236512    -7.5915521     -6.6880173      5.442858       50218.233      36.893836      36.893836      36.893836    
   5680000   0.6007108     -7.5958496     -6.6947962      5.3999798      50218.233      36.893836      36.893836      36.893836    
   5690000   0.59895869    -7.5944753     -6.69605        5.4199179      50218.233      36.893836      36.893836      36.893836    
   5700000   0.59715484    -7.5912759     -6.6955564      5.4398315      50218.233      36.893836      36.893836      36.893836    
   5710000   0.59900738    -7.6021991     -6.7037008      5.3578552      50218.233      36.893836      36.893836      36.893836    
   5720000   0.60009417    -7.5950219     -6.6948935      5.427567       50218.233      36.893836      36.893836      36.893836    
   5730000   0.59950983    -7.6062424     -6.7069905      5.3364598      50218.233      36.893836      36.893836      36.893836    
   5740000   0.60065185    -7.5949582     -6.6939933      5.4177677      50218.233      36.893836      36.893836      36.893836    
   5750000   0.60073923    -7.5934241     -6.692328       5.4209747      50218.233      36.893836      36.893836      36.893836    
   5760000   0.6018754     -7.5967149     -6.6939147      5.4146168      50218.233      36.893836      36.893836      36.893836    
   5770000   0.59977358    -7.6000202     -6.7003726      5.3748232      50218.233      36.893836      36.893836      36.893836    
   5780000   0.60181712    -7.5936223     -6.6909095      5.4155194      50218.233      36.893836      36.893836      36.893836    
   5790000   0.60348841    -7.5988394     -6.6936196      5.4080176      50218.233      36.893836      36.893836      36.893836    
   5800000   0.60249747    -7.5972207     -6.6934873      5.3985188      50218.233      36.893836      36.893836      36.893836    
   5810000   0.5995289     -7.5993422     -6.7000616      5.3721255      50218.233      36.893836      36.893836      36.893836    
   5820000   0.60122088    -7.5965101     -6.6946916      5.400043       50218.233      36.893836      36.893836      36.893836    
   5830000   0.59929887    -7.5980662     -6.6991307      5.4000326      50218.233      36.893836      36.893836      36.893836    
   5840000   0.60097723    -7.6010031     -6.69955        5.3678347      50218.233      36.893836      36.893836      36.893836    
   5850000   0.59965992    -7.5942032     -6.6947262      5.4104559      50218.233      36.893836      36.893836      36.893836    
   5860000   0.5986928     -7.6013309     -6.7033045      5.3730681      50218.233      36.893836      36.893836      36.893836    
   5870000   0.60013811    -7.5970015     -6.6968071      5.3913193      50218.233      36.893836      36.893836      36.893836    
   5880000   0.60230606    -7.5925791     -6.6891329      5.4211188      50218.233      36.893836      36.893836      36.893836    
   5890000   0.60009607    -7.5945204     -6.6943891      5.4182118      50218.233      36.893836      36.893836      36.893836    
   5900000   0.60216539    -7.5897681     -6.6865329      5.4600801      50218.233      36.893836      36.893836      36.893836    
   5910000   0.60033829    -7.5948822     -6.6943875      5.4129818      50218.233      36.893836      36.893836      36.893836    
   5920000   0.59810027    -7.599064      -6.7019263      5.3845895      50218.233      36.893836      36.893836      36.893836    
   5930000   0.60384081    -7.5932961     -6.6875478      5.4327267      50218.233      36.893836      36.893836      36.893836    
   5940000   0.60202841    -7.5949787     -6.6919489      5.4259273      50218.233      36.893836      36.893836      36.893836    
   5950000   0.59866917    -7.5935153     -6.6955243      5.4204576      50218.233      36.893836      36.893836      36.893836    
   5960000   0.60221848    -7.5914565     -6.6881416      5.4596561      50218.233      36.893836      36.893836      36.893836    
   5970000   0.59875014    -7.5933722     -6.6952598      5.4312303      50218.233      36.893836      36.893836      36.893836    
   5980000   0.59923117    -7.591563      -6.692729       5.4384181      50218.233      36.893836      36.893836      36.893836    
   5990000   0.60205303    -7.5918251     -6.6887584      5.4495649      50218.233      36.893836      36.893836      36.893836    
   6000000   0.59971014    -7.5920979     -6.6925455      5.4340293      50218.233      36.893836      36.893836      36.893836    
   6010000   0.60463125    -7.5907376     -6.6838036      5.4657151      50218.233      36.893836      36.893836      36.893836    
   6020000   0.59912469    -7.5955335     -6.6968592      5.4093446      50218.233      36.893836      36.893836      36.893836    
   6030000   0.59666133    -7.5957806     -6.7008013      5.3987366      50218.233      36.893836      36.893836      36.893836    
   6040000   0.5987392     -7.5921811     -6.6940851      5.4341036      50218.233      36.893836      36.893836      36.893836    
   6050000   0.59707317    -7.5916619     -6.6960649      5.4421431      50218.233      36.893836      36.893836      36.893836    
   6060000   0.5998252     -7.5921161     -6.6923911      5.4359777      50218.233      36.893836      36.893836      36.893836    
   6070000   0.59960019    -7.5908331     -6.6914456      5.4452637      50218.233      36.893836      36.893836      36.893836    
   6080000   0.59993304    -7.5986671     -6.6987803      5.3968827      50218.233      36.893836      36.893836      36.893836    
   6090000   0.59872548    -7.5964579     -6.6983825      5.4071278      50218.233      36.893836      36.893836      36.893836    
   6100000   0.59814831    -7.5897002     -6.6924905      5.442203       50218.233      36.893836      36.893836      36.893836    
   6110000   0.60061203    -7.5919331     -6.6910279      5.4435467      50218.233      36.893836      36.893836      36.893836    
   6120000   0.60102765    -7.5942486     -6.6927199      5.4321077      50218.233      36.893836      36.893836      36.893836    
   6130000   0.60395463    -7.5983317     -6.6924127      5.3950358      50218.233      36.893836      36.893836      36.893836    
   6140000   0.60394654    -7.5930877     -6.6871808      5.4297409      50218.233      36.893836      36.893836      36.893836    
   6150000   0.60387128    -7.5980432     -6.6922491      5.4043818      50218.233      36.893836      36.893836      36.893836    
   6160000   0.59938044    -7.5941982     -6.6951403      5.4230024      50218.233      36.893836      36.893836      36.893836    
   6170000   0.59992798    -7.5927867     -6.6929076      5.4311704      50218.233      36.893836      36.893836      36.893836    
   6180000   0.60383477    -7.5977844     -6.6920451      5.4045667      50218.233      36.893836      36.893836      36.893836    
   6190000   0.60094724    -7.5953624     -6.6939544      5.416034       50218.233      36.893836      36.893836      36.893836    
   6200000   0.60175066    -7.5955662     -6.692953       5.4030833      50218.233      36.893836      36.893836      36.893836    
   6210000   0.59728759    -7.597153      -6.7012343      5.4031546      50218.233      36.893836      36.893836      36.893836    
   6220000   0.60174361    -7.5958061     -6.6932035      5.4127731      50218.233      36.893836      36.893836      36.893836    
   6230000   0.6003828     -7.5974674     -6.696906       5.3896754      50218.233      36.893836      36.893836      36.893836    
   6240000   0.59847586    -7.5973102     -6.6996092      5.3910696      50218.233      36.893836      36.893836      36.893836    
   6250000   0.60121246    -7.5956776     -6.6938717      5.4108118      50218.233      36.893836      36.893836      36.893836    
   6260000   0.60218006    -7.5956227     -6.6923655      5.4122417      50218.233      36.893836      36.893836      36.893836    
   6270000   0.60214451    -7.593235      -6.6900311      5.4273164      50218.233      36.893836      36.893836      36.893836    
   6280000   0.60190408    -7.5914712     -6.6886279      5.44886        50218.233      36.893836      36.893836      36.893836    
   6290000   0.59807559    -7.5932864     -6.6961858      5.4311863      50218.233      36.893836      36.893836      36.893836    
   6300000   0.59709487    -7.5926385     -6.697009       5.4180268      50218.233      36.893836      36.893836      36.893836    
   6310000   0.6031903     -7.5957844     -6.6910118      5.4114921      50218.233      36.893836      36.893836      36.893836    
   6320000   0.59991399    -7.5886616     -6.6888034      5.4694519      50218.233      36.893836      36.893836      36.893836    
   6330000   0.59842958    -7.5959601     -6.6983285      5.4154812      50218.233      36.893836      36.893836      36.893836    
   6340000   0.5983162     -7.5924992     -6.6950377      5.4321151      50218.233      36.893836      36.893836      36.893836    
   6350000   0.60013667    -7.5945359     -6.6943437      5.4307264      50218.233      36.893836      36.893836      36.893836    
   6360000   0.59980635    -7.5930797     -6.693383       5.4514933      50218.233      36.893836      36.893836      36.893836    
   6370000   0.59801922    -7.5956061     -6.6985901      5.4018371      50218.233      36.893836      36.893836      36.893836    
   6380000   0.60186544    -7.593237      -6.6904517      5.433061       50218.233      36.893836      36.893836      36.893836    
   6390000   0.59940295    -7.5984557     -6.699364       5.38787        50218.233      36.893836      36.893836      36.893836    
   6400000   0.59898802    -7.5965897     -6.6981205      5.3996322      50218.233      36.893836      36.893836      36.893836    
   6410000   0.60141364    -7.5973169     -6.6952093      5.4108572      50218.233      36.893836      36.893836      36.893836    
   6420000   0.60159705    -7.5938489     -6.6914662      5.4263726      50218.233      36.893836      36.893836      36.893836    
   6430000   0.60286622    -7.6036643     -6.6993779      5.3558028      50218.233      36.893836      36.893836      36.893836    
   6440000   0.60152364    -7.6042074     -6.7019348      5.3424015      50218.233      36.893836      36.893836      36.893836    
   6450000   0.60013183    -7.5973901     -6.6972051      5.4052235      50218.233      36.893836      36.893836      36.893836    
   6460000   0.59978112    -7.59743       -6.6977711      5.3988944      50218.233      36.893836      36.893836      36.893836    
   6470000   0.59681805    -7.5982698     -6.7030554      5.3834513      50218.233      36.893836      36.893836      36.893836    
   6480000   0.59922182    -7.6023936     -6.7035736      5.3656316      50218.233      36.893836      36.893836      36.893836    
   6490000   0.59877345    -7.5965093     -6.6983619      5.3898831      50218.233      36.893836      36.893836      36.893836    
   6500000   0.59936894    -7.6005472     -6.7015066      5.3666946      50218.233      36.893836      36.893836      36.893836    
   6510000   0.59952279    -7.6023177     -6.7030463      5.3604706      50218.233      36.893836      36.893836      36.893836    
   6520000   0.59982639    -7.601417      -6.7016902      5.3746528      50218.233      36.893836      36.893836      36.893836    
   6530000   0.60181006    -7.5952551     -6.6925529      5.4107385      50218.233      36.893836      36.893836      36.893836    
   6540000   0.59821552    -7.5970695     -6.699759       5.4070296      50218.233      36.893836      36.893836      36.893836    
   6550000   0.59861252    -7.5989312     -6.7010252      5.3890365      50218.233      36.893836      36.893836      36.893836    
   6560000   0.59827724    -7.5944986     -6.6970955      5.4219525      50218.233      36.893836      36.893836      36.893836    
   6570000   0.59890632    -7.5937699     -6.6954232      5.426024       50218.233      36.893836      36.893836      36.893836    
   6580000   0.60120316    -7.5984256     -6.6966337      5.3895461      50218.233      36.893836      36.893836      36.893836    
   6590000   0.59533311    -7.6026104     -6.7096234      5.3533182      50218.233      36.893836      36.893836      36.893836    
   6600000   0.59692068    -7.6044363     -6.709068       5.3421746      50218.233      36.893836      36.893836      36.893836    
   6610000   0.59995675    -7.6028775     -6.7029551      5.3571572      50218.233      36.893836      36.893836      36.893836    
   6620000   0.59932848    -7.5983138     -6.6993339      5.405182       50218.233      36.893836      36.893836      36.893836    
   6630000   0.60266746    -7.595601      -6.6916127      5.4082169      50218.233      36.893836      36.893836      36.893836    
   6640000   0.5996421     -7.593763      -6.6943127      5.4288349      50218.233      36.893836      36.893836      36.893836    
   6650000   0.60232827    -7.5954391     -6.6919595      5.4192155      50218.233      36.893836      36.893836      36.893836    
   6660000   0.60122835    -7.5951997     -6.69337        5.418977       50218.233      36.893836      36.893836      36.893836    
   6670000   0.60063551    -7.5946099     -6.6936695      5.4282282      50218.233      36.893836      36.893836      36.893836    
   6680000   0.5950211     -7.5946078     -6.7020889      5.4064505      50218.233      36.893836      36.893836      36.893836    
   6690000   0.59947123    -7.5972446     -6.6980505      5.3958216      50218.233      36.893836      36.893836      36.893836    
   6700000   0.5991885     -7.59673       -6.69796        5.4046879      50218.233      36.893836      36.893836      36.893836    
   6710000   0.60155355    -7.5961031     -6.6937856      5.4105663      50218.233      36.893836      36.893836      36.893836    
   6720000   0.59796521    -7.5935195     -6.6965844      5.4302672      50218.233      36.893836      36.893836      36.893836    
   6730000   0.59647667    -7.5950495     -6.7003472      5.4014117      50218.233      36.893836      36.893836      36.893836    
   6740000   0.60231459    -7.5873386     -6.6838796      5.4830096      50218.233      36.893836      36.893836      36.893836    
   6750000   0.6015127     -7.5927093     -6.6904531      5.4505122      50218.233      36.893836      36.893836      36.893836    
   6760000   0.59998459    -7.5937246     -6.6937606      5.4348292      50218.233      36.893836      36.893836      36.893836    
   6770000   0.601149      -7.5896589     -6.6879483      5.4713132      50218.233      36.893836      36.893836      36.893836    
   6780000   0.60174375    -7.5904592     -6.6878564      5.4635962      50218.233      36.893836      36.893836      36.893836    
   6790000   0.60043784    -7.5928305     -6.6921866      5.4389235      50218.233      36.893836      36.893836      36.893836    
   6800000   0.59606697    -7.5931479     -6.6990602      5.4275375      50218.233      36.893836      36.893836      36.893836    
   6810000   0.59922656    -7.5956151     -6.696788       5.4088108      50218.233      36.893836      36.893836      36.893836    
   6820000   0.60317173    -7.6011633     -6.6964186      5.37562        50218.233      36.893836      36.893836      36.893836    
   6830000   0.60232237    -7.5934066     -6.6899359      5.4242945      50218.233      36.893836      36.893836      36.893836    
   6840000   0.60301331    -7.5907571     -6.68625        5.4757056      50218.233      36.893836      36.893836      36.893836    
   6850000   0.6003613     -7.5929454     -6.6924162      5.4417465      50218.233      36.893836      36.893836      36.893836    
   6860000   0.60038575    -7.591279      -6.6907132      5.4348614      50218.233      36.893836      36.893836      36.893836    
   6870000   0.60084683    -7.5935734     -6.692316       5.4363773      50218.233      36.893836      36.893836      36.893836    
   6880000   0.59914735    -7.5901443     -6.6914361      5.422785       50218.233      36.893836      36.893836      36.893836    
   6890000   0.59999732    -7.5971957     -6.6972125      5.3959461      50218.233      36.893836      36.893836      36.893836    
   6900000   0.59908222    -7.595428      -6.6968174      5.4114076      50218.233      36.893836      36.893836      36.893836    
   6910000   0.60107727    -7.5976146     -6.6960115      5.3904985      50218.233      36.893836      36.893836      36.893836    
   6920000   0.59934759    -7.5946525     -6.6956439      5.4153721      50218.233      36.893836      36.893836      36.893836    
   6930000   0.59892938    -7.5981456     -6.6997643      5.3887363      50218.233      36.893836      36.893836      36.893836    
   6940000   0.59985492    -7.5972152     -6.6974456      5.3965358      50218.233      36.893836      36.893836      36.893836    
   6950000   0.60127019    -7.5885575     -6.686665       5.4628473      50218.233      36.893836      36.893836      36.893836    
   6960000   0.60044437    -7.592162      -6.6915083      5.4182423      50218.233      36.893836      36.893836      36.893836    
   6970000   0.5977727     -7.5937635     -6.6971172      5.4257344      50218.233      36.893836      36.893836      36.893836    
   6980000   0.59911591    -7.5940707     -6.6954096      5.4169943      50218.233      36.893836      36.893836      36.893836    
   6990000   0.599765      -7.5987641     -6.6991294      5.3873528      50218.233      36.893836      36.893836      36.893836    
   7000000   0.59702739    -7.5966133     -6.7010849      5.4015811      50218.233      36.893836      36.893836      36.893836    
   7010000   0.59759666    -7.59332       -6.6969378      5.4243146      50218.233      36.893836      36.893836      36.893836    
   7020000   0.59986863    -7.5928373     -6.6930471      5.4342829      50218.233      36.893836      36.893836      36.893836    
   7030000   0.59863493    -7.6034847     -6.7055451      5.3471793      50218.233      36.893836      36.893836      36.893836    
   7040000   0.60020543    -7.5947928     -6.6944975      5.4220868      50218.233      36.893836      36.893836      36.893836    
   7050000   0.60022666    -7.5992653     -6.6989381      5.3793212      50218.233      36.893836      36.893836      36.893836    
   7060000   0.60101403    -7.5970872     -6.695579       5.4103063      50218.233      36.893836      36.893836      36.893836    
   7070000   0.60004889    -7.5928803     -6.6928198      5.4293764      50218.233      36.893836      36.893836      36.893836    
   7080000   0.60064642    -7.5976843     -6.6967275      5.3967386      50218.233      36.893836      36.893836      36.893836    
   7090000   0.59959039    -7.5967471     -6.6973743      5.3976342      50218.233      36.893836      36.893836      36.893836    
   7100000   0.60022827    -7.6013719     -6.7010423      5.3576073      50218.233      36.893836      36.893836      36.893836    
   7110000   0.59976313    -7.5969939     -6.697362       5.4075411      50218.233      36.893836      36.893836      36.893836    
   7120000   0.59879801    -7.5967369     -6.6985527      5.4053517      50218.233      36.893836      36.893836      36.893836    
   7130000   0.60049593    -7.5965224     -6.6957913      5.4104815      50218.233      36.893836      36.893836      36.893836    
   7140000   0.59916502    -7.60067       -6.7019353      5.3704525      50218.233      36.893836      36.893836      36.893836    
   7150000   0.59783344    -7.6028163     -6.7060789      5.3508751      50218.233      36.893836      36.893836      36.893836    
   7160000   0.59762223    -7.5963218     -6.6999012      5.3927097      50218.233      36.893836      36.893836      36.893836    
   7170000   0.59881563    -7.597139      -6.6989284      5.4071834      50218.233      36.893836      36.893836      36.893836    
   7180000   0.60287735    -7.5920693     -6.6877661      5.445757       50218.233      36.893836      36.893836      36.893836    
   7190000   0.59858919    -7.5991969     -6.7013259      5.3937282      50218.233      36.893836      36.893836      36.893836    
   7200000   0.59609977    -7.5902956     -6.6961586      5.4373643      50218.233      36.893836      36.893836      36.893836    
   7210000   0.60104474    -7.5934863     -6.691932       5.4296581      50218.233      36.893836      36.893836      36.893836    
   7220000   0.59882772    -7.5936922     -6.6954634      5.4209019      50218.233      36.893836      36.893836      36.893836    
   7230000   0.5986047     -7.5998814     -6.7019872      5.3865147      50218.233      36.893836      36.893836      36.893836    
   7240000   0.59660683    -7.5978316     -6.7029341      5.374414       50218.233      36.893836      36.893836      36.893836    
   7250000   0.59865003    -7.591033      -6.6930707      5.4507081      50218.233      36.893836      36.893836      36.893836    
   7260000   0.59786667    -7.5961397     -6.6993525      5.4029794      50218.233      36.893836      36.893836      36.893836    
   7270000   0.59987292    -7.5928537     -6.6930571      5.4219032      50218.233      36.893836      36.893836      36.893836    
   7280000   0.59793173    -7.5990318     -6.7021469      5.3862323      50218.233      36.893836      36.893836      36.893836    
   7290000   0.59510869    -7.5973189     -6.7046686      5.386686       50218.233      36.893836      36.893836      36.893836    
   7300000   0.59862352    -7.5965409     -6.6986184      5.3969764      50218.233      36.893836      36.893836      36.893836    
   7310000   0.60070115    -7.5974469     -6.6964079      5.3945995      50218.233      36.893836      36.893836      36.893836    
   7320000   0.60292401    -7.5969375     -6.6925644      5.3951212      50218.233      36.893836      36.893836      36.893836    
   7330000   0.60058668    -7.5967532     -6.695886       5.3997102      50218.233      36.893836      36.893836      36.893836    
   7340000   0.59963108    -7.5994276     -6.6999938      5.3732072      50218.233      36.893836      36.893836      36.893836    
   7350000   0.59866321    -7.5963381     -6.698356       5.4185533      50218.233      36.893836      36.893836      36.893836    
   7360000   0.60113681    -7.5953166     -6.6936242      5.4233352      50218.233      36.893836      36.893836      36.893836    
   7370000   0.60069206    -7.5976043     -6.696579       5.3942242      50218.233      36.893836      36.893836      36.893836    
   7380000   0.5994761     -7.5979026     -6.6987013      5.3944892      50218.233      36.893836      36.893836      36.893836    
   7390000   0.6009521     -7.5982949     -6.6968796      5.402344       50218.233      36.893836      36.893836      36.893836    
   7400000   0.60252236    -7.5958583     -6.6920876      5.4056124      50218.233      36.893836      36.893836      36.893836    
   7410000   0.59961567    -7.5941697     -6.694759       5.4204967      50218.233      36.893836      36.893836      36.893836    
   7420000   0.59910605    -7.5885191     -6.6898728      5.4613972      50218.233      36.893836      36.893836      36.893836    
   7430000   0.598056      -7.5896019     -6.6925307      5.4380958      50218.233      36.893836      36.893836      36.893836    
   7440000   0.6033096     -7.5958261     -6.6908746      5.4154093      50218.233      36.893836      36.893836      36.893836    
   7450000   0.59799665    -7.5983798     -6.7013976      5.3791845      50218.233      36.893836      36.893836      36.893836    
   7460000   0.59637478    -7.5995474     -6.704998       5.372635       50218.233      36.893836      36.893836      36.893836    
   7470000   0.59915205    -7.5937054     -6.6949901      5.4287775      50218.233      36.893836      36.893836      36.893836    
   7480000   0.60194203    -7.59741       -6.6945098      5.405345       50218.233      36.893836      36.893836      36.893836    
   7490000   0.59847142    -7.5996779     -6.7019836      5.3916465      50218.233      36.893836      36.893836      36.893836    
   7500000   0.59886597    -7.5979884     -6.6997023      5.3867644      50218.233      36.893836      36.893836      36.893836    
   7510000   0.59941774    -7.5929313     -6.6938175      5.4238702      50218.233      36.893836      36.893836      36.893836    
   7520000   0.59913311    -7.5967983     -6.6981114      5.393883       50218.233      36.893836      36.893836      36.893836    
   7530000   0.60183426    -7.5936677     -6.6909292      5.4247753      50218.233      36.893836      36.893836      36.893836    
   7540000   0.59657314    -7.5985777     -6.7037308      5.3960576      50218.233      36.893836      36.893836      36.893836    
   7550000   0.60140499    -7.5930721     -6.6909775      5.4291101      50218.233      36.893836      36.893836      36.893836    
   7560000   0.6014895     -7.5973165     -6.6950951      5.3950262      50218.233      36.893836      36.893836      36.893836    
   7570000   0.60154341    -7.590022      -6.6877198      5.4526827      50218.233      36.893836      36.893836      36.893836    
   7580000   0.59803204    -7.596593      -6.6995577      5.407388       50218.233      36.893836      36.893836      36.893836    
   7590000   0.59906404    -7.599452      -6.7008688      5.3809341      50218.233      36.893836      36.893836      36.893836    
   7600000   0.5988687     -7.5966871     -6.6983968      5.405201       50218.233      36.893836      36.893836      36.893836    
   7610000   0.59961569    -7.5934027     -6.693992       5.4185805      50218.233      36.893836      36.893836      36.893836    
   7620000   0.60109389    -7.5990154     -6.6973874      5.3759287      50218.233      36.893836      36.893836      36.893836    
   7630000   0.60144287    -7.600063      -6.6979115      5.377327       50218.233      36.893836      36.893836      36.893836    
   7640000   0.59806619    -7.5966436     -6.699557       5.3910167      50218.233      36.893836      36.893836      36.893836    
   7650000   0.59735456    -7.5932921     -6.697273       5.4190584      50218.233      36.893836      36.893836      36.893836    
   7660000   0.59760163    -7.5977298     -6.7013401      5.3964192      50218.233      36.893836      36.893836      36.893836    
   7670000   0.59949164    -7.5948467     -6.6956221      5.4097915      50218.233      36.893836      36.893836      36.893836    
   7680000   0.59947931    -7.592789      -6.6935828      5.4282934      50218.233      36.893836      36.893836      36.893836    
   7690000   0.59761147    -7.5895958     -6.6931913      5.4489786      50218.233      36.893836      36.893836      36.893836    
   7700000   0.59889033    -7.5959181     -6.6975954      5.4122195      50218.233      36.893836      36.893836      36.893836    
   7710000   0.60180512    -7.5976315     -6.6949367      5.3909606      50218.233      36.893836      36.893836      36.893836    
   7720000   0.59887045    -7.5974448     -6.6991519      5.3957463      50218.233      36.893836      36.893836      36.893836    
   7730000   0.60143794    -7.5907938     -6.6886497      5.4640356      50218.233      36.893836      36.893836      36.893836    
   7740000   0.59999571    -7.5944033     -6.6944226      5.4111886      50218.233      36.893836      36.893836      36.893836    
   7750000   0.59904721    -7.5975424     -6.6989844      5.4017847      50218.233      36.893836      36.893836      36.893836    
   7760000   0.60045365    -7.5892465     -6.6885789      5.4565043      50218.233      36.893836      36.893836      36.893836    
   7770000   0.60113002    -7.5905965     -6.6889143      5.4495269      50218.233      36.893836      36.893836      36.893836    
   7780000   0.59778444    -7.5992833     -6.7026194      5.3908667      50218.233      36.893836      36.893836      36.893836    
   7790000   0.59981862    -7.5924895     -6.6927744      5.440872       50218.233      36.893836      36.893836      36.893836    
   7800000   0.59904535    -7.5888666     -6.6903114      5.4580153      50218.233      36.893836      36.893836      36.893836    
   7810000   0.60150265    -7.595513      -6.6932718      5.412766       50218.233      36.893836      36.893836      36.893836    
   7820000   0.60002465    -7.5956418     -6.6956176      5.4204609      50218.233      36.893836      36.893836      36.893836    
   7830000   0.60139962    -7.592486      -6.6903994      5.435024       50218.233      36.893836      36.893836      36.893836    
   7840000   0.60151827    -7.5913115     -6.6890469      5.431498       50218.233      36.893836      36.893836      36.893836    
   7850000   0.6002383     -7.5909585     -6.6906138      5.454914       50218.233      36.893836      36.893836      36.893836    
   7860000   0.60207465    -7.5916811     -6.688582       5.4445382      50218.233      36.893836      36.893836      36.893836    
   7870000   0.60082294    -7.596165      -6.6949434      5.4104352      50218.233      36.893836      36.893836      36.893836    
   7880000   0.60051866    -7.595871      -6.6951058      5.408936       50218.233      36.893836      36.893836      36.893836    
   7890000   0.60100675    -7.5954646     -6.6939673      5.4156624      50218.233      36.893836      36.893836      36.893836    
   7900000   0.60113279    -7.5955081     -6.6938217      5.4051219      50218.233      36.893836      36.893836      36.893836    
   7910000   0.59934104    -7.5920798     -6.6930811      5.4386168      50218.233      36.893836      36.893836      36.893836    
   7920000   0.59883781    -7.5960843     -6.6978404      5.4109645      50218.233      36.893836      36.893836      36.893836    
   7930000   0.60155809    -7.5971027     -6.6947784      5.4045349      50218.233      36.893836      36.893836      36.893836    
   7940000   0.60071428    -7.587322      -6.6862634      5.4727083      50218.233      36.893836      36.893836      36.893836    
   7950000   0.59886963    -7.5886327     -6.690341       5.4633287      50218.233      36.893836      36.893836      36.893836    
   7960000   0.59707576    -7.6006032     -6.7050023      5.3656183      50218.233      36.893836      36.893836      36.893836    
   7970000   0.59892245    -7.6023108     -6.7039399      5.3577601      50218.233      36.893836      36.893836      36.893836    
   7980000   0.60178049    -7.5934068     -6.690749       5.4289932      50218.233      36.893836      36.893836      36.893836    
   7990000   0.5965578     -7.5963308     -6.7015069      5.4112089      50218.233      36.893836      36.893836      36.893836    
   8000000   0.59820973    -7.5912846     -6.6939828      5.4473186      50218.233      36.893836      36.893836      36.893836    
   8010000   0.59837532    -7.6009271     -6.7033769      5.3694845      50218.233      36.893836      36.893836      36.893836    
   8020000   0.59869012    -7.5856263     -6.6876039      5.4812985      50218.233      36.893836      36.893836      36.893836    
   8030000   0.6017924     -7.596554      -6.6938783      5.4011096      50218.233      36.893836      36.893836      36.893836    
   8040000   0.60088738    -7.5910261     -6.6897078      5.4455585      50218.233      36.893836      36.893836      36.893836    
   8050000   0.60246612    -7.5995896     -6.6959033      5.3920571      50218.233      36.893836      36.893836      36.893836    
   8060000   0.59911408    -7.5957127     -6.6970543      5.4165209      50218.233      36.893836      36.893836      36.893836    
   8070000   0.60285997    -7.5967164     -6.6924393      5.4108742      50218.233      36.893836      36.893836      36.893836    
   8080000   0.60056867    -7.5937567     -6.6929165      5.422108       50218.233      36.893836      36.893836      36.893836    
   8090000   0.60114251    -7.5936345     -6.6919335      5.4278922      50218.233      36.893836      36.893836      36.893836    
   8100000   0.59728596    -7.589472      -6.6935558      5.4603976      50218.233      36.893836      36.893836      36.893836    
   8110000   0.59820449    -7.5990404     -6.7017464      5.3944683      50218.233      36.893836      36.893836      36.893836    
   8120000   0.59740562    -7.5966454     -6.7005498      5.3988949      50218.233      36.893836      36.893836      36.893836    
   8130000   0.59672252    -7.5927151     -6.6976441      5.4154708      50218.233      36.893836      36.893836      36.893836    
   8140000   0.59776259    -7.592283      -6.6956518      5.4383924      50218.233      36.893836      36.893836      36.893836    
   8150000   0.60006029    -7.59771       -6.6976323      5.3831377      50218.233      36.893836      36.893836      36.893836    
   8160000   0.59717618    -7.5970241     -6.7012726      5.3885666      50218.233      36.893836      36.893836      36.893836    
   8170000   0.60217678    -7.5959333     -6.692681       5.4216497      50218.233      36.893836      36.893836      36.893836    
   8180000   0.60221678    -7.6007162     -6.6974038      5.3684364      50218.233      36.893836      36.893836      36.893836    
   8190000   0.60221611    -7.5992774     -6.695966       5.396617       50218.233      36.893836      36.893836      36.893836    
   8200000   0.60124886    -7.5947899     -6.6929295      5.4289369      50218.233      36.893836      36.893836      36.893836    
   8210000   0.60230886    -7.5996845     -6.6962341      5.3954656      50218.233      36.893836      36.893836      36.893836    
   8220000   0.59805216    -7.5954281     -6.6983626      5.4165664      50218.233      36.893836      36.893836      36.893836    
   8230000   0.5997451     -7.5972748     -6.69767        5.3942947      50218.233      36.893836      36.893836      36.893836    
   8240000   0.59926977    -7.5956107     -6.6967189      5.4128243      50218.233      36.893836      36.893836      36.893836    
   8250000   0.60001636    -7.596253      -6.6962413      5.4151937      50218.233      36.893836      36.893836      36.893836    
   8260000   0.60135926    -7.5984055     -6.6963795      5.3957596      50218.233      36.893836      36.893836      36.893836    
   8270000   0.59779241    -7.5954929     -6.698817       5.409523       50218.233      36.893836      36.893836      36.893836    
   8280000   0.59846067    -7.5945248     -6.6968465      5.4271183      50218.233      36.893836      36.893836      36.893836    
   8290000   0.5980434     -7.5984551     -6.7014027      5.3904759      50218.233      36.893836      36.893836      36.893836    
   8300000   0.59967095    -7.5986633     -6.6991697      5.398391       50218.233      36.893836      36.893836      36.893836    
   8310000   0.60343419    -7.599695      -6.6945566      5.3862606      50218.233      36.893836      36.893836      36.893836    
   8320000   0.59698064    -7.5961195     -6.7006613      5.407758       50218.233      36.893836      36.893836      36.893836    
   8330000   0.59973776    -7.5961931     -6.6965992      5.3932362      50218.233      36.893836      36.893836      36.893836    
   8340000   0.60166643    -7.5941775     -6.6916907      5.4123937      50218.233      36.893836      36.893836      36.893836    
   8350000   0.60007434    -7.5881414     -6.6880427      5.4662495      50218.233      36.893836      36.893836      36.893836    
   8360000   0.60081972    -7.5987518     -6.697535       5.3862899      50218.233      36.893836      36.893836      36.893836    
   8370000   0.60155973    -7.5967604     -6.6944337      5.4076385      50218.233      36.893836      36.893836      36.893836    
   8380000   0.59857898    -7.5965303     -6.6986746      5.3962383      50218.233      36.893836      36.893836      36.893836    
   8390000   0.598733      -7.5950934     -6.6970067      5.4073911      50218.233      36.893836      36.893836      36.893836    
   8400000   0.59960587    -7.5945085     -6.6951125      5.4044926      50218.233      36.893836      36.893836      36.893836    
   8410000   0.60036027    -7.5970517     -6.6965241      5.3973742      50218.233      36.893836      36.893836      36.893836    
   8420000   0.59941527    -7.5895306     -6.6904205      5.4598122      50218.233      36.893836      36.893836      36.893836    
   8430000   0.59833675    -7.5927321     -6.6952397      5.4329154      50218.233      36.893836      36.893836      36.893836    
   8440000   0.59771975    -7.596027      -6.6994602      5.4060629      50218.233      36.893836      36.893836      36.893836    
   8450000   0.60065503    -7.6005989     -6.6996291      5.3874693      50218.233      36.893836      36.893836      36.893836    
   8460000   0.59737249    -7.5909712     -6.6949252      5.4434015      50218.233      36.893836      36.893836      36.893836    
   8470000   0.60066809    -7.589428      -6.6884387      5.4683159      50218.233      36.893836      36.893836      36.893836    
   8480000   0.59857554    -7.5949128     -6.6970623      5.4160172      50218.233      36.893836      36.893836      36.893836    
   8490000   0.60020095    -7.5895433     -6.6892547      5.4604907      50218.233      36.893836      36.893836      36.893836    
   8500000   0.59726792    -7.5991749     -6.7032858      5.3750949      50218.233      36.893836      36.893836      36.893836    
   8510000   0.60023575    -7.5907993     -6.6904585      5.4433096      50218.233      36.893836      36.893836      36.893836    
   8520000   0.59699517    -7.5922643     -6.6967843      5.4396944      50218.233      36.893836      36.893836      36.893836    
   8530000   0.59782166    -7.5910127     -6.694293       5.4437576      50218.233      36.893836      36.893836      36.893836    
   8540000   0.59933982    -7.5928939     -6.693897       5.4377481      50218.233      36.893836      36.893836      36.893836    
   8550000   0.59839314    -7.5994013     -6.7018243      5.3727934      50218.233      36.893836      36.893836      36.893836    
   8560000   0.59924816    -7.5954024     -6.696543       5.4050777      50218.233      36.893836      36.893836      36.893836    
   8570000   0.60329604    -7.6009202     -6.695989       5.3694845      50218.233      36.893836      36.893836      36.893836    
   8580000   0.60002853    -7.5969018     -6.6968718      5.4089083      50218.233      36.893836      36.893836      36.893836    
   8590000   0.59864466    -7.5955112     -6.697557       5.3917336      50218.233      36.893836      36.893836      36.893836    
   8600000   0.59686671    -7.6006585     -6.7053712      5.358785       50218.233      36.893836      36.893836      36.893836    
   8610000   0.59789863    -7.5940058     -6.6971707      5.4280982      50218.233      36.893836      36.893836      36.893836    
   8620000   0.60238968    -7.5963324     -6.6927607      5.4106693      50218.233      36.893836      36.893836      36.893836    
   8630000   0.60006898    -7.5960438     -6.6959532      5.4065081      50218.233      36.893836      36.893836      36.893836    
   8640000   0.59935097    -7.5963702     -6.6973566      5.4032768      50218.233      36.893836      36.893836      36.893836    
   8650000   0.59825465    -7.5958295     -6.6984603      5.4005791      50218.233      36.893836      36.893836      36.893836    
   8660000   0.60032133    -7.5968628     -6.6963936      5.3960868      50218.233      36.893836      36.893836      36.893836    
   8670000   0.599975      -7.6018396     -6.7018899      5.3607745      50218.233      36.893836      36.893836      36.893836    
   8680000   0.60104205    -7.5901642     -6.6886139      5.4484195      50218.233      36.893836      36.893836      36.893836    
   8690000   0.60172257    -7.5943659     -6.6917949      5.4213531      50218.233      36.893836      36.893836      36.893836    
   8700000   0.59661327    -7.5906273     -6.6957202      5.4364999      50218.233      36.893836      36.893836      36.893836    
   8710000   0.59911025    -7.5966304     -6.6979778      5.4085236      50218.233      36.893836      36.893836      36.893836    
   8720000   0.59822268    -7.5937987     -6.6964774      5.4275042      50218.233      36.893836      36.893836      36.893836    
   8730000   0.59902302    -7.6002477     -6.7017259      5.3696902      50218.233      36.893836      36.893836      36.893836    
   8740000   0.60130724    -7.5952188     -6.6932708      5.4195413      50218.233      36.893836      36.893836      36.893836    
   8750000   0.59673766    -7.5949958     -6.6999021      5.407739       50218.233      36.893836      36.893836      36.893836    
   8760000   0.59877433    -7.5939086     -6.6957599      5.4231143      50218.233      36.893836      36.893836      36.893836    
   8770000   0.59625596    -7.59939       -6.7050188      5.3596709      50218.233      36.893836      36.893836      36.893836    
   8780000   0.59918834    -7.5947154     -6.6959457      5.412838       50218.233      36.893836      36.893836      36.893836    
   8790000   0.60104653    -7.5912615     -6.6897045      5.4438617      50218.233      36.893836      36.893836      36.893836    
   8800000   0.60097075    -7.5934394     -6.6919961      5.4388893      50218.233      36.893836      36.893836      36.893836    
   8810000   0.60027386    -7.5976381     -6.6972402      5.3968412      50218.233      36.893836      36.893836      36.893836    
   8820000   0.59762841    -7.5946021     -6.6981722      5.4115965      50218.233      36.893836      36.893836      36.893836    
   8830000   0.59941488    -7.5959655     -6.6968559      5.4064651      50218.233      36.893836      36.893836      36.893836    
   8840000   0.59757764    -7.5983792     -6.7020255      5.3921066      50218.233      36.893836      36.893836      36.893836    
   8850000   0.60030701    -7.5958629     -6.6954152      5.4144357      50218.233      36.893836      36.893836      36.893836    
   8860000   0.60175058    -7.6012873     -6.6986742      5.3627169      50218.233      36.893836      36.893836      36.893836    
   8870000   0.60227302    -7.5971551     -6.6937584      5.4004712      50218.233      36.893836      36.893836      36.893836    
   8880000   0.59749729    -7.5913038     -6.6950706      5.4434224      50218.233      36.893836      36.893836      36.893836    
   8890000   0.59921877    -7.591628      -6.6928127      5.4333787      50218.233      36.893836      36.893836      36.893836    
   8900000   0.59798433    -7.5942096     -6.6972459      5.4226663      50218.233      36.893836      36.893836      36.893836    
   8910000   0.60138965    -7.5947328     -6.6926611      5.4245904      50218.233      36.893836      36.893836      36.893836    
   8920000   0.59814918    -7.5938491     -6.6966381      5.4055894      50218.233      36.893836      36.893836      36.893836    
   8930000   0.59875412    -7.5950797     -6.6969613      5.4067662      50218.233      36.893836      36.893836      36.893836    
   8940000   0.60444783    -7.5897041     -6.6830452      5.4637793      50218.233      36.893836      36.893836      36.893836    
   8950000   0.6019572     -7.5921955     -6.6892726      5.436753       50218.233      36.893836      36.893836      36.893836    
   8960000   0.60000524    -7.5891995     -6.6892044      5.4590417      50218.233      36.893836      36.893836      36.893836    
   8970000   0.59943612    -7.5919054     -6.692764       5.4467661      50218.233      36.893836      36.893836      36.893836    
   8980000   0.59922425    -7.593063      -6.6942394      5.4172433      50218.233      36.893836      36.893836      36.893836    
   8990000   0.60025017    -7.5964681     -6.6961057      5.4070593      50218.233      36.893836      36.893836      36.893836    
   9000000   0.59784879    -7.593029      -6.6962686      5.4309664      50218.233      36.893836      36.893836      36.893836    
   9010000   0.59876838    -7.5935527     -6.6954129      5.4241909      50218.233      36.893836      36.893836      36.893836    
   9020000   0.60131681    -7.599914      -6.6979516      5.380985       50218.233      36.893836      36.893836      36.893836    
   9030000   0.59703943    -7.5885251     -6.6929787      5.4613063      50218.233      36.893836      36.893836      36.893836    
   9040000   0.59878858    -7.5936526     -6.6954825      5.4090042      50218.233      36.893836      36.893836      36.893836    
   9050000   0.59790355    -7.596717      -6.6998744      5.3998837      50218.233      36.893836      36.893836      36.893836    
   9060000   0.6023283     -7.5949078     -6.6914282      5.4173265      50218.233      36.893836      36.893836      36.893836    
   9070000   0.60110435    -7.5940039     -6.6923602      5.4166061      50218.233      36.893836      36.893836      36.893836    
   9080000   0.60141063    -7.5943546     -6.6922515      5.4237478      50218.233      36.893836      36.893836      36.893836    
   9090000   0.60004979    -7.6026914     -6.7026295      5.3647935      50218.233      36.893836      36.893836      36.893836    
   9100000   0.60161185    -7.5992712     -6.6968663      5.3876034      50218.233      36.893836      36.893836      36.893836    
   9110000   0.5983846     -7.5987156     -6.7011515      5.3853929      50218.233      36.893836      36.893836      36.893836    
   9120000   0.60245983    -7.5968129     -6.6931361      5.4105855      50218.233      36.893836      36.893836      36.893836    
   9130000   0.59800539    -7.5982414     -6.7012461      5.398865       50218.233      36.893836      36.893836      36.893836    
   9140000   0.59998631    -7.6012847     -6.701318       5.3657767      50218.233      36.893836      36.893836      36.893836    
   9150000   0.5997364     -7.5981103     -6.6985185      5.3954185      50218.233      36.893836      36.893836      36.893836    
   9160000   0.60156392    -7.5961604     -6.6938273      5.4082723      50218.233      36.893836      36.893836      36.893836    
   9170000   0.59888264    -7.5995381     -6.7012269      5.379441       50218.233      36.893836      36.893836      36.893836    
   9180000   0.60053839    -7.6002631     -6.6994684      5.3868507      50218.233      36.893836      36.893836      36.893836    
   9190000   0.60013192    -7.5918148     -6.6916298      5.4500055      50218.233      36.893836      36.893836      36.893836    
   9200000   0.59954894    -7.5940039     -6.6946933      5.4160572      50218.233      36.893836      36.893836      36.893836    
   9210000   0.59959368    -7.5999724     -6.7005947      5.3729572      50218.233      36.893836      36.893836      36.893836    
   9220000   0.60144404    -7.5981362     -6.6959829      5.3969379      50218.233      36.893836      36.893836      36.893836    
   9230000   0.59993967    -7.6000355     -6.7001388      5.3935717      50218.233      36.893836      36.893836      36.893836    
   9240000   0.59775659    -7.5940236     -6.6974014      5.4129551      50218.233      36.893836      36.893836      36.893836    
   9250000   0.59739061    -7.5934023     -6.6973292      5.4136507      50218.233      36.893836      36.893836      36.893836    
   9260000   0.60003755    -7.5902504     -6.6902069      5.466853       50218.233      36.893836      36.893836      36.893836    
   9270000   0.60177123    -7.596344      -6.6937         5.3944166      50218.233      36.893836      36.893836      36.893836    
   9280000   0.59965287    -7.597907      -6.6984405      5.395629       50218.233      36.893836      36.893836      36.893836    
   9290000   0.60075341    -7.5930476     -6.6919303      5.4328109      50218.233      36.893836      36.893836      36.893836    
   9300000   0.59898466    -7.5964913     -6.6980271      5.3994979      50218.233      36.893836      36.893836      36.893836    
   9310000   0.60436633    -7.5959681     -6.6894315      5.4208551      50218.233      36.893836      36.893836      36.893836    
   9320000   0.59880923    -7.5930517     -6.6948506      5.4362172      50218.233      36.893836      36.893836      36.893836    
   9330000   0.60134375    -7.5968219     -6.6948191      5.4009143      50218.233      36.893836      36.893836      36.893836    
   9340000   0.5996546     -7.5966871     -6.697218       5.4005848      50218.233      36.893836      36.893836      36.893836    
   9350000   0.5994461     -7.5895937     -6.6904373      5.4485664      50218.233      36.893836      36.893836      36.893836    
   9360000   0.59972383    -7.5958792     -6.6963062      5.404699       50218.233      36.893836      36.893836      36.893836    
   9370000   0.60414148    -7.5932358     -6.6870365      5.4365027      50218.233      36.893836      36.893836      36.893836    
   9380000   0.60014791    -7.5956299     -6.6954208      5.415938       50218.233      36.893836      36.893836      36.893836    
   9390000   0.59935488    -7.6001981     -6.7011786      5.3813807      50218.233      36.893836      36.893836      36.893836    
   9400000   0.59700768    -7.5940791     -6.6985803      5.4028944      50218.233      36.893836      36.893836      36.893836    
   9410000   0.59998496    -7.5938998     -6.6939351      5.426079       50218.233      36.893836      36.893836      36.893836    
   9420000   0.60051371    -7.5930913     -6.6923336      5.4275221      50218.233      36.893836      36.893836      36.893836    
   9430000   0.59865716    -7.595181      -6.697208       5.4112478      50218.233      36.893836      36.893836      36.893836    
   9440000   0.60594705    -7.5920357     -6.683128       5.4459786      50218.233      36.893836      36.893836      36.893836    
   9450000   0.59991067    -7.5968567     -6.6970035      5.4027299      50218.233      36.893836      36.893836      36.893836    
   9460000   0.60130588    -7.5930281     -6.6910821      5.4296596      50218.233      36.893836      36.893836      36.893836    
   9470000   0.59851311    -7.5921542     -6.6943973      5.4506327      50218.233      36.893836      36.893836      36.893836    
   9480000   0.59977056    -7.5905451     -6.6909021      5.4516651      50218.233      36.893836      36.893836      36.893836    
   9490000   0.59900509    -7.5966626     -6.6981677      5.4104722      50218.233      36.893836      36.893836      36.893836    
   9500000   0.59772       -7.5993368     -6.7027695      5.383671       50218.233      36.893836      36.893836      36.893836    
   9510000   0.60029947    -7.5957914     -6.695355       5.4158139      50218.233      36.893836      36.893836      36.893836    
   9520000   0.59967619    -7.5929549     -6.6934534      5.4318972      50218.233      36.893836      36.893836      36.893836    
   9530000   0.60180319    -7.5989903     -6.6962984      5.3881186      50218.233      36.893836      36.893836      36.893836    
   9540000   0.59891843    -7.5997278     -6.7013629      5.3738035      50218.233      36.893836      36.893836      36.893836    
   9550000   0.60101069    -7.5979903     -6.6964871      5.3933531      50218.233      36.893836      36.893836      36.893836    
   9560000   0.60086219    -7.5957809     -6.6945005      5.4107442      50218.233      36.893836      36.893836      36.893836    
   9570000   0.59770435    -7.5964526     -6.6999088      5.4060835      50218.233      36.893836      36.893836      36.893836    
   9580000   0.60149829    -7.5965716     -6.6943369      5.4045952      50218.233      36.893836      36.893836      36.893836    
   9590000   0.60163039    -7.595818      -6.6933852      5.4036411      50218.233      36.893836      36.893836      36.893836    
   9600000   0.60009607    -7.5937315     -6.6936002      5.4227473      50218.233      36.893836      36.893836      36.893836    
   9610000   0.59875417    -7.596243      -6.6981245      5.3997388      50218.233      36.893836      36.893836      36.893836    
   9620000   0.60081728    -7.599672      -6.6984589      5.3915052      50218.233      36.893836      36.893836      36.893836    
   9630000   0.59925375    -7.6002952     -6.7014274      5.3793231      50218.233      36.893836      36.893836      36.893836    
   9640000   0.59945697    -7.5931173     -6.6939446      5.4269611      50218.233      36.893836      36.893836      36.893836    
   9650000   0.60197938    -7.5917918     -6.6888356      5.4332261      50218.233      36.893836      36.893836      36.893836    
   9660000   0.59932993    -7.5940094     -6.6950273      5.4201873      50218.233      36.893836      36.893836      36.893836    
   9670000   0.59880666    -7.5940249     -6.6958277      5.4149194      50218.233      36.893836      36.893836      36.893836    
   9680000   0.6024427     -7.590697      -6.6870458      5.4514345      50218.233      36.893836      36.893836      36.893836    
   9690000   0.60136573    -7.5931075     -6.6910717      5.4381092      50218.233      36.893836      36.893836      36.893836    
   9700000   0.60008294    -7.5924932     -6.6923816      5.4379465      50218.233      36.893836      36.893836      36.893836    
   9710000   0.60041076    -7.5956676     -6.6950643      5.3976423      50218.233      36.893836      36.893836      36.893836    
   9720000   0.59876858    -7.595203      -6.6970629      5.4159796      50218.233      36.893836      36.893836      36.893836    
   9730000   0.60178223    -7.5935056     -6.6908451      5.4391228      50218.233      36.893836      36.893836      36.893836    
   9740000   0.59928985    -7.5936898     -6.6947678      5.4223461      50218.233      36.893836      36.893836      36.893836    
   9750000   0.59895291    -7.5949116     -6.696495       5.4197035      50218.233      36.893836      36.893836      36.893836    
   9760000   0.59806481    -7.5954174     -6.6983329      5.4037796      50218.233      36.893836      36.893836      36.893836    
   9770000   0.60192404    -7.5937951     -6.6909219      5.4253526      50218.233      36.893836      36.893836      36.893836    
   9780000   0.60146102    -7.5932409     -6.6910622      5.4354783      50218.233      36.893836      36.893836      36.893836    
   9790000   0.60134577    -7.5981787     -6.6961729      5.3973595      50218.233      36.893836      36.893836      36.893836    
   9800000   0.60113539    -7.5985728     -6.6968825      5.3924381      50218.233      36.893836      36.893836      36.893836    
   9810000   0.59915934    -7.5992217     -6.7004954      5.3875463      50218.233      36.893836      36.893836      36.893836    
   9820000   0.6019357     -7.5943275     -6.6914368      5.4319343      50218.233      36.893836      36.893836      36.893836    
   9830000   0.60169439    -7.603301      -6.7007723      5.3550149      50218.233      36.893836      36.893836      36.893836    
   9840000   0.59591412    -7.5876377     -6.6937792      5.4558561      50218.233      36.893836      36.893836      36.893836    
   9850000   0.60025577    -7.5943354     -6.6939646      5.4234949      50218.233      36.893836      36.893836      36.893836    
   9860000   0.60443095    -7.5866677     -6.6800341      5.4796021      50218.233      36.893836      36.893836      36.893836    
   9870000   0.60314505    -7.5924112     -6.6877065      5.4300214      50218.233      36.893836      36.893836      36.893836    
   9880000   0.60048736    -7.5984074     -6.6976892      5.4040145      50218.233      36.893836      36.893836      36.893836    
   9890000   0.59616512    -7.5953917     -6.7011568      5.4019213      50218.233      36.893836      36.893836      36.893836    
   9900000   0.59974967    -7.5866359     -6.6870242      5.4676902      50218.233      36.893836      36.893836      36.893836    
   9910000   0.60077256    -7.5899299     -6.6887839      5.4579788      50218.233      36.893836      36.893836      36.893836    
   9920000   0.59801615    -7.5920865     -6.6950751      5.4398101      50218.233      36.893836      36.893836      36.893836    
   9930000   0.59827802    -7.5945189     -6.6971146      5.4294718      50218.233      36.893836      36.893836      36.893836    
   9940000   0.5998671     -7.5913586     -6.6915707      5.4293782      50218.233      36.893836      36.893836      36.893836    
   9950000   0.60106039    -7.5880678     -6.68649        5.4676676      50218.233      36.893836      36.893836      36.893836    
   9960000   0.59930148    -7.5877159     -6.6887765      5.463348       50218.233      36.893836      36.893836      36.893836    
   9970000   0.59876845    -7.5937504     -6.6956105      5.429972       50218.233      36.893836      36.893836      36.893836    
   9980000   0.6009274     -7.599702      -6.6983237      5.3910007      50218.233      36.893836      36.893836      36.893836    
   9990000   0.59833963    -7.6019823     -6.7044856      5.345824       50218.233      36.893836      36.893836      36.893836    
  10000000   0.60102285    -7.5971487     -6.6956273      5.3997101      50218.233      36.893836      36.893836      36.893836    
Loop time of 16141.2 on 5 procs for 10000000 steps with 70304 atoms

Performance: 535276.305 tau/day, 619.533 timesteps/s, 43.556 Matom-step/s
95.0% CPU use with 5 MPI tasks x 1 OpenMP threads

MPI task timing breakdown:
Section |  min time  |  avg time  |  max time  |%varavg| %total
---------------------------------------------------------------
Pair    | 6040.6     | 6620.5     | 7566.3     | 702.5 | 41.02
Neigh   | 55.967     | 59.571     | 62.403     |  29.2 |  0.37
Comm    | 2482.2     | 2501.3     | 2517.8     |  27.0 | 15.50
Output  | 0.17971    | 0.18872    | 0.20934    |   2.4 |  0.00
Modify  | 5233.5     | 6167.7     | 6773.9     | 730.1 | 38.21
Other   |            | 792        |            |       |  4.91

Nlocal:        14060.8 ave       14081 max       14044 min
Histogram: 1 0 1 1 0 0 1 0 0 1
Nghost:        18735.8 ave       18816 max       18686 min
Histogram: 1 1 1 0 0 1 0 0 0 1
Neighs:              0 ave           0 max           0 min
Histogram: 5 0 0 0 0 0 0 0 0 0

Total # of neighbors = 0
Ave neighs/atom = 0
Neighbor list builds = 2330412
Dangerous builds = 0
clear
OMP_NUM_THREADS environment is not set. Defaulting to 1 thread. (src/comm.cpp:98)
  using 1 OpenMP thread(s) per MPI task
package gpu 0
jump dms580.lmp

variable T equal 580
# T = 1000* (temp in LJ unit)
variable f equal 10000
log log.${T}
log log.580
