variable TLJ equal (${T}/1000)
variable TLJ equal (480/1000)
variable NCyle equal 10
variable iStep equal (${f})
variable iStep equal (10000)
variable dumpStep equal (${f}*100)
variable dumpStep equal (10000*100)
variable runStep equal (${f}*100*${NCyle})
variable runStep equal (10000*100*${NCyle})
variable runStep equal (10000*100*10)

units       lj
atom_style  atomic
dimension 3
boundary     p p p
pair_style  lj/cut 2.5
read_data  ../data/T${T}.dat
read_data  ../data/T480.dat
Reading data file ...
  orthogonal box = (0.97250269 0.97250269 0.97250269) to (37.866338 37.866338 37.866338)
  1 by 1 by 5 MPI processor grid
  reading atoms ...
  70304 atoms
  reading velocities ...
  70304 velocities
  read_data CPU = 0.209 seconds
change_box all triclinic
Changing box ...
  triclinic box = (0.97250269 0.97250269 0.97250269) to (37.866338 37.866338 37.866338) with tilt (0 0 0)
mass 1 1
mass 2 1
pair_modify shift yes
pair_coeff  1 1 1 1
pair_coeff  1 2 1.5 0.8
pair_coeff  2 2 0.5 0.88


timestep 0.01
thermo ${iStep}
thermo 10000
reset_timestep 0
thermo_style custom step temp pe etotal press vol lx ly lz
fix             1 all nvt temp ${TLJ}  ${TLJ}  0.1
fix             1 all nvt temp 0.48  ${TLJ}  0.1
fix             1 all nvt temp 0.48  0.48  0.1
thermo_modify flush yes

fix dsf all deform 1 xy  wiggle 0.5  ${f}   units box
fix dsf all deform 1 xy  wiggle 0.5  10000   units box
fix ps1 all ave/time 1 1 ${iStep} c_thermo_press[1] c_thermo_press[2]  c_thermo_press[3] c_thermo_press[4]  c_thermo_press[5] c_thermo_press[6]  file  stress.${T}
fix ps1 all ave/time 1 1 10000 c_thermo_press[1] c_thermo_press[2]  c_thermo_press[3] c_thermo_press[4]  c_thermo_press[5] c_thermo_press[6]  file  stress.${T}
fix ps1 all ave/time 1 1 10000 c_thermo_press[1] c_thermo_press[2]  c_thermo_press[3] c_thermo_press[4]  c_thermo_press[5] c_thermo_press[6]  file  stress.480
dump            1 all custom ${dumpStep} dump.${T} id type x y z
dump            1 all custom 1000000 dump.${T} id type x y z
dump            1 all custom 1000000 dump.480 id type x y z
dump_modify 1 sort id
fix nodrift all momentum 1  linear 1 1 1
fix com_seed all recenter INIT INIT INIT shift all
run ${runStep}
run 10000000
Generated 0 of 1 mixed pair_coeff terms from geometric mixing rule
Per MPI rank memory allocation (min/avg/max) = 8.912 | 8.915 | 8.918 Mbytes
   Step          Temp          PotEng         TotEng         Press          Volume           Lx             Ly             Lz      
         0   0.48208273    -7.8640938     -7.14098        3.2637634      50218.233      36.893836      36.893836      36.893836    
     10000   0.47856463    -7.8554821     -7.1376453      3.3426948      50218.233      36.893836      36.893836      36.893836    
     20000   0.47801803    -7.8556032     -7.1385863      3.3281153      50218.233      36.893836      36.893836      36.893836    
     30000   0.48063259    -7.8578999     -7.1369612      3.3131838      50218.233      36.893836      36.893836      36.893836    
     40000   0.47662344    -7.8563702     -7.1414452      3.3233184      50218.233      36.893836      36.893836      36.893836    
     50000   0.47949211    -7.8587583     -7.1395303      3.303382       50218.233      36.893836      36.893836      36.893836    
     60000   0.48007652    -7.8588376     -7.1387331      3.3004527      50218.233      36.893836      36.893836      36.893836    
     70000   0.47803       -7.8587663     -7.1417315      3.3067875      50218.233      36.893836      36.893836      36.893836    
     80000   0.4801788     -7.8505128     -7.1302548      3.3703403      50218.233      36.893836      36.893836      36.893836    
     90000   0.47937196    -7.8562234     -7.1371757      3.3166514      50218.233      36.893836      36.893836      36.893836    
    100000   0.47960425    -7.8512039     -7.1318078      3.3477363      50218.233      36.893836      36.893836      36.893836    
    110000   0.47888834    -7.8543848     -7.1360625      3.3467677      50218.233      36.893836      36.893836      36.893836    
    120000   0.47964667    -7.8553332     -7.1358735      3.3308408      50218.233      36.893836      36.893836      36.893836    
    130000   0.47904216    -7.8560445     -7.1374915      3.3276538      50218.233      36.893836      36.893836      36.893836    
    140000   0.4801506     -7.8524905     -7.1322749      3.3466914      50218.233      36.893836      36.893836      36.893836    
    150000   0.47825583    -7.8550116     -7.1376381      3.3327622      50218.233      36.893836      36.893836      36.893836    
    160000   0.47996194    -7.8532994     -7.1333668      3.3536456      50218.233      36.893836      36.893836      36.893836    
    170000   0.48105504    -7.857253      -7.1356807      3.3189168      50218.233      36.893836      36.893836      36.893836    
    180000   0.48104644    -7.858004      -7.1364446      3.3086613      50218.233      36.893836      36.893836      36.893836    
    190000   0.48164941    -7.8555741     -7.1331103      3.3430106      50218.233      36.893836      36.893836      36.893836    
    200000   0.47760332    -7.8584972     -7.1421024      3.3083098      50218.233      36.893836      36.893836      36.893836    
    210000   0.47814182    -7.8563863     -7.1391838      3.3265293      50218.233      36.893836      36.893836      36.893836    
    220000   0.47887286    -7.8492542     -7.1309551      3.3731888      50218.233      36.893836      36.893836      36.893836    
    230000   0.47797205    -7.851452      -7.1345041      3.3627052      50218.233      36.893836      36.893836      36.893836    
    240000   0.48053482    -7.8503483     -7.1295563      3.3779645      50218.233      36.893836      36.893836      36.893836    
    250000   0.47928467    -7.8474673     -7.1285505      3.3943996      50218.233      36.893836      36.893836      36.893836    
    260000   0.47990753    -7.8516561     -7.1318051      3.3632188      50218.233      36.893836      36.893836      36.893836    
    270000   0.47988921    -7.855437      -7.1356135      3.3383295      50218.233      36.893836      36.893836      36.893836    
    280000   0.48004205    -7.8509685     -7.1309157      3.3568115      50218.233      36.893836      36.893836      36.893836    
    290000   0.48072229    -7.8549795     -7.1339063      3.3375351      50218.233      36.893836      36.893836      36.893836    
    300000   0.48080407    -7.8514968     -7.1303009      3.3618101      50218.233      36.893836      36.893836      36.893836    
    310000   0.4814597     -7.85358       -7.1314008      3.3439954      50218.233      36.893836      36.893836      36.893836    
    320000   0.47949219    -7.854037      -7.1348089      3.3481438      50218.233      36.893836      36.893836      36.893836    
    330000   0.47874579    -7.8561067     -7.1379983      3.3234394      50218.233      36.893836      36.893836      36.893836    
    340000   0.47916537    -7.8555413     -7.1368034      3.3367376      50218.233      36.893836      36.893836      36.893836    
    350000   0.47905823    -7.8580251     -7.139448       3.3160504      50218.233      36.893836      36.893836      36.893836    
    360000   0.48016123    -7.8588178     -7.1385861      3.3063688      50218.233      36.893836      36.893836      36.893836    
    370000   0.48125943    -7.8552811     -7.1334022      3.3356706      50218.233      36.893836      36.893836      36.893836    
    380000   0.48121888    -7.8562155     -7.1343974      3.3326774      50218.233      36.893836      36.893836      36.893836    
    390000   0.47850881    -7.8547519     -7.1369989      3.3360556      50218.233      36.893836      36.893836      36.893836    
    400000   0.47903043    -7.8541003     -7.1355648      3.3427551      50218.233      36.893836      36.893836      36.893836    
    410000   0.47977818    -7.8543708     -7.1347138      3.3428214      50218.233      36.893836      36.893836      36.893836    
    420000   0.48035576    -7.8562039     -7.1356805      3.3296118      50218.233      36.893836      36.893836      36.893836    
    430000   0.47940847    -7.8571219     -7.1380194      3.3157495      50218.233      36.893836      36.893836      36.893836    
    440000   0.48059446    -7.8561435     -7.135262       3.329713       50218.233      36.893836      36.893836      36.893836    
    450000   0.47844077    -7.8534272     -7.1357762      3.3525709      50218.233      36.893836      36.893836      36.893836    
    460000   0.48033962    -7.8565668     -7.1360676      3.3127658      50218.233      36.893836      36.893836      36.893836    
    470000   0.47800946    -7.8573834     -7.1403794      3.3215998      50218.233      36.893836      36.893836      36.893836    
    480000   0.4816079     -7.8547079     -7.1323063      3.334392       50218.233      36.893836      36.893836      36.893836    
    490000   0.47848289    -7.8534732     -7.1357591      3.3418832      50218.233      36.893836      36.893836      36.893836    
    500000   0.47876543    -7.85275       -7.1346121      3.356308       50218.233      36.893836      36.893836      36.893836    
    510000   0.48078437    -7.8562744     -7.1351081      3.3278171      50218.233      36.893836      36.893836      36.893836    
    520000   0.47993279    -7.8596804     -7.1397914      3.3054288      50218.233      36.893836      36.893836      36.893836    
    530000   0.47961469    -7.8594923     -7.1400805      3.3083341      50218.233      36.893836      36.893836      36.893836    
    540000   0.4788194     -7.8592025     -7.1409836      3.3021812      50218.233      36.893836      36.893836      36.893836    
    550000   0.47911091    -7.8509621     -7.132306       3.3541829      50218.233      36.893836      36.893836      36.893836    
    560000   0.48002013    -7.852319      -7.1322991      3.350907       50218.233      36.893836      36.893836      36.893836    
    570000   0.4792545     -7.8519494     -7.1330779      3.3655055      50218.233      36.893836      36.893836      36.893836    
    580000   0.48163535    -7.8544285     -7.1319858      3.3433983      50218.233      36.893836      36.893836      36.893836    
    590000   0.47935736    -7.8514174     -7.1323916      3.3647583      50218.233      36.893836      36.893836      36.893836    
    600000   0.47953708    -7.8559414     -7.136646       3.3326606      50218.233      36.893836      36.893836      36.893836    
    610000   0.48066708    -7.8582652     -7.1372749      3.3115392      50218.233      36.893836      36.893836      36.893836    
    620000   0.48091853    -7.854308      -7.1329404      3.3469784      50218.233      36.893836      36.893836      36.893836    
    630000   0.47785676    -7.851527      -7.1347521      3.3583996      50218.233      36.893836      36.893836      36.893836    
    640000   0.47858704    -7.8574975     -7.1396271      3.3354352      50218.233      36.893836      36.893836      36.893836    
    650000   0.48307473    -7.8544072     -7.1298054      3.3391931      50218.233      36.893836      36.893836      36.893836    
    660000   0.47875656    -7.8568258     -7.1387011      3.3153155      50218.233      36.893836      36.893836      36.893836    
    670000   0.48154656    -7.8523237     -7.1300142      3.3558194      50218.233      36.893836      36.893836      36.893836    
    680000   0.48037138    -7.8536718     -7.133125       3.3487578      50218.233      36.893836      36.893836      36.893836    
    690000   0.48156142    -7.8523062     -7.1299743      3.3510548      50218.233      36.893836      36.893836      36.893836    
    700000   0.48018769    -7.8530461     -7.1327748      3.3633313      50218.233      36.893836      36.893836      36.893836    
    710000   0.4788484     -7.8569338     -7.1386714      3.322202       50218.233      36.893836      36.893836      36.893836    
    720000   0.48093053    -7.854275      -7.1328895      3.3498946      50218.233      36.893836      36.893836      36.893836    
    730000   0.47797282    -7.8531667     -7.1362176      3.3534283      50218.233      36.893836      36.893836      36.893836    
    740000   0.48003688    -7.8540927     -7.1340476      3.3370559      50218.233      36.893836      36.893836      36.893836    
    750000   0.47879235    -7.8584226     -7.1402443      3.3050037      50218.233      36.893836      36.893836      36.893836    
    760000   0.48062535    -7.8511399     -7.1302121      3.3624924      50218.233      36.893836      36.893836      36.893836    
    770000   0.48135328    -7.8578089     -7.1357892      3.3224803      50218.233      36.893836      36.893836      36.893836    
    780000   0.47789976    -7.8564152     -7.1395757      3.3237268      50218.233      36.893836      36.893836      36.893836    
    790000   0.48029716    -7.8557951     -7.1353596      3.3413696      50218.233      36.893836      36.893836      36.893836    
    800000   0.48148879    -7.8533754     -7.1311525      3.342792       50218.233      36.893836      36.893836      36.893836    
    810000   0.48062287    -7.8557785     -7.1348545      3.3384392      50218.233      36.893836      36.893836      36.893836    
    820000   0.48155263    -7.8559065     -7.1335879      3.3393954      50218.233      36.893836      36.893836      36.893836    
    830000   0.47981099    -7.8563655     -7.1366592      3.3225561      50218.233      36.893836      36.893836      36.893836    
    840000   0.47973608    -7.8502812     -7.1306873      3.3771506      50218.233      36.893836      36.893836      36.893836    
    850000   0.48016991    -7.8556712     -7.1354265      3.3287591      50218.233      36.893836      36.893836      36.893836    
    860000   0.47882104    -7.8478424     -7.129621       3.3918701      50218.233      36.893836      36.893836      36.893836    
    870000   0.48100137    -7.8531247     -7.1316329      3.3560995      50218.233      36.893836      36.893836      36.893836    
    880000   0.47678872    -7.8551445     -7.1399716      3.3277273      50218.233      36.893836      36.893836      36.893836    
    890000   0.4821002     -7.8542288     -7.1310887      3.3506056      50218.233      36.893836      36.893836      36.893836    
    900000   0.48041262    -7.8548215     -7.1342128      3.348812       50218.233      36.893836      36.893836      36.893836    
    910000   0.47900935    -7.8504375     -7.1319337      3.3715603      50218.233      36.893836      36.893836      36.893836    
    920000   0.47933542    -7.856166      -7.1371731      3.3260544      50218.233      36.893836      36.893836      36.893836    
    930000   0.47896712    -7.8571521     -7.1387117      3.3189711      50218.233      36.893836      36.893836      36.893836    
    940000   0.48143892    -7.8566932     -7.1345451      3.3268494      50218.233      36.893836      36.893836      36.893836    
    950000   0.47843105    -7.8581415     -7.1405051      3.3090895      50218.233      36.893836      36.893836      36.893836    
    960000   0.48050913    -7.8530436     -7.1322902      3.34578        50218.233      36.893836      36.893836      36.893836    
    970000   0.47958915    -7.8555376     -7.1361642      3.3261288      50218.233      36.893836      36.893836      36.893836    
    980000   0.47883191    -7.8530942     -7.1348566      3.349383       50218.233      36.893836      36.893836      36.893836    
    990000   0.47777806    -7.8551417     -7.1384848      3.3352913      50218.233      36.893836      36.893836      36.893836    
   1000000   0.47848838    -7.8550717     -7.1373493      3.3174048      50218.233      36.893836      36.893836      36.893836    
   1010000   0.47912782    -7.8546567     -7.1359752      3.3348529      50218.233      36.893836      36.893836      36.893836    
   1020000   0.47832928    -7.8561985     -7.1387148      3.3332644      50218.233      36.893836      36.893836      36.893836    
   1030000   0.47954397    -7.8501003     -7.1307945      3.3779746      50218.233      36.893836      36.893836      36.893836    
   1040000   0.48152537    -7.8529266     -7.1306489      3.3566145      50218.233      36.893836      36.893836      36.893836    
   1050000   0.48221449    -7.8547843     -7.1314729      3.3499542      50218.233      36.893836      36.893836      36.893836    
   1060000   0.47669054    -7.8490954     -7.1340697      3.3818861      50218.233      36.893836      36.893836      36.893836    
   1070000   0.48002281    -7.8548432     -7.1348193      3.3366349      50218.233      36.893836      36.893836      36.893836    
   1080000   0.48112114    -7.8526994     -7.1310279      3.3626824      50218.233      36.893836      36.893836      36.893836    
   1090000   0.4786712     -7.8561617     -7.1381651      3.3269012      50218.233      36.893836      36.893836      36.893836    
   1100000   0.48130194    -7.8519532     -7.1300105      3.3631615      50218.233      36.893836      36.893836      36.893836    
   1110000   0.4800435     -7.8527066     -7.1326516      3.3565672      50218.233      36.893836      36.893836      36.893836    
   1120000   0.47931483    -7.8529477     -7.1339856      3.3519822      50218.233      36.893836      36.893836      36.893836    
   1130000   0.48258956    -7.8546611     -7.130787       3.3467626      50218.233      36.893836      36.893836      36.893836    
   1140000   0.47893017    -7.8585017     -7.1401167      3.3184972      50218.233      36.893836      36.893836      36.893836    
   1150000   0.48123185    -7.8513594     -7.1295219      3.3753449      50218.233      36.893836      36.893836      36.893836    
   1160000   0.47948359    -7.8531982     -7.1339831      3.3615667      50218.233      36.893836      36.893836      36.893836    
   1170000   0.47928226    -7.8562396     -7.1373265      3.328373       50218.233      36.893836      36.893836      36.893836    
   1180000   0.47933495    -7.8531316     -7.1341394      3.3580878      50218.233      36.893836      36.893836      36.893836    
   1190000   0.4812498     -7.8520027     -7.1301383      3.3619774      50218.233      36.893836      36.893836      36.893836    
   1200000   0.47834993    -7.8548842     -7.1373695      3.3396251      50218.233      36.893836      36.893836      36.893836    
   1210000   0.48150513    -7.8534989     -7.1312514      3.3502756      50218.233      36.893836      36.893836      36.893836    
   1220000   0.47979134    -7.8537659     -7.1340891      3.3495257      50218.233      36.893836      36.893836      36.893836    
   1230000   0.48143174    -7.8531068     -7.1309695      3.3548555      50218.233      36.893836      36.893836      36.893836    
   1240000   0.47979884    -7.8490892     -7.1294012      3.3822804      50218.233      36.893836      36.893836      36.893836    
   1250000   0.48147936    -7.8527266     -7.1305178      3.3683792      50218.233      36.893836      36.893836      36.893836    
   1260000   0.4778732     -7.8535912     -7.1367916      3.3568104      50218.233      36.893836      36.893836      36.893836    
   1270000   0.47735302    -7.852408      -7.1363886      3.3594024      50218.233      36.893836      36.893836      36.893836    
   1280000   0.48035027    -7.8531549     -7.1326397      3.3521607      50218.233      36.893836      36.893836      36.893836    
   1290000   0.47953671    -7.8507062     -7.1314114      3.3745221      50218.233      36.893836      36.893836      36.893836    
   1300000   0.47788479    -7.8526293     -7.1358123      3.3446413      50218.233      36.893836      36.893836      36.893836    
   1310000   0.48033713    -7.8491656     -7.1286702      3.3807087      50218.233      36.893836      36.893836      36.893836    
   1320000   0.47926347    -7.8558241     -7.1369391      3.3311791      50218.233      36.893836      36.893836      36.893836    
   1330000   0.48208718    -7.8575888     -7.1344683      3.3251172      50218.233      36.893836      36.893836      36.893836    
   1340000   0.4816841     -7.8542741     -7.1317582      3.3509433      50218.233      36.893836      36.893836      36.893836    
   1350000   0.47918232    -7.8512034     -7.1324402      3.3649807      50218.233      36.893836      36.893836      36.893836    
   1360000   0.47949356    -7.8557632     -7.1365331      3.3227735      50218.233      36.893836      36.893836      36.893836    
   1370000   0.47803516    -7.857413      -7.1403705      3.3074111      50218.233      36.893836      36.893836      36.893836    
   1380000   0.48099861    -7.8545937     -7.133106       3.3514347      50218.233      36.893836      36.893836      36.893836    
   1390000   0.47709127    -7.8521456     -7.1365189      3.3540595      50218.233      36.893836      36.893836      36.893836    
   1400000   0.48030612    -7.8540025     -7.1335536      3.3408001      50218.233      36.893836      36.893836      36.893836    
   1410000   0.47997137    -7.8535668     -7.13362        3.3464463      50218.233      36.893836      36.893836      36.893836    
   1420000   0.48126181    -7.8553711     -7.1334887      3.3413874      50218.233      36.893836      36.893836      36.893836    
   1430000   0.48137049    -7.857207      -7.1351615      3.3288121      50218.233      36.893836      36.893836      36.893836    
   1440000   0.48043181    -7.8532983     -7.1326608      3.3419635      50218.233      36.893836      36.893836      36.893836    
   1450000   0.47749911    -7.8582118     -7.1419733      3.316742       50218.233      36.893836      36.893836      36.893836    
   1460000   0.47809633    -7.851362      -7.1342277      3.361912       50218.233      36.893836      36.893836      36.893836    
   1470000   0.4795785     -7.8558101     -7.1364526      3.3347894      50218.233      36.893836      36.893836      36.893836    
   1480000   0.48242956    -7.8512953     -7.1276613      3.3730053      50218.233      36.893836      36.893836      36.893836    
   1490000   0.47844453    -7.8522396     -7.134583       3.3636413      50218.233      36.893836      36.893836      36.893836    
   1500000   0.47969131    -7.8515347     -7.1320079      3.3637909      50218.233      36.893836      36.893836      36.893836    
   1510000   0.4801512     -7.8548227     -7.1346061      3.3343448      50218.233      36.893836      36.893836      36.893836    
   1520000   0.47966473    -7.8519454     -7.1324586      3.354896       50218.233      36.893836      36.893836      36.893836    
   1530000   0.48007747    -7.8525581     -7.1324522      3.3505079      50218.233      36.893836      36.893836      36.893836    
   1540000   0.48099007    -7.8536968     -7.132222       3.3518942      50218.233      36.893836      36.893836      36.893836    
   1550000   0.48094012    -7.8530791     -7.1316792      3.3591836      50218.233      36.893836      36.893836      36.893836    
   1560000   0.47963455    -7.8557591     -7.1363175      3.3394208      50218.233      36.893836      36.893836      36.893836    
   1570000   0.47854213    -7.8546852     -7.1368822      3.3390538      50218.233      36.893836      36.893836      36.893836    
   1580000   0.47981738    -7.8552769     -7.1355611      3.3375617      50218.233      36.893836      36.893836      36.893836    
   1590000   0.4805363     -7.8596971     -7.1389029      3.30281        50218.233      36.893836      36.893836      36.893836    
   1600000   0.47969392    -7.8566329     -7.1371022      3.307849       50218.233      36.893836      36.893836      36.893836    
   1610000   0.48047731    -7.8558167     -7.135111       3.3279957      50218.233      36.893836      36.893836      36.893836    
   1620000   0.48008926    -7.8490528     -7.1289291      3.3920628      50218.233      36.893836      36.893836      36.893836    
   1630000   0.48008235    -7.8519623     -7.1318491      3.3647064      50218.233      36.893836      36.893836      36.893836    
   1640000   0.48201645    -7.8514613     -7.1284469      3.3592829      50218.233      36.893836      36.893836      36.893836    
   1650000   0.48107251    -7.8534334     -7.1318349      3.3431753      50218.233      36.893836      36.893836      36.893836    
   1660000   0.48179116    -7.8559969     -7.1333205      3.3267201      50218.233      36.893836      36.893836      36.893836    
   1670000   0.47827351    -7.8521137     -7.1347136      3.3507762      50218.233      36.893836      36.893836      36.893836    
   1680000   0.47819357    -7.8533818     -7.1361017      3.3509706      50218.233      36.893836      36.893836      36.893836    
   1690000   0.47985422    -7.8562518     -7.1364807      3.3222072      50218.233      36.893836      36.893836      36.893836    
   1700000   0.47788001    -7.8540818     -7.137272       3.3412555      50218.233      36.893836      36.893836      36.893836    
   1710000   0.48104116    -7.8526199     -7.1310684      3.3614166      50218.233      36.893836      36.893836      36.893836    
   1720000   0.48124716    -7.8571875     -7.135327       3.3103172      50218.233      36.893836      36.893836      36.893836    
   1730000   0.47866164    -7.8522329     -7.1342506      3.3618066      50218.233      36.893836      36.893836      36.893836    
   1740000   0.47916595    -7.8543666     -7.1356279      3.3317623      50218.233      36.893836      36.893836      36.893836    
   1750000   0.482598      -7.8527304     -7.1288437      3.3594912      50218.233      36.893836      36.893836      36.893836    
   1760000   0.48348361    -7.8570506     -7.1318355      3.3233215      50218.233      36.893836      36.893836      36.893836    
   1770000   0.48125995    -7.8572594     -7.1353797      3.3191877      50218.233      36.893836      36.893836      36.893836    
   1780000   0.47796965    -7.850298      -7.1333537      3.3667313      50218.233      36.893836      36.893836      36.893836    
   1790000   0.48012512    -7.8562932     -7.1361158      3.3351042      50218.233      36.893836      36.893836      36.893836    
   1800000   0.48026955    -7.8573754     -7.1369813      3.3270932      50218.233      36.893836      36.893836      36.893836    
   1810000   0.47930937    -7.8535289     -7.1345751      3.347147       50218.233      36.893836      36.893836      36.893836    
   1820000   0.47876634    -7.8530079     -7.1348686      3.3471245      50218.233      36.893836      36.893836      36.893836    
   1830000   0.48135423    -7.8558757     -7.1338546      3.3203793      50218.233      36.893836      36.893836      36.893836    
   1840000   0.47862271    -7.8524463     -7.1345225      3.3468174      50218.233      36.893836      36.893836      36.893836    
   1850000   0.47965063    -7.8564758     -7.1370101      3.3189319      50218.233      36.893836      36.893836      36.893836    
   1860000   0.48177526    -7.8561657     -7.1335131      3.3196821      50218.233      36.893836      36.893836      36.893836    
   1870000   0.47866937    -7.855834      -7.1378402      3.3316732      50218.233      36.893836      36.893836      36.893836    
   1880000   0.47904004    -7.8531711     -7.1346213      3.3432177      50218.233      36.893836      36.893836      36.893836    
   1890000   0.48003513    -7.857281      -7.1372385      3.3103503      50218.233      36.893836      36.893836      36.893836    
   1900000   0.47976261    -7.8525815     -7.1329478      3.3534483      50218.233      36.893836      36.893836      36.893836    
   1910000   0.47982715    -7.8534607     -7.1337302      3.3481974      50218.233      36.893836      36.893836      36.893836    
   1920000   0.48000184    -7.853037      -7.1330445      3.3434885      50218.233      36.893836      36.893836      36.893836    
   1930000   0.48143726    -7.8541761     -7.1320305      3.3398283      50218.233      36.893836      36.893836      36.893836    
   1940000   0.47851574    -7.8528567     -7.1350933      3.3518667      50218.233      36.893836      36.893836      36.893836    
   1950000   0.47981508    -7.8560787     -7.1363663      3.3291856      50218.233      36.893836      36.893836      36.893836    
   1960000   0.4810365     -7.8567703     -7.1352258      3.3216251      50218.233      36.893836      36.893836      36.893836    
   1970000   0.4802256     -7.8539138     -7.1335856      3.346881       50218.233      36.893836      36.893836      36.893836    
   1980000   0.48069447    -7.8593545     -7.138323       3.3035713      50218.233      36.893836      36.893836      36.893836    
   1990000   0.48191572    -7.8545865     -7.1317232      3.3355135      50218.233      36.893836      36.893836      36.893836    
   2000000   0.48371136    -7.8556113     -7.1300546      3.3279881      50218.233      36.893836      36.893836      36.893836    
   2010000   0.48264813    -7.8482337     -7.1242718      3.3775877      50218.233      36.893836      36.893836      36.893836    
   2020000   0.4806241     -7.8587892     -7.1378633      3.3043881      50218.233      36.893836      36.893836      36.893836    
   2030000   0.4814037     -7.8542803     -7.132185       3.3509585      50218.233      36.893836      36.893836      36.893836    
   2040000   0.47839798    -7.8542279     -7.1366411      3.3399631      50218.233      36.893836      36.893836      36.893836    
   2050000   0.48128189    -7.8501284     -7.1282159      3.3824528      50218.233      36.893836      36.893836      36.893836    
   2060000   0.47704452    -7.855334      -7.1397774      3.3260691      50218.233      36.893836      36.893836      36.893836    
   2070000   0.48040975    -7.8564397     -7.1358353      3.318923       50218.233      36.893836      36.893836      36.893836    
   2080000   0.47874021    -7.855047      -7.1369469      3.3287799      50218.233      36.893836      36.893836      36.893836    
   2090000   0.47806012    -7.8493617     -7.1322817      3.3697499      50218.233      36.893836      36.893836      36.893836    
   2100000   0.48082102    -7.8526902     -7.131469       3.3443685      50218.233      36.893836      36.893836      36.893836    
   2110000   0.47886873    -7.8525831     -7.1342902      3.3526695      50218.233      36.893836      36.893836      36.893836    
   2120000   0.48219906    -7.8529565     -7.1296682      3.3512605      50218.233      36.893836      36.893836      36.893836    
   2130000   0.47961846    -7.8504848     -7.1310673      3.3792681      50218.233      36.893836      36.893836      36.893836    
   2140000   0.47915637    -7.8513422     -7.1326179      3.3478223      50218.233      36.893836      36.893836      36.893836    
   2150000   0.48101639    -7.8554897     -7.1339753      3.336232       50218.233      36.893836      36.893836      36.893836    
   2160000   0.4789953     -7.8557412     -7.1372585      3.3166617      50218.233      36.893836      36.893836      36.893836    
   2170000   0.4805644     -7.8538453     -7.133009       3.3400404      50218.233      36.893836      36.893836      36.893836    
   2180000   0.47946891    -7.8472628     -7.1280696      3.3940922      50218.233      36.893836      36.893836      36.893836    
   2190000   0.47844385    -7.8509913     -7.1333358      3.355792       50218.233      36.893836      36.893836      36.893836    
   2200000   0.47779664    -7.8492108     -7.132526       3.3669918      50218.233      36.893836      36.893836      36.893836    
   2210000   0.47902365    -7.8518868     -7.1333616      3.3480833      50218.233      36.893836      36.893836      36.893836    
   2220000   0.48025237    -7.8538903     -7.133522       3.3454208      50218.233      36.893836      36.893836      36.893836    
   2230000   0.47833133    -7.8524431     -7.1349563      3.3413891      50218.233      36.893836      36.893836      36.893836    
   2240000   0.47945562    -7.8531158     -7.1339426      3.3446294      50218.233      36.893836      36.893836      36.893836    
   2250000   0.47980449    -7.8532196     -7.1335231      3.3394074      50218.233      36.893836      36.893836      36.893836    
   2260000   0.48094687    -7.8536363     -7.1322263      3.3421714      50218.233      36.893836      36.893836      36.893836    
   2270000   0.47816973    -7.8505946     -7.1333502      3.3701803      50218.233      36.893836      36.893836      36.893836    
   2280000   0.47979059    -7.8511836     -7.131508       3.3519361      50218.233      36.893836      36.893836      36.893836    
   2290000   0.47883138    -7.8538203     -7.1355834      3.3396885      50218.233      36.893836      36.893836      36.893836    
   2300000   0.48082897    -7.853414      -7.1321808      3.3540359      50218.233      36.893836      36.893836      36.893836    
   2310000   0.48069334    -7.8534209     -7.1323912      3.3508316      50218.233      36.893836      36.893836      36.893836    
   2320000   0.47903284    -7.8559133     -7.1373743      3.3260664      50218.233      36.893836      36.893836      36.893836    
   2330000   0.48073658    -7.8528698     -7.1317752      3.3481732      50218.233      36.893836      36.893836      36.893836    
   2340000   0.47905636    -7.8522006     -7.1336262      3.3622505      50218.233      36.893836      36.893836      36.893836    
   2350000   0.47927225    -7.8513072     -7.1324091      3.3640673      50218.233      36.893836      36.893836      36.893836    
   2360000   0.48030761    -7.851255      -7.1308038      3.3635368      50218.233      36.893836      36.893836      36.893836    
   2370000   0.47910916    -7.8521882     -7.1335347      3.3479412      50218.233      36.893836      36.893836      36.893836    
   2380000   0.48052716    -7.8527041     -7.1319236      3.3601732      50218.233      36.893836      36.893836      36.893836    
   2390000   0.48009185    -7.8542016     -7.1340741      3.3335375      50218.233      36.893836      36.893836      36.893836    
   2400000   0.47808065    -7.856735      -7.1396242      3.3241852      50218.233      36.893836      36.893836      36.893836    
   2410000   0.48071173    -7.8535817     -7.1325244      3.355508       50218.233      36.893836      36.893836      36.893836    
   2420000   0.47973181    -7.8515902     -7.1320027      3.3560707      50218.233      36.893836      36.893836      36.893836    
   2430000   0.48025977    -7.8516495     -7.1312701      3.3544748      50218.233      36.893836      36.893836      36.893836    
   2440000   0.47807583    -7.8568414     -7.1397379      3.3229444      50218.233      36.893836      36.893836      36.893836    
   2450000   0.48041289    -7.8498725     -7.1292635      3.3803053      50218.233      36.893836      36.893836      36.893836    
   2460000   0.48070132    -7.8529712     -7.1319295      3.3446981      50218.233      36.893836      36.893836      36.893836    
   2470000   0.48031427    -7.8498751     -7.1294139      3.3776027      50218.233      36.893836      36.893836      36.893836    
   2480000   0.47981308    -7.8559674     -7.136258       3.3290737      50218.233      36.893836      36.893836      36.893836    
   2490000   0.48113607    -7.8548023     -7.1331084      3.3458218      50218.233      36.893836      36.893836      36.893836    
   2500000   0.47944874    -7.8544769     -7.1353141      3.3385212      50218.233      36.893836      36.893836      36.893836    
   2510000   0.48071711    -7.8557023     -7.1346369      3.3308829      50218.233      36.893836      36.893836      36.893836    
   2520000   0.48226255    -7.8522996     -7.128916       3.3625022      50218.233      36.893836      36.893836      36.893836    
   2530000   0.47898654    -7.8556589     -7.1371893      3.3249048      50218.233      36.893836      36.893836      36.893836    
   2540000   0.48066311    -7.8507614     -7.129777       3.3709731      50218.233      36.893836      36.893836      36.893836    
   2550000   0.48121632    -7.8501191     -7.1283049      3.372169       50218.233      36.893836      36.893836      36.893836    
   2560000   0.4796475     -7.8530216     -7.1335606      3.3505636      50218.233      36.893836      36.893836      36.893836    
   2570000   0.48269022    -7.8517809     -7.1277559      3.3613805      50218.233      36.893836      36.893836      36.893836    
   2580000   0.47971334    -7.853338      -7.1337783      3.3437655      50218.233      36.893836      36.893836      36.893836    
   2590000   0.47970371    -7.856232      -7.1366866      3.3193764      50218.233      36.893836      36.893836      36.893836    
   2600000   0.48084623    -7.8544195     -7.1331604      3.3278868      50218.233      36.893836      36.893836      36.893836    
   2610000   0.48117056    -7.8520709     -7.1303253      3.3547024      50218.233      36.893836      36.893836      36.893836    
   2620000   0.48121666    -7.8562515     -7.1344367      3.3285654      50218.233      36.893836      36.893836      36.893836    
   2630000   0.47975446    -7.8526491     -7.1330276      3.3529739      50218.233      36.893836      36.893836      36.893836    
   2640000   0.48077727    -7.8501365     -7.1289808      3.3649705      50218.233      36.893836      36.893836      36.893836    
   2650000   0.47841414    -7.8486727     -7.1310617      3.3883951      50218.233      36.893836      36.893836      36.893836    
   2660000   0.47947804    -7.8520764     -7.1328696      3.3497792      50218.233      36.893836      36.893836      36.893836    
   2670000   0.47769874    -7.8545472     -7.1380092      3.3380322      50218.233      36.893836      36.893836      36.893836    
   2680000   0.47930316    -7.8513293     -7.1323848      3.3641888      50218.233      36.893836      36.893836      36.893836    
   2690000   0.47765877    -7.8523113     -7.1358333      3.3533056      50218.233      36.893836      36.893836      36.893836    
   2700000   0.48220595    -7.8516248     -7.1283261      3.3496048      50218.233      36.893836      36.893836      36.893836    
   2710000   0.47721463    -7.8473499     -7.1315381      3.3847162      50218.233      36.893836      36.893836      36.893836    
   2720000   0.48082083    -7.8513666     -7.1301456      3.3488438      50218.233      36.893836      36.893836      36.893836    
   2730000   0.48112786    -7.8541965     -7.132515       3.3440132      50218.233      36.893836      36.893836      36.893836    
   2740000   0.48189499    -7.8469402     -7.124108       3.3813156      50218.233      36.893836      36.893836      36.893836    
   2750000   0.4800764     -7.851034      -7.1309296      3.3593439      50218.233      36.893836      36.893836      36.893836    
   2760000   0.48088746    -7.8563995     -7.1350785      3.3268373      50218.233      36.893836      36.893836      36.893836    
   2770000   0.48141669    -7.8504079     -7.1282931      3.3571145      50218.233      36.893836      36.893836      36.893836    
   2780000   0.48078897    -7.849727      -7.1285538      3.3739258      50218.233      36.893836      36.893836      36.893836    
   2790000   0.48384244    -7.8531782     -7.1274248      3.3455587      50218.233      36.893836      36.893836      36.893836    
   2800000   0.47883833    -7.8524545     -7.1342072      3.3428439      50218.233      36.893836      36.893836      36.893836    
   2810000   0.47998809    -7.8550424     -7.1350705      3.3216256      50218.233      36.893836      36.893836      36.893836    
   2820000   0.47990654    -7.8536081     -7.1337585      3.3406685      50218.233      36.893836      36.893836      36.893836    
   2830000   0.47913617    -7.8520782     -7.1333842      3.3554537      50218.233      36.893836      36.893836      36.893836    
   2840000   0.47866871    -7.8511615     -7.1331686      3.3609064      50218.233      36.893836      36.893836      36.893836    
   2850000   0.47986402    -7.8517146     -7.1319288      3.3448294      50218.233      36.893836      36.893836      36.893836    
   2860000   0.48077952    -7.8505953     -7.1294362      3.3676234      50218.233      36.893836      36.893836      36.893836    
   2870000   0.48085437    -7.8498073     -7.128536       3.3739856      50218.233      36.893836      36.893836      36.893836    
   2880000   0.48032982    -7.8532972     -7.1328127      3.3402921      50218.233      36.893836      36.893836      36.893836    
   2890000   0.48033129    -7.8501483     -7.1296617      3.367078       50218.233      36.893836      36.893836      36.893836    
   2900000   0.47994106    -7.849187      -7.1292856      3.3769015      50218.233      36.893836      36.893836      36.893836    
   2910000   0.47898117    -7.8512648     -7.1328032      3.3608805      50218.233      36.893836      36.893836      36.893836    
   2920000   0.47982412    -7.8454978     -7.1257719      3.4081223      50218.233      36.893836      36.893836      36.893836    
   2930000   0.47848826    -7.8505276     -7.1328054      3.3684799      50218.233      36.893836      36.893836      36.893836    
   2940000   0.48283086    -7.8556588     -7.1314228      3.3277881      50218.233      36.893836      36.893836      36.893836    
   2950000   0.47970961    -7.8481063     -7.1285521      3.3773121      50218.233      36.893836      36.893836      36.893836    
   2960000   0.4817982     -7.8516463     -7.1289592      3.3589992      50218.233      36.893836      36.893836      36.893836    
   2970000   0.47953122    -7.8535454     -7.1342588      3.3432593      50218.233      36.893836      36.893836      36.893836    
   2980000   0.48186088    -7.8510037     -7.1282227      3.3637713      50218.233      36.893836      36.893836      36.893836    
   2990000   0.48059458    -7.8554028     -7.1345212      3.3286258      50218.233      36.893836      36.893836      36.893836    
   3000000   0.48158186    -7.8504114     -7.1280489      3.3658098      50218.233      36.893836      36.893836      36.893836    
   3010000   0.47781782    -7.853757      -7.1370405      3.3443202      50218.233      36.893836      36.893836      36.893836    
   3020000   0.47809132    -7.8538235     -7.1366967      3.3392329      50218.233      36.893836      36.893836      36.893836    
   3030000   0.47947263    -7.8509192     -7.1317205      3.3514091      50218.233      36.893836      36.893836      36.893836    
   3040000   0.48071315    -7.8499505     -7.1288911      3.3628859      50218.233      36.893836      36.893836      36.893836    
   3050000   0.47924584    -7.8517197     -7.1328612      3.3555744      50218.233      36.893836      36.893836      36.893836    
   3060000   0.47772453    -7.8531749     -7.1365983      3.3460843      50218.233      36.893836      36.893836      36.893836    
   3070000   0.47988986    -7.8492464     -7.1294218      3.3655184      50218.233      36.893836      36.893836      36.893836    
   3080000   0.48068225    -7.854468      -7.1334549      3.3413295      50218.233      36.893836      36.893836      36.893836    
   3090000   0.47654819    -7.8540319     -7.1392198      3.336524       50218.233      36.893836      36.893836      36.893836    
   3100000   0.47926104    -7.8497338     -7.1308525      3.3667162      50218.233      36.893836      36.893836      36.893836    
   3110000   0.48091279    -7.8517518     -7.1303929      3.3650329      50218.233      36.893836      36.893836      36.893836    
   3120000   0.47837896    -7.8472819     -7.1297237      3.3950698      50218.233      36.893836      36.893836      36.893836    
   3130000   0.47926089    -7.8500198     -7.1311387      3.3688225      50218.233      36.893836      36.893836      36.893836    
   3140000   0.48173481    -7.8513878     -7.1287958      3.3619817      50218.233      36.893836      36.893836      36.893836    
   3150000   0.48042343    -7.854377      -7.1337521      3.3338638      50218.233      36.893836      36.893836      36.893836    
   3160000   0.48209746    -7.8497548     -7.1266189      3.373566       50218.233      36.893836      36.893836      36.893836    
   3170000   0.47753268    -7.85374       -7.1374511      3.3431435      50218.233      36.893836      36.893836      36.893836    
   3180000   0.48333329    -7.8523077     -7.1273181      3.3624344      50218.233      36.893836      36.893836      36.893836    
   3190000   0.47982516    -7.8533927     -7.1336652      3.3549433      50218.233      36.893836      36.893836      36.893836    
   3200000   0.48322101    -7.8536382     -7.128817       3.3566523      50218.233      36.893836      36.893836      36.893836    
   3210000   0.47936991    -7.8507014     -7.1316568      3.3657631      50218.233      36.893836      36.893836      36.893836    
   3220000   0.48071546    -7.8511483     -7.1300854      3.3679035      50218.233      36.893836      36.893836      36.893836    
   3230000   0.48238859    -7.8506355     -7.1270629      3.3697942      50218.233      36.893836      36.893836      36.893836    
   3240000   0.4786942     -7.85043       -7.132399       3.3564109      50218.233      36.893836      36.893836      36.893836    
   3250000   0.47742339    -7.8525875     -7.1364626      3.3444564      50218.233      36.893836      36.893836      36.893836    
   3260000   0.47997453    -7.8548335     -7.134882       3.3246166      50218.233      36.893836      36.893836      36.893836    
   3270000   0.47884273    -7.849115      -7.1308611      3.3714113      50218.233      36.893836      36.893836      36.893836    
   3280000   0.48157921    -7.8504034     -7.1280449      3.3723978      50218.233      36.893836      36.893836      36.893836    
   3290000   0.4799714     -7.8556649     -7.135718       3.3159796      50218.233      36.893836      36.893836      36.893836    
   3300000   0.47919146    -7.8501959     -7.1314189      3.3648307      50218.233      36.893836      36.893836      36.893836    
   3310000   0.47894931    -7.8524694     -7.1340557      3.3521157      50218.233      36.893836      36.893836      36.893836    
   3320000   0.47902015    -7.8517325     -7.1332125      3.3410559      50218.233      36.893836      36.893836      36.893836    
   3330000   0.48038481    -7.8523016     -7.1317347      3.3556034      50218.233      36.893836      36.893836      36.893836    
   3340000   0.48084002    -7.8552209     -7.1339712      3.3297014      50218.233      36.893836      36.893836      36.893836    
   3350000   0.4783933     -7.8505667     -7.1329869      3.3576743      50218.233      36.893836      36.893836      36.893836    
   3360000   0.48069296    -7.8563032     -7.135274       3.3295772      50218.233      36.893836      36.893836      36.893836    
   3370000   0.47859617    -7.8545132     -7.1366291      3.3357833      50218.233      36.893836      36.893836      36.893836    
   3380000   0.47926712    -7.8520511     -7.1331607      3.352556       50218.233      36.893836      36.893836      36.893836    
   3390000   0.47713798    -7.8512681     -7.1355713      3.359026       50218.233      36.893836      36.893836      36.893836    
   3400000   0.48096817    -7.852262      -7.13082        3.3469703      50218.233      36.893836      36.893836      36.893836    
   3410000   0.48004775    -7.8523324     -7.132271       3.3442316      50218.233      36.893836      36.893836      36.893836    
   3420000   0.48164008    -7.8505697     -7.1281198      3.3590504      50218.233      36.893836      36.893836      36.893836    
   3430000   0.48099755    -7.8518604     -7.1303743      3.3554417      50218.233      36.893836      36.893836      36.893836    
   3440000   0.47841839    -7.8508338     -7.1332164      3.3589018      50218.233      36.893836      36.893836      36.893836    
   3450000   0.4817452     -7.8537697     -7.1311621      3.3355485      50218.233      36.893836      36.893836      36.893836    
   3460000   0.47920295    -7.8531202     -7.134326       3.339331       50218.233      36.893836      36.893836      36.893836    
   3470000   0.47946904    -7.8522072     -7.1330139      3.3476662      50218.233      36.893836      36.893836      36.893836    
   3480000   0.48030391    -7.8540569     -7.1336113      3.34309        50218.233      36.893836      36.893836      36.893836    
   3490000   0.47939697    -7.8539571     -7.1348719      3.3383191      50218.233      36.893836      36.893836      36.893836    
   3500000   0.48078229    -7.8562334     -7.1350702      3.3124087      50218.233      36.893836      36.893836      36.893836    
   3510000   0.48065333    -7.853268      -7.1322983      3.3477989      50218.233      36.893836      36.893836      36.893836    
   3520000   0.47781656    -7.8540983     -7.1373837      3.3342698      50218.233      36.893836      36.893836      36.893836    
   3530000   0.48089775    -7.8550378     -7.1337015      3.3295907      50218.233      36.893836      36.893836      36.893836    
   3540000   0.48079418    -7.8559199     -7.1347389      3.3293827      50218.233      36.893836      36.893836      36.893836    
   3550000   0.47910878    -7.8549732     -7.1363203      3.3280455      50218.233      36.893836      36.893836      36.893836    
   3560000   0.47975892    -7.853044      -7.1334159      3.3492273      50218.233      36.893836      36.893836      36.893836    
   3570000   0.48199795    -7.8520713     -7.1290847      3.3503579      50218.233      36.893836      36.893836      36.893836    
   3580000   0.47613457    -7.8537032     -7.1395115      3.3381847      50218.233      36.893836      36.893836      36.893836    
   3590000   0.47983942    -7.8552921     -7.1355432      3.3337613      50218.233      36.893836      36.893836      36.893836    
   3600000   0.47973738    -7.8513128     -7.131717       3.3583429      50218.233      36.893836      36.893836      36.893836    
   3610000   0.48088272    -7.8549663     -7.1336525      3.3190782      50218.233      36.893836      36.893836      36.893836    
   3620000   0.4806883     -7.8523604     -7.1313382      3.3544897      50218.233      36.893836      36.893836      36.893836    
   3630000   0.47922051    -7.8562043     -7.1373838      3.3182639      50218.233      36.893836      36.893836      36.893836    
   3640000   0.48212936    -7.8557236     -7.1325399      3.3225126      50218.233      36.893836      36.893836      36.893836    
   3650000   0.47878445    -7.8520065     -7.13384        3.3550622      50218.233      36.893836      36.893836      36.893836    
   3660000   0.4810594     -7.8547918     -7.133213       3.3442449      50218.233      36.893836      36.893836      36.893836    
   3670000   0.48060045    -7.8530773     -7.1321869      3.3467815      50218.233      36.893836      36.893836      36.893836    
   3680000   0.48125335    -7.8575096     -7.1356398      3.3150465      50218.233      36.893836      36.893836      36.893836    
   3690000   0.47877971    -7.8535956     -7.1354362      3.3431496      50218.233      36.893836      36.893836      36.893836    
   3700000   0.4794171     -7.8537539     -7.1346385      3.3457668      50218.233      36.893836      36.893836      36.893836    
   3710000   0.48137031    -7.8520369     -7.1299918      3.3570109      50218.233      36.893836      36.893836      36.893836    
   3720000   0.47885058    -7.8503399     -7.1320743      3.3606164      50218.233      36.893836      36.893836      36.893836    
   3730000   0.47844887    -7.8552222     -7.1375591      3.341771       50218.233      36.893836      36.893836      36.893836    
   3740000   0.48170155    -7.8558084     -7.1332664      3.3373986      50218.233      36.893836      36.893836      36.893836    
   3750000   0.47753742    -7.8605768     -7.1442808      3.2853879      50218.233      36.893836      36.893836      36.893836    
   3760000   0.47928164    -7.8559468     -7.1370346      3.3367566      50218.233      36.893836      36.893836      36.893836    
   3770000   0.47981274    -7.8517066     -7.1319977      3.3594004      50218.233      36.893836      36.893836      36.893836    
   3780000   0.48156499    -7.8512488     -7.1289116      3.3630164      50218.233      36.893836      36.893836      36.893836    
   3790000   0.48250713    -7.8508564     -7.127106       3.3599802      50218.233      36.893836      36.893836      36.893836    
   3800000   0.47879008    -7.8522299     -7.134055       3.3621728      50218.233      36.893836      36.893836      36.893836    
   3810000   0.47884161    -7.8500628     -7.1318106      3.3701252      50218.233      36.893836      36.893836      36.893836    
   3820000   0.48019206    -7.8503779     -7.1301         3.3661111      50218.233      36.893836      36.893836      36.893836    
   3830000   0.47983764    -7.8490539     -7.1293077      3.3773219      50218.233      36.893836      36.893836      36.893836    
   3840000   0.48053498    -7.8546819     -7.1338897      3.3498264      50218.233      36.893836      36.893836      36.893836    
   3850000   0.47699544    -7.8519248     -7.1364419      3.3574405      50218.233      36.893836      36.893836      36.893836    
   3860000   0.48233696    -7.8495073     -7.1260121      3.3718738      50218.233      36.893836      36.893836      36.893836    
   3870000   0.47955081    -7.8537374     -7.1344214      3.3434761      50218.233      36.893836      36.893836      36.893836    
   3880000   0.47956704    -7.8550727     -7.1357324      3.3293653      50218.233      36.893836      36.893836      36.893836    
   3890000   0.47840637    -7.8521733     -7.134574       3.3427192      50218.233      36.893836      36.893836      36.893836    
   3900000   0.48116116    -7.8583261     -7.1365946      3.3113165      50218.233      36.893836      36.893836      36.893836    
   3910000   0.4780242     -7.8569059     -7.1398798      3.318516       50218.233      36.893836      36.893836      36.893836    
   3920000   0.48155388    -7.8524631     -7.1301425      3.3612491      50218.233      36.893836      36.893836      36.893836    
   3930000   0.4812176     -7.8556996     -7.1338835      3.3313934      50218.233      36.893836      36.893836      36.893836    
   3940000   0.47990173    -7.8514242     -7.1315819      3.3613877      50218.233      36.893836      36.893836      36.893836    
   3950000   0.48316244    -7.8540275     -7.1292941      3.3446304      50218.233      36.893836      36.893836      36.893836    
   3960000   0.48072404    -7.8547916     -7.1337158      3.335881       50218.233      36.893836      36.893836      36.893836    
   3970000   0.48135802    -7.8566636     -7.1346368      3.3261782      50218.233      36.893836      36.893836      36.893836    
   3980000   0.4817715     -7.8548665     -7.1322195      3.3497594      50218.233      36.893836      36.893836      36.893836    
   3990000   0.47947343    -7.8531278     -7.1339278      3.3487086      50218.233      36.893836      36.893836      36.893836    
   4000000   0.48007258    -7.8519636     -7.131865       3.356566       50218.233      36.893836      36.893836      36.893836    
   4010000   0.48041972    -7.8534496     -7.1328303      3.3388158      50218.233      36.893836      36.893836      36.893836    
   4020000   0.48247072    -7.8534097     -7.1297139      3.3521523      50218.233      36.893836      36.893836      36.893836    
   4030000   0.48179538    -7.8545968     -7.131914       3.3422809      50218.233      36.893836      36.893836      36.893836    
   4040000   0.48058132    -7.8535339     -7.1326722      3.3508801      50218.233      36.893836      36.893836      36.893836    
   4050000   0.48060033    -7.8565059     -7.1356157      3.3371414      50218.233      36.893836      36.893836      36.893836    
   4060000   0.48036797    -7.8512254     -7.1306837      3.3626574      50218.233      36.893836      36.893836      36.893836    
   4070000   0.47979378    -7.8514279     -7.1317475      3.3607729      50218.233      36.893836      36.893836      36.893836    
   4080000   0.47968405    -7.8564021     -7.1368862      3.3294012      50218.233      36.893836      36.893836      36.893836    
   4090000   0.48145996    -7.8553383     -7.1331586      3.3201594      50218.233      36.893836      36.893836      36.893836    
   4100000   0.48264818    -7.8507905     -7.1268285      3.3660518      50218.233      36.893836      36.893836      36.893836    
   4110000   0.48159191    -7.8559487     -7.1335711      3.3305347      50218.233      36.893836      36.893836      36.893836    
   4120000   0.47878663    -7.8530699     -7.1349002      3.3435387      50218.233      36.893836      36.893836      36.893836    
   4130000   0.47977767    -7.8560394     -7.1363831      3.3281463      50218.233      36.893836      36.893836      36.893836    
   4140000   0.47904996    -7.8513382     -7.1327735      3.3505911      50218.233      36.893836      36.893836      36.893836    
   4150000   0.48041768    -7.8515391     -7.1309228      3.3606119      50218.233      36.893836      36.893836      36.893836    
   4160000   0.4794795     -7.852837      -7.1336279      3.3460434      50218.233      36.893836      36.893836      36.893836    
   4170000   0.48303802    -7.8541878     -7.129641       3.3451583      50218.233      36.893836      36.893836      36.893836    
   4180000   0.47974168    -7.854334      -7.1347317      3.3307067      50218.233      36.893836      36.893836      36.893836    
   4190000   0.48241081    -7.8545735     -7.1309676      3.3301776      50218.233      36.893836      36.893836      36.893836    
   4200000   0.4813617     -7.8543949     -7.1323626      3.3291834      50218.233      36.893836      36.893836      36.893836    
   4210000   0.48181831    -7.8527867     -7.1300695      3.339777       50218.233      36.893836      36.893836      36.893836    
   4220000   0.48314673    -7.8534343     -7.1287245      3.3477445      50218.233      36.893836      36.893836      36.893836    
   4230000   0.47965149    -7.8532533     -7.1337863      3.3447555      50218.233      36.893836      36.893836      36.893836    
   4240000   0.48022949    -7.851045      -7.130711       3.3607183      50218.233      36.893836      36.893836      36.893836    
   4250000   0.48051916    -7.8562        -7.1354315      3.3258325      50218.233      36.893836      36.893836      36.893836    
   4260000   0.47887663    -7.8552452     -7.1369405      3.3233378      50218.233      36.893836      36.893836      36.893836    
   4270000   0.48016776    -7.8505428     -7.1303014      3.3637239      50218.233      36.893836      36.893836      36.893836    
   4280000   0.48169795    -7.85223       -7.1296933      3.3570099      50218.233      36.893836      36.893836      36.893836    
   4290000   0.4815786     -7.8537272     -7.1313696      3.348105       50218.233      36.893836      36.893836      36.893836    
   4300000   0.47826202    -7.8492773     -7.1318945      3.3645753      50218.233      36.893836      36.893836      36.893836    
   4310000   0.47996735    -7.8530217     -7.1330809      3.3470199      50218.233      36.893836      36.893836      36.893836    
   4320000   0.48092937    -7.8484541     -7.1270703      3.3783215      50218.233      36.893836      36.893836      36.893836    
   4330000   0.4830446     -7.8544402     -7.1298836      3.3460075      50218.233      36.893836      36.893836      36.893836    
   4340000   0.48005795    -7.8520652     -7.1319885      3.3514693      50218.233      36.893836      36.893836      36.893836    
   4350000   0.48165936    -7.8543646     -7.1318858      3.3387281      50218.233      36.893836      36.893836      36.893836    
   4360000   0.48007207    -7.8506688     -7.130571       3.3562518      50218.233      36.893836      36.893836      36.893836    
   4370000   0.47932819    -7.8554387     -7.1364567      3.3327782      50218.233      36.893836      36.893836      36.893836    
   4380000   0.4795406     -7.8545397     -7.1352391      3.3371229      50218.233      36.893836      36.893836      36.893836    
   4390000   0.47823632    -7.8574107     -7.1400664      3.318926       50218.233      36.893836      36.893836      36.893836    
   4400000   0.47885792    -7.8537787     -7.135502       3.3358827      50218.233      36.893836      36.893836      36.893836    
   4410000   0.48037215    -7.8537727     -7.1332247      3.3345382      50218.233      36.893836      36.893836      36.893836    
   4420000   0.48042124    -7.8547679     -7.1341462      3.3450229      50218.233      36.893836      36.893836      36.893836    
   4430000   0.48223641    -7.8525544     -7.12921        3.3532185      50218.233      36.893836      36.893836      36.893836    
   4440000   0.48004503    -7.8546166     -7.1345593      3.3335664      50218.233      36.893836      36.893836      36.893836    
   4450000   0.47812777    -7.8533793     -7.1361978      3.3423517      50218.233      36.893836      36.893836      36.893836    
   4460000   0.48024752    -7.8577927     -7.1374316      3.3088515      50218.233      36.893836      36.893836      36.893836    
   4470000   0.4797903     -7.8528095     -7.1331343      3.3408254      50218.233      36.893836      36.893836      36.893836    
   4480000   0.47837877    -7.8538233     -7.1362653      3.3490377      50218.233      36.893836      36.893836      36.893836    
   4490000   0.47823312    -7.8532819     -7.1359424      3.3394368      50218.233      36.893836      36.893836      36.893836    
   4500000   0.47752179    -7.8591267     -7.1428542      3.2948054      50218.233      36.893836      36.893836      36.893836    
   4510000   0.48150847    -7.8534954     -7.131243       3.3520237      50218.233      36.893836      36.893836      36.893836    
   4520000   0.48083544    -7.8597125     -7.1384696      3.3023721      50218.233      36.893836      36.893836      36.893836    
   4530000   0.47661891    -7.8504309     -7.1355127      3.3572606      50218.233      36.893836      36.893836      36.893836    
   4540000   0.47664075    -7.8540619     -7.1391109      3.3268646      50218.233      36.893836      36.893836      36.893836    
   4550000   0.47924848    -7.8533827     -7.1345202      3.3373613      50218.233      36.893836      36.893836      36.893836    
   4560000   0.47885606    -7.8537785     -7.1355047      3.338836       50218.233      36.893836      36.893836      36.893836    
   4570000   0.48088843    -7.853802      -7.1324796      3.3342474      50218.233      36.893836      36.893836      36.893836    
   4580000   0.47993141    -7.8552849     -7.1353981      3.3369216      50218.233      36.893836      36.893836      36.893836    
   4590000   0.48029833    -7.8533168     -7.1328795      3.3517899      50218.233      36.893836      36.893836      36.893836    
   4600000   0.48018251    -7.8584783     -7.1382148      3.3083121      50218.233      36.893836      36.893836      36.893836    
   4610000   0.47968419    -7.8515352     -7.1320191      3.3535061      50218.233      36.893836      36.893836      36.893836    
   4620000   0.48093957    -7.8539835     -7.1325844      3.335569       50218.233      36.893836      36.893836      36.893836    
   4630000   0.4801969     -7.8542767     -7.1339916      3.333466       50218.233      36.893836      36.893836      36.893836    
   4640000   0.48025945    -7.8519074     -7.1315285      3.3555856      50218.233      36.893836      36.893836      36.893836    
   4650000   0.47989487    -7.8568457     -7.1370136      3.3190999      50218.233      36.893836      36.893836      36.893836    
   4660000   0.47866256    -7.8532058     -7.1352221      3.3595849      50218.233      36.893836      36.893836      36.893836    
   4670000   0.48104634    -7.8512977     -7.1297385      3.3565351      50218.233      36.893836      36.893836      36.893836    
   4680000   0.47986911    -7.8520587     -7.1322653      3.3451368      50218.233      36.893836      36.893836      36.893836    
   4690000   0.48198068    -7.8576218     -7.1346611      3.3185862      50218.233      36.893836      36.893836      36.893836    
   4700000   0.48031569    -7.8538086     -7.1333454      3.3424385      50218.233      36.893836      36.893836      36.893836    
   4710000   0.48051973    -7.8546886     -7.1339193      3.3397101      50218.233      36.893836      36.893836      36.893836    
   4720000   0.48093906    -7.8524834     -7.1310851      3.3424222      50218.233      36.893836      36.893836      36.893836    
   4730000   0.4786508     -7.8536393     -7.1356734      3.3479353      50218.233      36.893836      36.893836      36.893836    
   4740000   0.47782041    -7.8529807     -7.1362603      3.3455711      50218.233      36.893836      36.893836      36.893836    
   4750000   0.48126575    -7.8568438     -7.1349555      3.3215885      50218.233      36.893836      36.893836      36.893836    
   4760000   0.47762057    -7.8522499     -7.1358293      3.3501823      50218.233      36.893836      36.893836      36.893836    
   4770000   0.482807      -7.851963      -7.1277628      3.3615746      50218.233      36.893836      36.893836      36.893836    
   4780000   0.47892321    -7.8539421     -7.1355675      3.3450549      50218.233      36.893836      36.893836      36.893836    
   4790000   0.47975049    -7.8488629     -7.1292474      3.376613       50218.233      36.893836      36.893836      36.893836    
   4800000   0.4793849     -7.8544533     -7.1353861      3.3284037      50218.233      36.893836      36.893836      36.893836    
   4810000   0.47887161    -7.8522227     -7.1339255      3.3461241      50218.233      36.893836      36.893836      36.893836    
   4820000   0.48239328    -7.8537536     -7.1301739      3.3430377      50218.233      36.893836      36.893836      36.893836    
   4830000   0.47775256    -7.8573726     -7.1407539      3.3131739      50218.233      36.893836      36.893836      36.893836    
   4840000   0.47511419    -7.8568513     -7.1441901      3.30271        50218.233      36.893836      36.893836      36.893836    
   4850000   0.4804124     -7.8547011     -7.1340928      3.3366818      50218.233      36.893836      36.893836      36.893836    
   4860000   0.4805114     -7.8509541     -7.1301973      3.3620449      50218.233      36.893836      36.893836      36.893836    
   4870000   0.48132047    -7.8579568     -7.1359864      3.3101717      50218.233      36.893836      36.893836      36.893836    
   4880000   0.48116598    -7.8532934     -7.1315547      3.3422633      50218.233      36.893836      36.893836      36.893836    
   4890000   0.47996927    -7.8570186     -7.137075       3.3144263      50218.233      36.893836      36.893836      36.893836    
   4900000   0.47966902    -7.8545876     -7.1350944      3.3316756      50218.233      36.893836      36.893836      36.893836    
   4910000   0.48095453    -7.8571416     -7.13572        3.3158936      50218.233      36.893836      36.893836      36.893836    
   4920000   0.47711271    -7.8531773     -7.1375184      3.3466151      50218.233      36.893836      36.893836      36.893836    
   4930000   0.47945123    -7.8574366     -7.13827        3.3013377      50218.233      36.893836      36.893836      36.893836    
   4940000   0.48124716    -7.8536123     -7.1317519      3.3483016      50218.233      36.893836      36.893836      36.893836    
   4950000   0.47877295    -7.8536345     -7.1354853      3.3396403      50218.233      36.893836      36.893836      36.893836    
   4960000   0.48052996    -7.8575827     -7.136798       3.3205644      50218.233      36.893836      36.893836      36.893836    
   4970000   0.47782149    -7.8566836     -7.1399616      3.3122585      50218.233      36.893836      36.893836      36.893836    
   4980000   0.48100635    -7.8539961     -7.1324968      3.3459602      50218.233      36.893836      36.893836      36.893836    
   4990000   0.4825177     -7.8535389     -7.1297726      3.3515416      50218.233      36.893836      36.893836      36.893836    
   5000000   0.47976036    -7.8572481     -7.1376178      3.3203871      50218.233      36.893836      36.893836      36.893836    
   5010000   0.48249458    -7.854726      -7.1309944      3.3384191      50218.233      36.893836      36.893836      36.893836    
   5020000   0.47927953    -7.8587113     -7.1398022      3.2973713      50218.233      36.893836      36.893836      36.893836    
   5030000   0.47926185    -7.8528141     -7.1339315      3.3515844      50218.233      36.893836      36.893836      36.893836    
   5040000   0.48122515    -7.8549977     -7.1331703      3.3372986      50218.233      36.893836      36.893836      36.893836    
   5050000   0.48025162    -7.8533285     -7.1329613      3.3455145      50218.233      36.893836      36.893836      36.893836    
   5060000   0.47987949    -7.8525614     -7.1327524      3.3543922      50218.233      36.893836      36.893836      36.893836    
   5070000   0.48175246    -7.8557569     -7.1331385      3.3251746      50218.233      36.893836      36.893836      36.893836    
   5080000   0.47882514    -7.8540374     -7.1358099      3.3395649      50218.233      36.893836      36.893836      36.893836    
   5090000   0.47990735    -7.8550186     -7.1351678      3.3408027      50218.233      36.893836      36.893836      36.893836    
   5100000   0.48062728    -7.8538446     -7.132914       3.3400289      50218.233      36.893836      36.893836      36.893836    
   5110000   0.4821777     -7.8513067     -7.1280504      3.3587862      50218.233      36.893836      36.893836      36.893836    
   5120000   0.47895583    -7.8557361     -7.1373125      3.3250354      50218.233      36.893836      36.893836      36.893836    
   5130000   0.47949296    -7.8531374     -7.1339082      3.3543035      50218.233      36.893836      36.893836      36.893836    
   5140000   0.48229174    -7.8563764     -7.1329491      3.3209237      50218.233      36.893836      36.893836      36.893836    
   5150000   0.47803944    -7.8530328     -7.1359838      3.3395843      50218.233      36.893836      36.893836      36.893836    
   5160000   0.47874366    -7.8515725     -7.1334672      3.356274       50218.233      36.893836      36.893836      36.893836    
   5170000   0.47899546    -7.8530661     -7.1345832      3.349278       50218.233      36.893836      36.893836      36.893836    
   5180000   0.48171827    -7.854875      -7.1323079      3.3290059      50218.233      36.893836      36.893836      36.893836    
   5190000   0.48111239    -7.8552946     -7.1336363      3.3262626      50218.233      36.893836      36.893836      36.893836    
   5200000   0.47754551    -7.8557007     -7.1393926      3.317048       50218.233      36.893836      36.893836      36.893836    
   5210000   0.48239813    -7.8525843     -7.1289973      3.3584374      50218.233      36.893836      36.893836      36.893836    
   5220000   0.48215032    -7.8541217     -7.1309065      3.3313743      50218.233      36.893836      36.893836      36.893836    
   5230000   0.47994839    -7.8538807     -7.1339683      3.3377997      50218.233      36.893836      36.893836      36.893836    
   5240000   0.47823921    -7.854917      -7.1375684      3.332776       50218.233      36.893836      36.893836      36.893836    
   5250000   0.48029026    -7.8528306     -7.1324055      3.3542443      50218.233      36.893836      36.893836      36.893836    
   5260000   0.47984317    -7.8527004     -7.1329459      3.3625691      50218.233      36.893836      36.893836      36.893836    
   5270000   0.47944662    -7.8535262     -7.1343665      3.3495204      50218.233      36.893836      36.893836      36.893836    
   5280000   0.48037314    -7.8522707     -7.1317212      3.3549009      50218.233      36.893836      36.893836      36.893836    
   5290000   0.4787742     -7.8541003     -7.1359492      3.3330908      50218.233      36.893836      36.893836      36.893836    
   5300000   0.47685031    -7.8595033     -7.144238       3.2958088      50218.233      36.893836      36.893836      36.893836    
   5310000   0.4774833     -7.8582747     -7.14206        3.2950064      50218.233      36.893836      36.893836      36.893836    
   5320000   0.4767811     -7.8542043     -7.1390428      3.3276815      50218.233      36.893836      36.893836      36.893836    
   5330000   0.48354403    -7.8574855     -7.1321797      3.3213546      50218.233      36.893836      36.893836      36.893836    
   5340000   0.47845474    -7.8561272     -7.1384553      3.3232429      50218.233      36.893836      36.893836      36.893836    
   5350000   0.47943229    -7.8574921     -7.1383539      3.3062155      50218.233      36.893836      36.893836      36.893836    
   5360000   0.47986101    -7.8546884     -7.1349072      3.3385462      50218.233      36.893836      36.893836      36.893836    
   5370000   0.48299848    -7.8548363     -7.1303489      3.3387976      50218.233      36.893836      36.893836      36.893836    
   5380000   0.48019891    -7.852323      -7.1320349      3.3575779      50218.233      36.893836      36.893836      36.893836    
   5390000   0.48133572    -7.8495905     -7.1275972      3.3825997      50218.233      36.893836      36.893836      36.893836    
   5400000   0.48122987    -7.8531384     -7.1313039      3.3554994      50218.233      36.893836      36.893836      36.893836    
   5410000   0.47892608    -7.8523788     -7.1339999      3.3519188      50218.233      36.893836      36.893836      36.893836    
   5420000   0.47888228    -7.8560217     -7.1377085      3.3297381      50218.233      36.893836      36.893836      36.893836    
   5430000   0.47916044    -7.8534374     -7.134707       3.351995       50218.233      36.893836      36.893836      36.893836    
   5440000   0.47883297    -7.855497      -7.1372578      3.3257805      50218.233      36.893836      36.893836      36.893836    
   5450000   0.4786948     -7.8588683     -7.1408363      3.3120985      50218.233      36.893836      36.893836      36.893836    
   5460000   0.48116831    -7.8557341     -7.1339919      3.3306733      50218.233      36.893836      36.893836      36.893836    
   5470000   0.48154769    -7.8533936     -7.1310824      3.3517501      50218.233      36.893836      36.893836      36.893836    
   5480000   0.47997871    -7.8536229     -7.1336651      3.3495811      50218.233      36.893836      36.893836      36.893836    
   5490000   0.47861587    -7.8563673     -7.1384537      3.3235269      50218.233      36.893836      36.893836      36.893836    
   5500000   0.47894241    -7.853007      -7.1346036      3.3412735      50218.233      36.893836      36.893836      36.893836    
   5510000   0.48050121    -7.8538315     -7.1330899      3.3502242      50218.233      36.893836      36.893836      36.893836    
   5520000   0.47631001    -7.8551829     -7.1407281      3.3288686      50218.233      36.893836      36.893836      36.893836    
   5530000   0.47919452    -7.8572548     -7.1384732      3.3136811      50218.233      36.893836      36.893836      36.893836    
   5540000   0.48000488    -7.8524522     -7.1324551      3.3552124      50218.233      36.893836      36.893836      36.893836    
   5550000   0.48202954    -7.8583371     -7.1353031      3.303319       50218.233      36.893836      36.893836      36.893836    
   5560000   0.48088333    -7.8512803     -7.1299656      3.3626876      50218.233      36.893836      36.893836      36.893836    
   5570000   0.47976365    -7.8511692     -7.1315339      3.3496347      50218.233      36.893836      36.893836      36.893836    
   5580000   0.48179062    -7.8526678     -7.1299921      3.3434973      50218.233      36.893836      36.893836      36.893836    
   5590000   0.47975342    -7.8523099     -7.13269        3.3510175      50218.233      36.893836      36.893836      36.893836    
   5600000   0.47909278    -7.8547295     -7.1361006      3.330576       50218.233      36.893836      36.893836      36.893836    
   5610000   0.47803909    -7.8574083     -7.1403598      3.3002665      50218.233      36.893836      36.893836      36.893836    
   5620000   0.47938089    -7.8565222     -7.1374611      3.3236101      50218.233      36.893836      36.893836      36.893836    
   5630000   0.47911183    -7.8572201     -7.1385626      3.3088825      50218.233      36.893836      36.893836      36.893836    
   5640000   0.4787861     -7.8550578     -7.1368889      3.3224484      50218.233      36.893836      36.893836      36.893836    
   5650000   0.47975219    -7.8583635     -7.1387454      3.3112081      50218.233      36.893836      36.893836      36.893836    
   5660000   0.48018599    -7.8592113     -7.1389426      3.2964462      50218.233      36.893836      36.893836      36.893836    
   5670000   0.47984174    -7.8579848     -7.1382324      3.3111454      50218.233      36.893836      36.893836      36.893836    
   5680000   0.47888753    -7.8510996     -7.1327785      3.3635579      50218.233      36.893836      36.893836      36.893836    
   5690000   0.48046732    -7.8517336     -7.1310429      3.3677044      50218.233      36.893836      36.893836      36.893836    
   5700000   0.47938448    -7.8539198     -7.1348533      3.3333618      50218.233      36.893836      36.893836      36.893836    
   5710000   0.47985112    -7.8524118     -7.1326453      3.3522071      50218.233      36.893836      36.893836      36.893836    
   5720000   0.48028474    -7.8520465     -7.1316296      3.3530589      50218.233      36.893836      36.893836      36.893836    
   5730000   0.48138769    -7.8516951     -7.1296238      3.3533644      50218.233      36.893836      36.893836      36.893836    
   5740000   0.48006055    -7.8577889     -7.1377084      3.3202324      50218.233      36.893836      36.893836      36.893836    
   5750000   0.48057891    -7.852613      -7.1317549      3.3493211      50218.233      36.893836      36.893836      36.893836    
   5760000   0.4780304     -7.8542755     -7.1372401      3.3358508      50218.233      36.893836      36.893836      36.893836    
   5770000   0.48317432    -7.8546796     -7.1299284      3.351839       50218.233      36.893836      36.893836      36.893836    
   5780000   0.48123807    -7.8536208     -7.131774       3.3514884      50218.233      36.893836      36.893836      36.893836    
   5790000   0.48026124    -7.853691      -7.1333094      3.3614339      50218.233      36.893836      36.893836      36.893836    
   5800000   0.47810551    -7.8548685     -7.1377204      3.3298436      50218.233      36.893836      36.893836      36.893836    
   5810000   0.48188712    -7.8582667     -7.1354463      3.3061273      50218.233      36.893836      36.893836      36.893836    
   5820000   0.48259381    -7.85317       -7.1292895      3.3538752      50218.233      36.893836      36.893836      36.893836    
   5830000   0.47944767    -7.8485647     -7.1294034      3.3751556      50218.233      36.893836      36.893836      36.893836    
   5840000   0.48010578    -7.8539944     -7.1338459      3.3433465      50218.233      36.893836      36.893836      36.893836    
   5850000   0.48175709    -7.8552629     -7.1326375      3.3255162      50218.233      36.893836      36.893836      36.893836    
   5860000   0.47926076    -7.8569453     -7.1380644      3.3154771      50218.233      36.893836      36.893836      36.893836    
   5870000   0.48200652    -7.8556389     -7.1326394      3.3359907      50218.233      36.893836      36.893836      36.893836    
   5880000   0.47722205    -7.8545913     -7.1387684      3.3312061      50218.233      36.893836      36.893836      36.893836    
   5890000   0.47965819    -7.8571623     -7.1376852      3.3172582      50218.233      36.893836      36.893836      36.893836    
   5900000   0.48063176    -7.8575882     -7.1366508      3.3286666      50218.233      36.893836      36.893836      36.893836    
   5910000   0.48001575    -7.8561218     -7.1361085      3.3225159      50218.233      36.893836      36.893836      36.893836    
   5920000   0.48412224    -7.8566491     -7.130476       3.3281206      50218.233      36.893836      36.893836      36.893836    
   5930000   0.4781433     -7.8550963     -7.1378915      3.333548       50218.233      36.893836      36.893836      36.893836    
   5940000   0.47829335    -7.8528016     -7.1353717      3.3411046      50218.233      36.893836      36.893836      36.893836    
   5950000   0.47991574    -7.8523926     -7.1325292      3.3586594      50218.233      36.893836      36.893836      36.893836    
   5960000   0.4788193     -7.8598286     -7.1416099      3.2967247      50218.233      36.893836      36.893836      36.893836    
   5970000   0.48040209    -7.8527198     -7.1321269      3.3604916      50218.233      36.893836      36.893836      36.893836    
   5980000   0.48223065    -7.8577712     -7.1344355      3.3179157      50218.233      36.893836      36.893836      36.893836    
   5990000   0.48149576    -7.855591      -7.1333576      3.337438       50218.233      36.893836      36.893836      36.893836    
   6000000   0.48115889    -7.8535145     -7.1317865      3.3482474      50218.233      36.893836      36.893836      36.893836    
   6010000   0.48247649    -7.8555806     -7.1318762      3.3358849      50218.233      36.893836      36.893836      36.893836    
   6020000   0.47932764    -7.8594297     -7.1404484      3.2956042      50218.233      36.893836      36.893836      36.893836    
   6030000   0.47870276    -7.8549373     -7.1368934      3.3375658      50218.233      36.893836      36.893836      36.893836    
   6040000   0.48039183    -7.8565264     -7.1359489      3.324713       50218.233      36.893836      36.893836      36.893836    
   6050000   0.47893762    -7.8550082     -7.136612       3.3242859      50218.233      36.893836      36.893836      36.893836    
   6060000   0.4795192     -7.8509308     -7.1316622      3.360324       50218.233      36.893836      36.893836      36.893836    
   6070000   0.47896276    -7.8508628     -7.1324289      3.3687411      50218.233      36.893836      36.893836      36.893836    
   6080000   0.47898103    -7.855994      -7.1375327      3.3186908      50218.233      36.893836      36.893836      36.893836    
   6090000   0.47980389    -7.856442      -7.1367464      3.3180755      50218.233      36.893836      36.893836      36.893836    
   6100000   0.48148878    -7.8523308     -7.1301079      3.3552585      50218.233      36.893836      36.893836      36.893836    
   6110000   0.48096111    -7.8488542     -7.1274228      3.3765426      50218.233      36.893836      36.893836      36.893836    
   6120000   0.48274167    -7.8517354     -7.1276332      3.3640711      50218.233      36.893836      36.893836      36.893836    
   6130000   0.47852966    -7.8550108     -7.1372265      3.335311       50218.233      36.893836      36.893836      36.893836    
   6140000   0.48096324    -7.8527103     -7.1312757      3.334085       50218.233      36.893836      36.893836      36.893836    
   6150000   0.48159429    -7.8545328     -7.1321516      3.3366217      50218.233      36.893836      36.893836      36.893836    
   6160000   0.48279792    -7.8553122     -7.1311256      3.3325117      50218.233      36.893836      36.893836      36.893836    
   6170000   0.48181843    -7.8521529     -7.1294355      3.3599416      50218.233      36.893836      36.893836      36.893836    
   6180000   0.47896576    -7.8543323     -7.1358939      3.3456648      50218.233      36.893836      36.893836      36.893836    
   6190000   0.48150063    -7.8543359     -7.1320953      3.3510709      50218.233      36.893836      36.893836      36.893836    
   6200000   0.47717216    -7.8562646     -7.1405166      3.317825       50218.233      36.893836      36.893836      36.893836    
   6210000   0.48265243    -7.8540448     -7.1300765      3.3474527      50218.233      36.893836      36.893836      36.893836    
   6220000   0.47801514    -7.8535065     -7.1364939      3.3423765      50218.233      36.893836      36.893836      36.893836    
   6230000   0.48114162    -7.8560069     -7.1343047      3.3359156      50218.233      36.893836      36.893836      36.893836    
   6240000   0.48135831    -7.8553629     -7.1333357      3.3310225      50218.233      36.893836      36.893836      36.893836    
   6250000   0.48057739    -7.8527816     -7.1319258      3.3527165      50218.233      36.893836      36.893836      36.893836    
   6260000   0.47843664    -7.8549623     -7.1373175      3.3351209      50218.233      36.893836      36.893836      36.893836    
   6270000   0.47861926    -7.8533146     -7.1353959      3.3437107      50218.233      36.893836      36.893836      36.893836    
   6280000   0.48152058    -7.8566829     -7.1344123      3.3207909      50218.233      36.893836      36.893836      36.893836    
   6290000   0.48274984    -7.8569975     -7.132883       3.3131198      50218.233      36.893836      36.893836      36.893836    
   6300000   0.48050831    -7.8520256     -7.1312734      3.3638602      50218.233      36.893836      36.893836      36.893836    
   6310000   0.48131968    -7.8557466     -7.1337774      3.3333819      50218.233      36.893836      36.893836      36.893836    
   6320000   0.4787796     -7.8514004     -7.1332412      3.3606864      50218.233      36.893836      36.893836      36.893836    
   6330000   0.48036434    -7.8570495     -7.1365132      3.3160988      50218.233      36.893836      36.893836      36.893836    
   6340000   0.47921501    -7.8539952     -7.135183       3.3416281      50218.233      36.893836      36.893836      36.893836    
   6350000   0.48023463    -7.8538229     -7.1334812      3.3509715      50218.233      36.893836      36.893836      36.893836    
   6360000   0.47932873    -7.8550417     -7.1360588      3.3234164      50218.233      36.893836      36.893836      36.893836    
   6370000   0.47978663    -7.8570793     -7.1374096      3.3201812      50218.233      36.893836      36.893836      36.893836    
   6380000   0.48091022    -7.8506072     -7.1292521      3.3633885      50218.233      36.893836      36.893836      36.893836    
   6390000   0.47912154    -7.8546084     -7.1359364      3.3322143      50218.233      36.893836      36.893836      36.893836    
   6400000   0.48036312    -7.85534       -7.1348056      3.3297255      50218.233      36.893836      36.893836      36.893836    
   6410000   0.47750606    -7.852079      -7.1358301      3.362381       50218.233      36.893836      36.893836      36.893836    
   6420000   0.4778482     -7.8562376     -7.1394755      3.3156369      50218.233      36.893836      36.893836      36.893836    
   6430000   0.47979906    -7.8530795     -7.1333912      3.3541071      50218.233      36.893836      36.893836      36.893836    
   6440000   0.4812518     -7.8549647     -7.1330973      3.3335685      50218.233      36.893836      36.893836      36.893836    
   6450000   0.48165544    -7.8544997     -7.1320268      3.3378452      50218.233      36.893836      36.893836      36.893836    
   6460000   0.48112458    -7.8543664     -7.1326898      3.3545395      50218.233      36.893836      36.893836      36.893836    
   6470000   0.48179727    -7.854655      -7.1319694      3.3524024      50218.233      36.893836      36.893836      36.893836    
   6480000   0.48118626    -7.8522945     -7.1305253      3.3588514      50218.233      36.893836      36.893836      36.893836    
   6490000   0.47766982    -7.8529141     -7.1364196      3.3462007      50218.233      36.893836      36.893836      36.893836    
   6500000   0.48170245    -7.8563624     -7.133819       3.3280316      50218.233      36.893836      36.893836      36.893836    
   6510000   0.47946751    -7.8568812     -7.1376902      3.3256695      50218.233      36.893836      36.893836      36.893836    
   6520000   0.47756456    -7.8502416     -7.133905       3.3652424      50218.233      36.893836      36.893836      36.893836    
   6530000   0.47913807    -7.8574384     -7.1387415      3.3172338      50218.233      36.893836      36.893836      36.893836    
   6540000   0.48051884    -7.8555248     -7.1347568      3.342204       50218.233      36.893836      36.893836      36.893836    
   6550000   0.47795384    -7.8516478     -7.1347272      3.3649741      50218.233      36.893836      36.893836      36.893836    
   6560000   0.48291554    -7.8548014     -7.1304384      3.344888       50218.233      36.893836      36.893836      36.893836    
   6570000   0.47934502    -7.8571976     -7.1381903      3.3158324      50218.233      36.893836      36.893836      36.893836    
   6580000   0.47904949    -7.8547413     -7.1361773      3.3425193      50218.233      36.893836      36.893836      36.893836    
   6590000   0.48189118    -7.8574952     -7.1346687      3.3234737      50218.233      36.893836      36.893836      36.893836    
   6600000   0.4803017     -7.8534375     -7.1329952      3.3479492      50218.233      36.893836      36.893836      36.893836    
   6610000   0.48156204    -7.8530891     -7.1307563      3.3565343      50218.233      36.893836      36.893836      36.893836    
   6620000   0.4797733     -7.8500638     -7.1304141      3.3721871      50218.233      36.893836      36.893836      36.893836    
   6630000   0.47975555    -7.8499614     -7.1303383      3.375808       50218.233      36.893836      36.893836      36.893836    
   6640000   0.48005248    -7.8551583     -7.1350898      3.3273939      50218.233      36.893836      36.893836      36.893836    
   6650000   0.48004764    -7.8549504     -7.1348892      3.3323178      50218.233      36.893836      36.893836      36.893836    
   6660000   0.47854585    -7.8530249     -7.1352163      3.3445525      50218.233      36.893836      36.893836      36.893836    
   6670000   0.47785751    -7.851848      -7.1350719      3.3694433      50218.233      36.893836      36.893836      36.893836    
   6680000   0.47989935    -7.856115      -7.1362762      3.3226963      50218.233      36.893836      36.893836      36.893836    
   6690000   0.48150028    -7.8508005     -7.1285604      3.3654564      50218.233      36.893836      36.893836      36.893836    
   6700000   0.48083032    -7.8575597     -7.1363244      3.3169259      50218.233      36.893836      36.893836      36.893836    
   6710000   0.47825119    -7.8550606     -7.137694       3.338232       50218.233      36.893836      36.893836      36.893836    
   6720000   0.4792342     -7.855229      -7.1363879      3.3260814      50218.233      36.893836      36.893836      36.893836    
   6730000   0.47967554    -7.8557604     -7.1362574      3.3222621      50218.233      36.893836      36.893836      36.893836    
   6740000   0.48166576    -7.8540934     -7.131605       3.3530933      50218.233      36.893836      36.893836      36.893836    
   6750000   0.4808005     -7.8535538     -7.1323633      3.3392299      50218.233      36.893836      36.893836      36.893836    
   6760000   0.47891806    -7.8550066     -7.1366397      3.3306246      50218.233      36.893836      36.893836      36.893836    
   6770000   0.47978831    -7.8555955     -7.1359233      3.3209576      50218.233      36.893836      36.893836      36.893836    
   6780000   0.4797529     -7.8561433     -7.1365242      3.3340457      50218.233      36.893836      36.893836      36.893836    
   6790000   0.47882385    -7.854562      -7.1363365      3.340467       50218.233      36.893836      36.893836      36.893836    
   6800000   0.47847464    -7.8567446     -7.1390429      3.3166198      50218.233      36.893836      36.893836      36.893836    
   6810000   0.47716082    -7.8539902     -7.1382591      3.3409113      50218.233      36.893836      36.893836      36.893836    
   6820000   0.48044597    -7.8528533     -7.1321946      3.3444485      50218.233      36.893836      36.893836      36.893836    
   6830000   0.47961173    -7.8543494     -7.134942       3.3349394      50218.233      36.893836      36.893836      36.893836    
   6840000   0.48127022    -7.8532173     -7.1313222      3.3575703      50218.233      36.893836      36.893836      36.893836    
   6850000   0.48185665    -7.8539141     -7.1311394      3.3429599      50218.233      36.893836      36.893836      36.893836    
   6860000   0.47995217    -7.8574713     -7.1375533      3.3176385      50218.233      36.893836      36.893836      36.893836    
   6870000   0.48299806    -7.8548131     -7.1303263      3.3357583      50218.233      36.893836      36.893836      36.893836    
   6880000   0.48129302    -7.8531258     -7.1311965      3.3422967      50218.233      36.893836      36.893836      36.893836    
   6890000   0.48067869    -7.8556648     -7.134657       3.335435       50218.233      36.893836      36.893836      36.893836    
   6900000   0.47998665    -7.8542822     -7.1343125      3.3391057      50218.233      36.893836      36.893836      36.893836    
   6910000   0.48015883    -7.8536478     -7.1334198      3.3527389      50218.233      36.893836      36.893836      36.893836    
   6920000   0.48173839    -7.8534023     -7.130805       3.3602159      50218.233      36.893836      36.893836      36.893836    
   6930000   0.47848474    -7.8539596     -7.1362427      3.3345202      50218.233      36.893836      36.893836      36.893836    
   6940000   0.47856867    -7.8536128     -7.13577        3.3441566      50218.233      36.893836      36.893836      36.893836    
   6950000   0.48344556    -7.8555493     -7.1303913      3.3333222      50218.233      36.893836      36.893836      36.893836    
   6960000   0.48144983    -7.8574907     -7.1353262      3.3130973      50218.233      36.893836      36.893836      36.893836    
   6970000   0.4784765     -7.8540749     -7.1363703      3.3351685      50218.233      36.893836      36.893836      36.893836    
   6980000   0.48166974    -7.8520357     -7.1295414      3.3679497      50218.233      36.893836      36.893836      36.893836    
   6990000   0.48157082    -7.8577861     -7.1354402      3.3191874      50218.233      36.893836      36.893836      36.893836    
   7000000   0.47985357    -7.8547413     -7.1349712      3.3507882      50218.233      36.893836      36.893836      36.893836    
   7010000   0.48083739    -7.8531737     -7.1319279      3.3464359      50218.233      36.893836      36.893836      36.893836    
   7020000   0.48183108    -7.8515201     -7.1287838      3.3649179      50218.233      36.893836      36.893836      36.893836    
   7030000   0.47741105    -7.8563598     -7.1402534      3.3290575      50218.233      36.893836      36.893836      36.893836    
   7040000   0.48223143    -7.8515556     -7.1282188      3.3614432      50218.233      36.893836      36.893836      36.893836    
   7050000   0.48007794    -7.8518898     -7.1317832      3.3512449      50218.233      36.893836      36.893836      36.893836    
   7060000   0.47966031    -7.8592014     -7.1397212      3.3064726      50218.233      36.893836      36.893836      36.893836    
   7070000   0.48069769    -7.8586598     -7.1376235      3.3190033      50218.233      36.893836      36.893836      36.893836    
   7080000   0.47887525    -7.8517556     -7.1334529      3.3586074      50218.233      36.893836      36.893836      36.893836    
   7090000   0.4787746     -7.8544033     -7.1362516      3.3289832      50218.233      36.893836      36.893836      36.893836    
   7100000   0.48061451    -7.8548759     -7.1339644      3.3404581      50218.233      36.893836      36.893836      36.893836    
   7110000   0.48001108    -7.8521302     -7.1321238      3.3610252      50218.233      36.893836      36.893836      36.893836    
   7120000   0.48050689    -7.8552417     -7.1344917      3.3322872      50218.233      36.893836      36.893836      36.893836    
   7130000   0.47835263    -7.8559847     -7.138466       3.3215239      50218.233      36.893836      36.893836      36.893836    
   7140000   0.48012165    -7.8512892     -7.131117       3.3711576      50218.233      36.893836      36.893836      36.893836    
   7150000   0.47885792    -7.8518577     -7.133581       3.3640363      50218.233      36.893836      36.893836      36.893836    
   7160000   0.4799058     -7.8543528     -7.1345044      3.3430895      50218.233      36.893836      36.893836      36.893836    
   7170000   0.48463117    -7.8505011     -7.1235647      3.3777286      50218.233      36.893836      36.893836      36.893836    
   7180000   0.48038164    -7.8564663     -7.1359041      3.324347       50218.233      36.893836      36.893836      36.893836    
   7190000   0.47996775    -7.8542762     -7.1343348      3.3533601      50218.233      36.893836      36.893836      36.893836    
   7200000   0.48423742    -7.8527261     -7.1263803      3.3508305      50218.233      36.893836      36.893836      36.893836    
   7210000   0.47531735    -7.8487774     -7.1358115      3.3754416      50218.233      36.893836      36.893836      36.893836    
   7220000   0.4779741     -7.8533054     -7.1363545      3.3358062      50218.233      36.893836      36.893836      36.893836    
   7230000   0.47887781    -7.8557927     -7.1374862      3.3257734      50218.233      36.893836      36.893836      36.893836    
   7240000   0.48056996    -7.8495856     -7.1287409      3.3771059      50218.233      36.893836      36.893836      36.893836    
   7250000   0.47791851    -7.8509019     -7.1340343      3.3710679      50218.233      36.893836      36.893836      36.893836    
   7260000   0.47791228    -7.8514002     -7.134542       3.3658238      50218.233      36.893836      36.893836      36.893836    
   7270000   0.48015325    -7.8498409     -7.1296212      3.3755365      50218.233      36.893836      36.893836      36.893836    
   7280000   0.47670544    -7.8557972     -7.1407492      3.3314336      50218.233      36.893836      36.893836      36.893836    
   7290000   0.48126351    -7.853476      -7.131591       3.3507299      50218.233      36.893836      36.893836      36.893836    
   7300000   0.47799174    -7.8557564     -7.138779       3.3311376      50218.233      36.893836      36.893836      36.893836    
   7310000   0.48043214    -7.8544021     -7.1337641      3.336332       50218.233      36.893836      36.893836      36.893836    
   7320000   0.48142679    -7.8535934     -7.1314635      3.3487305      50218.233      36.893836      36.893836      36.893836    
   7330000   0.48016252    -7.8502379     -7.1300044      3.373159       50218.233      36.893836      36.893836      36.893836    
   7340000   0.47754016    -7.8572903     -7.1409902      3.3094685      50218.233      36.893836      36.893836      36.893836    
   7350000   0.47894259    -7.8535144     -7.1351107      3.3375029      50218.233      36.893836      36.893836      36.893836    
   7360000   0.4818995     -7.8533426     -7.1305037      3.3616298      50218.233      36.893836      36.893836      36.893836    
   7370000   0.48277539    -7.854049      -7.1298962      3.3453755      50218.233      36.893836      36.893836      36.893836    
   7380000   0.47708641    -7.8534032     -7.1377838      3.3485745      50218.233      36.893836      36.893836      36.893836    
   7390000   0.47961543    -7.8577121     -7.1382992      3.3032458      50218.233      36.893836      36.893836      36.893836    
   7400000   0.47778663    -7.8529181     -7.1362483      3.3450017      50218.233      36.893836      36.893836      36.893836    
   7410000   0.47734501    -7.8530846     -7.1370773      3.3365755      50218.233      36.893836      36.893836      36.893836    
   7420000   0.47939686    -7.860773      -7.1416879      3.2816162      50218.233      36.893836      36.893836      36.893836    
   7430000   0.47793428    -7.8580773     -7.1411861      3.2981353      50218.233      36.893836      36.893836      36.893836    
   7440000   0.47944793    -7.8557109     -7.1365493      3.3225263      50218.233      36.893836      36.893836      36.893836    
   7450000   0.4810314     -7.8561367     -7.1345999      3.3235449      50218.233      36.893836      36.893836      36.893836    
   7460000   0.48113127    -7.8526605     -7.1309739      3.3504676      50218.233      36.893836      36.893836      36.893836    
   7470000   0.47784269    -7.8526364     -7.1358826      3.3426456      50218.233      36.893836      36.893836      36.893836    
   7480000   0.4786447     -7.8529114     -7.1349545      3.3446322      50218.233      36.893836      36.893836      36.893836    
   7490000   0.47995424    -7.8550126     -7.1350915      3.3386594      50218.233      36.893836      36.893836      36.893836    
   7500000   0.4806708     -7.8551489     -7.134153       3.3290281      50218.233      36.893836      36.893836      36.893836    
   7510000   0.48030305    -7.8575266     -7.1370823      3.3140928      50218.233      36.893836      36.893836      36.893836    
   7520000   0.47561031    -7.8516057     -7.1382004      3.343393       50218.233      36.893836      36.893836      36.893836    
   7530000   0.47962156    -7.8521346     -7.1327125      3.3539016      50218.233      36.893836      36.893836      36.893836    
   7540000   0.4812273     -7.8578707     -7.13604        3.3143016      50218.233      36.893836      36.893836      36.893836    
   7550000   0.48113375    -7.8534507     -7.1317603      3.3432637      50218.233      36.893836      36.893836      36.893836    
   7560000   0.4795364     -7.8547738     -7.1354795      3.3280044      50218.233      36.893836      36.893836      36.893836    
   7570000   0.48012948    -7.8551458     -7.1349619      3.3272859      50218.233      36.893836      36.893836      36.893836    
   7580000   0.48114169    -7.8543201     -7.1326178      3.3426191      50218.233      36.893836      36.893836      36.893836    
   7590000   0.48089563    -7.8536038     -7.1322706      3.3484069      50218.233      36.893836      36.893836      36.893836    
   7600000   0.48218495    -7.8511321     -7.127865       3.3631592      50218.233      36.893836      36.893836      36.893836    
   7610000   0.47872055    -7.8568961     -7.1388255      3.3231261      50218.233      36.893836      36.893836      36.893836    
   7620000   0.47991132    -7.8554102     -7.1355534      3.3349847      50218.233      36.893836      36.893836      36.893836    
   7630000   0.47874331    -7.8530232     -7.1349184      3.3414505      50218.233      36.893836      36.893836      36.893836    
   7640000   0.48072326    -7.8570038     -7.1359292      3.3176414      50218.233      36.893836      36.893836      36.893836    
   7650000   0.48047918    -7.853029      -7.1323205      3.3514628      50218.233      36.893836      36.893836      36.893836    
   7660000   0.48076262    -7.8528696     -7.1317359      3.357921       50218.233      36.893836      36.893836      36.893836    
   7670000   0.47981737    -7.8535219     -7.1338061      3.3459609      50218.233      36.893836      36.893836      36.893836    
   7680000   0.4788654     -7.8538273     -7.1355394      3.3428534      50218.233      36.893836      36.893836      36.893836    
   7690000   0.48046766    -7.8513552     -7.130664       3.3698831      50218.233      36.893836      36.893836      36.893836    
   7700000   0.47991345    -7.8530718     -7.1332119      3.3472262      50218.233      36.893836      36.893836      36.893836    
   7710000   0.48197667    -7.8503201     -7.1273654      3.3830035      50218.233      36.893836      36.893836      36.893836    
   7720000   0.48137674    -7.8490621     -7.1270073      3.3726866      50218.233      36.893836      36.893836      36.893836    
   7730000   0.48096612    -7.8531099     -7.131671       3.3498835      50218.233      36.893836      36.893836      36.893836    
   7740000   0.47913028    -7.8550497     -7.1363644      3.3310716      50218.233      36.893836      36.893836      36.893836    
   7750000   0.47849882    -7.854499      -7.136761       3.3337118      50218.233      36.893836      36.893836      36.893836    
   7760000   0.48154929    -7.8545181     -7.1322045      3.3438208      50218.233      36.893836      36.893836      36.893836    
   7770000   0.47912275    -7.8514199     -7.1327459      3.356696       50218.233      36.893836      36.893836      36.893836    
   7780000   0.47752463    -7.8551455     -7.1388687      3.3309777      50218.233      36.893836      36.893836      36.893836    
   7790000   0.47882636    -7.8521832     -7.1339539      3.3504524      50218.233      36.893836      36.893836      36.893836    
   7800000   0.4793101     -7.8568085     -7.1378536      3.3259584      50218.233      36.893836      36.893836      36.893836    
   7810000   0.47949317    -7.8511962     -7.1319667      3.3594933      50218.233      36.893836      36.893836      36.893836    
   7820000   0.48110507    -7.8536285     -7.1319812      3.3433026      50218.233      36.893836      36.893836      36.893836    
   7830000   0.47828553    -7.8522108     -7.1347927      3.3506485      50218.233      36.893836      36.893836      36.893836    
   7840000   0.48018235    -7.8547531     -7.1344899      3.33969        50218.233      36.893836      36.893836      36.893836    
   7850000   0.48045868    -7.8549779     -7.1343002      3.332987       50218.233      36.893836      36.893836      36.893836    
   7860000   0.47815516    -7.8544931     -7.1372705      3.333523       50218.233      36.893836      36.893836      36.893836    
   7870000   0.48131868    -7.8574722     -7.1355045      3.3172044      50218.233      36.893836      36.893836      36.893836    
   7880000   0.47651823    -7.8528209     -7.1380537      3.3331092      50218.233      36.893836      36.893836      36.893836    
   7890000   0.48103169    -7.8550062     -7.1334689      3.3281949      50218.233      36.893836      36.893836      36.893836    
   7900000   0.4800463     -7.8546082     -7.134549       3.3395519      50218.233      36.893836      36.893836      36.893836    
   7910000   0.48039609    -7.8534829     -7.1328991      3.3384726      50218.233      36.893836      36.893836      36.893836    
   7920000   0.4794226     -7.8513991     -7.1322754      3.3568567      50218.233      36.893836      36.893836      36.893836    
   7930000   0.48089502    -7.8508669     -7.1295347      3.3745262      50218.233      36.893836      36.893836      36.893836    
   7940000   0.48145669    -7.8539846     -7.1318098      3.3353853      50218.233      36.893836      36.893836      36.893836    
   7950000   0.48324804    -7.8500489     -7.1251872      3.3838898      50218.233      36.893836      36.893836      36.893836    
   7960000   0.47907244    -7.8551428     -7.1365444      3.3184237      50218.233      36.893836      36.893836      36.893836    
   7970000   0.47841817    -7.8522417     -7.1346246      3.3463078      50218.233      36.893836      36.893836      36.893836    
   7980000   0.47941681    -7.8516215     -7.1325065      3.3549735      50218.233      36.893836      36.893836      36.893836    
   7990000   0.48216644    -7.8494323     -7.1261929      3.3848022      50218.233      36.893836      36.893836      36.893836    
   8000000   0.48152531    -7.853548      -7.1312704      3.3417686      50218.233      36.893836      36.893836      36.893836    
   8010000   0.48190641    -7.8541077     -7.1312584      3.3418073      50218.233      36.893836      36.893836      36.893836    
   8020000   0.4808045     -7.8562615     -7.135065       3.3155281      50218.233      36.893836      36.893836      36.893836    
   8030000   0.47728803    -7.8518407     -7.1359189      3.3602807      50218.233      36.893836      36.893836      36.893836    
   8040000   0.47826171    -7.8512661     -7.1338837      3.3592106      50218.233      36.893836      36.893836      36.893836    
   8050000   0.48015324    -7.8550211     -7.1348014      3.3384295      50218.233      36.893836      36.893836      36.893836    
   8060000   0.47595347    -7.8549419     -7.1410219      3.3206989      50218.233      36.893836      36.893836      36.893836    
   8070000   0.4797524     -7.8529047     -7.1332864      3.3577501      50218.233      36.893836      36.893836      36.893836    
   8080000   0.48076967    -7.8552528     -7.1341085      3.3186704      50218.233      36.893836      36.893836      36.893836    
   8090000   0.48011675    -7.8556246     -7.1354598      3.3322131      50218.233      36.893836      36.893836      36.893836    
   8100000   0.48273118    -7.8520098     -7.1279233      3.3586076      50218.233      36.893836      36.893836      36.893836    
   8110000   0.47635297    -7.8519412     -7.1374219      3.3507688      50218.233      36.893836      36.893836      36.893836    
   8120000   0.48082672    -7.8535463     -7.1323165      3.3399973      50218.233      36.893836      36.893836      36.893836    
   8130000   0.48155533    -7.8530592     -7.1307364      3.3463559      50218.233      36.893836      36.893836      36.893836    
   8140000   0.47809728    -7.8523025     -7.1351668      3.3565413      50218.233      36.893836      36.893836      36.893836    
   8150000   0.48092839    -7.8562506     -7.1348683      3.3317904      50218.233      36.893836      36.893836      36.893836    
   8160000   0.4787117     -7.8522992     -7.1342418      3.3578589      50218.233      36.893836      36.893836      36.893836    
   8170000   0.47990217    -7.8539043     -7.1340613      3.34598        50218.233      36.893836      36.893836      36.893836    
   8180000   0.48360339    -7.8497001     -7.1243053      3.3818122      50218.233      36.893836      36.893836      36.893836    
   8190000   0.47952892    -7.8483758     -7.1290927      3.4015703      50218.233      36.893836      36.893836      36.893836    
   8200000   0.479414      -7.8533778     -7.134267       3.3400137      50218.233      36.893836      36.893836      36.893836    
   8210000   0.48141051    -7.8522748     -7.1301693      3.3618033      50218.233      36.893836      36.893836      36.893836    
   8220000   0.48053266    -7.8524278     -7.131639       3.3515574      50218.233      36.893836      36.893836      36.893836    
   8230000   0.48082641    -7.8500136     -7.1287842      3.3736362      50218.233      36.893836      36.893836      36.893836    
   8240000   0.47928183    -7.8525498     -7.1336373      3.3480497      50218.233      36.893836      36.893836      36.893836    
   8250000   0.47859311    -7.8519757     -7.1340962      3.3535952      50218.233      36.893836      36.893836      36.893836    
   8260000   0.4812227     -7.8510226     -7.1291988      3.361826       50218.233      36.893836      36.893836      36.893836    
   8270000   0.4797634     -7.8505439     -7.130909       3.3549179      50218.233      36.893836      36.893836      36.893836    
   8280000   0.48166228    -7.8536437     -7.1311605      3.3436216      50218.233      36.893836      36.893836      36.893836    
   8290000   0.47812253    -7.8525496     -7.135376       3.3561301      50218.233      36.893836      36.893836      36.893836    
   8300000   0.47944101    -7.8518028     -7.1326515      3.3726803      50218.233      36.893836      36.893836      36.893836    
   8310000   0.47948665    -7.8567539     -7.1375342      3.3216995      50218.233      36.893836      36.893836      36.893836    
   8320000   0.48130391    -7.8532232     -7.1312776      3.3499386      50218.233      36.893836      36.893836      36.893836    
   8330000   0.4788781     -7.8511822     -7.1328753      3.3623713      50218.233      36.893836      36.893836      36.893836    
   8340000   0.47796506    -7.8527787     -7.1358413      3.3430436      50218.233      36.893836      36.893836      36.893836    
   8350000   0.48182628    -7.8506385     -7.1279094      3.3735074      50218.233      36.893836      36.893836      36.893836    
   8360000   0.48019969    -7.8505783     -7.130289       3.3654882      50218.233      36.893836      36.893836      36.893836    
   8370000   0.48123281    -7.8538795     -7.1320406      3.3426538      50218.233      36.893836      36.893836      36.893836    
   8380000   0.4795581     -7.8526351     -7.1333082      3.3508297      50218.233      36.893836      36.893836      36.893836    
   8390000   0.48263362    -7.8538447     -7.1299045      3.3398366      50218.233      36.893836      36.893836      36.893836    
   8400000   0.47808282    -7.8513423     -7.1342282      3.3550599      50218.233      36.893836      36.893836      36.893836    
   8410000   0.48042422    -7.8594132     -7.1387871      3.310278       50218.233      36.893836      36.893836      36.893836    
   8420000   0.48376732    -7.8545017     -7.1288611      3.3428309      50218.233      36.893836      36.893836      36.893836    
   8430000   0.48085459    -7.8525883     -7.1313166      3.3527768      50218.233      36.893836      36.893836      36.893836    
   8440000   0.48039566    -7.8517235     -7.1311403      3.3547675      50218.233      36.893836      36.893836      36.893836    
   8450000   0.48004757    -7.8541013     -7.1340402      3.3363745      50218.233      36.893836      36.893836      36.893836    
   8460000   0.48001415    -7.8554784     -7.1354674      3.328077       50218.233      36.893836      36.893836      36.893836    
   8470000   0.48062716    -7.8584989     -7.1375684      3.3049408      50218.233      36.893836      36.893836      36.893836    
   8480000   0.47823853    -7.8559212     -7.1385736      3.3260892      50218.233      36.893836      36.893836      36.893836    
   8490000   0.47813251    -7.8545417     -7.1373532      3.3342092      50218.233      36.893836      36.893836      36.893836    
   8500000   0.48282623    -7.8513505     -7.1271215      3.3625278      50218.233      36.893836      36.893836      36.893836    
   8510000   0.4818923     -7.8552232     -7.132395       3.3372382      50218.233      36.893836      36.893836      36.893836    
   8520000   0.48135083    -7.8559469     -7.133931       3.3357403      50218.233      36.893836      36.893836      36.893836    
   8530000   0.48281456    -7.8516415     -7.12743        3.3588018      50218.233      36.893836      36.893836      36.893836    
   8540000   0.47824515    -7.8556139     -7.1382564      3.3412902      50218.233      36.893836      36.893836      36.893836    
   8550000   0.47944279    -7.8540868     -7.1349328      3.3390006      50218.233      36.893836      36.893836      36.893836    
   8560000   0.48172012    -7.8507115     -7.1281416      3.3764529      50218.233      36.893836      36.893836      36.893836    
   8570000   0.47953369    -7.8546162     -7.1353259      3.3393127      50218.233      36.893836      36.893836      36.893836    
   8580000   0.48205054    -7.8530129     -7.1299474      3.356169       50218.233      36.893836      36.893836      36.893836    
   8590000   0.47888653    -7.8522259     -7.1339064      3.3498812      50218.233      36.893836      36.893836      36.893836    
   8600000   0.48206622    -7.8513954     -7.1283063      3.3734805      50218.233      36.893836      36.893836      36.893836    
   8610000   0.48032616    -7.848689      -7.1282101      3.3822544      50218.233      36.893836      36.893836      36.893836    
   8620000   0.48276709    -7.8523989     -7.1282586      3.358508       50218.233      36.893836      36.893836      36.893836    
   8630000   0.47811874    -7.8521415     -7.1349736      3.3595704      50218.233      36.893836      36.893836      36.893836    
   8640000   0.48041956    -7.8541216     -7.1335025      3.3447718      50218.233      36.893836      36.893836      36.893836    
   8650000   0.480303      -7.8513881     -7.1309438      3.3664666      50218.233      36.893836      36.893836      36.893836    
   8660000   0.48098213    -7.8456015     -7.1241386      3.400843       50218.233      36.893836      36.893836      36.893836    
   8670000   0.47733124    -7.8507506     -7.1347639      3.3654588      50218.233      36.893836      36.893836      36.893836    
   8680000   0.48200876    -7.8515068     -7.1285039      3.3665009      50218.233      36.893836      36.893836      36.893836    
   8690000   0.47768933    -7.8556545     -7.1391307      3.3329807      50218.233      36.893836      36.893836      36.893836    
   8700000   0.48044078    -7.8540312     -7.1333803      3.3410375      50218.233      36.893836      36.893836      36.893836    
   8710000   0.47854863    -7.8545739     -7.1367612      3.3325108      50218.233      36.893836      36.893836      36.893836    
   8720000   0.48110602    -7.8525491     -7.1309003      3.3546105      50218.233      36.893836      36.893836      36.893836    
   8730000   0.4831531     -7.8510783     -7.126359       3.383357       50218.233      36.893836      36.893836      36.893836    
   8740000   0.47909453    -7.8515101     -7.1328786      3.3609634      50218.233      36.893836      36.893836      36.893836    
   8750000   0.48043425    -7.8556594     -7.1350183      3.3347384      50218.233      36.893836      36.893836      36.893836    
   8760000   0.48004303    -7.8480578     -7.1280035      3.3851164      50218.233      36.893836      36.893836      36.893836    
   8770000   0.47836553    -7.8511143     -7.1335762      3.3628917      50218.233      36.893836      36.893836      36.893836    
   8780000   0.47937764    -7.8507367     -7.1316805      3.3533496      50218.233      36.893836      36.893836      36.893836    
   8790000   0.47811278    -7.8546449     -7.137486       3.3453172      50218.233      36.893836      36.893836      36.893836    
   8800000   0.48195681    -7.8524587     -7.1295338      3.3535508      50218.233      36.893836      36.893836      36.893836    
   8810000   0.48062088    -7.8534395     -7.1325184      3.3381213      50218.233      36.893836      36.893836      36.893836    
   8820000   0.48204932    -7.8487657     -7.125702       3.3864921      50218.233      36.893836      36.893836      36.893836    
   8830000   0.4808849     -7.8526606     -7.1313435      3.3485537      50218.233      36.893836      36.893836      36.893836    
   8840000   0.47842706    -7.8547342     -7.1371038      3.3292285      50218.233      36.893836      36.893836      36.893836    
   8850000   0.47911651    -7.8530722     -7.1344077      3.3496121      50218.233      36.893836      36.893836      36.893836    
   8860000   0.4810494     -7.8531155     -7.1315517      3.3530811      50218.233      36.893836      36.893836      36.893836    
   8870000   0.47987754    -7.8531904     -7.1333844      3.345538       50218.233      36.893836      36.893836      36.893836    
   8880000   0.48092093    -7.8544149     -7.1330438      3.3482381      50218.233      36.893836      36.893836      36.893836    
   8890000   0.48025006    -7.8548828     -7.1345179      3.3308423      50218.233      36.893836      36.893836      36.893836    
   8900000   0.47922353    -7.854918      -7.136093       3.3319382      50218.233      36.893836      36.893836      36.893836    
   8910000   0.47778631    -7.8533835     -7.1367142      3.3502348      50218.233      36.893836      36.893836      36.893836    
   8920000   0.4796761     -7.85244       -7.1329361      3.3568433      50218.233      36.893836      36.893836      36.893836    
   8930000   0.47934139    -7.8485533     -7.1295515      3.3835675      50218.233      36.893836      36.893836      36.893836    
   8940000   0.48135446    -7.8558505     -7.1338291      3.3271284      50218.233      36.893836      36.893836      36.893836    
   8950000   0.48226979    -7.8535266     -7.1301322      3.3518193      50218.233      36.893836      36.893836      36.893836    
   8960000   0.48134497    -7.8549392     -7.132932       3.3340455      50218.233      36.893836      36.893836      36.893836    
   8970000   0.47949901    -7.8577417     -7.1385034      3.3082055      50218.233      36.893836      36.893836      36.893836    
   8980000   0.47828839    -7.8559359     -7.1385135      3.3262552      50218.233      36.893836      36.893836      36.893836    
   8990000   0.47571999    -7.8568011     -7.1432313      3.3164032      50218.233      36.893836      36.893836      36.893836    
   9000000   0.47724117    -7.8537928     -7.1379412      3.3321772      50218.233      36.893836      36.893836      36.893836    
   9010000   0.4792425     -7.8535849     -7.1347314      3.3468985      50218.233      36.893836      36.893836      36.893836    
   9020000   0.47827607    -7.8575369     -7.140133       3.3275953      50218.233      36.893836      36.893836      36.893836    
   9030000   0.4807485     -7.8533286     -7.1322161      3.3445889      50218.233      36.893836      36.893836      36.893836    
   9040000   0.4813418     -7.8580483     -7.1360458      3.3002006      50218.233      36.893836      36.893836      36.893836    
   9050000   0.48011855    -7.8539364     -7.1337688      3.3418135      50218.233      36.893836      36.893836      36.893836    
   9060000   0.48006143    -7.8574395     -7.1373576      3.3164588      50218.233      36.893836      36.893836      36.893836    
   9070000   0.48221625    -7.8556057     -7.1322916      3.33365        50218.233      36.893836      36.893836      36.893836    
   9080000   0.48293497    -7.8563156     -7.1319235      3.3198634      50218.233      36.893836      36.893836      36.893836    
   9090000   0.47981801    -7.8525256     -7.1328089      3.3478947      50218.233      36.893836      36.893836      36.893836    
   9100000   0.48157346    -7.8556018     -7.1332518      3.3378388      50218.233      36.893836      36.893836      36.893836    
   9110000   0.4801594     -7.851638      -7.1314092      3.3627278      50218.233      36.893836      36.893836      36.893836    
   9120000   0.4815764     -7.8561977     -7.1338434      3.3321555      50218.233      36.893836      36.893836      36.893836    
   9130000   0.47782275    -7.8571424     -7.1404185      3.3151588      50218.233      36.893836      36.893836      36.893836    
   9140000   0.47731688    -7.857446      -7.1414809      3.309363       50218.233      36.893836      36.893836      36.893836    
   9150000   0.4794785     -7.85953       -7.1403225      3.2999594      50218.233      36.893836      36.893836      36.893836    
   9160000   0.47995873    -7.853507      -7.1335792      3.348664       50218.233      36.893836      36.893836      36.893836    
   9170000   0.48041607    -7.8544814     -7.1338675      3.337029       50218.233      36.893836      36.893836      36.893836    
   9180000   0.48193033    -7.8574153     -7.1345301      3.3168163      50218.233      36.893836      36.893836      36.893836    
   9190000   0.47907599    -7.8577541     -7.1391503      3.3102677      50218.233      36.893836      36.893836      36.893836    
   9200000   0.48086904    -7.8530116     -7.1317183      3.3534849      50218.233      36.893836      36.893836      36.893836    
   9210000   0.48004477    -7.8555881     -7.1355312      3.3277669      50218.233      36.893836      36.893836      36.893836    
   9220000   0.47909184    -7.8532535     -7.134626       3.3474032      50218.233      36.893836      36.893836      36.893836    
   9230000   0.47966485    -7.8496691     -7.1301821      3.3664011      50218.233      36.893836      36.893836      36.893836    
   9240000   0.4800964     -7.8552694     -7.1351351      3.3417791      50218.233      36.893836      36.893836      36.893836    
   9250000   0.48081877    -7.8540557     -7.1328378      3.3434429      50218.233      36.893836      36.893836      36.893836    
   9260000   0.48077368    -7.855079      -7.1339287      3.3389521      50218.233      36.893836      36.893836      36.893836    
   9270000   0.47734507    -7.8528574     -7.13685        3.3389948      50218.233      36.893836      36.893836      36.893836    
   9280000   0.48179053    -7.8530792     -7.1304037      3.3435408      50218.233      36.893836      36.893836      36.893836    
   9290000   0.47862927    -7.8546296     -7.1366959      3.3415689      50218.233      36.893836      36.893836      36.893836    
   9300000   0.48270114    -7.8521263     -7.1280849      3.3594689      50218.233      36.893836      36.893836      36.893836    
   9310000   0.47966169    -7.852069      -7.1325867      3.3556609      50218.233      36.893836      36.893836      36.893836    
   9320000   0.47833671    -7.8570505     -7.1395556      3.3228219      50218.233      36.893836      36.893836      36.893836    
   9330000   0.48101486    -7.8551168     -7.1336048      3.3291468      50218.233      36.893836      36.893836      36.893836    
   9340000   0.48011709    -7.8517229     -7.1315575      3.3588319      50218.233      36.893836      36.893836      36.893836    
   9350000   0.47792151    -7.8531772     -7.1363051      3.3471631      50218.233      36.893836      36.893836      36.893836    
   9360000   0.4817309     -7.8536734     -7.1310873      3.3575978      50218.233      36.893836      36.893836      36.893836    
   9370000   0.47862259    -7.8531446     -7.1352209      3.3353151      50218.233      36.893836      36.893836      36.893836    
   9380000   0.47904912    -7.8550442     -7.1364807      3.3413278      50218.233      36.893836      36.893836      36.893836    
   9390000   0.48150741    -7.8559283     -7.1336774      3.3262983      50218.233      36.893836      36.893836      36.893836    
   9400000   0.47876954    -7.8572557     -7.1391116      3.31784        50218.233      36.893836      36.893836      36.893836    
   9410000   0.48050328    -7.8541748     -7.1334302      3.3324454      50218.233      36.893836      36.893836      36.893836    
   9420000   0.48180034    -7.8533682     -7.130678       3.3565182      50218.233      36.893836      36.893836      36.893836    
   9430000   0.48008387    -7.8577034     -7.1375879      3.3190386      50218.233      36.893836      36.893836      36.893836    
   9440000   0.48113102    -7.8589185     -7.1372322      3.3033164      50218.233      36.893836      36.893836      36.893836    
   9450000   0.48015084    -7.8517003     -7.1314843      3.3479897      50218.233      36.893836      36.893836      36.893836    
   9460000   0.47863073    -7.8585804     -7.1406446      3.3052508      50218.233      36.893836      36.893836      36.893836    
   9470000   0.47966941    -7.8525972     -7.1331034      3.3504864      50218.233      36.893836      36.893836      36.893836    
   9480000   0.48015606    -7.853606      -7.1333821      3.3407321      50218.233      36.893836      36.893836      36.893836    
   9490000   0.4798202     -7.8534336     -7.1337136      3.3384998      50218.233      36.893836      36.893836      36.893836    
   9500000   0.48143159    -7.8565872     -7.1344501      3.3178534      50218.233      36.893836      36.893836      36.893836    
   9510000   0.48114886    -7.8545964     -7.1328834      3.3333305      50218.233      36.893836      36.893836      36.893836    
   9520000   0.48021102    -7.856146      -7.1358397      3.3232629      50218.233      36.893836      36.893836      36.893836    
   9530000   0.4814071     -7.8542574     -7.132157       3.3432859      50218.233      36.893836      36.893836      36.893836    
   9540000   0.48133425    -7.8551102     -7.1331191      3.3340446      50218.233      36.893836      36.893836      36.893836    
   9550000   0.48077453    -7.8537221     -7.1325706      3.3444354      50218.233      36.893836      36.893836      36.893836    
   9560000   0.4808542     -7.8561944     -7.1349234      3.3356605      50218.233      36.893836      36.893836      36.893836    
   9570000   0.48069396    -7.856777      -7.1357464      3.3148668      50218.233      36.893836      36.893836      36.893836    
   9580000   0.48181476    -7.8559537     -7.1332418      3.3311919      50218.233      36.893836      36.893836      36.893836    
   9590000   0.47855108    -7.8572031     -7.1393867      3.3220163      50218.233      36.893836      36.893836      36.893836    
   9600000   0.48026523    -7.8550954     -7.1347078      3.3323534      50218.233      36.893836      36.893836      36.893836    
   9610000   0.47753088    -7.8593878     -7.1431017      3.2919593      50218.233      36.893836      36.893836      36.893836    
   9620000   0.479633      -7.849971      -7.1305317      3.3764116      50218.233      36.893836      36.893836      36.893836    
   9630000   0.48066446    -7.8494723     -7.1284859      3.3803797      50218.233      36.893836      36.893836      36.893836    
   9640000   0.47909778    -7.8520646     -7.1334282      3.3563567      50218.233      36.893836      36.893836      36.893836    
   9650000   0.48098685    -7.8534695     -7.1319995      3.353757       50218.233      36.893836      36.893836      36.893836    
   9660000   0.48080884    -7.856865      -7.135662       3.3281891      50218.233      36.893836      36.893836      36.893836    
   9670000   0.47973564    -7.8543581     -7.1347649      3.3502581      50218.233      36.893836      36.893836      36.893836    
   9680000   0.48013987    -7.8523005     -7.1321009      3.3542397      50218.233      36.893836      36.893836      36.893836    
   9690000   0.4804726     -7.851559      -7.1308603      3.358101       50218.233      36.893836      36.893836      36.893836    
   9700000   0.47984479    -7.8524728     -7.1327158      3.3461526      50218.233      36.893836      36.893836      36.893836    
   9710000   0.48053655    -7.8547024     -7.1339079      3.335236       50218.233      36.893836      36.893836      36.893836    
   9720000   0.47994675    -7.8477748     -7.127865       3.3882356      50218.233      36.893836      36.893836      36.893836    
   9730000   0.47802298    -7.8540294     -7.1370051      3.3456973      50218.233      36.893836      36.893836      36.893836    
   9740000   0.48286157    -7.8548209     -7.1305388      3.3384101      50218.233      36.893836      36.893836      36.893836    
   9750000   0.48039475    -7.8548157     -7.1342339      3.3412812      50218.233      36.893836      36.893836      36.893836    
   9760000   0.479009      -7.855579      -7.1370758      3.3250084      50218.233      36.893836      36.893836      36.893836    
   9770000   0.48139097    -7.8520515     -7.1299753      3.3544253      50218.233      36.893836      36.893836      36.893836    
   9780000   0.47872241    -7.8519428     -7.1338694      3.348757       50218.233      36.893836      36.893836      36.893836    
   9790000   0.47736089    -7.8534711     -7.13744        3.3396783      50218.233      36.893836      36.893836      36.893836    
   9800000   0.48163346    -7.8548859     -7.132446       3.3338515      50218.233      36.893836      36.893836      36.893836    
   9810000   0.4815393     -7.850091      -7.1277924      3.3748564      50218.233      36.893836      36.893836      36.893836    
   9820000   0.48090516    -7.8523459     -7.1309984      3.3626667      50218.233      36.893836      36.893836      36.893836    
   9830000   0.47866614    -7.8565345     -7.1385455      3.3172809      50218.233      36.893836      36.893836      36.893836    
   9840000   0.48070205    -7.8541827     -7.1331399      3.3344507      50218.233      36.893836      36.893836      36.893836    
   9850000   0.48150602    -7.8515303     -7.1292815      3.3673086      50218.233      36.893836      36.893836      36.893836    
   9860000   0.47848953    -7.852914      -7.1351899      3.3508613      50218.233      36.893836      36.893836      36.893836    
   9870000   0.47932777    -7.8536676     -7.1346862      3.3362731      50218.233      36.893836      36.893836      36.893836    
   9880000   0.481653      -7.8546006     -7.1321314      3.3326427      50218.233      36.893836      36.893836      36.893836    
   9890000   0.47814432    -7.8532533     -7.136047       3.3431751      50218.233      36.893836      36.893836      36.893836    
   9900000   0.47998071    -7.8516864     -7.1317256      3.3507948      50218.233      36.893836      36.893836      36.893836    
   9910000   0.48051347    -7.8528107     -7.1320508      3.3442089      50218.233      36.893836      36.893836      36.893836    
   9920000   0.47713259    -7.8494006     -7.1337119      3.3818048      50218.233      36.893836      36.893836      36.893836    
   9930000   0.47810693    -7.8583137     -7.1411635      3.3013844      50218.233      36.893836      36.893836      36.893836    
   9940000   0.47966521    -7.8534305     -7.1339429      3.33592        50218.233      36.893836      36.893836      36.893836    
   9950000   0.48069942    -7.8558041     -7.1347653      3.3311393      50218.233      36.893836      36.893836      36.893836    
   9960000   0.47750691    -7.8509992     -7.134749       3.3527957      50218.233      36.893836      36.893836      36.893836    
   9970000   0.47915179    -7.8512948     -7.1325774      3.3586865      50218.233      36.893836      36.893836      36.893836    
   9980000   0.48033994    -7.8559354     -7.1354357      3.3291679      50218.233      36.893836      36.893836      36.893836    
   9990000   0.47956461    -7.8568276     -7.1374909      3.3208221      50218.233      36.893836      36.893836      36.893836    
  10000000   0.47952407    -7.8536016     -7.1343258      3.3360263      50218.233      36.893836      36.893836      36.893836    
Loop time of 15749.1 on 5 procs for 10000000 steps with 70304 atoms

Performance: 548602.112 tau/day, 634.956 timesteps/s, 44.640 Matom-step/s
94.7% CPU use with 5 MPI tasks x 1 OpenMP threads

MPI task timing breakdown:
Section |  min time  |  avg time  |  max time  |%varavg| %total
---------------------------------------------------------------
Pair    | 5318.4     | 6347.2     | 7307.9     | 829.5 | 40.30
Neigh   | 45.062     | 48.444     | 52.367     |  40.5 |  0.31
Comm    | 2333.3     | 2357.7     | 2377.7     |  34.9 | 14.97
Output  | 0.17953    | 0.18531    | 0.19547    |   1.3 |  0.00
Modify  | 5282.4     | 6211.7     | 7242.9     | 832.5 | 39.44
Other   |            | 783.9      |            |       |  4.98

Nlocal:        14060.8 ave       14124 max       14023 min
Histogram: 1 2 0 0 0 1 0 0 0 1
Nghost:          18730 ave       18778 max       18692 min
Histogram: 1 0 1 0 1 1 0 0 0 1
Neighs:              0 ave           0 max           0 min
Histogram: 5 0 0 0 0 0 0 0 0 0

Total # of neighbors = 0
Ave neighs/atom = 0
Neighbor list builds = 2026252
Dangerous builds = 0
clear
OMP_NUM_THREADS environment is not set. Defaulting to 1 thread. (src/comm.cpp:98)
  using 1 OpenMP thread(s) per MPI task
package gpu 0
jump dms460.lmp

variable T equal 460
# T = 1000* (temp in LJ unit)
variable f equal 10000
log log.${T}
log log.460
