variable TLJ equal (${T}/1000)
variable TLJ equal (510/1000)
variable NCyle equal 8
variable iStep equal (${f})
variable iStep equal (10000)
variable dumpStep equal (${f}*100)
variable dumpStep equal (10000*100)
variable runStep equal (${f}*100*${NCyle})
variable runStep equal (10000*100*${NCyle})
variable runStep equal (10000*100*8)

units       lj
atom_style  atomic
dimension 3
boundary     p p p
pair_style  lj/cut 2.5
read_data  ../data/T${T}.dat
read_data  ../data/T510.dat
Reading data file ...
  orthogonal box = (0.97250269 0.97250269 0.97250269) to (37.866338 37.866338 37.866338)
  1 by 1 by 5 MPI processor grid
  reading atoms ...
  70304 atoms
  reading velocities ...
  70304 velocities
  read_data CPU = 0.211 seconds
change_box all triclinic
Changing box ...
  triclinic box = (0.97250269 0.97250269 0.97250269) to (37.866338 37.866338 37.866338) with tilt (0 0 0)
mass 1 1
mass 2 1
pair_modify shift yes
pair_coeff  1 1 1 1
pair_coeff  1 2 1.5 0.8
pair_coeff  2 2 0.5 0.88


timestep 0.01
thermo ${iStep}
thermo 10000
reset_timestep 0
thermo_style custom step temp pe etotal press vol lx ly lz
fix             1 all nvt temp ${TLJ}  ${TLJ}  0.1
fix             1 all nvt temp 0.51  ${TLJ}  0.1
fix             1 all nvt temp 0.51  0.51  0.1
thermo_modify flush yes

fix dsf all deform 1 xy  wiggle 0.5  ${f}   units box
fix dsf all deform 1 xy  wiggle 0.5  10000   units box
fix ps1 all ave/time 1 1 ${iStep} c_thermo_press[1] c_thermo_press[2]  c_thermo_press[3] c_thermo_press[4]  c_thermo_press[5] c_thermo_press[6]  file  stress.${T}
fix ps1 all ave/time 1 1 10000 c_thermo_press[1] c_thermo_press[2]  c_thermo_press[3] c_thermo_press[4]  c_thermo_press[5] c_thermo_press[6]  file  stress.${T}
fix ps1 all ave/time 1 1 10000 c_thermo_press[1] c_thermo_press[2]  c_thermo_press[3] c_thermo_press[4]  c_thermo_press[5] c_thermo_press[6]  file  stress.510
dump            1 all custom ${dumpStep} dump.${T} id type x y z
dump            1 all custom 1000000 dump.${T} id type x y z
dump            1 all custom 1000000 dump.510 id type x y z
dump_modify 1 sort id
fix nodrift all momentum 1  linear 1 1 1
fix com_seed all recenter INIT INIT INIT shift all
run ${runStep}
run 8000000
Generated 0 of 1 mixed pair_coeff terms from geometric mixing rule
Per MPI rank memory allocation (min/avg/max) = 8.923 | 8.924 | 8.926 Mbytes
   Step          Temp          PotEng         TotEng         Press          Volume           Lx             Ly             Lz      
         0   0.50928907    -7.8012268     -7.037304       3.7707789      50218.233      36.893836      36.893836      36.893836    
     10000   0.50512216    -7.7989218     -7.0412493      3.7808772      50218.233      36.893836      36.893836      36.893836    
     20000   0.51108492    -7.7930912     -7.0264747      3.83274        50218.233      36.893836      36.893836      36.893836    
     30000   0.50805092    -7.7904451     -7.0283796      3.8438357      50218.233      36.893836      36.893836      36.893836    
     40000   0.51061625    -7.7977398     -7.0318263      3.8010309      50218.233      36.893836      36.893836      36.893836    
     50000   0.51046634    -7.7941461     -7.0284575      3.8274865      50218.233      36.893836      36.893836      36.893836    
     60000   0.50987009    -7.7961258     -7.0313316      3.802729       50218.233      36.893836      36.893836      36.893836    
     70000   0.51188974    -7.7945478     -7.0267241      3.8248411      50218.233      36.893836      36.893836      36.893836    
     80000   0.51195915    -7.795138      -7.0272102      3.8134587      50218.233      36.893836      36.893836      36.893836    
     90000   0.51017911    -7.7971523     -7.0318946      3.8042141      50218.233      36.893836      36.893836      36.893836    
    100000   0.51002084    -7.7947592     -7.0297388      3.8257807      50218.233      36.893836      36.893836      36.893836    
    110000   0.51107111    -7.7978526     -7.0312568      3.7874644      50218.233      36.893836      36.893836      36.893836    
    120000   0.5089896     -7.7929228     -7.0294493      3.8222273      50218.233      36.893836      36.893836      36.893836    
    130000   0.51112542    -7.800851      -7.0341738      3.7709138      50218.233      36.893836      36.893836      36.893836    
    140000   0.50991734    -7.7952921     -7.030427       3.8050731      50218.233      36.893836      36.893836      36.893836    
    150000   0.5108249     -7.796026      -7.0297996      3.8143011      50218.233      36.893836      36.893836      36.893836    
    160000   0.50934348    -7.7921814     -7.028177       3.8339418      50218.233      36.893836      36.893836      36.893836    
    170000   0.50860575    -7.7942965     -7.0313988      3.8117271      50218.233      36.893836      36.893836      36.893836    
    180000   0.51004504    -7.7916257     -7.0265691      3.846878       50218.233      36.893836      36.893836      36.893836    
    190000   0.50975018    -7.800243      -7.0356286      3.7829193      50218.233      36.893836      36.893836      36.893836    
    200000   0.50762164    -7.795257      -7.0338353      3.8034753      50218.233      36.893836      36.893836      36.893836    
    210000   0.51107473    -7.7986753     -7.0320741      3.7802683      50218.233      36.893836      36.893836      36.893836    
    220000   0.51146234    -7.79255       -7.0253674      3.8180237      50218.233      36.893836      36.893836      36.893836    
    230000   0.51085773    -7.793723      -7.0274473      3.8304128      50218.233      36.893836      36.893836      36.893836    
    240000   0.51135467    -7.7908982     -7.0238771      3.8507749      50218.233      36.893836      36.893836      36.893836    
    250000   0.51253373    -7.793896      -7.0251063      3.8223553      50218.233      36.893836      36.893836      36.893836    
    260000   0.51093873    -7.795033      -7.0286359      3.8188137      50218.233      36.893836      36.893836      36.893836    
    270000   0.50782757    -7.7906168     -7.0288863      3.8466927      50218.233      36.893836      36.893836      36.893836    
    280000   0.51111919    -7.792898      -7.0262301      3.8344369      50218.233      36.893836      36.893836      36.893836    
    290000   0.5109833     -7.7986302     -7.0321662      3.7932802      50218.233      36.893836      36.893836      36.893836    
    300000   0.50864582    -7.788249      -7.0252911      3.8544746      50218.233      36.893836      36.893836      36.893836    
    310000   0.50934833    -7.7918177     -7.0278061      3.8280096      50218.233      36.893836      36.893836      36.893836    
    320000   0.50967756    -7.795677      -7.0311715      3.8133971      50218.233      36.893836      36.893836      36.893836    
    330000   0.51110289    -7.7900727     -7.0234292      3.857696       50218.233      36.893836      36.893836      36.893836    
    340000   0.5096822     -7.7924703     -7.0279578      3.8376784      50218.233      36.893836      36.893836      36.893836    
    350000   0.50861588    -7.7997987     -7.0368857      3.7735542      50218.233      36.893836      36.893836      36.893836    
    360000   0.50936183    -7.7931856     -7.0291538      3.8364478      50218.233      36.893836      36.893836      36.893836    
    370000   0.51046803    -7.7922765     -7.0265853      3.8366656      50218.233      36.893836      36.893836      36.893836    
    380000   0.51292285    -7.7944455     -7.0250721      3.8270599      50218.233      36.893836      36.893836      36.893836    
    390000   0.51067487    -7.7980273     -7.0320259      3.7964463      50218.233      36.893836      36.893836      36.893836    
    400000   0.50926965    -7.7943401     -7.0304465      3.8165481      50218.233      36.893836      36.893836      36.893836    
    410000   0.51127355    -7.7984079     -7.0315085      3.7976596      50218.233      36.893836      36.893836      36.893836    
    420000   0.51097184    -7.7934177     -7.0269709      3.8338535      50218.233      36.893836      36.893836      36.893836    
    430000   0.50766168    -7.7925118     -7.0310301      3.8297526      50218.233      36.893836      36.893836      36.893836    
    440000   0.50781327    -7.7959827     -7.0342736      3.7961568      50218.233      36.893836      36.893836      36.893836    
    450000   0.50788322    -7.7910501     -7.0292362      3.8447778      50218.233      36.893836      36.893836      36.893836    
    460000   0.50997924    -7.791666      -7.026708       3.8249759      50218.233      36.893836      36.893836      36.893836    
    470000   0.50733284    -7.7917766     -7.0307882      3.8416882      50218.233      36.893836      36.893836      36.893836    
    480000   0.50907864    -7.7930235     -7.0294164      3.8273473      50218.233      36.893836      36.893836      36.893836    
    490000   0.5101397     -7.7914467     -7.026248       3.8399443      50218.233      36.893836      36.893836      36.893836    
    500000   0.51266465    -7.7950751     -7.026089       3.8215973      50218.233      36.893836      36.893836      36.893836    
    510000   0.50950109    -7.7884073     -7.0241665      3.8613425      50218.233      36.893836      36.893836      36.893836    
    520000   0.50687204    -7.7905424     -7.0302451      3.8461641      50218.233      36.893836      36.893836      36.893836    
    530000   0.51159548    -7.792468      -7.0250857      3.8453023      50218.233      36.893836      36.893836      36.893836    
    540000   0.51150795    -7.7899271     -7.0226761      3.8618424      50218.233      36.893836      36.893836      36.893836    
    550000   0.50773887    -7.7914929     -7.0298954      3.8347456      50218.233      36.893836      36.893836      36.893836    
    560000   0.51069554    -7.7914635     -7.0254311      3.8447009      50218.233      36.893836      36.893836      36.893836    
    570000   0.51154841    -7.7908831     -7.0235714      3.8508172      50218.233      36.893836      36.893836      36.893836    
    580000   0.50955713    -7.7893511     -7.0250262      3.8581581      50218.233      36.893836      36.893836      36.893836    
    590000   0.5069732     -7.7887564     -7.0283074      3.8569536      50218.233      36.893836      36.893836      36.893836    
    600000   0.51257092    -7.7911993     -7.0223538      3.8451111      50218.233      36.893836      36.893836      36.893836    
    610000   0.50799601    -7.7947553     -7.0327721      3.8252332      50218.233      36.893836      36.893836      36.893836    
    620000   0.50930337    -7.7927204     -7.0287762      3.8406808      50218.233      36.893836      36.893836      36.893836    
    630000   0.51014389    -7.790245      -7.02504        3.8538173      50218.233      36.893836      36.893836      36.893836    
    640000   0.51029274    -7.7935866     -7.0281584      3.834248       50218.233      36.893836      36.893836      36.893836    
    650000   0.51074155    -7.7958887     -7.0297873      3.809157       50218.233      36.893836      36.893836      36.893836    
    660000   0.51043953    -7.7921731     -7.0265247      3.8310645      50218.233      36.893836      36.893836      36.893836    
    670000   0.51233637    -7.7923918     -7.0238982      3.8373976      50218.233      36.893836      36.893836      36.893836    
    680000   0.51019475    -7.7889226     -7.0236414      3.8609676      50218.233      36.893836      36.893836      36.893836    
    690000   0.50798792    -7.7924734     -7.0305024      3.8227722      50218.233      36.893836      36.893836      36.893836    
    700000   0.51043449    -7.7891555     -7.0235147      3.8638582      50218.233      36.893836      36.893836      36.893836    
    710000   0.508229      -7.7936874     -7.0313547      3.8265388      50218.233      36.893836      36.893836      36.893836    
    720000   0.51063556    -7.7874355     -7.0214931      3.8744404      50218.233      36.893836      36.893836      36.893836    
    730000   0.51000482    -7.7894332     -7.0244369      3.8508474      50218.233      36.893836      36.893836      36.893836    
    740000   0.51147593    -7.7920261     -7.0248231      3.8428984      50218.233      36.893836      36.893836      36.893836    
    750000   0.50731455    -7.7909092     -7.0299481      3.8557452      50218.233      36.893836      36.893836      36.893836    
    760000   0.51001367    -7.7882223     -7.0232127      3.8675933      50218.233      36.893836      36.893836      36.893836    
    770000   0.50992553    -7.7897412     -7.0248638      3.8457089      50218.233      36.893836      36.893836      36.893836    
    780000   0.50974543    -7.7888132     -7.0242059      3.8569404      50218.233      36.893836      36.893836      36.893836    
    790000   0.51053932    -7.7906524     -7.0248543      3.8547777      50218.233      36.893836      36.893836      36.893836    
    800000   0.51133865    -7.7914527     -7.0244556      3.834873       50218.233      36.893836      36.893836      36.893836    
    810000   0.51003694    -7.7866466     -7.021602       3.8826888      50218.233      36.893836      36.893836      36.893836    
    820000   0.50888709    -7.7930516     -7.0297318      3.823009       50218.233      36.893836      36.893836      36.893836    
    830000   0.51104208    -7.7922794     -7.0257271      3.8341696      50218.233      36.893836      36.893836      36.893836    
    840000   0.50834359    -7.788474      -7.0259694      3.8694961      50218.233      36.893836      36.893836      36.893836    
    850000   0.50990609    -7.7905435     -7.0256953      3.8500392      50218.233      36.893836      36.893836      36.893836    
    860000   0.51111782    -7.7902647     -7.0235989      3.8519499      50218.233      36.893836      36.893836      36.893836    
    870000   0.51248663    -7.7910284     -7.0223094      3.8501782      50218.233      36.893836      36.893836      36.893836    
    880000   0.50884614    -7.7912714     -7.028013       3.84445        50218.233      36.893836      36.893836      36.893836    
    890000   0.50948816    -7.7923378     -7.0281164      3.8305829      50218.233      36.893836      36.893836      36.893836    
    900000   0.510081      -7.790511      -7.0254004      3.8567324      50218.233      36.893836      36.893836      36.893836    
    910000   0.51332475    -7.788645      -7.0186688      3.8699396      50218.233      36.893836      36.893836      36.893836    
    920000   0.51347081    -7.7851684     -7.0149732      3.8880246      50218.233      36.893836      36.893836      36.893836    
    930000   0.50994294    -7.7877318     -7.0228283      3.8729465      50218.233      36.893836      36.893836      36.893836    
    940000   0.51287222    -7.7889317     -7.0196344      3.8629127      50218.233      36.893836      36.893836      36.893836    
    950000   0.51125796    -7.7921248     -7.0252488      3.8317762      50218.233      36.893836      36.893836      36.893836    
    960000   0.50879207    -7.7922048     -7.0290276      3.8298531      50218.233      36.893836      36.893836      36.893836    
    970000   0.5093947     -7.7905529     -7.0264717      3.8485759      50218.233      36.893836      36.893836      36.893836    
    980000   0.51197935    -7.7847596     -7.0168015      3.8942576      50218.233      36.893836      36.893836      36.893836    
    990000   0.51066549    -7.7875198     -7.0215325      3.8814429      50218.233      36.893836      36.893836      36.893836    
   1000000   0.50847883    -7.7899874     -7.02728        3.86126        50218.233      36.893836      36.893836      36.893836    
   1010000   0.509203      -7.7875613     -7.0237676      3.8674739      50218.233      36.893836      36.893836      36.893836    
   1020000   0.51363489    -7.7894823     -7.0190409      3.8690132      50218.233      36.893836      36.893836      36.893836    
   1030000   0.51208274    -7.7904076     -7.0222944      3.8503732      50218.233      36.893836      36.893836      36.893836    
   1040000   0.50828148    -7.7867005     -7.0242891      3.870939       50218.233      36.893836      36.893836      36.893836    
   1050000   0.51259613    -7.7906173     -7.021734       3.8532277      50218.233      36.893836      36.893836      36.893836    
   1060000   0.51132345    -7.7918701     -7.0248958      3.8445178      50218.233      36.893836      36.893836      36.893836    
   1070000   0.50915464    -7.7876197     -7.0238986      3.8708911      50218.233      36.893836      36.893836      36.893836    
   1080000   0.5106944     -7.7870476     -7.0210169      3.8721044      50218.233      36.893836      36.893836      36.893836    
   1090000   0.51125354    -7.7904151     -7.0235457      3.8560469      50218.233      36.893836      36.893836      36.893836    
   1100000   0.5102324     -7.7923449     -7.0270072      3.829857       50218.233      36.893836      36.893836      36.893836    
   1110000   0.51028822    -7.789006      -7.0235846      3.8590918      50218.233      36.893836      36.893836      36.893836    
   1120000   0.51077787    -7.7869238     -7.0207679      3.8828371      50218.233      36.893836      36.893836      36.893836    
   1130000   0.51002212    -7.7896341     -7.0246118      3.8573951      50218.233      36.893836      36.893836      36.893836    
   1140000   0.51033918    -7.7866368     -7.0211389      3.8960878      50218.233      36.893836      36.893836      36.893836    
   1150000   0.50792833    -7.7877432     -7.0258615      3.8610644      50218.233      36.893836      36.893836      36.893836    
   1160000   0.50817484    -7.788306      -7.0260545      3.8654654      50218.233      36.893836      36.893836      36.893836    
   1170000   0.50871785    -7.792012      -7.0289461      3.847049       50218.233      36.893836      36.893836      36.893836    
   1180000   0.5122063     -7.7881272     -7.0198287      3.8676999      50218.233      36.893836      36.893836      36.893836    
   1190000   0.50839667    -7.78941       -7.0268258      3.8558502      50218.233      36.893836      36.893836      36.893836    
   1200000   0.51057102    -7.7882155     -7.0223699      3.8708486      50218.233      36.893836      36.893836      36.893836    
   1210000   0.51068856    -7.7838714     -7.0178495      3.8914518      50218.233      36.893836      36.893836      36.893836    
   1220000   0.51053294    -7.7888927     -7.0231042      3.8637988      50218.233      36.893836      36.893836      36.893836    
   1230000   0.51094827    -7.7868461     -7.0204346      3.8895133      50218.233      36.893836      36.893836      36.893836    
   1240000   0.51035095    -7.7919419     -7.0264264      3.8431365      50218.233      36.893836      36.893836      36.893836    
   1250000   0.51285989    -7.7884926     -7.0192137      3.8628142      50218.233      36.893836      36.893836      36.893836    
   1260000   0.50801133    -7.7853545     -7.0233484      3.8871149      50218.233      36.893836      36.893836      36.893836    
   1270000   0.50870575    -7.7900246     -7.0269769      3.8470607      50218.233      36.893836      36.893836      36.893836    
   1280000   0.50983132    -7.7900205     -7.0252844      3.8586518      50218.233      36.893836      36.893836      36.893836    
   1290000   0.50983767    -7.7867566     -7.022011       3.8695627      50218.233      36.893836      36.893836      36.893836    
   1300000   0.50896298    -7.7893442     -7.0259106      3.8583128      50218.233      36.893836      36.893836      36.893836    
   1310000   0.50763714    -7.7892472     -7.0278023      3.8542905      50218.233      36.893836      36.893836      36.893836    
   1320000   0.50785593    -7.7885656     -7.0267925      3.8567187      50218.233      36.893836      36.893836      36.893836    
   1330000   0.51097942    -7.7840193     -7.0175611      3.8847544      50218.233      36.893836      36.893836      36.893836    
   1340000   0.50846368    -7.7876398     -7.0249551      3.8727755      50218.233      36.893836      36.893836      36.893836    
   1350000   0.51202235    -7.7860914     -7.0180688      3.8891061      50218.233      36.893836      36.893836      36.893836    
   1360000   0.51214873    -7.7885567     -7.0203445      3.8608766      50218.233      36.893836      36.893836      36.893836    
   1370000   0.50716269    -7.7935092     -7.032776       3.833425       50218.233      36.893836      36.893836      36.893836    
   1380000   0.5111919     -7.7891751     -7.0223982      3.8621393      50218.233      36.893836      36.893836      36.893836    
   1390000   0.51168669    -7.7854384     -7.0179193      3.902129       50218.233      36.893836      36.893836      36.893836    
   1400000   0.50838744    -7.7882422     -7.0256719      3.8688929      50218.233      36.893836      36.893836      36.893836    
   1410000   0.5101093     -7.7941489     -7.0289959      3.8228672      50218.233      36.893836      36.893836      36.893836    
   1420000   0.51018276    -7.7855333     -7.02027        3.8913996      50218.233      36.893836      36.893836      36.893836    
   1430000   0.51065921    -7.7889544     -7.0229765      3.859202       50218.233      36.893836      36.893836      36.893836    
   1440000   0.51047048    -7.7898814     -7.0241865      3.8514625      50218.233      36.893836      36.893836      36.893836    
   1450000   0.5106119     -7.7844599     -7.0185529      3.8997269      50218.233      36.893836      36.893836      36.893836    
   1460000   0.51032098    -7.7909685     -7.025498       3.8430964      50218.233      36.893836      36.893836      36.893836    
   1470000   0.50944584    -7.7896305     -7.0254726      3.8567142      50218.233      36.893836      36.893836      36.893836    
   1480000   0.51495905    -7.7941387     -7.0217112      3.8317361      50218.233      36.893836      36.893836      36.893836    
   1490000   0.51056368    -7.7917101     -7.0258755      3.8332559      50218.233      36.893836      36.893836      36.893836    
   1500000   0.51152348    -7.7901501     -7.0228758      3.8542427      50218.233      36.893836      36.893836      36.893836    
   1510000   0.50856248    -7.7864334     -7.0236006      3.8783359      50218.233      36.893836      36.893836      36.893836    
   1520000   0.50773238    -7.7860377     -7.02445        3.874611       50218.233      36.893836      36.893836      36.893836    
   1530000   0.51195769    -7.7908932     -7.0229676      3.8535628      50218.233      36.893836      36.893836      36.893836    
   1540000   0.51099637    -7.7910778     -7.0245941      3.8575532      50218.233      36.893836      36.893836      36.893836    
   1550000   0.50939904    -7.7910389     -7.0269512      3.8493805      50218.233      36.893836      36.893836      36.893836    
   1560000   0.51111156    -7.7953674     -7.028711       3.8182906      50218.233      36.893836      36.893836      36.893836    
   1570000   0.50815462    -7.7920201     -7.029799       3.8388155      50218.233      36.893836      36.893836      36.893836    
   1580000   0.50909828    -7.78735       -7.0237135      3.8758866      50218.233      36.893836      36.893836      36.893836    
   1590000   0.51129594    -7.7939545     -7.0270215      3.82773        50218.233      36.893836      36.893836      36.893836    
   1600000   0.51078826    -7.7919534     -7.0257819      3.843139       50218.233      36.893836      36.893836      36.893836    
   1610000   0.51169354    -7.7893767     -7.0218473      3.8682449      50218.233      36.893836      36.893836      36.893836    
   1620000   0.51139473    -7.7917176     -7.0246364      3.8424732      50218.233      36.893836      36.893836      36.893836    
   1630000   0.51079243    -7.7888955     -7.0227177      3.8607126      50218.233      36.893836      36.893836      36.893836    
   1640000   0.50963466    -7.789444      -7.0250028      3.8527635      50218.233      36.893836      36.893836      36.893836    
   1650000   0.51147256    -7.7954558     -7.0282579      3.808928       50218.233      36.893836      36.893836      36.893836    
   1660000   0.50975408    -7.7894939     -7.0248737      3.8457097      50218.233      36.893836      36.893836      36.893836    
   1670000   0.50828456    -7.7934028     -7.0309868      3.810106       50218.233      36.893836      36.893836      36.893836    
   1680000   0.51005175    -7.7906899     -7.0256231      3.8481515      50218.233      36.893836      36.893836      36.893836    
   1690000   0.50889938    -7.7902788     -7.0269406      3.8453378      50218.233      36.893836      36.893836      36.893836    
   1700000   0.5104136     -7.7904514     -7.0248419      3.8445019      50218.233      36.893836      36.893836      36.893836    
   1710000   0.51231429    -7.7880997     -7.0196392      3.8558562      50218.233      36.893836      36.893836      36.893836    
   1720000   0.50779384    -7.7882238     -7.0265439      3.858171       50218.233      36.893836      36.893836      36.893836    
   1730000   0.50963488    -7.7920605     -7.0276191      3.8480655      50218.233      36.893836      36.893836      36.893836    
   1740000   0.50827511    -7.7927319     -7.03033        3.826097       50218.233      36.893836      36.893836      36.893836    
   1750000   0.51101343    -7.7888428     -7.0223336      3.8637971      50218.233      36.893836      36.893836      36.893836    
   1760000   0.51220553    -7.7915581     -7.0232607      3.8420106      50218.233      36.893836      36.893836      36.893836    
   1770000   0.50959943    -7.7893772     -7.0249889      3.8580637      50218.233      36.893836      36.893836      36.893836    
   1780000   0.5105081     -7.7914766     -7.0257253      3.8436599      50218.233      36.893836      36.893836      36.893836    
   1790000   0.5107862     -7.7931424     -7.026974       3.8301986      50218.233      36.893836      36.893836      36.893836    
   1800000   0.51192814    -7.7916688     -7.0237875      3.8516446      50218.233      36.893836      36.893836      36.893836    
   1810000   0.50968041    -7.7908601     -7.0263503      3.8374485      50218.233      36.893836      36.893836      36.893836    
   1820000   0.51085658    -7.7863391     -7.0200651      3.8790488      50218.233      36.893836      36.893836      36.893836    
   1830000   0.51044689    -7.7889639     -7.0233045      3.8638553      50218.233      36.893836      36.893836      36.893836    
   1840000   0.51040428    -7.7905649     -7.0249694      3.8352825      50218.233      36.893836      36.893836      36.893836    
   1850000   0.50967102    -7.7935128     -7.0290172      3.8246904      50218.233      36.893836      36.893836      36.893836    
   1860000   0.51150881    -7.7903177     -7.0230654      3.8522763      50218.233      36.893836      36.893836      36.893836    
   1870000   0.50810374    -7.7904614     -7.0283166      3.8388377      50218.233      36.893836      36.893836      36.893836    
   1880000   0.51121022    -7.7884849     -7.0216805      3.8572341      50218.233      36.893836      36.893836      36.893836    
   1890000   0.51025521    -7.7893409     -7.023969       3.8595541      50218.233      36.893836      36.893836      36.893836    
   1900000   0.5115182     -7.7917699     -7.0245035      3.8572636      50218.233      36.893836      36.893836      36.893836    
   1910000   0.50620579    -7.7913141     -7.0320163      3.8481898      50218.233      36.893836      36.893836      36.893836    
   1920000   0.50754553    -7.7932683     -7.0319609      3.8332721      50218.233      36.893836      36.893836      36.893836    
   1930000   0.50778018    -7.7907308     -7.0290713      3.8505478      50218.233      36.893836      36.893836      36.893836    
   1940000   0.50894788    -7.7900419     -7.0266309      3.8552154      50218.233      36.893836      36.893836      36.893836    
   1950000   0.50844103    -7.7917658     -7.0291151      3.836657       50218.233      36.893836      36.893836      36.893836    
   1960000   0.50961727    -7.7927331     -7.028318       3.8467931      50218.233      36.893836      36.893836      36.893836    
   1970000   0.51114521    -7.7896444     -7.0229375      3.8669882      50218.233      36.893836      36.893836      36.893836    
   1980000   0.5109784     -7.7878198     -7.0213631      3.8619586      50218.233      36.893836      36.893836      36.893836    
   1990000   0.51032819    -7.7919623     -7.0264809      3.839889       50218.233      36.893836      36.893836      36.893836    
   2000000   0.5098061     -7.7909637     -7.0262654      3.844915       50218.233      36.893836      36.893836      36.893836    
   2010000   0.50933571    -7.7909155     -7.0269228      3.8380905      50218.233      36.893836      36.893836      36.893836    
   2020000   0.51015942    -7.7901378     -7.0249096      3.854198       50218.233      36.893836      36.893836      36.893836    
   2030000   0.50846717    -7.7882636     -7.0255737      3.8647632      50218.233      36.893836      36.893836      36.893836    
   2040000   0.50908052    -7.7899792     -7.0263693      3.8496593      50218.233      36.893836      36.893836      36.893836    
   2050000   0.51366386    -7.7901008     -7.019616       3.851743       50218.233      36.893836      36.893836      36.893836    
   2060000   0.51005385    -7.7863107     -7.0212409      3.878513       50218.233      36.893836      36.893836      36.893836    
   2070000   0.51174104    -7.789191      -7.0215904      3.8678185      50218.233      36.893836      36.893836      36.893836    
   2080000   0.51053839    -7.789981      -7.0241843      3.8632835      50218.233      36.893836      36.893836      36.893836    
   2090000   0.50788974    -7.7871677     -7.0253439      3.8733375      50218.233      36.893836      36.893836      36.893836    
   2100000   0.51110267    -7.7865947     -7.0199516      3.8762034      50218.233      36.893836      36.893836      36.893836    
   2110000   0.51049199    -7.7897485     -7.0240214      3.8590947      50218.233      36.893836      36.893836      36.893836    
   2120000   0.51215846    -7.7886978     -7.020471       3.8717275      50218.233      36.893836      36.893836      36.893836    
   2130000   0.51095794    -7.7900651     -7.0236391      3.8572847      50218.233      36.893836      36.893836      36.893836    
   2140000   0.51247868    -7.7832544     -7.0145473      3.9092771      50218.233      36.893836      36.893836      36.893836    
   2150000   0.50807032    -7.7878544     -7.0257598      3.8655574      50218.233      36.893836      36.893836      36.893836    
   2160000   0.50872245    -7.7867702     -7.0236974      3.8820195      50218.233      36.893836      36.893836      36.893836    
   2170000   0.50932762    -7.7853396     -7.021359       3.8953827      50218.233      36.893836      36.893836      36.893836    
   2180000   0.51119285    -7.7949781     -7.0281997      3.8239259      50218.233      36.893836      36.893836      36.893836    
   2190000   0.5081278     -7.7950444     -7.0328635      3.8156035      50218.233      36.893836      36.893836      36.893836    
   2200000   0.50960568    -7.7902542     -7.0258566      3.8533659      50218.233      36.893836      36.893836      36.893836    
   2210000   0.50708525    -7.792598      -7.0319809      3.8333264      50218.233      36.893836      36.893836      36.893836    
   2220000   0.50913051    -7.7935202     -7.0298353      3.8248718      50218.233      36.893836      36.893836      36.893836    
   2230000   0.51231003    -7.7938588     -7.0254047      3.8297632      50218.233      36.893836      36.893836      36.893836    
   2240000   0.50825059    -7.7903008     -7.0279358      3.8435265      50218.233      36.893836      36.893836      36.893836    
   2250000   0.51213385    -7.7899782     -7.0217883      3.8572164      50218.233      36.893836      36.893836      36.893836    
   2260000   0.50875288    -7.7875867     -7.0244682      3.8748084      50218.233      36.893836      36.893836      36.893836    
   2270000   0.51075371    -7.7911408     -7.0250211      3.8503221      50218.233      36.893836      36.893836      36.893836    
   2280000   0.50871734    -7.7896815     -7.0266164      3.8527883      50218.233      36.893836      36.893836      36.893836    
   2290000   0.5061148     -7.7907208     -7.0315594      3.8502652      50218.233      36.893836      36.893836      36.893836    
   2300000   0.50653324    -7.7889974     -7.0292084      3.8598515      50218.233      36.893836      36.893836      36.893836    
   2310000   0.50825105    -7.7931789     -7.0308131      3.8274307      50218.233      36.893836      36.893836      36.893836    
   2320000   0.51124852    -7.7926127     -7.0257508      3.8287734      50218.233      36.893836      36.893836      36.893836    
   2330000   0.50727351    -7.7912469     -7.0303474      3.8348982      50218.233      36.893836      36.893836      36.893836    
   2340000   0.51021925    -7.7914526     -7.0261346      3.8463605      50218.233      36.893836      36.893836      36.893836    
   2350000   0.51007296    -7.7884871     -7.0233885      3.8627584      50218.233      36.893836      36.893836      36.893836    
   2360000   0.51210247    -7.7864695     -7.0183267      3.8896859      50218.233      36.893836      36.893836      36.893836    
   2370000   0.50999555    -7.7912106     -7.0262282      3.8569312      50218.233      36.893836      36.893836      36.893836    
   2380000   0.50922261    -7.7890748     -7.0252518      3.858733       50218.233      36.893836      36.893836      36.893836    
   2390000   0.50952664    -7.7903354     -7.0260563      3.8511864      50218.233      36.893836      36.893836      36.893836    
   2400000   0.50709634    -7.7916414     -7.0310077      3.830266       50218.233      36.893836      36.893836      36.893836    
   2410000   0.50901922    -7.7885606     -7.0250426      3.8673108      50218.233      36.893836      36.893836      36.893836    
   2420000   0.50705466    -7.7875616     -7.0269904      3.8794885      50218.233      36.893836      36.893836      36.893836    
   2430000   0.50826374    -7.7881323     -7.0257475      3.856738       50218.233      36.893836      36.893836      36.893836    
   2440000   0.51000046    -7.7874876     -7.0224978      3.8742551      50218.233      36.893836      36.893836      36.893836    
   2450000   0.51017875    -7.7865771     -7.0213199      3.88266        50218.233      36.893836      36.893836      36.893836    
   2460000   0.5121602     -7.7872415     -7.0190121      3.8814128      50218.233      36.893836      36.893836      36.893836    
   2470000   0.50983242    -7.7870381     -7.0223004      3.8748512      50218.233      36.893836      36.893836      36.893836    
   2480000   0.51048184    -7.7861953     -7.0204835      3.899072       50218.233      36.893836      36.893836      36.893836    
   2490000   0.50814717    -7.7876314     -7.0254215      3.8661985      50218.233      36.893836      36.893836      36.893836    
   2500000   0.50742308    -7.7872963     -7.0261725      3.8843769      50218.233      36.893836      36.893836      36.893836    
   2510000   0.51087008    -7.787486      -7.0211918      3.8679817      50218.233      36.893836      36.893836      36.893836    
   2520000   0.51055019    -7.7909867     -7.0251723      3.8410013      50218.233      36.893836      36.893836      36.893836    
   2530000   0.5107132     -7.7888081     -7.0227492      3.8690972      50218.233      36.893836      36.893836      36.893836    
   2540000   0.50916985    -7.7921753     -7.0284314      3.8379245      50218.233      36.893836      36.893836      36.893836    
   2550000   0.50919471    -7.7901225     -7.0263413      3.8620101      50218.233      36.893836      36.893836      36.893836    
   2560000   0.50612062    -7.7906559     -7.0314858      3.8407803      50218.233      36.893836      36.893836      36.893836    
   2570000   0.51030303    -7.7904166     -7.0249729      3.8593157      50218.233      36.893836      36.893836      36.893836    
   2580000   0.51117926    -7.793369      -7.026611       3.8318219      50218.233      36.893836      36.893836      36.893836    
   2590000   0.51156395    -7.7885446     -7.0212096      3.8740215      50218.233      36.893836      36.893836      36.893836    
   2600000   0.51222535    -7.7909638     -7.0226367      3.8611887      50218.233      36.893836      36.893836      36.893836    
   2610000   0.50817616    -7.7884226     -7.0261692      3.8596163      50218.233      36.893836      36.893836      36.893836    
   2620000   0.50909691    -7.7915349     -7.0279004      3.8495195      50218.233      36.893836      36.893836      36.893836    
   2630000   0.50647113    -7.7905599     -7.030864       3.8455338      50218.233      36.893836      36.893836      36.893836    
   2640000   0.50972111    -7.7879379     -7.0233671      3.8646848      50218.233      36.893836      36.893836      36.893836    
   2650000   0.50925025    -7.7903264     -7.0264619      3.8572757      50218.233      36.893836      36.893836      36.893836    
   2660000   0.50963772    -7.7905093     -7.0260635      3.8621801      50218.233      36.893836      36.893836      36.893836    
   2670000   0.51186325    -7.7873493     -7.0195654      3.8850217      50218.233      36.893836      36.893836      36.893836    
   2680000   0.51044042    -7.7927679     -7.0271181      3.8338604      50218.233      36.893836      36.893836      36.893836    
   2690000   0.50664983    -7.7902162     -7.0302523      3.8522231      50218.233      36.893836      36.893836      36.893836    
   2700000   0.50949299    -7.7938846     -7.029656       3.8233243      50218.233      36.893836      36.893836      36.893836    
   2710000   0.50945131    -7.7877277     -7.0235616      3.8798054      50218.233      36.893836      36.893836      36.893836    
   2720000   0.50839073    -7.7874603     -7.024885       3.8703334      50218.233      36.893836      36.893836      36.893836    
   2730000   0.51040939    -7.7894929     -7.0238897      3.8616173      50218.233      36.893836      36.893836      36.893836    
   2740000   0.51116036    -7.7879354     -7.0212057      3.8794267      50218.233      36.893836      36.893836      36.893836    
   2750000   0.5091395     -7.790585      -7.0268866      3.850406       50218.233      36.893836      36.893836      36.893836    
   2760000   0.51125516    -7.7852849     -7.018413       3.9013706      50218.233      36.893836      36.893836      36.893836    
   2770000   0.5081071     -7.7904119     -7.0282621      3.8550572      50218.233      36.893836      36.893836      36.893836    
   2780000   0.50885872    -7.7888865     -7.0256093      3.8668948      50218.233      36.893836      36.893836      36.893836    
   2790000   0.51024948    -7.7875706     -7.0222073      3.8746717      50218.233      36.893836      36.893836      36.893836    
   2800000   0.50837326    -7.7912082     -7.0286592      3.850375       50218.233      36.893836      36.893836      36.893836    
   2810000   0.51086204    -7.7887362     -7.022454       3.8644649      50218.233      36.893836      36.893836      36.893836    
   2820000   0.51029406    -7.7881406     -7.0227104      3.8732992      50218.233      36.893836      36.893836      36.893836    
   2830000   0.51336308    -7.7912999     -7.0212662      3.8627171      50218.233      36.893836      36.893836      36.893836    
   2840000   0.50883604    -7.7882367     -7.0249935      3.8780857      50218.233      36.893836      36.893836      36.893836    
   2850000   0.50739609    -7.7872122     -7.0261289      3.8772409      50218.233      36.893836      36.893836      36.893836    
   2860000   0.50934105    -7.7904499     -7.0264492      3.8518607      50218.233      36.893836      36.893836      36.893836    
   2870000   0.5140534     -7.7878919     -7.0168227      3.874259       50218.233      36.893836      36.893836      36.893836    
   2880000   0.51110572    -7.7898426     -7.023195       3.8666897      50218.233      36.893836      36.893836      36.893836    
   2890000   0.5097841     -7.7891011     -7.0244358      3.8758052      50218.233      36.893836      36.893836      36.893836    
   2900000   0.50680595    -7.7893582     -7.02916        3.8607687      50218.233      36.893836      36.893836      36.893836    
   2910000   0.50876575    -7.7892491     -7.0261113      3.865646       50218.233      36.893836      36.893836      36.893836    
   2920000   0.51184543    -7.7893508     -7.0215935      3.8819789      50218.233      36.893836      36.893836      36.893836    
   2930000   0.51044957    -7.7922262     -7.0265628      3.8360196      50218.233      36.893836      36.893836      36.893836    
   2940000   0.50924894    -7.793536      -7.0296735      3.8257055      50218.233      36.893836      36.893836      36.893836    
   2950000   0.50907266    -7.7884831     -7.0248849      3.8651074      50218.233      36.893836      36.893836      36.893836    
   2960000   0.50948269    -7.7889531     -7.0247399      3.873558       50218.233      36.893836      36.893836      36.893836    
   2970000   0.50777329    -7.7918879     -7.0302388      3.8359317      50218.233      36.893836      36.893836      36.893836    
   2980000   0.50883042    -7.7943242     -7.0310894      3.8240725      50218.233      36.893836      36.893836      36.893836    
   2990000   0.50973069    -7.7923463     -7.0277612      3.8418341      50218.233      36.893836      36.893836      36.893836    
   3000000   0.50984569    -7.790092      -7.0253343      3.8557421      50218.233      36.893836      36.893836      36.893836    
   3010000   0.51313584    -7.791796      -7.0221032      3.8451113      50218.233      36.893836      36.893836      36.893836    
   3020000   0.50948414    -7.7899131     -7.0256978      3.8534656      50218.233      36.893836      36.893836      36.893836    
   3030000   0.51154767    -7.7908635     -7.0235529      3.8614478      50218.233      36.893836      36.893836      36.893836    
   3040000   0.50857522    -7.7911434     -7.0282915      3.8581014      50218.233      36.893836      36.893836      36.893836    
   3050000   0.50933281    -7.7928244     -7.0288361      3.8285795      50218.233      36.893836      36.893836      36.893836    
   3060000   0.51276916    -7.7894134     -7.0202706      3.8679421      50218.233      36.893836      36.893836      36.893836    
   3070000   0.5148903     -7.7956471     -7.0233226      3.8294618      50218.233      36.893836      36.893836      36.893836    
   3080000   0.51134553    -7.787544      -7.0205366      3.8740762      50218.233      36.893836      36.893836      36.893836    
   3090000   0.51090051    -7.7893857     -7.0230459      3.8569126      50218.233      36.893836      36.893836      36.893836    
   3100000   0.5113468     -7.7900274     -7.0230181      3.8527222      50218.233      36.893836      36.893836      36.893836    
   3110000   0.51102689    -7.7906827     -7.0241533      3.8535394      50218.233      36.893836      36.893836      36.893836    
   3120000   0.51208612    -7.7870107     -7.0188924      3.8854072      50218.233      36.893836      36.893836      36.893836    
   3130000   0.51036926    -7.7882651     -7.0227221      3.8698108      50218.233      36.893836      36.893836      36.893836    
   3140000   0.51035269    -7.7833558     -7.0178377      3.9086189      50218.233      36.893836      36.893836      36.893836    
   3150000   0.5101861     -7.7906637     -7.0253954      3.8640677      50218.233      36.893836      36.893836      36.893836    
   3160000   0.511495      -7.7922852     -7.0250536      3.8387703      50218.233      36.893836      36.893836      36.893836    
   3170000   0.51118076    -7.7903336     -7.0235733      3.8526207      50218.233      36.893836      36.893836      36.893836    
   3180000   0.51084295    -7.789238      -7.0229845      3.8572392      50218.233      36.893836      36.893836      36.893836    
   3190000   0.50966653    -7.7920699     -7.027581       3.8495392      50218.233      36.893836      36.893836      36.893836    
   3200000   0.50878482    -7.7894066     -7.0262402      3.8542925      50218.233      36.893836      36.893836      36.893836    
   3210000   0.50700857    -7.7936175     -7.0331155      3.8311718      50218.233      36.893836      36.893836      36.893836    
   3220000   0.51145937    -7.7907375     -7.0235593      3.8452984      50218.233      36.893836      36.893836      36.893836    
   3230000   0.50817871    -7.7934242     -7.031167       3.8359634      50218.233      36.893836      36.893836      36.893836    
   3240000   0.50954652    -7.7900556     -7.0257467      3.8602287      50218.233      36.893836      36.893836      36.893836    
   3250000   0.50900441    -7.7962013     -7.0327056      3.8119056      50218.233      36.893836      36.893836      36.893836    
   3260000   0.50847043    -7.7914055     -7.0287107      3.8367655      50218.233      36.893836      36.893836      36.893836    
   3270000   0.50852031    -7.7912028     -7.0284332      3.8514655      50218.233      36.893836      36.893836      36.893836    
   3280000   0.51176369    -7.788926      -7.0212914      3.8613544      50218.233      36.893836      36.893836      36.893836    
   3290000   0.51163287    -7.7911865     -7.0237481      3.8565773      50218.233      36.893836      36.893836      36.893836    
   3300000   0.50723181    -7.7921331     -7.0312962      3.8411305      50218.233      36.893836      36.893836      36.893836    
   3310000   0.50854818    -7.7913046     -7.0284931      3.8523764      50218.233      36.893836      36.893836      36.893836    
   3320000   0.50758513    -7.7907466     -7.0293797      3.8454288      50218.233      36.893836      36.893836      36.893836    
   3330000   0.51069529    -7.789119      -7.0230869      3.8599074      50218.233      36.893836      36.893836      36.893836    
   3340000   0.51024563    -7.7914498     -7.0260922      3.8567567      50218.233      36.893836      36.893836      36.893836    
   3350000   0.51135238    -7.7938397     -7.0268221      3.8372141      50218.233      36.893836      36.893836      36.893836    
   3360000   0.51003719    -7.7880583     -7.0230134      3.8646318      50218.233      36.893836      36.893836      36.893836    
   3370000   0.51124876    -7.7894659     -7.0226037      3.8528289      50218.233      36.893836      36.893836      36.893836    
   3380000   0.51132391    -7.7887569     -7.0217819      3.8637641      50218.233      36.893836      36.893836      36.893836    
   3390000   0.5090658     -7.7914854     -7.0278976      3.8358228      50218.233      36.893836      36.893836      36.893836    
   3400000   0.50969455    -7.789949      -7.0254181      3.8711546      50218.233      36.893836      36.893836      36.893836    
   3410000   0.50902298    -7.7902066     -7.026683       3.8448855      50218.233      36.893836      36.893836      36.893836    
   3420000   0.51169032    -7.7907919     -7.0232673      3.8403115      50218.233      36.893836      36.893836      36.893836    
   3430000   0.50708732    -7.7916596     -7.0310394      3.8282943      50218.233      36.893836      36.893836      36.893836    
   3440000   0.51024282    -7.7943774     -7.0290241      3.8191425      50218.233      36.893836      36.893836      36.893836    
   3450000   0.51328177    -7.7924176     -7.0225059      3.8456128      50218.233      36.893836      36.893836      36.893836    
   3460000   0.51188679    -7.792644      -7.0248248      3.8337922      50218.233      36.893836      36.893836      36.893836    
   3470000   0.51109456    -7.7909127     -7.0242818      3.8522466      50218.233      36.893836      36.893836      36.893836    
   3480000   0.51191663    -7.790856      -7.022992       3.8478688      50218.233      36.893836      36.893836      36.893836    
   3490000   0.50860439    -7.7923936     -7.0294979      3.8291691      50218.233      36.893836      36.893836      36.893836    
   3500000   0.50862989    -7.7889112     -7.0259772      3.8694499      50218.233      36.893836      36.893836      36.893836    
   3510000   0.51013132    -7.7938553     -7.0286692      3.8240421      50218.233      36.893836      36.893836      36.893836    
   3520000   0.51122883    -7.7889019     -7.0220696      3.8567649      50218.233      36.893836      36.893836      36.893836    
   3530000   0.50947383    -7.7945544     -7.0303546      3.807887       50218.233      36.893836      36.893836      36.893836    
   3540000   0.50860724    -7.7939098     -7.0310097      3.8226818      50218.233      36.893836      36.893836      36.893836    
   3550000   0.51147183    -7.7930503     -7.0258535      3.8304044      50218.233      36.893836      36.893836      36.893836    
   3560000   0.51314612    -7.7881991     -7.0184909      3.8618663      50218.233      36.893836      36.893836      36.893836    
   3570000   0.51125478    -7.7886735     -7.0218022      3.8648912      50218.233      36.893836      36.893836      36.893836    
   3580000   0.51043992    -7.7927097     -7.0270607      3.8408242      50218.233      36.893836      36.893836      36.893836    
   3590000   0.511974      -7.7879628     -7.0200127      3.8698611      50218.233      36.893836      36.893836      36.893836    
   3600000   0.50847912    -7.7953035     -7.0325956      3.8092813      50218.233      36.893836      36.893836      36.893836    
   3610000   0.50698237    -7.7889881     -7.0285254      3.8655918      50218.233      36.893836      36.893836      36.893836    
   3620000   0.50913806    -7.7913254     -7.0276292      3.8507067      50218.233      36.893836      36.893836      36.893836    
   3630000   0.50920398    -7.789444      -7.0256489      3.8630235      50218.233      36.893836      36.893836      36.893836    
   3640000   0.51252465    -7.7892638     -7.0204878      3.8527552      50218.233      36.893836      36.893836      36.893836    
   3650000   0.51118583    -7.7890191     -7.0222512      3.8675924      50218.233      36.893836      36.893836      36.893836    
   3660000   0.50869892    -7.7915801     -7.0285426      3.8381664      50218.233      36.893836      36.893836      36.893836    
   3670000   0.51190329    -7.791958      -7.024114       3.8532385      50218.233      36.893836      36.893836      36.893836    
   3680000   0.50897024    -7.7890854     -7.0256409      3.8600394      50218.233      36.893836      36.893836      36.893836    
   3690000   0.50993426    -7.7899418     -7.0250513      3.8646818      50218.233      36.893836      36.893836      36.893836    
   3700000   0.51015453    -7.7934188     -7.0281979      3.8337528      50218.233      36.893836      36.893836      36.893836    
   3710000   0.50836033    -7.7940505     -7.0315208      3.8308879      50218.233      36.893836      36.893836      36.893836    
   3720000   0.511572      -7.7974858     -7.0301387      3.807745       50218.233      36.893836      36.893836      36.893836    
   3730000   0.51038441    -7.79626       -7.0306943      3.8005297      50218.233      36.893836      36.893836      36.893836    
   3740000   0.50847862    -7.7879075     -7.0252005      3.8762555      50218.233      36.893836      36.893836      36.893836    
   3750000   0.51063891    -7.7932315     -7.027284       3.842411       50218.233      36.893836      36.893836      36.893836    
   3760000   0.5087314     -7.7951689     -7.0320826      3.8254064      50218.233      36.893836      36.893836      36.893836    
   3770000   0.50967394    -7.7920777     -7.0275776      3.840188       50218.233      36.893836      36.893836      36.893836    
   3780000   0.51083938    -7.7908214     -7.0245733      3.8512027      50218.233      36.893836      36.893836      36.893836    
   3790000   0.50933283    -7.7897796     -7.0257912      3.8578425      50218.233      36.893836      36.893836      36.893836    
   3800000   0.51273318    -7.7891962     -7.0201074      3.8732916      50218.233      36.893836      36.893836      36.893836    
   3810000   0.50887533    -7.7886347     -7.0253326      3.8695861      50218.233      36.893836      36.893836      36.893836    
   3820000   0.50756813    -7.7900584     -7.028717       3.8439578      50218.233      36.893836      36.893836      36.893836    
   3830000   0.50999656    -7.7913675     -7.0263836      3.857685       50218.233      36.893836      36.893836      36.893836    
   3840000   0.50938419    -7.7846757     -7.0206102      3.8921993      50218.233      36.893836      36.893836      36.893836    
   3850000   0.51213696    -7.7918447     -7.0236501      3.8432171      50218.233      36.893836      36.893836      36.893836    
   3860000   0.50607597    -7.7924246     -7.0333214      3.8483221      50218.233      36.893836      36.893836      36.893836    
   3870000   0.51168988    -7.7940283     -7.0265044      3.825436       50218.233      36.893836      36.893836      36.893836    
   3880000   0.50843665    -7.7903068     -7.0276627      3.8487596      50218.233      36.893836      36.893836      36.893836    
   3890000   0.51024265    -7.7915495     -7.0261964      3.8505862      50218.233      36.893836      36.893836      36.893836    
   3900000   0.51045573    -7.7933833     -7.0277106      3.8281874      50218.233      36.893836      36.893836      36.893836    
   3910000   0.5134803     -7.794179      -7.0239695      3.8413216      50218.233      36.893836      36.893836      36.893836    
   3920000   0.51235684    -7.7940261     -7.0255018      3.8313722      50218.233      36.893836      36.893836      36.893836    
   3930000   0.5092591     -7.7893175     -7.0254397      3.8627369      50218.233      36.893836      36.893836      36.893836    
   3940000   0.50933449    -7.7929659     -7.028975       3.8333343      50218.233      36.893836      36.893836      36.893836    
   3950000   0.51078936    -7.7965873     -7.0304142      3.8194018      50218.233      36.893836      36.893836      36.893836    
   3960000   0.50897824    -7.7945713     -7.0311148      3.8240942      50218.233      36.893836      36.893836      36.893836    
   3970000   0.5107277     -7.7946414     -7.0285607      3.8214305      50218.233      36.893836      36.893836      36.893836    
   3980000   0.50933863    -7.7923105     -7.0283134      3.845324       50218.233      36.893836      36.893836      36.893836    
   3990000   0.51274669    -7.7921362     -7.0230271      3.8448444      50218.233      36.893836      36.893836      36.893836    
   4000000   0.50843624    -7.7930723     -7.0304288      3.8327155      50218.233      36.893836      36.893836      36.893836    
   4010000   0.5102774     -7.790072      -7.0246668      3.8570524      50218.233      36.893836      36.893836      36.893836    
   4020000   0.51116737    -7.7927717     -7.0260315      3.8380556      50218.233      36.893836      36.893836      36.893836    
   4030000   0.51110808    -7.7906824     -7.0240311      3.8490435      50218.233      36.893836      36.893836      36.893836    
   4040000   0.50928069    -7.789094      -7.0251838      3.8609789      50218.233      36.893836      36.893836      36.893836    
   4050000   0.50999057    -7.7898227     -7.0248477      3.8533818      50218.233      36.893836      36.893836      36.893836    
   4060000   0.50913761    -7.7911733     -7.0274778      3.8419553      50218.233      36.893836      36.893836      36.893836    
   4070000   0.51067126    -7.7897695     -7.0237735      3.8550545      50218.233      36.893836      36.893836      36.893836    
   4080000   0.51108771    -7.7905149     -7.0238942      3.856291       50218.233      36.893836      36.893836      36.893836    
   4090000   0.51175492    -7.7926039     -7.0249825      3.83206        50218.233      36.893836      36.893836      36.893836    
   4100000   0.50765262    -7.7908672     -7.0293991      3.8428571      50218.233      36.893836      36.893836      36.893836    
   4110000   0.51316205    -7.7901603     -7.0204281      3.864578       50218.233      36.893836      36.893836      36.893836    
   4120000   0.51009537    -7.790571      -7.0254388      3.8496622      50218.233      36.893836      36.893836      36.893836    
   4130000   0.51075336    -7.7909373     -7.0248182      3.8570558      50218.233      36.893836      36.893836      36.893836    
   4140000   0.50911587    -7.7890284     -7.0253654      3.8634608      50218.233      36.893836      36.893836      36.893836    
   4150000   0.50958906    -7.78658       -7.0222073      3.8779724      50218.233      36.893836      36.893836      36.893836    
   4160000   0.50877555    -7.7876182     -7.0244658      3.8776656      50218.233      36.893836      36.893836      36.893836    
   4170000   0.50965954    -7.7910485     -7.0265701      3.8507861      50218.233      36.893836      36.893836      36.893836    
   4180000   0.50837835    -7.7929276     -7.0303709      3.8341593      50218.233      36.893836      36.893836      36.893836    
   4190000   0.5115817     -7.7929178     -7.0255562      3.8428488      50218.233      36.893836      36.893836      36.893836    
   4200000   0.5133275     -7.7900976     -7.0201173      3.8512718      50218.233      36.893836      36.893836      36.893836    
   4210000   0.50963917    -7.7916684     -7.0272206      3.8421426      50218.233      36.893836      36.893836      36.893836    
   4220000   0.50904609    -7.7904172     -7.0268589      3.8528497      50218.233      36.893836      36.893836      36.893836    
   4230000   0.51137417    -7.7921753     -7.025125       3.8396251      50218.233      36.893836      36.893836      36.893836    
   4240000   0.50901541    -7.7902344     -7.0267222      3.8609239      50218.233      36.893836      36.893836      36.893836    
   4250000   0.51279989    -7.7960737     -7.0268848      3.831691       50218.233      36.893836      36.893836      36.893836    
   4260000   0.50957187    -7.7939244     -7.0295775      3.8211387      50218.233      36.893836      36.893836      36.893836    
   4270000   0.50826215    -7.7903153     -7.027933       3.8373941      50218.233      36.893836      36.893836      36.893836    
   4280000   0.51375633    -7.7946019     -7.0239784      3.8203806      50218.233      36.893836      36.893836      36.893836    
   4290000   0.5086973     -7.7955893     -7.0325542      3.8193139      50218.233      36.893836      36.893836      36.893836    
   4300000   0.51137582    -7.792155      -7.0251022      3.8420407      50218.233      36.893836      36.893836      36.893836    
   4310000   0.50956643    -7.7923541     -7.0280153      3.834435       50218.233      36.893836      36.893836      36.893836    
   4320000   0.50911773    -7.7906229     -7.0269571      3.8450059      50218.233      36.893836      36.893836      36.893836    
   4330000   0.51179208    -7.7928489     -7.0251717      3.8378521      50218.233      36.893836      36.893836      36.893836    
   4340000   0.50924647    -7.7958938     -7.032035       3.8249348      50218.233      36.893836      36.893836      36.893836    
   4350000   0.50983606    -7.7895103     -7.0247671      3.8753373      50218.233      36.893836      36.893836      36.893836    
   4360000   0.50769194    -7.7910033     -7.0294762      3.8440391      50218.233      36.893836      36.893836      36.893836    
   4370000   0.51163565    -7.7957102     -7.0282677      3.8209607      50218.233      36.893836      36.893836      36.893836    
   4380000   0.50935744    -7.792872      -7.0288467      3.8274466      50218.233      36.893836      36.893836      36.893836    
   4390000   0.50901311    -7.7959641     -7.0324553      3.8011565      50218.233      36.893836      36.893836      36.893836    
   4400000   0.51079953    -7.7915524     -7.025364       3.8365303      50218.233      36.893836      36.893836      36.893836    
   4410000   0.51080669    -7.7938856     -7.0276865      3.8289902      50218.233      36.893836      36.893836      36.893836    
   4420000   0.50973196    -7.7935846     -7.0289975      3.8206948      50218.233      36.893836      36.893836      36.893836    
   4430000   0.51150911    -7.7967574     -7.0295047      3.8091225      50218.233      36.893836      36.893836      36.893836    
   4440000   0.50971127    -7.793567      -7.029011       3.834221       50218.233      36.893836      36.893836      36.893836    
   4450000   0.51056742    -7.7901144     -7.0242742      3.8521777      50218.233      36.893836      36.893836      36.893836    
   4460000   0.51190308    -7.7886919     -7.0208482      3.8654183      50218.233      36.893836      36.893836      36.893836    
   4470000   0.50854544    -7.7924547     -7.0296474      3.8422841      50218.233      36.893836      36.893836      36.893836    
   4480000   0.51258145    -7.7913607     -7.0224994      3.8468354      50218.233      36.893836      36.893836      36.893836    
   4490000   0.51253106    -7.7937576     -7.0249719      3.8218503      50218.233      36.893836      36.893836      36.893836    
   4500000   0.51372969    -7.7925488     -7.0219652      3.8352196      50218.233      36.893836      36.893836      36.893836    
   4510000   0.50900205    -7.7915226     -7.0280304      3.8508248      50218.233      36.893836      36.893836      36.893836    
   4520000   0.50733785    -7.7924988     -7.0315028      3.828616       50218.233      36.893836      36.893836      36.893836    
   4530000   0.50927377    -7.7900413     -7.0261415      3.8423973      50218.233      36.893836      36.893836      36.893836    
   4540000   0.50808228    -7.7956877     -7.0335752      3.8129476      50218.233      36.893836      36.893836      36.893836    
   4550000   0.5117244     -7.7937495     -7.0261738      3.8306006      50218.233      36.893836      36.893836      36.893836    
   4560000   0.50921892    -7.7925695     -7.0287519      3.8306958      50218.233      36.893836      36.893836      36.893836    
   4570000   0.51140307    -7.788684      -7.0215903      3.8602915      50218.233      36.893836      36.893836      36.893836    
   4580000   0.5079511     -7.7943786     -7.0324628      3.8186652      50218.233      36.893836      36.893836      36.893836    
   4590000   0.50955237    -7.7904797     -7.026162       3.8401151      50218.233      36.893836      36.893836      36.893836    
   4600000   0.5108847     -7.7930659     -7.0267498      3.8366871      50218.233      36.893836      36.893836      36.893836    
   4610000   0.51127176    -7.7894563     -7.0225595      3.8580809      50218.233      36.893836      36.893836      36.893836    
   4620000   0.51318855    -7.7966716     -7.0268997      3.8077439      50218.233      36.893836      36.893836      36.893836    
   4630000   0.5113994     -7.791696      -7.0246078      3.8431428      50218.233      36.893836      36.893836      36.893836    
   4640000   0.51118254    -7.7862375     -7.0194746      3.8857361      50218.233      36.893836      36.893836      36.893836    
   4650000   0.50878875    -7.7906407     -7.0274684      3.8435945      50218.233      36.893836      36.893836      36.893836    
   4660000   0.51129488    -7.7869642     -7.0200328      3.8902617      50218.233      36.893836      36.893836      36.893836    
   4670000   0.5119232     -7.7919786     -7.0241047      3.8400717      50218.233      36.893836      36.893836      36.893836    
   4680000   0.51017514    -7.7898755     -7.0246236      3.8521744      50218.233      36.893836      36.893836      36.893836    
   4690000   0.50904716    -7.7906339     -7.027074       3.8430836      50218.233      36.893836      36.893836      36.893836    
   4700000   0.50906564    -7.7886935     -7.0251059      3.8514879      50218.233      36.893836      36.893836      36.893836    
   4710000   0.50959549    -7.7900229     -7.0256405      3.8494445      50218.233      36.893836      36.893836      36.893836    
   4720000   0.510201      -7.79324       -7.0279493      3.8205532      50218.233      36.893836      36.893836      36.893836    
   4730000   0.50881415    -7.7934484     -7.030238       3.8278966      50218.233      36.893836      36.893836      36.893836    
   4740000   0.5115328     -7.789917      -7.0226287      3.8581069      50218.233      36.893836      36.893836      36.893836    
   4750000   0.50984709    -7.7924319     -7.0276721      3.842347       50218.233      36.893836      36.893836      36.893836    
   4760000   0.51052499    -7.7929451     -7.0271685      3.8419019      50218.233      36.893836      36.893836      36.893836    
   4770000   0.51046414    -7.7889282     -7.0232428      3.8562113      50218.233      36.893836      36.893836      36.893836    
   4780000   0.50884084    -7.7905757     -7.0273253      3.8513122      50218.233      36.893836      36.893836      36.893836    
   4790000   0.50847129    -7.7939918     -7.0312957      3.8167188      50218.233      36.893836      36.893836      36.893836    
   4800000   0.5101747     -7.7915769     -7.0263257      3.8453614      50218.233      36.893836      36.893836      36.893836    
   4810000   0.51053818    -7.791906      -7.0261096      3.8458404      50218.233      36.893836      36.893836      36.893836    
   4820000   0.51215369    -7.793489      -7.0252694      3.8284526      50218.233      36.893836      36.893836      36.893836    
   4830000   0.50663286    -7.7919397     -7.0320013      3.8304828      50218.233      36.893836      36.893836      36.893836    
   4840000   0.5090676     -7.7876991     -7.0241086      3.8681957      50218.233      36.893836      36.893836      36.893836    
   4850000   0.50694128    -7.7931996     -7.0327985      3.8335262      50218.233      36.893836      36.893836      36.893836    
   4860000   0.51077808    -7.7967535     -7.0305973      3.8121289      50218.233      36.893836      36.893836      36.893836    
   4870000   0.51065481    -7.7951036     -7.0291323      3.8152007      50218.233      36.893836      36.893836      36.893836    
   4880000   0.51255826    -7.794274      -7.0254476      3.8203905      50218.233      36.893836      36.893836      36.893836    
   4890000   0.51077119    -7.7925296     -7.0263837      3.8302808      50218.233      36.893836      36.893836      36.893836    
   4900000   0.50938356    -7.7944534     -7.0303889      3.8221184      50218.233      36.893836      36.893836      36.893836    
   4910000   0.50927653    -7.7939257     -7.0300218      3.8262058      50218.233      36.893836      36.893836      36.893836    
   4920000   0.50962967    -7.7955931     -7.0311594      3.8162202      50218.233      36.893836      36.893836      36.893836    
   4930000   0.50918713    -7.790312      -7.0265422      3.852885       50218.233      36.893836      36.893836      36.893836    
   4940000   0.50950124    -7.7944836     -7.0302426      3.8233946      50218.233      36.893836      36.893836      36.893836    
   4950000   0.51099252    -7.7925562     -7.0260784      3.839835       50218.233      36.893836      36.893836      36.893836    
   4960000   0.50756129    -7.7910406     -7.0297095      3.8455138      50218.233      36.893836      36.893836      36.893836    
   4970000   0.50885108    -7.7890248     -7.0257591      3.8487984      50218.233      36.893836      36.893836      36.893836    
   4980000   0.5078453     -7.7944365     -7.0326794      3.8173734      50218.233      36.893836      36.893836      36.893836    
   4990000   0.51016713    -7.791286      -7.0260461      3.8401701      50218.233      36.893836      36.893836      36.893836    
   5000000   0.51145356    -7.7893676     -7.0221981      3.8556066      50218.233      36.893836      36.893836      36.893836    
   5010000   0.50672596    -7.7921195     -7.0320413      3.8264356      50218.233      36.893836      36.893836      36.893836    
   5020000   0.51108113    -7.7936093     -7.0269985      3.8279259      50218.233      36.893836      36.893836      36.893836    
   5030000   0.50964863    -7.7898366     -7.0253746      3.8600513      50218.233      36.893836      36.893836      36.893836    
   5040000   0.5144583     -7.7934515     -7.021775       3.823058       50218.233      36.893836      36.893836      36.893836    
   5050000   0.51146995    -7.7917747     -7.0245807      3.8425614      50218.233      36.893836      36.893836      36.893836    
   5060000   0.50749979    -7.7924038     -7.0311649      3.8323121      50218.233      36.893836      36.893836      36.893836    
   5070000   0.51043415    -7.7870206     -7.0213803      3.8715289      50218.233      36.893836      36.893836      36.893836    
   5080000   0.50904836    -7.7916829     -7.0281212      3.8376358      50218.233      36.893836      36.893836      36.893836    
   5090000   0.51017688    -7.7926988     -7.0274444      3.8357001      50218.233      36.893836      36.893836      36.893836    
   5100000   0.51509349    -7.7920973     -7.0194681      3.8312079      50218.233      36.893836      36.893836      36.893836    
   5110000   0.50918677    -7.7918591     -7.0280898      3.842321       50218.233      36.893836      36.893836      36.893836    
   5120000   0.50978782    -7.7920317     -7.0273608      3.842673       50218.233      36.893836      36.893836      36.893836    
   5130000   0.51002415    -7.7933251     -7.0282997      3.8339639      50218.233      36.893836      36.893836      36.893836    
   5140000   0.51044359    -7.7850028     -7.0193483      3.8838626      50218.233      36.893836      36.893836      36.893836    
   5150000   0.50976748    -7.7846593     -7.0200189      3.8959223      50218.233      36.893836      36.893836      36.893836    
   5160000   0.50853196    -7.7890916     -7.0263045      3.8571042      50218.233      36.893836      36.893836      36.893836    
   5170000   0.51064003    -7.7931462     -7.0271971      3.8368889      50218.233      36.893836      36.893836      36.893836    
   5180000   0.50760253    -7.7929792     -7.0315863      3.8202908      50218.233      36.893836      36.893836      36.893836    
   5190000   0.50704874    -7.7910535     -7.0304912      3.8463802      50218.233      36.893836      36.893836      36.893836    
   5200000   0.50952722    -7.7885274     -7.0242474      3.8709913      50218.233      36.893836      36.893836      36.893836    
   5210000   0.51379632    -7.7897931     -7.0191096      3.8686778      50218.233      36.893836      36.893836      36.893836    
   5220000   0.50942125    -7.7907649     -7.0266439      3.8671911      50218.233      36.893836      36.893836      36.893836    
   5230000   0.50728475    -7.7953074     -7.0343911      3.8133903      50218.233      36.893836      36.893836      36.893836    
   5240000   0.50911713    -7.7910306     -7.0273657      3.8404632      50218.233      36.893836      36.893836      36.893836    
   5250000   0.5138176     -7.7957472     -7.0250317      3.8196645      50218.233      36.893836      36.893836      36.893836    
   5260000   0.50831587    -7.7949705     -7.0325075      3.8287821      50218.233      36.893836      36.893836      36.893836    
   5270000   0.51112249    -7.7888938     -7.022221       3.8586887      50218.233      36.893836      36.893836      36.893836    
   5280000   0.51213272    -7.7937497     -7.0255615      3.8230293      50218.233      36.893836      36.893836      36.893836    
   5290000   0.51420858    -7.7953408     -7.024039       3.8260348      50218.233      36.893836      36.893836      36.893836    
   5300000   0.51057412    -7.7923846     -7.0265344      3.8400656      50218.233      36.893836      36.893836      36.893836    
   5310000   0.50755679    -7.7911551     -7.0298308      3.8453135      50218.233      36.893836      36.893836      36.893836    
   5320000   0.50951599    -7.7918144     -7.0275513      3.8340135      50218.233      36.893836      36.893836      36.893836    
   5330000   0.51065487    -7.7973163     -7.0313449      3.7926123      50218.233      36.893836      36.893836      36.893836    
   5340000   0.51023202    -7.7881291     -7.022792       3.8770262      50218.233      36.893836      36.893836      36.893836    
   5350000   0.50706689    -7.7959611     -7.0353716      3.8088119      50218.233      36.893836      36.893836      36.893836    
   5360000   0.51000724    -7.7952579     -7.030258       3.813764       50218.233      36.893836      36.893836      36.893836    
   5370000   0.50816839    -7.7908572     -7.0286155      3.8536341      50218.233      36.893836      36.893836      36.893836    
   5380000   0.51112355    -7.7906983     -7.0240239      3.8607642      50218.233      36.893836      36.893836      36.893836    
   5390000   0.50914921    -7.7950134     -7.0313005      3.8233554      50218.233      36.893836      36.893836      36.893836    
   5400000   0.51068202    -7.7924595     -7.0264473      3.841611       50218.233      36.893836      36.893836      36.893836    
   5410000   0.50900013    -7.7969623     -7.033473       3.8054732      50218.233      36.893836      36.893836      36.893836    
   5420000   0.50811879    -7.7997881     -7.0376207      3.7904662      50218.233      36.893836      36.893836      36.893836    
   5430000   0.5113545     -7.7897107     -7.0226898      3.8625731      50218.233      36.893836      36.893836      36.893836    
   5440000   0.51090011    -7.7918984     -7.0255591      3.8425649      50218.233      36.893836      36.893836      36.893836    
   5450000   0.51123197    -7.7961066     -7.0292696      3.8144315      50218.233      36.893836      36.893836      36.893836    
   5460000   0.50769031    -7.7931868     -7.0316621      3.8365077      50218.233      36.893836      36.893836      36.893836    
   5470000   0.5088113     -7.7944368     -7.0312307      3.8186894      50218.233      36.893836      36.893836      36.893836    
   5480000   0.50967889    -7.7910677     -7.0265602      3.8429901      50218.233      36.893836      36.893836      36.893836    
   5490000   0.51196873    -7.7955554     -7.0276132      3.8049332      50218.233      36.893836      36.893836      36.893836    
   5500000   0.51360176    -7.7958263     -7.0254346      3.8313905      50218.233      36.893836      36.893836      36.893836    
   5510000   0.51183838    -7.7924093     -7.0246627      3.8441344      50218.233      36.893836      36.893836      36.893836    
   5520000   0.51011832    -7.7931833     -7.0280167      3.8256271      50218.233      36.893836      36.893836      36.893836    
   5530000   0.50818093    -7.7951107     -7.0328501      3.8120019      50218.233      36.893836      36.893836      36.893836    
   5540000   0.50959323    -7.7904552     -7.0260762      3.855252       50218.233      36.893836      36.893836      36.893836    
   5550000   0.51212774    -7.7901643     -7.0219836      3.8566815      50218.233      36.893836      36.893836      36.893836    
   5560000   0.51005333    -7.7896545     -7.0245854      3.8595343      50218.233      36.893836      36.893836      36.893836    
   5570000   0.51079836    -7.7924607     -7.026274       3.8403152      50218.233      36.893836      36.893836      36.893836    
   5580000   0.51184104    -7.7925652     -7.0248145      3.8354564      50218.233      36.893836      36.893836      36.893836    
   5590000   0.50723669    -7.797264      -7.0364197      3.8054041      50218.233      36.893836      36.893836      36.893836    
   5600000   0.5079251     -7.7916905     -7.0298137      3.8497845      50218.233      36.893836      36.893836      36.893836    
   5610000   0.50860903    -7.7926631     -7.0297604      3.8347945      50218.233      36.893836      36.893836      36.893836    
   5620000   0.51200524    -7.7915801     -7.0235832      3.8448255      50218.233      36.893836      36.893836      36.893836    
   5630000   0.51157066    -7.7921694     -7.0248243      3.8518891      50218.233      36.893836      36.893836      36.893836    
   5640000   0.50957699    -7.7915373     -7.0271827      3.8305964      50218.233      36.893836      36.893836      36.893836    
   5650000   0.50750854    -7.7911074     -7.0298555      3.8462781      50218.233      36.893836      36.893836      36.893836    
   5660000   0.50884637    -7.7905841     -7.0273254      3.8633936      50218.233      36.893836      36.893836      36.893836    
   5670000   0.5087693     -7.7911007     -7.0279576      3.8520069      50218.233      36.893836      36.893836      36.893836    
   5680000   0.50832375    -7.7921476     -7.0296728      3.848116       50218.233      36.893836      36.893836      36.893836    
   5690000   0.51009736    -7.7904838     -7.0253487      3.8483762      50218.233      36.893836      36.893836      36.893836    
   5700000   0.509648      -7.7888486     -7.0243875      3.8692735      50218.233      36.893836      36.893836      36.893836    
   5710000   0.51045923    -7.7893663     -7.0236883      3.8552183      50218.233      36.893836      36.893836      36.893836    
   5720000   0.51207225    -7.7961629     -7.0280654      3.8207436      50218.233      36.893836      36.893836      36.893836    
   5730000   0.50883252    -7.7934014     -7.0301634      3.8249651      50218.233      36.893836      36.893836      36.893836    
   5740000   0.5116005     -7.7944019     -7.0270121      3.8227725      50218.233      36.893836      36.893836      36.893836    
   5750000   0.50866309    -7.7965527     -7.033569       3.7932554      50218.233      36.893836      36.893836      36.893836    
   5760000   0.50530444    -7.7932139     -7.035268       3.8261998      50218.233      36.893836      36.893836      36.893836    
   5770000   0.5107422     -7.7922113     -7.0261089      3.8339585      50218.233      36.893836      36.893836      36.893836    
   5780000   0.51101981    -7.7972059     -7.0306871      3.7948669      50218.233      36.893836      36.893836      36.893836    
   5790000   0.51056069    -7.7970781     -7.031248       3.7991151      50218.233      36.893836      36.893836      36.893836    
   5800000   0.51099117    -7.7950351     -7.0285593      3.8248831      50218.233      36.893836      36.893836      36.893836    
   5810000   0.51100255    -7.7907478     -7.0242549      3.8486786      50218.233      36.893836      36.893836      36.893836    
   5820000   0.51151875    -7.7967371     -7.0294699      3.8028482      50218.233      36.893836      36.893836      36.893836    
   5830000   0.50994051    -7.7869197     -7.0220198      3.8764362      50218.233      36.893836      36.893836      36.893836    
   5840000   0.50651727    -7.7916697     -7.0319046      3.8360857      50218.233      36.893836      36.893836      36.893836    
   5850000   0.51081615    -7.7941182     -7.0279049      3.8334465      50218.233      36.893836      36.893836      36.893836    
   5860000   0.51118574    -7.7928617     -7.026094       3.8503819      50218.233      36.893836      36.893836      36.893836    
   5870000   0.51177643    -7.7882274     -7.0205736      3.8771499      50218.233      36.893836      36.893836      36.893836    
   5880000   0.50888929    -7.7889145     -7.0255914      3.8645483      50218.233      36.893836      36.893836      36.893836    
   5890000   0.5126129     -7.7949375     -7.0260291      3.8315927      50218.233      36.893836      36.893836      36.893836    
   5900000   0.51184211    -7.7954509     -7.0276986      3.8258529      50218.233      36.893836      36.893836      36.893836    
   5910000   0.50899873    -7.7952331     -7.0317459      3.8259367      50218.233      36.893836      36.893836      36.893836    
   5920000   0.50840445    -7.7899537     -7.0273579      3.8550849      50218.233      36.893836      36.893836      36.893836    
   5930000   0.51114417    -7.7920425     -7.0253372      3.8410596      50218.233      36.893836      36.893836      36.893836    
   5940000   0.51200072    -7.7895947     -7.0216045      3.8635506      50218.233      36.893836      36.893836      36.893836    
   5950000   0.50719992    -7.7918342     -7.0310451      3.8388968      50218.233      36.893836      36.893836      36.893836    
   5960000   0.50888743    -7.7911611     -7.0278408      3.8470076      50218.233      36.893836      36.893836      36.893836    
   5970000   0.51067141    -7.7905755     -7.0245793      3.8438322      50218.233      36.893836      36.893836      36.893836    
   5980000   0.51078379    -7.7910632     -7.0248984      3.858404       50218.233      36.893836      36.893836      36.893836    
   5990000   0.50981869    -7.7960101     -7.0312929      3.8155571      50218.233      36.893836      36.893836      36.893836    
   6000000   0.51015472    -7.7951046     -7.0298834      3.8172549      50218.233      36.893836      36.893836      36.893836    
   6010000   0.51145741    -7.7888324     -7.0216572      3.8650336      50218.233      36.893836      36.893836      36.893836    
   6020000   0.50982398    -7.791551      -7.026826       3.8460617      50218.233      36.893836      36.893836      36.893836    
   6030000   0.51122058    -7.7923544     -7.0255344      3.8328412      50218.233      36.893836      36.893836      36.893836    
   6040000   0.50998655    -7.7944589     -7.02949        3.8174069      50218.233      36.893836      36.893836      36.893836    
   6050000   0.50908887    -7.7918374     -7.028215       3.8406809      50218.233      36.893836      36.893836      36.893836    
   6060000   0.50782629    -7.7954872     -7.0337586      3.8091363      50218.233      36.893836      36.893836      36.893836    
   6070000   0.51056444    -7.7905825     -7.0247468      3.8460831      50218.233      36.893836      36.893836      36.893836    
   6080000   0.51138466    -7.7919278     -7.0248617      3.8345006      50218.233      36.893836      36.893836      36.893836    
   6090000   0.51056892    -7.795925      -7.0300825      3.7960923      50218.233      36.893836      36.893836      36.893836    
   6100000   0.50933496    -7.7914497     -7.0274581      3.828962       50218.233      36.893836      36.893836      36.893836    
   6110000   0.51096051    -7.7932829     -7.026853       3.8224673      50218.233      36.893836      36.893836      36.893836    
   6120000   0.51139308    -7.7915005     -7.0244218      3.8405331      50218.233      36.893836      36.893836      36.893836    
   6130000   0.50836016    -7.7933849     -7.0308555      3.8261831      50218.233      36.893836      36.893836      36.893836    
   6140000   0.50985715    -7.7928035     -7.0280287      3.8253011      50218.233      36.893836      36.893836      36.893836    
   6150000   0.50677451    -7.79327       -7.033119       3.8278739      50218.233      36.893836      36.893836      36.893836    
   6160000   0.50904404    -7.7917708     -7.0282156      3.8352422      50218.233      36.893836      36.893836      36.893836    
   6170000   0.5095489     -7.7898424     -7.02553        3.8592832      50218.233      36.893836      36.893836      36.893836    
   6180000   0.50810967    -7.794513      -7.0323593      3.8091807      50218.233      36.893836      36.893836      36.893836    
   6190000   0.51026549    -7.7907727     -7.0253853      3.853459       50218.233      36.893836      36.893836      36.893836    
   6200000   0.51098105    -7.7943795     -7.0279188      3.8166076      50218.233      36.893836      36.893836      36.893836    
   6210000   0.51552878    -7.7967529     -7.0234707      3.8128746      50218.233      36.893836      36.893836      36.893836    
   6220000   0.51046363    -7.7922221     -7.0265375      3.8286896      50218.233      36.893836      36.893836      36.893836    
   6230000   0.50844633    -7.7935426     -7.0308839      3.822211       50218.233      36.893836      36.893836      36.893836    
   6240000   0.50651515    -7.7924902     -7.0327283      3.8328572      50218.233      36.893836      36.893836      36.893836    
   6250000   0.51052637    -7.7949659     -7.0291873      3.8258057      50218.233      36.893836      36.893836      36.893836    
   6260000   0.50814374    -7.7924913     -7.0302865      3.8353107      50218.233      36.893836      36.893836      36.893836    
   6270000   0.5097982     -7.7918559     -7.0271695      3.8325065      50218.233      36.893836      36.893836      36.893836    
   6280000   0.50967057    -7.7897858     -7.0252908      3.8661704      50218.233      36.893836      36.893836      36.893836    
   6290000   0.50609708    -7.7986447     -7.0395099      3.7666126      50218.233      36.893836      36.893836      36.893836    
   6300000   0.50820529    -7.791657      -7.0293599      3.8420394      50218.233      36.893836      36.893836      36.893836    
   6310000   0.51015161    -7.7888839     -7.0236674      3.8519719      50218.233      36.893836      36.893836      36.893836    
   6320000   0.50789151    -7.7921208     -7.0302944      3.8287748      50218.233      36.893836      36.893836      36.893836    
   6330000   0.51141904    -7.7965854     -7.0294677      3.8137245      50218.233      36.893836      36.893836      36.893836    
   6340000   0.51086382    -7.7962798     -7.029995       3.7901311      50218.233      36.893836      36.893836      36.893836    
   6350000   0.50891231    -7.7948588     -7.0315012      3.823609       50218.233      36.893836      36.893836      36.893836    
   6360000   0.5117106     -7.7912361     -7.0236811      3.8310237      50218.233      36.893836      36.893836      36.893836    
   6370000   0.50865279    -7.7935958     -7.0306274      3.8175485      50218.233      36.893836      36.893836      36.893836    
   6380000   0.51032916    -7.7912455     -7.0257626      3.8320799      50218.233      36.893836      36.893836      36.893836    
   6390000   0.51116832    -7.7932883     -7.0265467      3.8268599      50218.233      36.893836      36.893836      36.893836    
   6400000   0.50927235    -7.7950263     -7.0311286      3.8130033      50218.233      36.893836      36.893836      36.893836    
   6410000   0.50863496    -7.7933682     -7.0304266      3.8282941      50218.233      36.893836      36.893836      36.893836    
   6420000   0.51381508    -7.7930388     -7.0223271      3.8418599      50218.233      36.893836      36.893836      36.893836    
   6430000   0.51128778    -7.7952322     -7.0283115      3.8132316      50218.233      36.893836      36.893836      36.893836    
   6440000   0.51160342    -7.7931578     -7.0257636      3.8296556      50218.233      36.893836      36.893836      36.893836    
   6450000   0.51119143    -7.7973826     -7.0306063      3.7996934      50218.233      36.893836      36.893836      36.893836    
   6460000   0.50956673    -7.7939433     -7.0296041      3.8128299      50218.233      36.893836      36.893836      36.893836    
   6470000   0.51003456    -7.7929843     -7.0279434      3.8354396      50218.233      36.893836      36.893836      36.893836    
   6480000   0.51093301    -7.792809      -7.0264204      3.8419024      50218.233      36.893836      36.893836      36.893836    
   6490000   0.50915011    -7.7965686     -7.0328543      3.8161527      50218.233      36.893836      36.893836      36.893836    
   6500000   0.51089176    -7.7916053     -7.0252785      3.8291375      50218.233      36.893836      36.893836      36.893836    
   6510000   0.50994876    -7.7980051     -7.0330928      3.7942681      50218.233      36.893836      36.893836      36.893836    
   6520000   0.5106995     -7.796256      -7.0302177      3.7969359      50218.233      36.893836      36.893836      36.893836    
   6530000   0.50935715    -7.7938815     -7.0298567      3.8180348      50218.233      36.893836      36.893836      36.893836    
   6540000   0.51014992    -7.7967999     -7.0315859      3.8115218      50218.233      36.893836      36.893836      36.893836    
   6550000   0.51053824    -7.7929606     -7.0271642      3.8373352      50218.233      36.893836      36.893836      36.893836    
   6560000   0.51147816    -7.796215      -7.0290087      3.8086901      50218.233      36.893836      36.893836      36.893836    
   6570000   0.51117914    -7.7930339     -7.0262761      3.8295055      50218.233      36.893836      36.893836      36.893836    
   6580000   0.51177894    -7.7942583     -7.0266008      3.8276063      50218.233      36.893836      36.893836      36.893836    
   6590000   0.50954677    -7.7945089     -7.0301997      3.8219933      50218.233      36.893836      36.893836      36.893836    
   6600000   0.50956511    -7.7943194     -7.0299826      3.8281993      50218.233      36.893836      36.893836      36.893836    
   6610000   0.50956129    -7.7907569     -7.0264258      3.8546678      50218.233      36.893836      36.893836      36.893836    
   6620000   0.50924349    -7.793303      -7.0294486      3.8396785      50218.233      36.893836      36.893836      36.893836    
   6630000   0.51176027    -7.7906618     -7.0230323      3.8610054      50218.233      36.893836      36.893836      36.893836    
   6640000   0.50888964    -7.7887964     -7.0254728      3.8728221      50218.233      36.893836      36.893836      36.893836    
   6650000   0.50944075    -7.7888974     -7.0247472      3.8725079      50218.233      36.893836      36.893836      36.893836    
   6660000   0.51041657    -7.7911701     -7.0255561      3.8482868      50218.233      36.893836      36.893836      36.893836    
   6670000   0.51119636    -7.7961627     -7.029379       3.8056914      50218.233      36.893836      36.893836      36.893836    
   6680000   0.51236211    -7.7943227     -7.0257905      3.8340887      50218.233      36.893836      36.893836      36.893836    
   6690000   0.51041615    -7.7900013     -7.024388       3.8694287      50218.233      36.893836      36.893836      36.893836    
   6700000   0.50961821    -7.7907159     -7.0262995      3.8611223      50218.233      36.893836      36.893836      36.893836    
   6710000   0.5129914     -7.7945796     -7.0251034      3.8391767      50218.233      36.893836      36.893836      36.893836    
   6720000   0.508238      -7.7877117     -7.0253655      3.8756906      50218.233      36.893836      36.893836      36.893836    
   6730000   0.50871988    -7.7897524     -7.0266835      3.8558935      50218.233      36.893836      36.893836      36.893836    
   6740000   0.50810525    -7.7900275     -7.0278805      3.8663805      50218.233      36.893836      36.893836      36.893836    
   6750000   0.51040478    -7.7943622     -7.0287659      3.8193487      50218.233      36.893836      36.893836      36.893836    
   6760000   0.50881525    -7.7891724     -7.0259604      3.8681028      50218.233      36.893836      36.893836      36.893836    
   6770000   0.50918543    -7.788568      -7.0248007      3.8743596      50218.233      36.893836      36.893836      36.893836    
   6780000   0.51035686    -7.7949406     -7.0294162      3.8242161      50218.233      36.893836      36.893836      36.893836    
   6790000   0.51010183    -7.7983905     -7.0332486      3.8008768      50218.233      36.893836      36.893836      36.893836    
   6800000   0.51123237    -7.7904289     -7.0235912      3.8666602      50218.233      36.893836      36.893836      36.893836    
   6810000   0.51082692    -7.7846445     -7.018415       3.9060956      50218.233      36.893836      36.893836      36.893836    
   6820000   0.51071555    -7.7893061     -7.0232437      3.8723941      50218.233      36.893836      36.893836      36.893836    
   6830000   0.51017553    -7.7921782     -7.0269258      3.8473898      50218.233      36.893836      36.893836      36.893836    
   6840000   0.51092667    -7.7933709     -7.0269918      3.8400147      50218.233      36.893836      36.893836      36.893836    
   6850000   0.50837835    -7.7919375     -7.0293808      3.86445        50218.233      36.893836      36.893836      36.893836    
   6860000   0.51185719    -7.792653      -7.0248781      3.8418265      50218.233      36.893836      36.893836      36.893836    
   6870000   0.51016849    -7.791974      -7.0267322      3.8514517      50218.233      36.893836      36.893836      36.893836    
   6880000   0.51217199    -7.7924186     -7.0241716      3.8511869      50218.233      36.893836      36.893836      36.893836    
   6890000   0.5109799     -7.7908887     -7.0244297      3.8524218      50218.233      36.893836      36.893836      36.893836    
   6900000   0.5127551     -7.7927511     -7.0236294      3.8385849      50218.233      36.893836      36.893836      36.893836    
   6910000   0.50874129    -7.7934333     -7.0303323      3.8404564      50218.233      36.893836      36.893836      36.893836    
   6920000   0.50787089    -7.7941641     -7.0323686      3.8227026      50218.233      36.893836      36.893836      36.893836    
   6930000   0.51059936    -7.7956984     -7.0298103      3.8248839      50218.233      36.893836      36.893836      36.893836    
   6940000   0.50898623    -7.7943092     -7.0308407      3.8272867      50218.233      36.893836      36.893836      36.893836    
   6950000   0.5122406     -7.7949728     -7.0266228      3.8261097      50218.233      36.893836      36.893836      36.893836    
   6960000   0.51050917    -7.7916668     -7.025914       3.8457125      50218.233      36.893836      36.893836      36.893836    
   6970000   0.51032301    -7.7958947     -7.030421       3.8147117      50218.233      36.893836      36.893836      36.893836    
   6980000   0.51139974    -7.7950236     -7.0279349      3.8228391      50218.233      36.893836      36.893836      36.893836    
   6990000   0.51345887    -7.7926126     -7.0224353      3.8418488      50218.233      36.893836      36.893836      36.893836    
   7000000   0.51086391    -7.7886653     -7.0223803      3.8785392      50218.233      36.893836      36.893836      36.893836    
   7010000   0.50994012    -7.7928215     -7.0279222      3.8407986      50218.233      36.893836      36.893836      36.893836    
   7020000   0.51204484    -7.7928165     -7.0247601      3.8591281      50218.233      36.893836      36.893836      36.893836    
   7030000   0.51023305    -7.7898321     -7.0244934      3.8696073      50218.233      36.893836      36.893836      36.893836    
   7040000   0.50968068    -7.7950056     -7.0304954      3.8223501      50218.233      36.893836      36.893836      36.893836    
   7050000   0.51104593    -7.7935909     -7.027033       3.8558189      50218.233      36.893836      36.893836      36.893836    
   7060000   0.51123937    -7.7927848     -7.0259367      3.8490777      50218.233      36.893836      36.893836      36.893836    
   7070000   0.50856838    -7.7952874     -7.0324457      3.8233868      50218.233      36.893836      36.893836      36.893836    
   7080000   0.50730573    -7.7917429     -7.0307951      3.8455928      50218.233      36.893836      36.893836      36.893836    
   7090000   0.51102051    -7.7923205     -7.0258006      3.841894       50218.233      36.893836      36.893836      36.893836    
   7100000   0.51193028    -7.7897327     -7.0218482      3.8657655      50218.233      36.893836      36.893836      36.893836    
   7110000   0.51260316    -7.797994      -7.0291002      3.7975313      50218.233      36.893836      36.893836      36.893836    
   7120000   0.51069908    -7.7874476     -7.0214098      3.8841194      50218.233      36.893836      36.893836      36.893836    
   7130000   0.50925583    -7.7916511     -7.0277782      3.838461       50218.233      36.893836      36.893836      36.893836    
   7140000   0.5109793     -7.7953224     -7.0288644      3.8231883      50218.233      36.893836      36.893836      36.893836    
   7150000   0.51119224    -7.7897076     -7.0229302      3.8788037      50218.233      36.893836      36.893836      36.893836    
   7160000   0.51030195    -7.7887917     -7.0233497      3.8683745      50218.233      36.893836      36.893836      36.893836    
   7170000   0.5118046     -7.7906438     -7.0229478      3.8605712      50218.233      36.893836      36.893836      36.893836    
   7180000   0.51137557    -7.7951472     -7.0280947      3.8316462      50218.233      36.893836      36.893836      36.893836    
   7190000   0.50668033    -7.7913096     -7.0312999      3.8414674      50218.233      36.893836      36.893836      36.893836    
   7200000   0.51000107    -7.7875323     -7.0225416      3.8776304      50218.233      36.893836      36.893836      36.893836    
   7210000   0.50964026    -7.7916932     -7.0272436      3.8476532      50218.233      36.893836      36.893836      36.893836    
   7220000   0.51042322    -7.7904716     -7.0248476      3.8496806      50218.233      36.893836      36.893836      36.893836    
   7230000   0.50851705    -7.7875181     -7.0247533      3.8716475      50218.233      36.893836      36.893836      36.893836    
   7240000   0.50947101    -7.7939729     -7.0297772      3.8296126      50218.233      36.893836      36.893836      36.893836    
   7250000   0.51183873    -7.7909159     -7.0231687      3.8611665      50218.233      36.893836      36.893836      36.893836    
   7260000   0.50825866    -7.7920917     -7.0297145      3.8370865      50218.233      36.893836      36.893836      36.893836    
   7270000   0.51193164    -7.7901246     -7.0222381      3.8671273      50218.233      36.893836      36.893836      36.893836    
   7280000   0.50959232    -7.7930624     -7.0286848      3.8375317      50218.233      36.893836      36.893836      36.893836    
   7290000   0.5112726     -7.790363      -7.023465       3.8572334      50218.233      36.893836      36.893836      36.893836    
   7300000   0.50809401    -7.7898776     -7.0277474      3.8446395      50218.233      36.893836      36.893836      36.893836    
   7310000   0.51159926    -7.7881057     -7.0207177      3.8821011      50218.233      36.893836      36.893836      36.893836    
   7320000   0.50853178    -7.7887309     -7.0259441      3.8714932      50218.233      36.893836      36.893836      36.893836    
   7330000   0.51002092    -7.7923997     -7.0273792      3.8428696      50218.233      36.893836      36.893836      36.893836    
   7340000   0.51206619    -7.788617      -7.0205287      3.85897        50218.233      36.893836      36.893836      36.893836    
   7350000   0.50848799    -7.7932829     -7.0305618      3.8260654      50218.233      36.893836      36.893836      36.893836    
   7360000   0.51237385    -7.7921393     -7.0235895      3.8438203      50218.233      36.893836      36.893836      36.893836    
   7370000   0.50791579    -7.7920025     -7.0301396      3.8423956      50218.233      36.893836      36.893836      36.893836    
   7380000   0.50950757    -7.7902587     -7.0260082      3.8573744      50218.233      36.893836      36.893836      36.893836    
   7390000   0.50852415    -7.7894894     -7.0267141      3.8580579      50218.233      36.893836      36.893836      36.893836    
   7400000   0.51175274    -7.792706      -7.0250878      3.8325096      50218.233      36.893836      36.893836      36.893836    
   7410000   0.50803334    -7.7939842     -7.0319451      3.8300508      50218.233      36.893836      36.893836      36.893836    
   7420000   0.50970631    -7.7917274     -7.0271788      3.844845       50218.233      36.893836      36.893836      36.893836    
   7430000   0.51046627    -7.7875568     -7.0218683      3.8707887      50218.233      36.893836      36.893836      36.893836    
   7440000   0.50998154    -7.7876251     -7.0226636      3.8696641      50218.233      36.893836      36.893836      36.893836    
   7450000   0.5077376     -7.7944897     -7.0328942      3.8268148      50218.233      36.893836      36.893836      36.893836    
   7460000   0.51113108    -7.7931819     -7.0264962      3.8361838      50218.233      36.893836      36.893836      36.893836    
   7470000   0.50962146    -7.7882476     -7.0238263      3.869665       50218.233      36.893836      36.893836      36.893836    
   7480000   0.50846043    -7.7936448     -7.030965       3.8324664      50218.233      36.893836      36.893836      36.893836    
   7490000   0.511364      -7.7919513     -7.0249162      3.8495134      50218.233      36.893836      36.893836      36.893836    
   7500000   0.50935816    -7.7943913     -7.0303649      3.8216778      50218.233      36.893836      36.893836      36.893836    
   7510000   0.50922989    -7.7926186     -7.0287846      3.8278166      50218.233      36.893836      36.893836      36.893836    
   7520000   0.50888239    -7.7906077     -7.0272949      3.8574416      50218.233      36.893836      36.893836      36.893836    
   7530000   0.50770977    -7.7942061     -7.0326523      3.8207277      50218.233      36.893836      36.893836      36.893836    
   7540000   0.50820163    -7.794449      -7.0321574      3.8153541      50218.233      36.893836      36.893836      36.893836    
   7550000   0.50754393    -7.7930089     -7.0317039      3.8286032      50218.233      36.893836      36.893836      36.893836    
   7560000   0.51026862    -7.791439      -7.026047       3.8616486      50218.233      36.893836      36.893836      36.893836    
   7570000   0.50948893    -7.7892898     -7.0250673      3.8547415      50218.233      36.893836      36.893836      36.893836    
   7580000   0.50900321    -7.791577      -7.0280831      3.8329628      50218.233      36.893836      36.893836      36.893836    
   7590000   0.50897822    -7.7920095     -7.0285531      3.8500334      50218.233      36.893836      36.893836      36.893836    
   7600000   0.51164204    -7.7889029     -7.0214508      3.8627043      50218.233      36.893836      36.893836      36.893836    
   7610000   0.50925685    -7.7913084     -7.0274339      3.8429415      50218.233      36.893836      36.893836      36.893836    
   7620000   0.51199468    -7.7920676     -7.0240865      3.8454273      50218.233      36.893836      36.893836      36.893836    
   7630000   0.51038424    -7.7914392     -7.0258738      3.8471787      50218.233      36.893836      36.893836      36.893836    
   7640000   0.51111366    -7.7887596     -7.0221001      3.8634626      50218.233      36.893836      36.893836      36.893836    
   7650000   0.50912125    -7.7943657     -7.0306947      3.8251472      50218.233      36.893836      36.893836      36.893836    
   7660000   0.51148372    -7.7876368     -7.0204221      3.8865689      50218.233      36.893836      36.893836      36.893836    
   7670000   0.5101558     -7.7909486     -7.0257258      3.8562407      50218.233      36.893836      36.893836      36.893836    
   7680000   0.50930507    -7.7920905     -7.0281437      3.8337529      50218.233      36.893836      36.893836      36.893836    
   7690000   0.51050941    -7.7931896     -7.0274364      3.8354219      50218.233      36.893836      36.893836      36.893836    
   7700000   0.51024175    -7.7925152     -7.0271635      3.833913       50218.233      36.893836      36.893836      36.893836    
   7710000   0.51020436    -7.788656      -7.0233603      3.8706322      50218.233      36.893836      36.893836      36.893836    
   7720000   0.51060413    -7.789323      -7.0234276      3.8595846      50218.233      36.893836      36.893836      36.893836    
   7730000   0.50799577    -7.7900746     -7.0280918      3.8523047      50218.233      36.893836      36.893836      36.893836    
   7740000   0.51049555    -7.7955023     -7.0297699      3.8144677      50218.233      36.893836      36.893836      36.893836    
   7750000   0.51051143    -7.7929327     -7.0271764      3.8392845      50218.233      36.893836      36.893836      36.893836    
   7760000   0.51007254    -7.7882201     -7.0231222      3.8691393      50218.233      36.893836      36.893836      36.893836    
   7770000   0.50903817    -7.7905614     -7.027015       3.8629557      50218.233      36.893836      36.893836      36.893836    
   7780000   0.51120154    -7.7890787     -7.0222873      3.8589535      50218.233      36.893836      36.893836      36.893836    
   7790000   0.511666      -7.7906352     -7.0231471      3.8573654      50218.233      36.893836      36.893836      36.893836    
   7800000   0.50867046    -7.7889478     -7.0259529      3.8639186      50218.233      36.893836      36.893836      36.893836    
   7810000   0.50937213    -7.7881796     -7.0241323      3.8670944      50218.233      36.893836      36.893836      36.893836    
   7820000   0.51047416    -7.7883884     -7.022688       3.8728643      50218.233      36.893836      36.893836      36.893836    
   7830000   0.50984558    -7.7894348     -7.0246773      3.8580208      50218.233      36.893836      36.893836      36.893836    
   7840000   0.51142828    -7.7881347     -7.0210032      3.8724194      50218.233      36.893836      36.893836      36.893836    
   7850000   0.51147336    -7.7869579     -7.0197588      3.8743216      50218.233      36.893836      36.893836      36.893836    
   7860000   0.51084916    -7.7930266     -7.0267638      3.8378982      50218.233      36.893836      36.893836      36.893836    
   7870000   0.50982983    -7.7896525     -7.0249186      3.8624827      50218.233      36.893836      36.893836      36.893836    
   7880000   0.51028593    -7.7929355     -7.0275175      3.8373621      50218.233      36.893836      36.893836      36.893836    
   7890000   0.51088813    -7.7928857     -7.0265645      3.8369458      50218.233      36.893836      36.893836      36.893836    
   7900000   0.51127901    -7.7903655     -7.0234579      3.8576633      50218.233      36.893836      36.893836      36.893836    
   7910000   0.51097756    -7.789096      -7.0226406      3.8654619      50218.233      36.893836      36.893836      36.893836    
   7920000   0.51198846    -7.793268      -7.0252962      3.8470538      50218.233      36.893836      36.893836      36.893836    
   7930000   0.51059441    -7.7935789     -7.0276982      3.8384056      50218.233      36.893836      36.893836      36.893836    
   7940000   0.50897195    -7.7901974     -7.0267503      3.8509837      50218.233      36.893836      36.893836      36.893836    
   7950000   0.51104436    -7.7915344     -7.0249788      3.8444002      50218.233      36.893836      36.893836      36.893836    
   7960000   0.51212207    -7.7909663     -7.0227941      3.8499035      50218.233      36.893836      36.893836      36.893836    
   7970000   0.50895128    -7.7921996     -7.0287836      3.845796       50218.233      36.893836      36.893836      36.893836    
   7980000   0.51001118    -7.7954026     -7.0303967      3.8215119      50218.233      36.893836      36.893836      36.893836    
   7990000   0.50987337    -7.7886388     -7.0238396      3.8736413      50218.233      36.893836      36.893836      36.893836    
   8000000   0.50867325    -7.7922586     -7.0292596      3.8314894      50218.233      36.893836      36.893836      36.893836    
Loop time of 12700.6 on 5 procs for 8000000 steps with 70304 atoms

Performance: 544224.593 tau/day, 629.890 timesteps/s, 44.284 Matom-step/s
94.5% CPU use with 5 MPI tasks x 1 OpenMP threads

MPI task timing breakdown:
Section |  min time  |  avg time  |  max time  |%varavg| %total
---------------------------------------------------------------
Pair    | 4602.1     | 4998       | 5384.7     | 354.9 | 39.35
Neigh   | 38.299     | 43.726     | 48.426     |  52.1 |  0.34
Comm    | 1891.1     | 1907.8     | 1925.3     |  33.3 | 15.02
Output  | 0.14384    | 0.14851    | 0.15651    |   1.1 |  0.00
Modify  | 4732.9     | 5105.6     | 5481.3     | 333.8 | 40.20
Other   |            | 645.4      |            |       |  5.08

Nlocal:        14060.8 ave       14107 max       14018 min
Histogram: 1 1 0 0 1 0 0 1 0 1
Nghost:        18731.8 ave       18778 max       18700 min
Histogram: 1 0 1 2 0 0 0 0 0 1
Neighs:              0 ave           0 max           0 min
Histogram: 5 0 0 0 0 0 0 0 0 0

Total # of neighbors = 0
Ave neighs/atom = 0
Neighbor list builds = 1648391
Dangerous builds = 0
clear
OMP_NUM_THREADS environment is not set. Defaulting to 1 thread. (src/comm.cpp:98)
  using 1 OpenMP thread(s) per MPI task
package gpu 0
jump dms490.lmp

variable T equal 490
# T = 1000* (temp in LJ unit)
variable f equal 10000
log log.${T}
log log.490
