variable TLJ equal (${T}/1000)
variable TLJ equal (280/1000)
variable NCyle equal 10
variable iStep equal (${f})
variable iStep equal (10000)
variable dumpStep equal (${f}*100)
variable dumpStep equal (10000*100)
variable runStep equal (${f}*100*${NCyle})
variable runStep equal (10000*100*${NCyle})
variable runStep equal (10000*100*10)

units       lj
atom_style  atomic
dimension 3
boundary     p p p
pair_style  lj/cut 2.5
read_data  ../data/T${T}.dat
read_data  ../data/T280.dat
Reading data file ...
  orthogonal box = (0.97250269 0.97250269 0.97250269) to (37.866338 37.866338 37.866338)
  1 by 1 by 5 MPI processor grid
  reading atoms ...
  70304 atoms
  reading velocities ...
  70304 velocities
  read_data CPU = 0.210 seconds
change_box all triclinic
Changing box ...
  triclinic box = (0.97250269 0.97250269 0.97250269) to (37.866338 37.866338 37.866338) with tilt (0 0 0)
mass 1 1
mass 2 1
pair_modify shift yes
pair_coeff  1 1 1 1
pair_coeff  1 2 1.5 0.8
pair_coeff  2 2 0.5 0.88


timestep 0.01
thermo ${iStep}
thermo 10000
reset_timestep 0
thermo_style custom step temp pe etotal press vol lx ly lz
fix             1 all nvt temp ${TLJ}  ${TLJ}  0.1
fix             1 all nvt temp 0.28  ${TLJ}  0.1
fix             1 all nvt temp 0.28  0.28  0.1
thermo_modify flush yes

fix dsf all deform 1 xy  wiggle 0.5  ${f}   units box
fix dsf all deform 1 xy  wiggle 0.5  10000   units box
fix ps1 all ave/time 1 1 ${iStep} c_thermo_press[1] c_thermo_press[2]  c_thermo_press[3] c_thermo_press[4]  c_thermo_press[5] c_thermo_press[6]  file  stress.${T}
fix ps1 all ave/time 1 1 10000 c_thermo_press[1] c_thermo_press[2]  c_thermo_press[3] c_thermo_press[4]  c_thermo_press[5] c_thermo_press[6]  file  stress.${T}
fix ps1 all ave/time 1 1 10000 c_thermo_press[1] c_thermo_press[2]  c_thermo_press[3] c_thermo_press[4]  c_thermo_press[5] c_thermo_press[6]  file  stress.280
dump            1 all custom ${dumpStep} dump.${T} id type x y z
dump            1 all custom 1000000 dump.${T} id type x y z
dump            1 all custom 1000000 dump.280 id type x y z
dump_modify 1 sort id
fix nodrift all momentum 1  linear 1 1 1
fix com_seed all recenter INIT INIT INIT shift all
run ${runStep}
run 10000000
Generated 0 of 1 mixed pair_coeff terms from geometric mixing rule
Per MPI rank memory allocation (min/avg/max) = 8.915 | 8.919 | 8.922 Mbytes
   Step          Temp          PotEng         TotEng         Press          Volume           Lx             Ly             Lz      
         0   0.2807277     -8.167219      -7.7461335      0.74754833     50218.233      36.893836      36.893836      36.893836    
     10000   0.2793017     -8.1658466     -7.7469         0.74150497     50218.233      36.893836      36.893836      36.893836    
     20000   0.27981847    -8.1648295     -7.7451077      0.76001156     50218.233      36.893836      36.893836      36.893836    
     30000   0.27906362    -8.1673039     -7.7487144      0.74173857     50218.233      36.893836      36.893836      36.893836    
     40000   0.27983986    -8.1651225     -7.7453687      0.75671092     50218.233      36.893836      36.893836      36.893836    
     50000   0.28072111    -8.1653382     -7.7442625      0.75830077     50218.233      36.893836      36.893836      36.893836    
     60000   0.27969733    -8.165916      -7.7463759      0.75404561     50218.233      36.893836      36.893836      36.893836    
     70000   0.27988177    -8.1642741     -7.7444575      0.76065071     50218.233      36.893836      36.893836      36.893836    
     80000   0.27970184    -8.1643265     -7.7447797      0.75709171     50218.233      36.893836      36.893836      36.893836    
     90000   0.28124439    -8.1664221     -7.7445615      0.74853654     50218.233      36.893836      36.893836      36.893836    
    100000   0.27987002    -8.1669003     -7.7471012      0.7428017      50218.233      36.893836      36.893836      36.893836    
    110000   0.28013389    -8.1661153     -7.7459205      0.7418061      50218.233      36.893836      36.893836      36.893836    
    120000   0.2786267     -8.1655583     -7.7476242      0.74899216     50218.233      36.893836      36.893836      36.893836    
    130000   0.28028155    -8.1646929     -7.7442766      0.75890941     50218.233      36.893836      36.893836      36.893836    
    140000   0.28100366    -8.1649471     -7.7434476      0.7603687      50218.233      36.893836      36.893836      36.893836    
    150000   0.28050226    -8.1647416     -7.7439942      0.75800276     50218.233      36.893836      36.893836      36.893836    
    160000   0.28047605    -8.165503      -7.7447949      0.75538747     50218.233      36.893836      36.893836      36.893836    
    170000   0.27959747    -8.165636      -7.7462458      0.74447911     50218.233      36.893836      36.893836      36.893836    
    180000   0.27981205    -8.1643285     -7.7446164      0.75655689     50218.233      36.893836      36.893836      36.893836    
    190000   0.28027993    -8.1626624     -7.7422485      0.77418726     50218.233      36.893836      36.893836      36.893836    
    200000   0.2808792     -8.1639706     -7.7426578      0.75954326     50218.233      36.893836      36.893836      36.893836    
    210000   0.27897851    -8.1651528     -7.7466909      0.7594155      50218.233      36.893836      36.893836      36.893836    
    220000   0.27957067    -8.1613571     -7.7420071      0.78621173     50218.233      36.893836      36.893836      36.893836    
    230000   0.2793861     -8.1630185     -7.7439453      0.77412631     50218.233      36.893836      36.893836      36.893836    
    240000   0.27916795    -8.1674296     -7.7486836      0.73629672     50218.233      36.893836      36.893836      36.893836    
    250000   0.27925636    -8.1643033     -7.7454247      0.7588078      50218.233      36.893836      36.893836      36.893836    
    260000   0.28048319    -8.1636495     -7.7429307      0.76794533     50218.233      36.893836      36.893836      36.893836    
    270000   0.27952285    -8.167157      -7.7478787      0.73405966     50218.233      36.893836      36.893836      36.893836    
    280000   0.28003758    -8.1619726     -7.7419222      0.78094693     50218.233      36.893836      36.893836      36.893836    
    290000   0.28098754    -8.1635394     -7.7420641      0.77194233     50218.233      36.893836      36.893836      36.893836    
    300000   0.28000086    -8.1641376     -7.7441423      0.76241949     50218.233      36.893836      36.893836      36.893836    
    310000   0.28053818    -8.1648552     -7.7440539      0.75126036     50218.233      36.893836      36.893836      36.893836    
    320000   0.28023041    -8.1642118     -7.7438722      0.76478564     50218.233      36.893836      36.893836      36.893836    
    330000   0.27948102    -8.1659119     -7.7466964      0.74459847     50218.233      36.893836      36.893836      36.893836    
    340000   0.28084862    -8.1625045     -7.7412375      0.78086871     50218.233      36.893836      36.893836      36.893836    
    350000   0.27987847    -8.1645795     -7.7447677      0.7452445      50218.233      36.893836      36.893836      36.893836    
    360000   0.27992719    -8.1634472     -7.7435624      0.76797048     50218.233      36.893836      36.893836      36.893836    
    370000   0.2792701     -8.1669009     -7.7480017      0.74674578     50218.233      36.893836      36.893836      36.893836    
    380000   0.27931766    -8.1630119     -7.7440414      0.77728641     50218.233      36.893836      36.893836      36.893836    
    390000   0.28012015    -8.164846      -7.7446717      0.7567293      50218.233      36.893836      36.893836      36.893836    
    400000   0.27901171    -8.1663116     -7.7478         0.74835534     50218.233      36.893836      36.893836      36.893836    
    410000   0.28067503    -8.1658356     -7.744829       0.76121437     50218.233      36.893836      36.893836      36.893836    
    420000   0.2800249     -8.1656976     -7.7456662      0.75165472     50218.233      36.893836      36.893836      36.893836    
    430000   0.28197722    -8.1656238     -7.742664       0.75534928     50218.233      36.893836      36.893836      36.893836    
    440000   0.27965026    -8.1664234     -7.746954       0.75077035     50218.233      36.893836      36.893836      36.893836    
    450000   0.27793443    -8.1663445     -7.7494487      0.74589499     50218.233      36.893836      36.893836      36.893836    
    460000   0.27950845    -8.1667881     -7.7475314      0.73788761     50218.233      36.893836      36.893836      36.893836    
    470000   0.2804814     -8.166316      -7.7455999      0.75415994     50218.233      36.893836      36.893836      36.893836    
    480000   0.27893155    -8.1669398     -7.7485484      0.74338701     50218.233      36.893836      36.893836      36.893836    
    490000   0.27879351    -8.1651468     -7.7469625      0.75250757     50218.233      36.893836      36.893836      36.893836    
    500000   0.27956299    -8.1661806     -7.7468421      0.74947337     50218.233      36.893836      36.893836      36.893836    
    510000   0.28011474    -8.1650961     -7.74493        0.75598621     50218.233      36.893836      36.893836      36.893836    
    520000   0.27967702    -8.1648126     -7.7453031      0.75462001     50218.233      36.893836      36.893836      36.893836    
    530000   0.28005707    -8.1656357     -7.7455561      0.75438488     50218.233      36.893836      36.893836      36.893836    
    540000   0.27874935    -8.1639568     -7.7458388      0.77005008     50218.233      36.893836      36.893836      36.893836    
    550000   0.28122435    -8.1659689     -7.7441384      0.74500275     50218.233      36.893836      36.893836      36.893836    
    560000   0.28034808    -8.1628997     -7.7423836      0.77978468     50218.233      36.893836      36.893836      36.893836    
    570000   0.27990192    -8.1657234     -7.7458765      0.75074845     50218.233      36.893836      36.893836      36.893836    
    580000   0.28020336    -8.1655624     -7.7452633      0.75851408     50218.233      36.893836      36.893836      36.893836    
    590000   0.2795833     -8.1660575     -7.7466885      0.74696541     50218.233      36.893836      36.893836      36.893836    
    600000   0.27974396    -8.1642847     -7.7446747      0.76253186     50218.233      36.893836      36.893836      36.893836    
    610000   0.2805705     -8.1660886     -7.7452389      0.73974064     50218.233      36.893836      36.893836      36.893836    
    620000   0.27914235    -8.1645231     -7.7458155      0.75717105     50218.233      36.893836      36.893836      36.893836    
    630000   0.28164788    -8.1664265     -7.7439607      0.74868092     50218.233      36.893836      36.893836      36.893836    
    640000   0.28009543    -8.1637088     -7.7435716      0.7640336      50218.233      36.893836      36.893836      36.893836    
    650000   0.28037765    -8.1628556     -7.7422951      0.77187059     50218.233      36.893836      36.893836      36.893836    
    660000   0.28056658    -8.1656514     -7.7448075      0.75744864     50218.233      36.893836      36.893836      36.893836    
    670000   0.27942627    -8.162472      -7.7433386      0.77193347     50218.233      36.893836      36.893836      36.893836    
    680000   0.27929749    -8.1666273     -7.747687       0.74219045     50218.233      36.893836      36.893836      36.893836    
    690000   0.28097393    -8.1663147     -7.7448598      0.74907263     50218.233      36.893836      36.893836      36.893836    
    700000   0.27984124    -8.1675406     -7.7477847      0.73617881     50218.233      36.893836      36.893836      36.893836    
    710000   0.28048612    -8.1623544     -7.7416312      0.7685132      50218.233      36.893836      36.893836      36.893836    
    720000   0.27926699    -8.1653489     -7.7464544      0.74083665     50218.233      36.893836      36.893836      36.893836    
    730000   0.28036115    -8.1650235     -7.7444877      0.75424582     50218.233      36.893836      36.893836      36.893836    
    740000   0.28034225    -8.1640508     -7.7435434      0.76824923     50218.233      36.893836      36.893836      36.893836    
    750000   0.27938615    -8.1638891     -7.7448158      0.76034415     50218.233      36.893836      36.893836      36.893836    
    760000   0.28117771    -8.1625036     -7.7407431      0.777158       50218.233      36.893836      36.893836      36.893836    
    770000   0.2788973     -8.1679163     -7.7495763      0.73610763     50218.233      36.893836      36.893836      36.893836    
    780000   0.27925845    -8.1635643     -7.7446826      0.76350335     50218.233      36.893836      36.893836      36.893836    
    790000   0.27939973    -8.1637098     -7.7446161      0.76913729     50218.233      36.893836      36.893836      36.893836    
    800000   0.27905491    -8.1637383     -7.7451619      0.76631675     50218.233      36.893836      36.893836      36.893836    
    810000   0.28051745    -8.1636099     -7.7428397      0.76684357     50218.233      36.893836      36.893836      36.893836    
    820000   0.28010021    -8.1659712     -7.7458268      0.74378037     50218.233      36.893836      36.893836      36.893836    
    830000   0.27964465    -8.1644716     -7.7450106      0.76593368     50218.233      36.893836      36.893836      36.893836    
    840000   0.27990214    -8.1637281     -7.7438809      0.75837167     50218.233      36.893836      36.893836      36.893836    
    850000   0.27951033    -8.1653173     -7.7460578      0.76161831     50218.233      36.893836      36.893836      36.893836    
    860000   0.28095381    -8.1652563     -7.7438316      0.75688172     50218.233      36.893836      36.893836      36.893836    
    870000   0.28003848    -8.1647041     -7.7446523      0.75998821     50218.233      36.893836      36.893836      36.893836    
    880000   0.27879463    -8.1648097     -7.7466237      0.7528313      50218.233      36.893836      36.893836      36.893836    
    890000   0.27946464    -8.1626944     -7.7435034      0.77645296     50218.233      36.893836      36.893836      36.893836    
    900000   0.27931011    -8.1664637     -7.7475045      0.75508117     50218.233      36.893836      36.893836      36.893836    
    910000   0.28123367    -8.1637164     -7.7418719      0.76639633     50218.233      36.893836      36.893836      36.893836    
    920000   0.28090666    -8.1656409     -7.7442869      0.75070547     50218.233      36.893836      36.893836      36.893836    
    930000   0.27996862    -8.1657718     -7.7458248      0.74738751     50218.233      36.893836      36.893836      36.893836    
    940000   0.28038923    -8.1664642     -7.7458864      0.74597822     50218.233      36.893836      36.893836      36.893836    
    950000   0.27961024    -8.1677973     -7.7483879      0.73381041     50218.233      36.893836      36.893836      36.893836    
    960000   0.28002069    -8.1653154     -7.7452904      0.75450818     50218.233      36.893836      36.893836      36.893836    
    970000   0.27886942    -8.1678381     -7.74954        0.7354545      50218.233      36.893836      36.893836      36.893836    
    980000   0.28007455    -8.1665828     -7.7464769      0.73944887     50218.233      36.893836      36.893836      36.893836    
    990000   0.28010957    -8.1654517     -7.7452933      0.75539234     50218.233      36.893836      36.893836      36.893836    
   1000000   0.27978379    -8.1640274     -7.7443577      0.76039818     50218.233      36.893836      36.893836      36.893836    
   1010000   0.27922707    -8.1654743     -7.7466396      0.74984242     50218.233      36.893836      36.893836      36.893836    
   1020000   0.27933448    -8.1659965     -7.7470008      0.74290937     50218.233      36.893836      36.893836      36.893836    
   1030000   0.27951742    -8.1645676     -7.7452975      0.75884886     50218.233      36.893836      36.893836      36.893836    
   1040000   0.28042032    -8.1629185     -7.742294       0.77377569     50218.233      36.893836      36.893836      36.893836    
   1050000   0.28024672    -8.1641836     -7.7438195      0.77004804     50218.233      36.893836      36.893836      36.893836    
   1060000   0.27857499    -8.1649915     -7.747135       0.74950027     50218.233      36.893836      36.893836      36.893836    
   1070000   0.27964083    -8.16649       -7.7470348      0.74067889     50218.233      36.893836      36.893836      36.893836    
   1080000   0.28049618    -8.1653609     -7.7446226      0.75772216     50218.233      36.893836      36.893836      36.893836    
   1090000   0.28025078    -8.1652934     -7.7449232      0.75660857     50218.233      36.893836      36.893836      36.893836    
   1100000   0.2797269     -8.1677468     -7.7481624      0.74009426     50218.233      36.893836      36.893836      36.893836    
   1110000   0.28072296    -8.1627989     -7.7417205      0.771805       50218.233      36.893836      36.893836      36.893836    
   1120000   0.28019264    -8.1644502     -7.7441672      0.77167424     50218.233      36.893836      36.893836      36.893836    
   1130000   0.28086912    -8.164229      -7.7429314      0.76050221     50218.233      36.893836      36.893836      36.893836    
   1140000   0.28045764    -8.164084      -7.7434036      0.76429828     50218.233      36.893836      36.893836      36.893836    
   1150000   0.28166252    -8.1639611     -7.7414733      0.77000368     50218.233      36.893836      36.893836      36.893836    
   1160000   0.28054132    -8.1657597     -7.7449537      0.74934908     50218.233      36.893836      36.893836      36.893836    
   1170000   0.28150762    -8.1628746     -7.7406191      0.77356541     50218.233      36.893836      36.893836      36.893836    
   1180000   0.27980416    -8.1640422     -7.7443419      0.76711363     50218.233      36.893836      36.893836      36.893836    
   1190000   0.28096135    -8.1652261     -7.7437901      0.75857747     50218.233      36.893836      36.893836      36.893836    
   1200000   0.27863588    -8.1637793     -7.7458315      0.76416957     50218.233      36.893836      36.893836      36.893836    
   1210000   0.28022217    -8.1634438     -7.7431165      0.77167654     50218.233      36.893836      36.893836      36.893836    
   1220000   0.28026516    -8.1619057     -7.741514       0.7831428      50218.233      36.893836      36.893836      36.893836    
   1230000   0.28051363    -8.1653832     -7.7446188      0.76092421     50218.233      36.893836      36.893836      36.893836    
   1240000   0.27960813    -8.1629501     -7.7435439      0.77541352     50218.233      36.893836      36.893836      36.893836    
   1250000   0.27943057    -8.164946      -7.7458061      0.75415177     50218.233      36.893836      36.893836      36.893836    
   1260000   0.27876336    -8.1673634     -7.7492243      0.7483402      50218.233      36.893836      36.893836      36.893836    
   1270000   0.28007156    -8.163223      -7.7431217      0.77336098     50218.233      36.893836      36.893836      36.893836    
   1280000   0.2798653     -8.1660377     -7.7462457      0.74552878     50218.233      36.893836      36.893836      36.893836    
   1290000   0.28010763    -8.1635383     -7.7433829      0.77052494     50218.233      36.893836      36.893836      36.893836    
   1300000   0.27907339    -8.1633612     -7.744757       0.76199348     50218.233      36.893836      36.893836      36.893836    
   1310000   0.28017049    -8.1672196     -7.7469699      0.74491822     50218.233      36.893836      36.893836      36.893836    
   1320000   0.28126548    -8.166174      -7.7442818      0.75235996     50218.233      36.893836      36.893836      36.893836    
   1330000   0.28055415    -8.164316      -7.7434908      0.76076687     50218.233      36.893836      36.893836      36.893836    
   1340000   0.28144842    -8.1644701     -7.7423035      0.75866797     50218.233      36.893836      36.893836      36.893836    
   1350000   0.27943942    -8.1634922     -7.744339       0.76914417     50218.233      36.893836      36.893836      36.893836    
   1360000   0.28062531    -8.1639116     -7.7429796      0.76951415     50218.233      36.893836      36.893836      36.893836    
   1370000   0.27921498    -8.1648064     -7.7459899      0.75972688     50218.233      36.893836      36.893836      36.893836    
   1380000   0.280361      -8.1657217     -7.7451862      0.76185282     50218.233      36.893836      36.893836      36.893836    
   1390000   0.27891358    -8.163339      -7.7449746      0.7688753      50218.233      36.893836      36.893836      36.893836    
   1400000   0.28146741    -8.1645439     -7.7423488      0.76414312     50218.233      36.893836      36.893836      36.893836    
   1410000   0.28058199    -8.1651716     -7.7443046      0.75739677     50218.233      36.893836      36.893836      36.893836    
   1420000   0.27893234    -8.1642486     -7.745856       0.76708924     50218.233      36.893836      36.893836      36.893836    
   1430000   0.27996999    -8.1640792     -7.7441302      0.76310043     50218.233      36.893836      36.893836      36.893836    
   1440000   0.27916922    -8.1648403     -7.7460924      0.76283925     50218.233      36.893836      36.893836      36.893836    
   1450000   0.27962697    -8.1646797     -7.7452452      0.75397058     50218.233      36.893836      36.893836      36.893836    
   1460000   0.28095449    -8.1646503     -7.7432246      0.76376604     50218.233      36.893836      36.893836      36.893836    
   1470000   0.28082442    -8.1683816     -7.7471509      0.73320667     50218.233      36.893836      36.893836      36.893836    
   1480000   0.27901879    -8.1661649     -7.7476427      0.7485958      50218.233      36.893836      36.893836      36.893836    
   1490000   0.28103547    -8.1662543     -7.7447071      0.74647377     50218.233      36.893836      36.893836      36.893836    
   1500000   0.28051703    -8.1631569     -7.7423873      0.77098711     50218.233      36.893836      36.893836      36.893836    
   1510000   0.27937659    -8.1650786     -7.7460197      0.74810978     50218.233      36.893836      36.893836      36.893836    
   1520000   0.28035024    -8.1666334     -7.746114       0.74854605     50218.233      36.893836      36.893836      36.893836    
   1530000   0.28001867    -8.1681265     -7.7481045      0.7360806      50218.233      36.893836      36.893836      36.893836    
   1540000   0.27860388    -8.16526       -7.7473602      0.74891692     50218.233      36.893836      36.893836      36.893836    
   1550000   0.27976293    -8.1679697     -7.7483313      0.72768481     50218.233      36.893836      36.893836      36.893836    
   1560000   0.27901166    -8.1636975     -7.7451859      0.76556829     50218.233      36.893836      36.893836      36.893836    
   1570000   0.27837643    -8.1669626     -7.7494039      0.73734409     50218.233      36.893836      36.893836      36.893836    
   1580000   0.27993357    -8.1644834     -7.744589       0.76208779     50218.233      36.893836      36.893836      36.893836    
   1590000   0.27947599    -8.166396      -7.747188       0.75265661     50218.233      36.893836      36.893836      36.893836    
   1600000   0.28077062    -8.1659818     -7.7448318      0.7448192      50218.233      36.893836      36.893836      36.893836    
   1610000   0.2803637     -8.1632769     -7.7427373      0.76703069     50218.233      36.893836      36.893836      36.893836    
   1620000   0.28081319    -8.1661642     -7.7449504      0.74339534     50218.233      36.893836      36.893836      36.893836    
   1630000   0.27931954    -8.1658679     -7.7468946      0.74226339     50218.233      36.893836      36.893836      36.893836    
   1640000   0.27962355    -8.1665472     -7.7471178      0.74955816     50218.233      36.893836      36.893836      36.893836    
   1650000   0.27903079    -8.1652312     -7.746691       0.76077922     50218.233      36.893836      36.893836      36.893836    
   1660000   0.27957693    -8.1633694     -7.74401        0.76852122     50218.233      36.893836      36.893836      36.893836    
   1670000   0.27968133    -8.1644406     -7.7449246      0.75856343     50218.233      36.893836      36.893836      36.893836    
   1680000   0.27906413    -8.1654463     -7.7468561      0.759469       50218.233      36.893836      36.893836      36.893836    
   1690000   0.2811364     -8.1639067     -7.7422081      0.76535777     50218.233      36.893836      36.893836      36.893836    
   1700000   0.28043878    -8.1623657     -7.7417135      0.7727827      50218.233      36.893836      36.893836      36.893836    
   1710000   0.28123912    -8.164227      -7.7423743      0.76506481     50218.233      36.893836      36.893836      36.893836    
   1720000   0.28135701    -8.1649969     -7.7429673      0.75984108     50218.233      36.893836      36.893836      36.893836    
   1730000   0.2804487     -8.1647173     -7.7440503      0.76381515     50218.233      36.893836      36.893836      36.893836    
   1740000   0.2801934     -8.164702      -7.7444179      0.76270774     50218.233      36.893836      36.893836      36.893836    
   1750000   0.28003002    -8.1652537     -7.7452147      0.75243703     50218.233      36.893836      36.893836      36.893836    
   1760000   0.27903246    -8.1649681     -7.7464253      0.76344981     50218.233      36.893836      36.893836      36.893836    
   1770000   0.27978914    -8.165727      -7.7460493      0.75341112     50218.233      36.893836      36.893836      36.893836    
   1780000   0.28082635    -8.164312      -7.7430784      0.76472435     50218.233      36.893836      36.893836      36.893836    
   1790000   0.28092633    -8.1648232     -7.7434397      0.75781652     50218.233      36.893836      36.893836      36.893836    
   1800000   0.27921877    -8.1660364     -7.7472142      0.74154027     50218.233      36.893836      36.893836      36.893836    
   1810000   0.27957295    -8.165157      -7.7458035      0.75223929     50218.233      36.893836      36.893836      36.893836    
   1820000   0.28031712    -8.1654996     -7.7450299      0.75231947     50218.233      36.893836      36.893836      36.893836    
   1830000   0.28153687    -8.1627559     -7.7404566      0.77310166     50218.233      36.893836      36.893836      36.893836    
   1840000   0.27883443    -8.1656037     -7.747358       0.7501216      50218.233      36.893836      36.893836      36.893836    
   1850000   0.27953178    -8.1646583     -7.7453666      0.74791181     50218.233      36.893836      36.893836      36.893836    
   1860000   0.28017602    -8.1654819     -7.7452239      0.751217       50218.233      36.893836      36.893836      36.893836    
   1870000   0.27955156    -8.1656414     -7.74632        0.75177404     50218.233      36.893836      36.893836      36.893836    
   1880000   0.28044596    -8.1649453     -7.7442824      0.76836346     50218.233      36.893836      36.893836      36.893836    
   1890000   0.28027611    -8.1671488     -7.7467406      0.74186009     50218.233      36.893836      36.893836      36.893836    
   1900000   0.28053052    -8.1651903     -7.7444005      0.75490081     50218.233      36.893836      36.893836      36.893836    
   1910000   0.27940222    -8.1623372     -7.7432399      0.77966251     50218.233      36.893836      36.893836      36.893836    
   1920000   0.27996593    -8.1660075     -7.7460646      0.75138311     50218.233      36.893836      36.893836      36.893836    
   1930000   0.28015497    -8.1659303     -7.7457038      0.74847887     50218.233      36.893836      36.893836      36.893836    
   1940000   0.28057172    -8.1643114     -7.7434598      0.75937139     50218.233      36.893836      36.893836      36.893836    
   1950000   0.27898912    -8.1639144     -7.7454367      0.76018614     50218.233      36.893836      36.893836      36.893836    
   1960000   0.28033245    -8.166083      -7.7455903      0.75455335     50218.233      36.893836      36.893836      36.893836    
   1970000   0.27922537    -8.1678105     -7.7489784      0.73529684     50218.233      36.893836      36.893836      36.893836    
   1980000   0.28123197    -8.1664936     -7.7446516      0.74945024     50218.233      36.893836      36.893836      36.893836    
   1990000   0.27845465    -8.1637039     -7.7460279      0.76065823     50218.233      36.893836      36.893836      36.893836    
   2000000   0.28027431    -8.1638106     -7.7434051      0.77231447     50218.233      36.893836      36.893836      36.893836    
   2010000   0.28040439    -8.1648611     -7.7442605      0.75974949     50218.233      36.893836      36.893836      36.893836    
   2020000   0.28053835    -8.1635072     -7.7427056      0.77134018     50218.233      36.893836      36.893836      36.893836    
   2030000   0.28085228    -8.1663619     -7.7450894      0.74300639     50218.233      36.893836      36.893836      36.893836    
   2040000   0.27987592    -8.1667362     -7.7469283      0.74218435     50218.233      36.893836      36.893836      36.893836    
   2050000   0.27992797    -8.1654709     -7.7455849      0.74926742     50218.233      36.893836      36.893836      36.893836    
   2060000   0.27857537    -8.1648163     -7.7469592      0.75887881     50218.233      36.893836      36.893836      36.893836    
   2070000   0.28087103    -8.1637321     -7.7424316      0.76475185     50218.233      36.893836      36.893836      36.893836    
   2080000   0.28197186    -8.1646098     -7.741658       0.76975582     50218.233      36.893836      36.893836      36.893836    
   2090000   0.27981424    -8.1645242     -7.7448088      0.76311179     50218.233      36.893836      36.893836      36.893836    
   2100000   0.27876344    -8.1641497     -7.7460105      0.764837       50218.233      36.893836      36.893836      36.893836    
   2110000   0.27921224    -8.1651299     -7.7463175      0.75372144     50218.233      36.893836      36.893836      36.893836    
   2120000   0.27911139    -8.1658451     -7.7471839      0.7534968      50218.233      36.893836      36.893836      36.893836    
   2130000   0.28089076    -8.1645691     -7.7432389      0.76828249     50218.233      36.893836      36.893836      36.893836    
   2140000   0.28095588    -8.1673417     -7.7459138      0.74517321     50218.233      36.893836      36.893836      36.893836    
   2150000   0.28009172    -8.164788      -7.7446564      0.75867612     50218.233      36.893836      36.893836      36.893836    
   2160000   0.27963814    -8.1659438     -7.7464926      0.7559478      50218.233      36.893836      36.893836      36.893836    
   2170000   0.28105866    -8.1653553     -7.7437733      0.74792862     50218.233      36.893836      36.893836      36.893836    
   2180000   0.28004066    -8.1661966     -7.7461416      0.74605576     50218.233      36.893836      36.893836      36.893836    
   2190000   0.27990046    -8.1647436     -7.7448988      0.76826494     50218.233      36.893836      36.893836      36.893836    
   2200000   0.27984064    -8.1645046     -7.7447496      0.75629308     50218.233      36.893836      36.893836      36.893836    
   2210000   0.2798447     -8.1645708     -7.7448098      0.75968698     50218.233      36.893836      36.893836      36.893836    
   2220000   0.28093138    -8.1664226     -7.7450315      0.7492578      50218.233      36.893836      36.893836      36.893836    
   2230000   0.27973166    -8.1628406     -7.7432491      0.77350467     50218.233      36.893836      36.893836      36.893836    
   2240000   0.2802814     -8.1630708     -7.7426547      0.76746132     50218.233      36.893836      36.893836      36.893836    
   2250000   0.2801592     -8.1641798     -7.743947       0.76335971     50218.233      36.893836      36.893836      36.893836    
   2260000   0.28014677    -8.1647213     -7.7445071      0.75715529     50218.233      36.893836      36.893836      36.893836    
   2270000   0.28039194    -8.1660002     -7.7454183      0.74495341     50218.233      36.893836      36.893836      36.893836    
   2280000   0.27920268    -8.1626048     -7.7438067      0.77855574     50218.233      36.893836      36.893836      36.893836    
   2290000   0.27970922    -8.1629232     -7.7433654      0.76820502     50218.233      36.893836      36.893836      36.893836    
   2300000   0.27962678    -8.164853      -7.7454188      0.75397764     50218.233      36.893836      36.893836      36.893836    
   2310000   0.27975731    -8.165292      -7.745662       0.75469599     50218.233      36.893836      36.893836      36.893836    
   2320000   0.27942733    -8.1635227     -7.7443877      0.77203474     50218.233      36.893836      36.893836      36.893836    
   2330000   0.28093364    -8.1643661     -7.7429716      0.7603578      50218.233      36.893836      36.893836      36.893836    
   2340000   0.27911512    -8.1635956     -7.7449289      0.7711042      50218.233      36.893836      36.893836      36.893836    
   2350000   0.28019116    -8.1661707     -7.7458899      0.75024885     50218.233      36.893836      36.893836      36.893836    
   2360000   0.27987642    -8.1665853     -7.7467766      0.75148001     50218.233      36.893836      36.893836      36.893836    
   2370000   0.28102357    -8.1659492     -7.7444198      0.75182289     50218.233      36.893836      36.893836      36.893836    
   2380000   0.27932935    -8.1629814     -7.7439934      0.77698523     50218.233      36.893836      36.893836      36.893836    
   2390000   0.27965002    -8.165726      -7.7462569      0.74998814     50218.233      36.893836      36.893836      36.893836    
   2400000   0.27915395    -8.1648033     -7.7460784      0.75773907     50218.233      36.893836      36.893836      36.893836    
   2410000   0.27937674    -8.1654042     -7.746345       0.75304064     50218.233      36.893836      36.893836      36.893836    
   2420000   0.28046381    -8.1649042     -7.7442144      0.75857091     50218.233      36.893836      36.893836      36.893836    
   2430000   0.27901837    -8.1654816     -7.74696        0.75573051     50218.233      36.893836      36.893836      36.893836    
   2440000   0.27987265    -8.1658247     -7.7460217      0.75240178     50218.233      36.893836      36.893836      36.893836    
   2450000   0.27932278    -8.1658515     -7.7468733      0.76011606     50218.233      36.893836      36.893836      36.893836    
   2460000   0.27946389    -8.1645851     -7.7453952      0.75116922     50218.233      36.893836      36.893836      36.893836    
   2470000   0.2807227     -8.1674473     -7.7463693      0.73607623     50218.233      36.893836      36.893836      36.893836    
   2480000   0.27991363    -8.1672683     -7.7474038      0.73404264     50218.233      36.893836      36.893836      36.893836    
   2490000   0.28068441    -8.1654459     -7.7444253      0.75796114     50218.233      36.893836      36.893836      36.893836    
   2500000   0.27984438    -8.1684189     -7.7486583      0.73596434     50218.233      36.893836      36.893836      36.893836    
   2510000   0.27965313    -8.1666066     -7.7471328      0.74933274     50218.233      36.893836      36.893836      36.893836    
   2520000   0.27973033    -8.165828      -7.7462384      0.74652926     50218.233      36.893836      36.893836      36.893836    
   2530000   0.28017383    -8.1665568     -7.746302       0.74219011     50218.233      36.893836      36.893836      36.893836    
   2540000   0.28090747    -8.1644458     -7.7430906      0.77094638     50218.233      36.893836      36.893836      36.893836    
   2550000   0.28012519    -8.1661003     -7.7459185      0.74297573     50218.233      36.893836      36.893836      36.893836    
   2560000   0.27996711    -8.1658519     -7.7459072      0.75807789     50218.233      36.893836      36.893836      36.893836    
   2570000   0.27965592    -8.1681379     -7.74866        0.74388488     50218.233      36.893836      36.893836      36.893836    
   2580000   0.28026567    -8.166114      -7.7457215      0.74712185     50218.233      36.893836      36.893836      36.893836    
   2590000   0.28169484    -8.1658924     -7.7433562      0.75573015     50218.233      36.893836      36.893836      36.893836    
   2600000   0.28005783    -8.1634725     -7.7433917      0.76433246     50218.233      36.893836      36.893836      36.893836    
   2610000   0.2788548     -8.1653946     -7.7471184      0.75098224     50218.233      36.893836      36.893836      36.893836    
   2620000   0.28034268    -8.1670759     -7.7465679      0.73814037     50218.233      36.893836      36.893836      36.893836    
   2630000   0.28010462    -8.1656135     -7.7454626      0.75031298     50218.233      36.893836      36.893836      36.893836    
   2640000   0.27869455    -8.1674445     -7.7494086      0.73049722     50218.233      36.893836      36.893836      36.893836    
   2650000   0.2804053     -8.1618951     -7.7412931      0.78283166     50218.233      36.893836      36.893836      36.893836    
   2660000   0.2796343     -8.1653487     -7.7459033      0.74960612     50218.233      36.893836      36.893836      36.893836    
   2670000   0.28017509    -8.1639973     -7.7437406      0.76533645     50218.233      36.893836      36.893836      36.893836    
   2680000   0.27841758    -8.1633444     -7.745724       0.76489174     50218.233      36.893836      36.893836      36.893836    
   2690000   0.2799154     -8.1647875     -7.7449203      0.75810475     50218.233      36.893836      36.893836      36.893836    
   2700000   0.28080025    -8.1652782     -7.7440838      0.7598638      50218.233      36.893836      36.893836      36.893836    
   2710000   0.27985584    -8.1649514     -7.7451736      0.75079108     50218.233      36.893836      36.893836      36.893836    
   2720000   0.2777404     -8.1659563     -7.7493516      0.75068042     50218.233      36.893836      36.893836      36.893836    
   2730000   0.28026504    -8.1645663     -7.7441747      0.77258221     50218.233      36.893836      36.893836      36.893836    
   2740000   0.27991447    -8.166322      -7.7464563      0.75148995     50218.233      36.893836      36.893836      36.893836    
   2750000   0.27978302    -8.1656856     -7.746017       0.74771661     50218.233      36.893836      36.893836      36.893836    
   2760000   0.2805025     -8.1628802     -7.7421324      0.76948502     50218.233      36.893836      36.893836      36.893836    
   2770000   0.27978983    -8.1638352     -7.7441565      0.76368445     50218.233      36.893836      36.893836      36.893836    
   2780000   0.27978077    -8.1646716     -7.7450064      0.76297974     50218.233      36.893836      36.893836      36.893836    
   2790000   0.27936284    -8.1633102     -7.7442719      0.77192751     50218.233      36.893836      36.893836      36.893836    
   2800000   0.27910457    -8.1634321     -7.7447812      0.76272581     50218.233      36.893836      36.893836      36.893836    
   2810000   0.27898447    -8.1626257     -7.7441549      0.7733884      50218.233      36.893836      36.893836      36.893836    
   2820000   0.28036915    -8.1644004     -7.7438526      0.76164386     50218.233      36.893836      36.893836      36.893836    
   2830000   0.28272016    -8.1649926     -7.7409184      0.75503814     50218.233      36.893836      36.893836      36.893836    
   2840000   0.28055384    -8.1657903     -7.7449656      0.75241744     50218.233      36.893836      36.893836      36.893836    
   2850000   0.27906927    -8.1646298     -7.7460319      0.75648933     50218.233      36.893836      36.893836      36.893836    
   2860000   0.27946328    -8.1645479     -7.7453589      0.76142631     50218.233      36.893836      36.893836      36.893836    
   2870000   0.27755414    -8.166805      -7.7504797      0.73645757     50218.233      36.893836      36.893836      36.893836    
   2880000   0.28033225    -8.1635156     -7.7430232      0.76972429     50218.233      36.893836      36.893836      36.893836    
   2890000   0.28091839    -8.1667004     -7.7453288      0.7434637      50218.233      36.893836      36.893836      36.893836    
   2900000   0.28059313    -8.164101      -7.7432173      0.76673505     50218.233      36.893836      36.893836      36.893836    
   2910000   0.28113807    -8.1645169     -7.7428158      0.75804337     50218.233      36.893836      36.893836      36.893836    
   2920000   0.2799766     -8.1637331     -7.7437742      0.76919541     50218.233      36.893836      36.893836      36.893836    
   2930000   0.28150539    -8.1664099     -7.7441578      0.74744798     50218.233      36.893836      36.893836      36.893836    
   2940000   0.28089681    -8.1657784     -7.7444392      0.75231127     50218.233      36.893836      36.893836      36.893836    
   2950000   0.28022792    -8.1662366     -7.7459007      0.74660153     50218.233      36.893836      36.893836      36.893836    
   2960000   0.28049524    -8.1658333     -7.7450964      0.74774889     50218.233      36.893836      36.893836      36.893836    
   2970000   0.27931989    -8.1646076     -7.7456337      0.76114714     50218.233      36.893836      36.893836      36.893836    
   2980000   0.27948113    -8.1649179     -7.7457022      0.74805908     50218.233      36.893836      36.893836      36.893836    
   2990000   0.28012216    -8.1669275     -7.7467502      0.74314001     50218.233      36.893836      36.893836      36.893836    
   3000000   0.27907798    -8.1673695     -7.7487585      0.73674909     50218.233      36.893836      36.893836      36.893836    
   3010000   0.27950993    -8.1674203     -7.7481613      0.73437819     50218.233      36.893836      36.893836      36.893836    
   3020000   0.28146662    -8.1664056     -7.7442117      0.74677554     50218.233      36.893836      36.893836      36.893836    
   3030000   0.2805871     -8.1656976     -7.7448229      0.75213471     50218.233      36.893836      36.893836      36.893836    
   3040000   0.27973137    -8.1666722     -7.7470811      0.74287048     50218.233      36.893836      36.893836      36.893836    
   3050000   0.28042573    -8.1649801     -7.7443474      0.75685231     50218.233      36.893836      36.893836      36.893836    
   3060000   0.27974242    -8.1667563     -7.7471487      0.74632652     50218.233      36.893836      36.893836      36.893836    
   3070000   0.27879495    -8.1660207     -7.7478342      0.7442262      50218.233      36.893836      36.893836      36.893836    
   3080000   0.27951541    -8.1660075     -7.7467403      0.74431223     50218.233      36.893836      36.893836      36.893836    
   3090000   0.28015819    -8.1659097     -7.7456784      0.74703777     50218.233      36.893836      36.893836      36.893836    
   3100000   0.27982723    -8.1643618     -7.744627       0.75486548     50218.233      36.893836      36.893836      36.893836    
   3110000   0.27945961    -8.1619862     -7.7428028      0.78387092     50218.233      36.893836      36.893836      36.893836    
   3120000   0.28034289    -8.1659391     -7.7454308      0.75193887     50218.233      36.893836      36.893836      36.893836    
   3130000   0.28050432    -8.1639997     -7.7432492      0.76448321     50218.233      36.893836      36.893836      36.893836    
   3140000   0.27878073    -8.1670943     -7.7489292      0.74296041     50218.233      36.893836      36.893836      36.893836    
   3150000   0.2790452     -8.1656354     -7.7470736      0.76144431     50218.233      36.893836      36.893836      36.893836    
   3160000   0.27857516    -8.1632185     -7.7453617      0.7707236      50218.233      36.893836      36.893836      36.893836    
   3170000   0.2812683     -8.1635964     -7.7416999      0.7722281      50218.233      36.893836      36.893836      36.893836    
   3180000   0.28033842    -8.1636408     -7.7431391      0.76826539     50218.233      36.893836      36.893836      36.893836    
   3190000   0.27972697    -8.1640416     -7.7444571      0.76609381     50218.233      36.893836      36.893836      36.893836    
   3200000   0.28008073    -8.1657095     -7.7455944      0.74870742     50218.233      36.893836      36.893836      36.893836    
   3210000   0.27950141    -8.1632224     -7.7439762      0.76644444     50218.233      36.893836      36.893836      36.893836    
   3220000   0.28050242    -8.1649587     -7.7442111      0.7523553      50218.233      36.893836      36.893836      36.893836    
   3230000   0.28141266    -8.1655334     -7.7434204      0.75867314     50218.233      36.893836      36.893836      36.893836    
   3240000   0.28129637    -8.1648639     -7.7429254      0.75824854     50218.233      36.893836      36.893836      36.893836    
   3250000   0.27954531    -8.1639865     -7.7446745      0.76280283     50218.233      36.893836      36.893836      36.893836    
   3260000   0.281439      -8.1648838     -7.7427313      0.76194828     50218.233      36.893836      36.893836      36.893836    
   3270000   0.27933926    -8.1661916     -7.7471886      0.74768699     50218.233      36.893836      36.893836      36.893836    
   3280000   0.28004674    -8.1640249     -7.7439608      0.76239765     50218.233      36.893836      36.893836      36.893836    
   3290000   0.28134577    -8.1649558     -7.7429431      0.76046999     50218.233      36.893836      36.893836      36.893836    
   3300000   0.27921794    -8.1660838     -7.7472628      0.75061688     50218.233      36.893836      36.893836      36.893836    
   3310000   0.28007804    -8.1648953     -7.7447842      0.76609104     50218.233      36.893836      36.893836      36.893836    
   3320000   0.2800901     -8.1641641     -7.7440349      0.76236092     50218.233      36.893836      36.893836      36.893836    
   3330000   0.28175586    -8.165055      -7.7424272      0.75790853     50218.233      36.893836      36.893836      36.893836    
   3340000   0.28007157    -8.1657207     -7.7456194      0.74088661     50218.233      36.893836      36.893836      36.893836    
   3350000   0.28027208    -8.1642378     -7.7438357      0.76095267     50218.233      36.893836      36.893836      36.893836    
   3360000   0.2791128     -8.1671153     -7.7484521      0.74397493     50218.233      36.893836      36.893836      36.893836    
   3370000   0.27873418    -8.1651781     -7.7470827      0.74894722     50218.233      36.893836      36.893836      36.893836    
   3380000   0.27929791    -8.1636554     -7.7447145      0.76640352     50218.233      36.893836      36.893836      36.893836    
   3390000   0.28007174    -8.1643289     -7.7442273      0.76046094     50218.233      36.893836      36.893836      36.893836    
   3400000   0.28126787    -8.1671746     -7.7452787      0.74434901     50218.233      36.893836      36.893836      36.893836    
   3410000   0.27927258    -8.1663807     -7.7474778      0.73913087     50218.233      36.893836      36.893836      36.893836    
   3420000   0.28086881    -8.1668125     -7.7455153      0.7434736      50218.233      36.893836      36.893836      36.893836    
   3430000   0.27977388    -8.1659036     -7.7462487      0.74715424     50218.233      36.893836      36.893836      36.893836    
   3440000   0.27933947    -8.164829      -7.7458258      0.75077312     50218.233      36.893836      36.893836      36.893836    
   3450000   0.2792635     -8.1660759     -7.7471866      0.74593058     50218.233      36.893836      36.893836      36.893836    
   3460000   0.28074406    -8.1657996     -7.7446895      0.74666066     50218.233      36.893836      36.893836      36.893836    
   3470000   0.28037411    -8.1647131     -7.7441579      0.75548345     50218.233      36.893836      36.893836      36.893836    
   3480000   0.27988766    -8.166218      -7.7463925      0.75024942     50218.233      36.893836      36.893836      36.893836    
   3490000   0.2800809     -8.1636723     -7.7435569      0.76734264     50218.233      36.893836      36.893836      36.893836    
   3500000   0.28013307    -8.1681553     -7.7479616      0.72076838     50218.233      36.893836      36.893836      36.893836    
   3510000   0.27832309    -8.1649316     -7.7474529      0.7502187      50218.233      36.893836      36.893836      36.893836    
   3520000   0.28040838    -8.1657392     -7.7451326      0.74835513     50218.233      36.893836      36.893836      36.893836    
   3530000   0.27938941    -8.1659501     -7.7468719      0.74477021     50218.233      36.893836      36.893836      36.893836    
   3540000   0.28075498    -8.1663629     -7.7452364      0.73565449     50218.233      36.893836      36.893836      36.893836    
   3550000   0.28099379    -8.1663944     -7.7449098      0.74707135     50218.233      36.893836      36.893836      36.893836    
   3560000   0.28078533    -8.1646064     -7.7434344      0.75772295     50218.233      36.893836      36.893836      36.893836    
   3570000   0.28010867    -8.1659345     -7.7457775      0.74202724     50218.233      36.893836      36.893836      36.893836    
   3580000   0.2803772     -8.1679546     -7.7473948      0.72571032     50218.233      36.893836      36.893836      36.893836    
   3590000   0.28000465    -8.165986      -7.745985       0.75070776     50218.233      36.893836      36.893836      36.893836    
   3600000   0.28125239    -8.1662892     -7.7444166      0.74805106     50218.233      36.893836      36.893836      36.893836    
   3610000   0.27971962    -8.1646756     -7.7451021      0.75088335     50218.233      36.893836      36.893836      36.893836    
   3620000   0.28069369    -8.1648765     -7.7438419      0.75646762     50218.233      36.893836      36.893836      36.893836    
   3630000   0.27930786    -8.1666272     -7.7476713      0.74809696     50218.233      36.893836      36.893836      36.893836    
   3640000   0.28010807    -8.1642605     -7.7441043      0.75254904     50218.233      36.893836      36.893836      36.893836    
   3650000   0.27993403    -8.1634348     -7.7435397      0.76813962     50218.233      36.893836      36.893836      36.893836    
   3660000   0.28008673    -8.1657605     -7.7456364      0.74801268     50218.233      36.893836      36.893836      36.893836    
   3670000   0.28086004    -8.164712      -7.7434279      0.75134119     50218.233      36.893836      36.893836      36.893836    
   3680000   0.28092141    -8.1649161     -7.74354        0.76168335     50218.233      36.893836      36.893836      36.893836    
   3690000   0.28083707    -8.1655426     -7.744293       0.75228147     50218.233      36.893836      36.893836      36.893836    
   3700000   0.28033408    -8.1644623     -7.7439672      0.75680977     50218.233      36.893836      36.893836      36.893836    
   3710000   0.28095569    -8.1662852     -7.7448576      0.74842269     50218.233      36.893836      36.893836      36.893836    
   3720000   0.27833856    -8.1664346     -7.7489326      0.73974539     50218.233      36.893836      36.893836      36.893836    
   3730000   0.27878845    -8.1621388     -7.7439621      0.7770731      50218.233      36.893836      36.893836      36.893836    
   3740000   0.28196743    -8.1666179     -7.7436727      0.74870681     50218.233      36.893836      36.893836      36.893836    
   3750000   0.27990635    -8.1647126     -7.744859       0.7627939      50218.233      36.893836      36.893836      36.893836    
   3760000   0.27873064    -8.1660543     -7.7479643      0.74843712     50218.233      36.893836      36.893836      36.893836    
   3770000   0.27891182    -8.1645648     -7.7462031      0.76452621     50218.233      36.893836      36.893836      36.893836    
   3780000   0.27910021    -8.1662902     -7.7476459      0.74728778     50218.233      36.893836      36.893836      36.893836    
   3790000   0.27925808    -8.1647519     -7.7458707      0.7585045      50218.233      36.893836      36.893836      36.893836    
   3800000   0.28104233    -8.1633088     -7.7417513      0.77250039     50218.233      36.893836      36.893836      36.893836    
   3810000   0.28042865    -8.1650765     -7.7444395      0.7549832      50218.233      36.893836      36.893836      36.893836    
   3820000   0.27927363    -8.1657912     -7.7468867      0.76232614     50218.233      36.893836      36.893836      36.893836    
   3830000   0.28007088    -8.1647674     -7.744667       0.76465554     50218.233      36.893836      36.893836      36.893836    
   3840000   0.28114954    -8.1642422     -7.7425239      0.76158544     50218.233      36.893836      36.893836      36.893836    
   3850000   0.28050444    -8.1658245     -7.7450738      0.76300736     50218.233      36.893836      36.893836      36.893836    
   3860000   0.28056081    -8.162076      -7.7412408      0.78237874     50218.233      36.893836      36.893836      36.893836    
   3870000   0.27900214    -8.1638124     -7.7453151      0.76388479     50218.233      36.893836      36.893836      36.893836    
   3880000   0.27982154    -8.1661734     -7.746447       0.74588961     50218.233      36.893836      36.893836      36.893836    
   3890000   0.27914439    -8.1634947     -7.7447841      0.76160128     50218.233      36.893836      36.893836      36.893836    
   3900000   0.2799891     -8.1630393     -7.7430616      0.76713115     50218.233      36.893836      36.893836      36.893836    
   3910000   0.28051967    -8.1656303     -7.7448567      0.75430729     50218.233      36.893836      36.893836      36.893836    
   3920000   0.2800904     -8.1639028     -7.7437732      0.76778265     50218.233      36.893836      36.893836      36.893836    
   3930000   0.28183541    -8.1637391     -7.740992       0.76952016     50218.233      36.893836      36.893836      36.893836    
   3940000   0.2794238     -8.1651255     -7.7459957      0.76114212     50218.233      36.893836      36.893836      36.893836    
   3950000   0.27961389    -8.1657098     -7.7462949      0.75255989     50218.233      36.893836      36.893836      36.893836    
   3960000   0.28126055    -8.1659641     -7.7440792      0.74758341     50218.233      36.893836      36.893836      36.893836    
   3970000   0.28004524    -8.1675146     -7.7474527      0.73897211     50218.233      36.893836      36.893836      36.893836    
   3980000   0.2797783     -8.1652273     -7.7455658      0.7668492      50218.233      36.893836      36.893836      36.893836    
   3990000   0.27994089    -8.1652127     -7.7453073      0.75342793     50218.233      36.893836      36.893836      36.893836    
   4000000   0.28014079    -8.1674325     -7.7472273      0.72948526     50218.233      36.893836      36.893836      36.893836    
   4010000   0.28071259    -8.1667658     -7.7457029      0.7451353      50218.233      36.893836      36.893836      36.893836    
   4020000   0.28021338    -8.1659832     -7.7456691      0.74734327     50218.233      36.893836      36.893836      36.893836    
   4030000   0.28047367    -8.1659184     -7.7452138      0.74139394     50218.233      36.893836      36.893836      36.893836    
   4040000   0.27962904    -8.165628      -7.7461904      0.7480917      50218.233      36.893836      36.893836      36.893836    
   4050000   0.2797111     -8.1696293     -7.7500686      0.71457096     50218.233      36.893836      36.893836      36.893836    
   4060000   0.27923389    -8.1657011     -7.7468562      0.75341593     50218.233      36.893836      36.893836      36.893836    
   4070000   0.27991336    -8.1650719     -7.7452078      0.75474871     50218.233      36.893836      36.893836      36.893836    
   4080000   0.28023179    -8.16624       -7.7458983      0.74396526     50218.233      36.893836      36.893836      36.893836    
   4090000   0.28071827    -8.1661957     -7.7451243      0.74894303     50218.233      36.893836      36.893836      36.893836    
   4100000   0.27973772    -8.1663566     -7.746756       0.73860159     50218.233      36.893836      36.893836      36.893836    
   4110000   0.27995323    -8.1663949     -7.7464711      0.74397284     50218.233      36.893836      36.893836      36.893836    
   4120000   0.27975548    -8.1626663     -7.743039       0.77335584     50218.233      36.893836      36.893836      36.893836    
   4130000   0.28088777    -8.1658015     -7.7444759      0.75253052     50218.233      36.893836      36.893836      36.893836    
   4140000   0.28058967    -8.1661576     -7.7452791      0.74540542     50218.233      36.893836      36.893836      36.893836    
   4150000   0.28022796    -8.1644526     -7.7441166      0.76064603     50218.233      36.893836      36.893836      36.893836    
   4160000   0.27828213    -8.1643433     -7.7469261      0.76162136     50218.233      36.893836      36.893836      36.893836    
   4170000   0.27910678    -8.1640574     -7.7454032      0.77085911     50218.233      36.893836      36.893836      36.893836    
   4180000   0.28100642    -8.1641361     -7.7426325      0.75995351     50218.233      36.893836      36.893836      36.893836    
   4190000   0.27931635    -8.1641266     -7.745158       0.7626697      50218.233      36.893836      36.893836      36.893836    
   4200000   0.27998919    -8.1636594     -7.7436815      0.75944853     50218.233      36.893836      36.893836      36.893836    
   4210000   0.28071059    -8.1655921     -7.7445322      0.74603706     50218.233      36.893836      36.893836      36.893836    
   4220000   0.27813339    -8.1630125     -7.7458183      0.77453046     50218.233      36.893836      36.893836      36.893836    
   4230000   0.28035022    -8.1632391     -7.7427197      0.77239694     50218.233      36.893836      36.893836      36.893836    
   4240000   0.28012261    -8.1638732     -7.7436953      0.76535085     50218.233      36.893836      36.893836      36.893836    
   4250000   0.28123077    -8.1648149     -7.7429748      0.75687668     50218.233      36.893836      36.893836      36.893836    
   4260000   0.27862802    -8.1653874     -7.7474513      0.75673386     50218.233      36.893836      36.893836      36.893836    
   4270000   0.27805154    -8.1656349     -7.7485635      0.75394964     50218.233      36.893836      36.893836      36.893836    
   4280000   0.27905431    -8.1648741     -7.7462986      0.75906459     50218.233      36.893836      36.893836      36.893836    
   4290000   0.27964692    -8.1655554     -7.746091       0.74994772     50218.233      36.893836      36.893836      36.893836    
   4300000   0.27932171    -8.1623093     -7.7433327      0.77804731     50218.233      36.893836      36.893836      36.893836    
   4310000   0.27938712    -8.1644963     -7.7454216      0.75677521     50218.233      36.893836      36.893836      36.893836    
   4320000   0.28081815    -8.1645081     -7.7432869      0.76056172     50218.233      36.893836      36.893836      36.893836    
   4330000   0.27911521    -8.1645549     -7.7458881      0.75876703     50218.233      36.893836      36.893836      36.893836    
   4340000   0.27903468    -8.1631925     -7.7446464      0.77115481     50218.233      36.893836      36.893836      36.893836    
   4350000   0.28089328    -8.1639235     -7.7425896      0.76230362     50218.233      36.893836      36.893836      36.893836    
   4360000   0.2802007     -8.1647985     -7.7445034      0.76202258     50218.233      36.893836      36.893836      36.893836    
   4370000   0.2810332     -8.1655514     -7.7440076      0.75468385     50218.233      36.893836      36.893836      36.893836    
   4380000   0.28010247    -8.163523      -7.7433752      0.76797023     50218.233      36.893836      36.893836      36.893836    
   4390000   0.27906527    -8.1650623     -7.7464704      0.75130701     50218.233      36.893836      36.893836      36.893836    
   4400000   0.28076874    -8.1660831     -7.744936       0.75519315     50218.233      36.893836      36.893836      36.893836    
   4410000   0.28080513    -8.1659427     -7.744741       0.74771588     50218.233      36.893836      36.893836      36.893836    
   4420000   0.27948114    -8.1664733     -7.7472576      0.74417931     50218.233      36.893836      36.893836      36.893836    
   4430000   0.28117064    -8.1650755     -7.7433255      0.75749453     50218.233      36.893836      36.893836      36.893836    
   4440000   0.28073834    -8.1653879     -7.7442864      0.75302038     50218.233      36.893836      36.893836      36.893836    
   4450000   0.28009407    -8.1646392     -7.744504       0.75605543     50218.233      36.893836      36.893836      36.893836    
   4460000   0.27931924    -8.1644665     -7.7454936      0.75479113     50218.233      36.893836      36.893836      36.893836    
   4470000   0.2801817     -8.1656211     -7.7453546      0.74399597     50218.233      36.893836      36.893836      36.893836    
   4480000   0.2817955     -8.1645941     -7.7419069      0.75201131     50218.233      36.893836      36.893836      36.893836    
   4490000   0.27648735    -8.1635717     -7.7488465      0.75940457     50218.233      36.893836      36.893836      36.893836    
   4500000   0.28029746    -8.1661754     -7.7457352      0.75174392     50218.233      36.893836      36.893836      36.893836    
   4510000   0.27950522    -8.1684044     -7.7491525      0.73252774     50218.233      36.893836      36.893836      36.893836    
   4520000   0.28082377    -8.1644295     -7.7431999      0.76410459     50218.233      36.893836      36.893836      36.893836    
   4530000   0.27928223    -8.168823      -7.7499056      0.73151611     50218.233      36.893836      36.893836      36.893836    
   4540000   0.27906381    -8.1670682     -7.7484785      0.73662058     50218.233      36.893836      36.893836      36.893836    
   4550000   0.27953192    -8.1659936     -7.7467017      0.74851883     50218.233      36.893836      36.893836      36.893836    
   4560000   0.28036345    -8.1671693     -7.7466301      0.74228219     50218.233      36.893836      36.893836      36.893836    
   4570000   0.28271948    -8.1656116     -7.7415384      0.75743434     50218.233      36.893836      36.893836      36.893836    
   4580000   0.28153672    -8.1654414     -7.7431423      0.76184431     50218.233      36.893836      36.893836      36.893836    
   4590000   0.27995463    -8.1646576     -7.7447316      0.7582539      50218.233      36.893836      36.893836      36.893836    
   4600000   0.27881018    -8.1651548     -7.7469455      0.75559546     50218.233      36.893836      36.893836      36.893836    
   4610000   0.27889125    -8.1655205     -7.7471896      0.74787142     50218.233      36.893836      36.893836      36.893836    
   4620000   0.27940356    -8.166144      -7.7470447      0.74784555     50218.233      36.893836      36.893836      36.893836    
   4630000   0.28035346    -8.1654259     -7.7449017      0.75415548     50218.233      36.893836      36.893836      36.893836    
   4640000   0.28025311    -8.1651661     -7.7447924      0.75954472     50218.233      36.893836      36.893836      36.893836    
   4650000   0.27850017    -8.1644596     -7.7467153      0.76015401     50218.233      36.893836      36.893836      36.893836    
   4660000   0.27896631    -8.1646682     -7.7462247      0.75526587     50218.233      36.893836      36.893836      36.893836    
   4670000   0.2804739     -8.1649314     -7.7442265      0.75782954     50218.233      36.893836      36.893836      36.893836    
   4680000   0.27913131    -8.1647782     -7.7460872      0.7625171      50218.233      36.893836      36.893836      36.893836    
   4690000   0.28044599    -8.1669799     -7.7463169      0.74524204     50218.233      36.893836      36.893836      36.893836    
   4700000   0.27948196    -8.1661446     -7.7469276      0.74654725     50218.233      36.893836      36.893836      36.893836    
   4710000   0.28120794    -8.1607312     -7.7389253      0.79010622     50218.233      36.893836      36.893836      36.893836    
   4720000   0.27914794    -8.1624654     -7.7437494      0.77517077     50218.233      36.893836      36.893836      36.893836    
   4730000   0.27868842    -8.1629324     -7.7449057      0.76654729     50218.233      36.893836      36.893836      36.893836    
   4740000   0.2793392     -8.1646729     -7.7456701      0.76056184     50218.233      36.893836      36.893836      36.893836    
   4750000   0.27887524    -8.1644044     -7.7460975      0.76395532     50218.233      36.893836      36.893836      36.893836    
   4760000   0.27993798    -8.1630582     -7.7431572      0.77477343     50218.233      36.893836      36.893836      36.893836    
   4770000   0.27878562    -8.1638368     -7.7456643      0.76726259     50218.233      36.893836      36.893836      36.893836    
   4780000   0.27989069    -8.1637568     -7.7439268      0.76357915     50218.233      36.893836      36.893836      36.893836    
   4790000   0.28060761    -8.1665578     -7.7456524      0.74881846     50218.233      36.893836      36.893836      36.893836    
   4800000   0.27845399    -8.1645973     -7.7469223      0.75501361     50218.233      36.893836      36.893836      36.893836    
   4810000   0.28014609    -8.1651475     -7.7449343      0.76446743     50218.233      36.893836      36.893836      36.893836    
   4820000   0.27989747    -8.1655944     -7.7457541      0.75401624     50218.233      36.893836      36.893836      36.893836    
   4830000   0.28168006    -8.1651274     -7.7426133      0.76173307     50218.233      36.893836      36.893836      36.893836    
   4840000   0.28068576    -8.1625321     -7.7415094      0.78335744     50218.233      36.893836      36.893836      36.893836    
   4850000   0.28190551    -8.1639875     -7.7411353      0.77438414     50218.233      36.893836      36.893836      36.893836    
   4860000   0.27986728    -8.1681054     -7.7483105      0.73403466     50218.233      36.893836      36.893836      36.893836    
   4870000   0.28011556    -8.1656458     -7.7454784      0.7552403      50218.233      36.893836      36.893836      36.893836    
   4880000   0.28052143    -8.164603      -7.7438269      0.76206775     50218.233      36.893836      36.893836      36.893836    
   4890000   0.28084827    -8.1658379     -7.7445714      0.75529863     50218.233      36.893836      36.893836      36.893836    
   4900000   0.27932507    -8.1645853     -7.7456036      0.76208401     50218.233      36.893836      36.893836      36.893836    
   4910000   0.27984591    -8.1648981     -7.7451352      0.75078557     50218.233      36.893836      36.893836      36.893836    
   4920000   0.28032964    -8.1659528     -7.7454643      0.74949346     50218.233      36.893836      36.893836      36.893836    
   4930000   0.27846662    -8.1675391     -7.7498451      0.73475102     50218.233      36.893836      36.893836      36.893836    
   4940000   0.28068433    -8.1646611     -7.7436406      0.76361103     50218.233      36.893836      36.893836      36.893836    
   4950000   0.28090665    -8.1656307     -7.7442768      0.75540627     50218.233      36.893836      36.893836      36.893836    
   4960000   0.27932373    -8.1659927     -7.7470131      0.74759071     50218.233      36.893836      36.893836      36.893836    
   4970000   0.27876464    -8.1684331     -7.7502921      0.72849098     50218.233      36.893836      36.893836      36.893836    
   4980000   0.28164827    -8.165509      -7.7430426      0.75416441     50218.233      36.893836      36.893836      36.893836    
   4990000   0.27982457    -8.1660259     -7.746295       0.74597334     50218.233      36.893836      36.893836      36.893836    
   5000000   0.27895763    -8.1671086     -7.7486781      0.74282953     50218.233      36.893836      36.893836      36.893836    
   5010000   0.27849241    -8.1663189     -7.7485862      0.74451154     50218.233      36.893836      36.893836      36.893836    
   5020000   0.28074361    -8.1641574     -7.7430479      0.76623181     50218.233      36.893836      36.893836      36.893836    
   5030000   0.28001692    -8.165911      -7.7458916      0.74773979     50218.233      36.893836      36.893836      36.893836    
   5040000   0.28111264    -8.1662151     -7.7445521      0.75564695     50218.233      36.893836      36.893836      36.893836    
   5050000   0.27991845    -8.1654291     -7.7455574      0.75294448     50218.233      36.893836      36.893836      36.893836    
   5060000   0.27963764    -8.1656994     -7.7462489      0.75501555     50218.233      36.893836      36.893836      36.893836    
   5070000   0.28072902    -8.1663142     -7.7452267      0.75578353     50218.233      36.893836      36.893836      36.893836    
   5080000   0.28014138    -8.1644893     -7.7442832      0.76025034     50218.233      36.893836      36.893836      36.893836    
   5090000   0.27898679    -8.1635932     -7.745119       0.76517601     50218.233      36.893836      36.893836      36.893836    
   5100000   0.27997267    -8.1645312     -7.7445782      0.76484635     50218.233      36.893836      36.893836      36.893836    
   5110000   0.28019836    -8.1652634     -7.7449718      0.75455188     50218.233      36.893836      36.893836      36.893836    
   5120000   0.28143221    -8.1657847     -7.7436424      0.74714522     50218.233      36.893836      36.893836      36.893836    
   5130000   0.28061716    -8.1628047     -7.7418849      0.76554634     50218.233      36.893836      36.893836      36.893836    
   5140000   0.28080061    -8.1642302     -7.7430353      0.76818357     50218.233      36.893836      36.893836      36.893836    
   5150000   0.28110512    -8.1643303     -7.7426787      0.76648691     50218.233      36.893836      36.893836      36.893836    
   5160000   0.28084337    -8.1657794     -7.7445204      0.75175426     50218.233      36.893836      36.893836      36.893836    
   5170000   0.27957143    -8.1657284     -7.7463772      0.74508678     50218.233      36.893836      36.893836      36.893836    
   5180000   0.28022329    -8.1636654     -7.7433364      0.76639729     50218.233      36.893836      36.893836      36.893836    
   5190000   0.27947665    -8.1648772     -7.7456682      0.7586638      50218.233      36.893836      36.893836      36.893836    
   5200000   0.27935265    -8.163291      -7.744268       0.76444432     50218.233      36.893836      36.893836      36.893836    
   5210000   0.28052969    -8.1660182     -7.7452297      0.74571409     50218.233      36.893836      36.893836      36.893836    
   5220000   0.2791195     -8.1634837     -7.7448104      0.76461192     50218.233      36.893836      36.893836      36.893836    
   5230000   0.28020085    -8.1633342     -7.743039       0.76571658     50218.233      36.893836      36.893836      36.893836    
   5240000   0.27872818    -8.165179      -7.7470926      0.7563312      50218.233      36.893836      36.893836      36.893836    
   5250000   0.28136232    -8.1647299     -7.7426924      0.76011116     50218.233      36.893836      36.893836      36.893836    
   5260000   0.27989791    -8.1634732     -7.7436323      0.76532768     50218.233      36.893836      36.893836      36.893836    
   5270000   0.27913688    -8.1646917     -7.7459923      0.76950376     50218.233      36.893836      36.893836      36.893836    
   5280000   0.28092007    -8.1646583     -7.7432842      0.75656896     50218.233      36.893836      36.893836      36.893836    
   5290000   0.27934766    -8.1646738     -7.7456583      0.76330926     50218.233      36.893836      36.893836      36.893836    
   5300000   0.28055941    -8.1654514     -7.7446183      0.75038177     50218.233      36.893836      36.893836      36.893836    
   5310000   0.27949489    -8.1615775     -7.7423411      0.78655714     50218.233      36.893836      36.893836      36.893836    
   5320000   0.28010517    -8.1628884     -7.7427366      0.77113865     50218.233      36.893836      36.893836      36.893836    
   5330000   0.28171103    -8.1628408     -7.7402802      0.78112684     50218.233      36.893836      36.893836      36.893836    
   5340000   0.28034047    -8.1649507     -7.744446       0.75932765     50218.233      36.893836      36.893836      36.893836    
   5350000   0.2794106     -8.1652903     -7.7461803      0.75555159     50218.233      36.893836      36.893836      36.893836    
   5360000   0.27903222    -8.1658237     -7.7472813      0.74649117     50218.233      36.893836      36.893836      36.893836    
   5370000   0.2779404     -8.165426      -7.7485214      0.75604286     50218.233      36.893836      36.893836      36.893836    
   5380000   0.27873509    -8.1638572     -7.7457605      0.76630103     50218.233      36.893836      36.893836      36.893836    
   5390000   0.28099513    -8.1653787     -7.743892       0.75316474     50218.233      36.893836      36.893836      36.893836    
   5400000   0.27970057    -8.1645668     -7.7450219      0.75543503     50218.233      36.893836      36.893836      36.893836    
   5410000   0.28132187    -8.1659976     -7.7440208      0.76647822     50218.233      36.893836      36.893836      36.893836    
   5420000   0.27939985    -8.1647403     -7.7456465      0.75315911     50218.233      36.893836      36.893836      36.893836    
   5430000   0.28074044    -8.1638887     -7.742784       0.76763819     50218.233      36.893836      36.893836      36.893836    
   5440000   0.27924933    -8.1662798     -7.7474118      0.74686171     50218.233      36.893836      36.893836      36.893836    
   5450000   0.27919956    -8.1643658     -7.7455724      0.76458843     50218.233      36.893836      36.893836      36.893836    
   5460000   0.27998673    -8.1657449     -7.7457708      0.75929799     50218.233      36.893836      36.893836      36.893836    
   5470000   0.27968349    -8.1678477     -7.7483284      0.73338819     50218.233      36.893836      36.893836      36.893836    
   5480000   0.28030804    -8.1644813     -7.7440253      0.75412055     50218.233      36.893836      36.893836      36.893836    
   5490000   0.28006179    -8.1664123     -7.7463256      0.74892635     50218.233      36.893836      36.893836      36.893836    
   5500000   0.27963258    -8.1664442     -7.7470013      0.74161661     50218.233      36.893836      36.893836      36.893836    
   5510000   0.28017956    -8.163823      -7.7435596      0.7615473      50218.233      36.893836      36.893836      36.893836    
   5520000   0.27996332    -8.1651875     -7.7452485      0.76056636     50218.233      36.893836      36.893836      36.893836    
   5530000   0.27966986    -8.1676378     -7.748139       0.73751361     50218.233      36.893836      36.893836      36.893836    
   5540000   0.28096422    -8.1683855     -7.7469452      0.73820447     50218.233      36.893836      36.893836      36.893836    
   5550000   0.2795168     -8.1676492     -7.74838        0.73609864     50218.233      36.893836      36.893836      36.893836    
   5560000   0.27824673    -8.1647206     -7.7473565      0.75616357     50218.233      36.893836      36.893836      36.893836    
   5570000   0.27983571    -8.1657058     -7.7459582      0.75566949     50218.233      36.893836      36.893836      36.893836    
   5580000   0.27932359    -8.1646547     -7.7456753      0.76516995     50218.233      36.893836      36.893836      36.893836    
   5590000   0.27756985    -8.1657677     -7.7494188      0.75440534     50218.233      36.893836      36.893836      36.893836    
   5600000   0.28093507    -8.165069      -7.7436724      0.75981068     50218.233      36.893836      36.893836      36.893836    
   5610000   0.28045239    -8.1647353     -7.7440627      0.75891891     50218.233      36.893836      36.893836      36.893836    
   5620000   0.28030937    -8.1669972     -7.7465391      0.7472382      50218.233      36.893836      36.893836      36.893836    
   5630000   0.28045479    -8.1654298     -7.7447536      0.75484348     50218.233      36.893836      36.893836      36.893836    
   5640000   0.27890654    -8.1655474     -7.7471936      0.75016991     50218.233      36.893836      36.893836      36.893836    
   5650000   0.28047319    -8.1643187     -7.7436149      0.76706388     50218.233      36.893836      36.893836      36.893836    
   5660000   0.28005087    -8.1638491     -7.7437787      0.76987932     50218.233      36.893836      36.893836      36.893836    
   5670000   0.28061127    -8.1641783     -7.7432673      0.7613005      50218.233      36.893836      36.893836      36.893836    
   5680000   0.27935306    -8.1667335     -7.7477099      0.7515735      50218.233      36.893836      36.893836      36.893836    
   5690000   0.27951536    -8.165152      -7.7458849      0.74648083     50218.233      36.893836      36.893836      36.893836    
   5700000   0.2785458     -8.1637866     -7.7459739      0.76344278     50218.233      36.893836      36.893836      36.893836    
   5710000   0.27922004    -8.1640121     -7.745188       0.76276756     50218.233      36.893836      36.893836      36.893836    
   5720000   0.28043077    -8.1629494     -7.7423093      0.77432179     50218.233      36.893836      36.893836      36.893836    
   5730000   0.2798831     -8.1655097     -7.745691       0.75200253     50218.233      36.893836      36.893836      36.893836    
   5740000   0.27998273    -8.162989      -7.7430208      0.7813525      50218.233      36.893836      36.893836      36.893836    
   5750000   0.28014987    -8.1628398     -7.7426209      0.77183013     50218.233      36.893836      36.893836      36.893836    
   5760000   0.28074473    -8.1632428     -7.7421317      0.77563153     50218.233      36.893836      36.893836      36.893836    
   5770000   0.28004169    -8.1647437     -7.7446871      0.75958087     50218.233      36.893836      36.893836      36.893836    
   5780000   0.2807267     -8.1643986     -7.7433145      0.77326171     50218.233      36.893836      36.893836      36.893836    
   5790000   0.28092511    -8.1663318     -7.7449501      0.74297926     50218.233      36.893836      36.893836      36.893836    
   5800000   0.27980634    -8.165557      -7.7458534      0.75121648     50218.233      36.893836      36.893836      36.893836    
   5810000   0.28119784    -8.1646928     -7.7429021      0.75862723     50218.233      36.893836      36.893836      36.893836    
   5820000   0.27944338    -8.1646396     -7.7454805      0.75991918     50218.233      36.893836      36.893836      36.893836    
   5830000   0.27989773    -8.1649367     -7.7450961      0.75076936     50218.233      36.893836      36.893836      36.893836    
   5840000   0.27895374    -8.1627325     -7.7443079      0.77513762     50218.233      36.893836      36.893836      36.893836    
   5850000   0.28044115    -8.1663955     -7.7457397      0.74645261     50218.233      36.893836      36.893836      36.893836    
   5860000   0.28057015    -8.1641697     -7.7433205      0.75891971     50218.233      36.893836      36.893836      36.893836    
   5870000   0.27952948    -8.162976      -7.7436877      0.77465536     50218.233      36.893836      36.893836      36.893836    
   5880000   0.28065675    -8.1646099     -7.7436307      0.76062973     50218.233      36.893836      36.893836      36.893836    
   5890000   0.28170232    -8.1639712     -7.7414238      0.76187638     50218.233      36.893836      36.893836      36.893836    
   5900000   0.27976286    -8.1666798     -7.7470415      0.73522266     50218.233      36.893836      36.893836      36.893836    
   5910000   0.28006725    -8.1681404     -7.7480455      0.7373887      50218.233      36.893836      36.893836      36.893836    
   5920000   0.28040886    -8.1656346     -7.7450273      0.74759881     50218.233      36.893836      36.893836      36.893836    
   5930000   0.27977278    -8.1661998     -7.7465465      0.74512198     50218.233      36.893836      36.893836      36.893836    
   5940000   0.28049117    -8.1656757     -7.744945       0.75161767     50218.233      36.893836      36.893836      36.893836    
   5950000   0.2793937     -8.165322      -7.7462374      0.75115188     50218.233      36.893836      36.893836      36.893836    
   5960000   0.2806621     -8.1656525     -7.7446653      0.74843321     50218.233      36.893836      36.893836      36.893836    
   5970000   0.27961563    -8.1642999     -7.7448824      0.76867787     50218.233      36.893836      36.893836      36.893836    
   5980000   0.27962954    -8.1657025     -7.7462641      0.74131697     50218.233      36.893836      36.893836      36.893836    
   5990000   0.27970127    -8.1651852     -7.7456393      0.74869209     50218.233      36.893836      36.893836      36.893836    
   6000000   0.280076      -8.1655765     -7.7454685      0.75070948     50218.233      36.893836      36.893836      36.893836    
   6010000   0.28065851    -8.1645715     -7.7435898      0.7647918      50218.233      36.893836      36.893836      36.893836    
   6020000   0.27957451    -8.1639301     -7.7445743      0.76458906     50218.233      36.893836      36.893836      36.893836    
   6030000   0.28025137    -8.1654538     -7.7450828      0.75783136     50218.233      36.893836      36.893836      36.893836    
   6040000   0.27956833    -8.1655268     -7.7461803      0.75421878     50218.233      36.893836      36.893836      36.893836    
   6050000   0.27830829    -8.1663437     -7.7488872      0.75389901     50218.233      36.893836      36.893836      36.893836    
   6060000   0.2797595     -8.1664552     -7.7468219      0.73826574     50218.233      36.893836      36.893836      36.893836    
   6070000   0.27983353    -8.1636343     -7.74389        0.7694588      50218.233      36.893836      36.893836      36.893836    
   6080000   0.28133109    -8.164954      -7.7429633      0.75706902     50218.233      36.893836      36.893836      36.893836    
   6090000   0.28087892    -8.1675324     -7.74622        0.74295829     50218.233      36.893836      36.893836      36.893836    
   6100000   0.2791182     -8.1643801     -7.7457088      0.76121278     50218.233      36.893836      36.893836      36.893836    
   6110000   0.27977109    -8.1663074     -7.7466567      0.74493946     50218.233      36.893836      36.893836      36.893836    
   6120000   0.27951138    -8.1629198     -7.7436586      0.77106197     50218.233      36.893836      36.893836      36.893836    
   6130000   0.2802004     -8.1650951     -7.7448005      0.75950301     50218.233      36.893836      36.893836      36.893836    
   6140000   0.27952348    -8.1643534     -7.7450741      0.76408711     50218.233      36.893836      36.893836      36.893836    
   6150000   0.27975387    -8.1660178     -7.746393       0.74392917     50218.233      36.893836      36.893836      36.893836    
   6160000   0.27939221    -8.1657026     -7.7466203      0.74662753     50218.233      36.893836      36.893836      36.893836    
   6170000   0.28109025    -8.1631922     -7.7415628      0.76568067     50218.233      36.893836      36.893836      36.893836    
   6180000   0.27944899    -8.164933      -7.7457655      0.75473209     50218.233      36.893836      36.893836      36.893836    
   6190000   0.28105855    -8.1629357     -7.7413539      0.77858912     50218.233      36.893836      36.893836      36.893836    
   6200000   0.28059963    -8.1643983     -7.7435048      0.76906737     50218.233      36.893836      36.893836      36.893836    
   6210000   0.27865404    -8.1665681     -7.748593       0.74311053     50218.233      36.893836      36.893836      36.893836    
   6220000   0.27758613    -8.1657327     -7.7493595      0.75467024     50218.233      36.893836      36.893836      36.893836    
   6230000   0.27907795    -8.1653094     -7.7466984      0.7572576      50218.233      36.893836      36.893836      36.893836    
   6240000   0.28096349    -8.1646541     -7.7432148      0.76072139     50218.233      36.893836      36.893836      36.893836    
   6250000   0.27938659    -8.1641745     -7.7451006      0.76071715     50218.233      36.893836      36.893836      36.893836    
   6260000   0.28137661    -8.1641897     -7.7421308      0.76943915     50218.233      36.893836      36.893836      36.893836    
   6270000   0.28025987    -8.1647055     -7.7443217      0.75629245     50218.233      36.893836      36.893836      36.893836    
   6280000   0.27882619    -8.1618729     -7.7436395      0.78654717     50218.233      36.893836      36.893836      36.893836    
   6290000   0.27919259    -8.1641602     -7.7453773      0.76505363     50218.233      36.893836      36.893836      36.893836    
   6300000   0.27906461    -8.1636131     -7.7450222      0.76197884     50218.233      36.893836      36.893836      36.893836    
   6310000   0.27912716    -8.1649346     -7.7462498      0.75966612     50218.233      36.893836      36.893836      36.893836    
   6320000   0.27981351    -8.1666236     -7.7469093      0.74418683     50218.233      36.893836      36.893836      36.893836    
   6330000   0.27960928    -8.1651526     -7.7457447      0.75682757     50218.233      36.893836      36.893836      36.893836    
   6340000   0.27931129    -8.1638596     -7.7448987      0.76242383     50218.233      36.893836      36.893836      36.893836    
   6350000   0.28077487    -8.1650374     -7.7438811      0.75990091     50218.233      36.893836      36.893836      36.893836    
   6360000   0.2796674     -8.1660927     -7.7465976      0.75034519     50218.233      36.893836      36.893836      36.893836    
   6370000   0.27941559    -8.1647159     -7.7455985      0.75572249     50218.233      36.893836      36.893836      36.893836    
   6380000   0.28061795    -8.1628903     -7.7419694      0.77932719     50218.233      36.893836      36.893836      36.893836    
   6390000   0.28009046    -8.165642      -7.7455123      0.75933987     50218.233      36.893836      36.893836      36.893836    
   6400000   0.28028453    -8.1663393     -7.7459185      0.74212609     50218.233      36.893836      36.893836      36.893836    
   6410000   0.28058221    -8.1658857     -7.7450184      0.75044045     50218.233      36.893836      36.893836      36.893836    
   6420000   0.27967448    -8.1643764     -7.7448707      0.76440208     50218.233      36.893836      36.893836      36.893836    
   6430000   0.2786213     -8.1646966     -7.7467706      0.75728543     50218.233      36.893836      36.893836      36.893836    
   6440000   0.27894653    -8.1666937     -7.7482799      0.7417557      50218.233      36.893836      36.893836      36.893836    
   6450000   0.28041156    -8.1653601     -7.7447487      0.75857771     50218.233      36.893836      36.893836      36.893836    
   6460000   0.27934471    -8.1667829     -7.7477718      0.74266713     50218.233      36.893836      36.893836      36.893836    
   6470000   0.27983403    -8.1654376     -7.7456925      0.75185379     50218.233      36.893836      36.893836      36.893836    
   6480000   0.28023946    -8.1667585     -7.7464053      0.74071891     50218.233      36.893836      36.893836      36.893836    
   6490000   0.28161742    -8.166762      -7.7443419      0.74739293     50218.233      36.893836      36.893836      36.893836    
   6500000   0.28126783    -8.165047      -7.7431513      0.76232452     50218.233      36.893836      36.893836      36.893836    
   6510000   0.27973142    -8.1652277     -7.7456366      0.75765252     50218.233      36.893836      36.893836      36.893836    
   6520000   0.27945885    -8.1660718     -7.7468895      0.75192655     50218.233      36.893836      36.893836      36.893836    
   6530000   0.27883879    -8.1633788     -7.7451265      0.76162282     50218.233      36.893836      36.893836      36.893836    
   6540000   0.28084228    -8.16691       -7.7456526      0.745003       50218.233      36.893836      36.893836      36.893836    
   6550000   0.2802812     -8.1661421     -7.7457263      0.74438423     50218.233      36.893836      36.893836      36.893836    
   6560000   0.2805736     -8.1652601     -7.7444057      0.75491123     50218.233      36.893836      36.893836      36.893836    
   6570000   0.28289823    -8.1642299     -7.7398886      0.76606897     50218.233      36.893836      36.893836      36.893836    
   6580000   0.28045779    -8.1662876     -7.7456069      0.747321       50218.233      36.893836      36.893836      36.893836    
   6590000   0.28013538    -8.166007      -7.7458099      0.74772273     50218.233      36.893836      36.893836      36.893836    
   6600000   0.27947511    -8.1632837     -7.744077       0.77703085     50218.233      36.893836      36.893836      36.893836    
   6610000   0.27880057    -8.1637306     -7.7455357      0.76153402     50218.233      36.893836      36.893836      36.893836    
   6620000   0.27948382    -8.1655708     -7.746351       0.75091327     50218.233      36.893836      36.893836      36.893836    
   6630000   0.27950305    -8.1642879     -7.7450393      0.75754063     50218.233      36.893836      36.893836      36.893836    
   6640000   0.27868459    -8.1651355     -7.7471146      0.74688094     50218.233      36.893836      36.893836      36.893836    
   6650000   0.281653      -8.1653593     -7.7428858      0.76690776     50218.233      36.893836      36.893836      36.893836    
   6660000   0.28181789    -8.1638063     -7.7410855      0.77177654     50218.233      36.893836      36.893836      36.893836    
   6670000   0.28034925    -8.1659635     -7.7454456      0.75025067     50218.233      36.893836      36.893836      36.893836    
   6680000   0.28109506    -8.1641898     -7.7425532      0.77344586     50218.233      36.893836      36.893836      36.893836    
   6690000   0.28022186    -8.1665942     -7.7462673      0.74802025     50218.233      36.893836      36.893836      36.893836    
   6700000   0.27876595    -8.1653706     -7.7472276      0.75075249     50218.233      36.893836      36.893836      36.893836    
   6710000   0.27904446    -8.1635802     -7.7450194      0.77015456     50218.233      36.893836      36.893836      36.893836    
   6720000   0.28004339    -8.1653527     -7.7452936      0.76010361     50218.233      36.893836      36.893836      36.893836    
   6730000   0.27930318    -8.1642778     -7.745329       0.76217815     50218.233      36.893836      36.893836      36.893836    
   6740000   0.27895391    -8.1674091     -7.7489842      0.7333355      50218.233      36.893836      36.893836      36.893836    
   6750000   0.27845759    -8.1626207     -7.7449402      0.77329446     50218.233      36.893836      36.893836      36.893836    
   6760000   0.28029786    -8.1636999     -7.7432591      0.76694922     50218.233      36.893836      36.893836      36.893836    
   6770000   0.27916852    -8.1651647     -7.7464179      0.75437634     50218.233      36.893836      36.893836      36.893836    
   6780000   0.27663725    -8.1646142     -7.7496642      0.75533696     50218.233      36.893836      36.893836      36.893836    
   6790000   0.28031156    -8.1629608     -7.7424994      0.7667981      50218.233      36.893836      36.893836      36.893836    
   6800000   0.27941652    -8.1631818     -7.744063       0.76574373     50218.233      36.893836      36.893836      36.893836    
   6810000   0.27819252    -8.1640488     -7.746766       0.75941403     50218.233      36.893836      36.893836      36.893836    
   6820000   0.28032985    -8.1646592     -7.7441704      0.75599568     50218.233      36.893836      36.893836      36.893836    
   6830000   0.2789065     -8.1643073     -7.7459535      0.76059597     50218.233      36.893836      36.893836      36.893836    
   6840000   0.27955784    -8.1652989     -7.7459681      0.75999416     50218.233      36.893836      36.893836      36.893836    
   6850000   0.27910413    -8.1647757     -7.7461255      0.75448177     50218.233      36.893836      36.893836      36.893836    
   6860000   0.27974853    -8.1646551     -7.7450382      0.75500495     50218.233      36.893836      36.893836      36.893836    
   6870000   0.27996229    -8.1654041     -7.7454667      0.75765647     50218.233      36.893836      36.893836      36.893836    
   6880000   0.27976087    -8.1660325     -7.7463972      0.75635911     50218.233      36.893836      36.893836      36.893836    
   6890000   0.2804546     -8.1667575     -7.7460816      0.74315193     50218.233      36.893836      36.893836      36.893836    
   6900000   0.27963197    -8.1641287     -7.7446867      0.76486026     50218.233      36.893836      36.893836      36.893836    
   6910000   0.27941115    -8.1667318     -7.747621       0.74032194     50218.233      36.893836      36.893836      36.893836    
   6920000   0.27943944    -8.1661677     -7.7470145      0.75128111     50218.233      36.893836      36.893836      36.893836    
   6930000   0.28026527    -8.1645578     -7.7441658      0.75675633     50218.233      36.893836      36.893836      36.893836    
   6940000   0.28012559    -8.1656231     -7.7454407      0.75554926     50218.233      36.893836      36.893836      36.893836    
   6950000   0.28080161    -8.1673847     -7.7461883      0.74006019     50218.233      36.893836      36.893836      36.893836    
   6960000   0.28074952    -8.1638965     -7.7427782      0.76121931     50218.233      36.893836      36.893836      36.893836    
   6970000   0.27944884    -8.1655604     -7.746393       0.75570406     50218.233      36.893836      36.893836      36.893836    
   6980000   0.28010764    -8.1653029     -7.7451474      0.7469967      50218.233      36.893836      36.893836      36.893836    
   6990000   0.27950504    -8.1642428     -7.7449912      0.76457671     50218.233      36.893836      36.893836      36.893836    
   7000000   0.28072678    -8.1652791     -7.7441949      0.7539343      50218.233      36.893836      36.893836      36.893836    
   7010000   0.27903637    -8.1661229     -7.7475743      0.75078911     50218.233      36.893836      36.893836      36.893836    
   7020000   0.27920305    -8.1664625     -7.7476639      0.74171725     50218.233      36.893836      36.893836      36.893836    
   7030000   0.28002196    -8.165541      -7.7455141      0.7551924      50218.233      36.893836      36.893836      36.893836    
   7040000   0.2794828     -8.1646776     -7.7454594      0.75801101     50218.233      36.893836      36.893836      36.893836    
   7050000   0.27988873    -8.1657149     -7.7458878      0.75695112     50218.233      36.893836      36.893836      36.893836    
   7060000   0.28080342    -8.1688976     -7.7476984      0.7287734      50218.233      36.893836      36.893836      36.893836    
   7070000   0.27991864    -8.1649115     -7.7450395      0.75232423     50218.233      36.893836      36.893836      36.893836    
   7080000   0.28002805    -8.1661682     -7.7461321      0.75544565     50218.233      36.893836      36.893836      36.893836    
   7090000   0.27876388    -8.1663025     -7.7481626      0.74538895     50218.233      36.893836      36.893836      36.893836    
   7100000   0.28078967    -8.164307      -7.7431285      0.76043195     50218.233      36.893836      36.893836      36.893836    
   7110000   0.27981582    -8.1639359     -7.7442182      0.76751973     50218.233      36.893836      36.893836      36.893836    
   7120000   0.28131255    -8.1651578     -7.743195       0.7571275      50218.233      36.893836      36.893836      36.893836    
   7130000   0.28076332    -8.1660257     -7.7448867      0.74585299     50218.233      36.893836      36.893836      36.893836    
   7140000   0.2801605     -8.1650486     -7.7448138      0.75660647     50218.233      36.893836      36.893836      36.893836    
   7150000   0.28057897    -8.1644485     -7.743586       0.75995973     50218.233      36.893836      36.893836      36.893836    
   7160000   0.27847655    -8.1641064     -7.7463975      0.76670718     50218.233      36.893836      36.893836      36.893836    
   7170000   0.28091356    -8.1655056     -7.7441412      0.76093149     50218.233      36.893836      36.893836      36.893836    
   7180000   0.27870039    -8.1638416     -7.745797       0.76166122     50218.233      36.893836      36.893836      36.893836    
   7190000   0.28014439    -8.1634816     -7.743271       0.77022907     50218.233      36.893836      36.893836      36.893836    
   7200000   0.28029559    -8.162443      -7.7420056      0.78226088     50218.233      36.893836      36.893836      36.893836    
   7210000   0.2811554     -8.1625281     -7.740801       0.7788671      50218.233      36.893836      36.893836      36.893836    
   7220000   0.27882331    -8.1652577     -7.7470287      0.74629889     50218.233      36.893836      36.893836      36.893836    
   7230000   0.27876037    -8.1647151     -7.7465805      0.75889039     50218.233      36.893836      36.893836      36.893836    
   7240000   0.27859916    -8.1646213     -7.7467285      0.75939034     50218.233      36.893836      36.893836      36.893836    
   7250000   0.28078428    -8.1639973     -7.7428269      0.76237714     50218.233      36.893836      36.893836      36.893836    
   7260000   0.28282847    -8.163474      -7.7392373      0.77004721     50218.233      36.893836      36.893836      36.893836    
   7270000   0.28051165    -8.1644589     -7.7436974      0.76111853     50218.233      36.893836      36.893836      36.893836    
   7280000   0.27973222    -8.1644687     -7.7448763      0.75109762     50218.233      36.893836      36.893836      36.893836    
   7290000   0.27838446    -8.1652569     -7.7476862      0.7540631      50218.233      36.893836      36.893836      36.893836    
   7300000   0.28105621    -8.1641229     -7.7425446      0.76869177     50218.233      36.893836      36.893836      36.893836    
   7310000   0.27897905    -8.1642872     -7.7458245      0.75821572     50218.233      36.893836      36.893836      36.893836    
   7320000   0.27981671    -8.1652747     -7.7455556      0.75564918     50218.233      36.893836      36.893836      36.893836    
   7330000   0.2802621     -8.1652563     -7.7448691      0.75065548     50218.233      36.893836      36.893836      36.893836    
   7340000   0.2805926     -8.1641059     -7.743223       0.75601176     50218.233      36.893836      36.893836      36.893836    
   7350000   0.27974128    -8.1639365     -7.7443306      0.77078006     50218.233      36.893836      36.893836      36.893836    
   7360000   0.27918243    -8.1664938     -7.7477261      0.75030338     50218.233      36.893836      36.893836      36.893836    
   7370000   0.28014533    -8.1640796     -7.7438676      0.76561422     50218.233      36.893836      36.893836      36.893836    
   7380000   0.2808739     -8.1682792     -7.7469744      0.73542218     50218.233      36.893836      36.893836      36.893836    
   7390000   0.28008488    -8.1679553     -7.747834       0.72892013     50218.233      36.893836      36.893836      36.893836    
   7400000   0.27989823    -8.1657359     -7.7458945      0.7514488      50218.233      36.893836      36.893836      36.893836    
   7410000   0.28016449    -8.1642509     -7.7440102      0.75581917     50218.233      36.893836      36.893836      36.893836    
   7420000   0.27914241    -8.1649408     -7.7462332      0.75259348     50218.233      36.893836      36.893836      36.893836    
   7430000   0.27949839    -8.1672226     -7.747981       0.74106099     50218.233      36.893836      36.893836      36.893836    
   7440000   0.27933576    -8.1634394     -7.7444418      0.76658194     50218.233      36.893836      36.893836      36.893836    
   7450000   0.27874389    -8.1652179     -7.747108       0.74398193     50218.233      36.893836      36.893836      36.893836    
   7460000   0.28064804    -8.1648218     -7.7438557      0.75103332     50218.233      36.893836      36.893836      36.893836    
   7470000   0.27946345    -8.1634058     -7.7442166      0.75965923     50218.233      36.893836      36.893836      36.893836    
   7480000   0.27983413    -8.1672181     -7.7474729      0.74063471     50218.233      36.893836      36.893836      36.893836    
   7490000   0.2801019     -8.1672294     -7.7470825      0.74073595     50218.233      36.893836      36.893836      36.893836    
   7500000   0.27934226    -8.1645686     -7.7455612      0.75614652     50218.233      36.893836      36.893836      36.893836    
   7510000   0.28134663    -8.1678611     -7.7458471      0.734803       50218.233      36.893836      36.893836      36.893836    
   7520000   0.28076196    -8.1664414     -7.7453045      0.74854545     50218.233      36.893836      36.893836      36.893836    
   7530000   0.27999929    -8.1675847     -7.7475917      0.73606969     50218.233      36.893836      36.893836      36.893836    
   7540000   0.28047375    -8.1652353     -7.7445307      0.75305819     50218.233      36.893836      36.893836      36.893836    
   7550000   0.280422      -8.1652507     -7.7446237      0.76328912     50218.233      36.893836      36.893836      36.893836    
   7560000   0.2785017     -8.1663477     -7.748601       0.74869298     50218.233      36.893836      36.893836      36.893836    
   7570000   0.2796853     -8.1678768     -7.7483548      0.73824244     50218.233      36.893836      36.893836      36.893836    
   7580000   0.28072605    -8.1676384     -7.7465553      0.73188042     50218.233      36.893836      36.893836      36.893836    
   7590000   0.28021531    -8.1669016     -7.7465846      0.74301866     50218.233      36.893836      36.893836      36.893836    
   7600000   0.27930219    -8.1646516     -7.7457042      0.76084034     50218.233      36.893836      36.893836      36.893836    
   7610000   0.28038088    -8.1657541     -7.7451887      0.75352491     50218.233      36.893836      36.893836      36.893836    
   7620000   0.28021707    -8.1633688     -7.7430492      0.77508546     50218.233      36.893836      36.893836      36.893836    
   7630000   0.27996876    -8.1654566     -7.7455094      0.75663161     50218.233      36.893836      36.893836      36.893836    
   7640000   0.27931135    -8.1649316     -7.7459706      0.75285839     50218.233      36.893836      36.893836      36.893836    
   7650000   0.28042477    -8.1657214     -7.7450902      0.7532253      50218.233      36.893836      36.893836      36.893836    
   7660000   0.27875569    -8.1643935     -7.7462659      0.76417115     50218.233      36.893836      36.893836      36.893836    
   7670000   0.279661      -8.163032      -7.7435465      0.77307016     50218.233      36.893836      36.893836      36.893836    
   7680000   0.27966541    -8.1653823     -7.7458901      0.75840511     50218.233      36.893836      36.893836      36.893836    
   7690000   0.27924087    -8.1649683     -7.746113       0.75985282     50218.233      36.893836      36.893836      36.893836    
   7700000   0.27916569    -8.1631928     -7.7444502      0.76464676     50218.233      36.893836      36.893836      36.893836    
   7710000   0.27859443    -8.16479       -7.7469043      0.75594726     50218.233      36.893836      36.893836      36.893836    
   7720000   0.2794809     -8.1636939     -7.7444785      0.76494989     50218.233      36.893836      36.893836      36.893836    
   7730000   0.28053102    -8.1642122     -7.7434216      0.77200953     50218.233      36.893836      36.893836      36.893836    
   7740000   0.27763686    -8.1628819     -7.7464325      0.77310128     50218.233      36.893836      36.893836      36.893836    
   7750000   0.27999696    -8.164949      -7.7449595      0.75589104     50218.233      36.893836      36.893836      36.893836    
   7760000   0.27973917    -8.1639846     -7.7443818      0.76417063     50218.233      36.893836      36.893836      36.893836    
   7770000   0.28136023    -8.1616757     -7.7396413      0.78648656     50218.233      36.893836      36.893836      36.893836    
   7780000   0.27939878    -8.1646118     -7.7455196      0.76356706     50218.233      36.893836      36.893836      36.893836    
   7790000   0.2817966     -8.1640257     -7.7413368      0.76806367     50218.233      36.893836      36.893836      36.893836    
   7800000   0.27920009    -8.1649704     -7.7461762      0.75365074     50218.233      36.893836      36.893836      36.893836    
   7810000   0.27960826    -8.164044      -7.7446376      0.76757458     50218.233      36.893836      36.893836      36.893836    
   7820000   0.27999464    -8.1659607     -7.7459747      0.75505779     50218.233      36.893836      36.893836      36.893836    
   7830000   0.2796154     -8.1637884     -7.7443712      0.76939482     50218.233      36.893836      36.893836      36.893836    
   7840000   0.27896887    -8.1653288     -7.7468814      0.74986891     50218.233      36.893836      36.893836      36.893836    
   7850000   0.27898917    -8.1640901     -7.7456123      0.77004746     50218.233      36.893836      36.893836      36.893836    
   7860000   0.2793895     -8.1645666     -7.7454883      0.7610028      50218.233      36.893836      36.893836      36.893836    
   7870000   0.27908336    -8.1660819     -7.7474629      0.74510118     50218.233      36.893836      36.893836      36.893836    
   7880000   0.27922371    -8.1661227     -7.7472931      0.75617814     50218.233      36.893836      36.893836      36.893836    
   7890000   0.28025258    -8.1660251     -7.7456523      0.75027654     50218.233      36.893836      36.893836      36.893836    
   7900000   0.28134298    -8.1647254     -7.7427169      0.76137677     50218.233      36.893836      36.893836      36.893836    
   7910000   0.27924164    -8.165581      -7.7467245      0.74553151     50218.233      36.893836      36.893836      36.893836    
   7920000   0.27980225    -8.1661086     -7.7464112      0.74290479     50218.233      36.893836      36.893836      36.893836    
   7930000   0.2794379     -8.163603      -7.7444521      0.77165216     50218.233      36.893836      36.893836      36.893836    
   7940000   0.2803154     -8.1671492     -7.7466821      0.73970586     50218.233      36.893836      36.893836      36.893836    
   7950000   0.27994337    -8.1671867     -7.7472776      0.73404645     50218.233      36.893836      36.893836      36.893836    
   7960000   0.280502      -8.1652564     -7.7445094      0.75934667     50218.233      36.893836      36.893836      36.893836    
   7970000   0.28043385    -8.1650994     -7.7444546      0.76449132     50218.233      36.893836      36.893836      36.893836    
   7980000   0.28054456    -8.1667033     -7.7458924      0.74175387     50218.233      36.893836      36.893836      36.893836    
   7990000   0.27920685    -8.1641468     -7.7453424      0.76117041     50218.233      36.893836      36.893836      36.893836    
   8000000   0.2807839     -8.1669542     -7.7457844      0.73797013     50218.233      36.893836      36.893836      36.893836    
   8010000   0.27871561    -8.1655796     -7.7475121      0.75468252     50218.233      36.893836      36.893836      36.893836    
   8020000   0.28082458    -8.1674226     -7.7461918      0.73403931     50218.233      36.893836      36.893836      36.893836    
   8030000   0.28027247    -8.1630656     -7.7426629      0.777622       50218.233      36.893836      36.893836      36.893836    
   8040000   0.27936351    -8.1656795     -7.7466402      0.74743577     50218.233      36.893836      36.893836      36.893836    
   8050000   0.27858068    -8.1656957     -7.7478307      0.75197513     50218.233      36.893836      36.893836      36.893836    
   8060000   0.27840767    -8.1674145     -7.7498089      0.73165427     50218.233      36.893836      36.893836      36.893836    
   8070000   0.28034487    -8.1652303     -7.744719       0.76766827     50218.233      36.893836      36.893836      36.893836    
   8080000   0.27974563    -8.1651075     -7.7454951      0.75574832     50218.233      36.893836      36.893836      36.893836    
   8090000   0.27995854    -8.1662309     -7.7462991      0.75042317     50218.233      36.893836      36.893836      36.893836    
   8100000   0.27889989    -8.1662573     -7.7479134      0.75745913     50218.233      36.893836      36.893836      36.893836    
   8110000   0.28047306    -8.1650663     -7.7443627      0.7578968      50218.233      36.893836      36.893836      36.893836    
   8120000   0.27907197    -8.1649852     -7.7463832      0.75583322     50218.233      36.893836      36.893836      36.893836    
   8130000   0.27942701    -8.1636367     -7.7445022      0.76466529     50218.233      36.893836      36.893836      36.893836    
   8140000   0.27849843    -8.1664204     -7.7486787      0.75351948     50218.233      36.893836      36.893836      36.893836    
   8150000   0.27882601    -8.1670213     -7.7487883      0.73520185     50218.233      36.893836      36.893836      36.893836    
   8160000   0.2795067     -8.1643463     -7.7450922      0.7663984      50218.233      36.893836      36.893836      36.893836    
   8170000   0.2809541     -8.1646136     -7.7431885      0.76159005     50218.233      36.893836      36.893836      36.893836    
   8180000   0.2815346     -8.1649394     -7.7426435      0.76504973     50218.233      36.893836      36.893836      36.893836    
   8190000   0.27918279    -8.1623818     -7.7436135      0.78280945     50218.233      36.893836      36.893836      36.893836    
   8200000   0.27942908    -8.1657757     -7.746638       0.75357032     50218.233      36.893836      36.893836      36.893836    
   8210000   0.27853663    -8.1651558     -7.7473568      0.75029704     50218.233      36.893836      36.893836      36.893836    
   8220000   0.27981195    -8.1660275     -7.7463155      0.74672442     50218.233      36.893836      36.893836      36.893836    
   8230000   0.28184396    -8.1648058     -7.7420458      0.75513838     50218.233      36.893836      36.893836      36.893836    
   8240000   0.2813143     -8.1641661     -7.7422006      0.76400233     50218.233      36.893836      36.893836      36.893836    
   8250000   0.28023058    -8.1665192     -7.7461793      0.73875523     50218.233      36.893836      36.893836      36.893836    
   8260000   0.28079158    -8.1636893     -7.7425079      0.76354045     50218.233      36.893836      36.893836      36.893836    
   8270000   0.28008943    -8.1635336     -7.7434055      0.76627857     50218.233      36.893836      36.893836      36.893836    
   8280000   0.27939775    -8.1654557     -7.746365       0.75698476     50218.233      36.893836      36.893836      36.893836    
   8290000   0.28073578    -8.1630644     -7.7419667      0.77699147     50218.233      36.893836      36.893836      36.893836    
   8300000   0.28017211    -8.1654854     -7.7452332      0.75380636     50218.233      36.893836      36.893836      36.893836    
   8310000   0.28079004    -8.1621413     -7.7409622      0.78795546     50218.233      36.893836      36.893836      36.893836    
   8320000   0.27956795    -8.1636644     -7.7443185      0.76881005     50218.233      36.893836      36.893836      36.893836    
   8330000   0.28055263    -8.1656113     -7.7447883      0.74949546     50218.233      36.893836      36.893836      36.893836    
   8340000   0.28131887    -8.1666538     -7.7446815      0.74986342     50218.233      36.893836      36.893836      36.893836    
   8350000   0.28061844    -8.1688048     -7.7478831      0.73348425     50218.233      36.893836      36.893836      36.893836    
   8360000   0.28043572    -8.1643654     -7.7437178      0.77158546     50218.233      36.893836      36.893836      36.893836    
   8370000   0.28061021    -8.1641803     -7.743271       0.76453309     50218.233      36.893836      36.893836      36.893836    
   8380000   0.27960375    -8.1653321     -7.7459324      0.75154691     50218.233      36.893836      36.893836      36.893836    
   8390000   0.28171054    -8.1657394     -7.7431796      0.75489856     50218.233      36.893836      36.893836      36.893836    
   8400000   0.28148524    -8.1633227     -7.7411008      0.77553396     50218.233      36.893836      36.893836      36.893836    
   8410000   0.27947745    -8.1686245     -7.7494143      0.72824523     50218.233      36.893836      36.893836      36.893836    
   8420000   0.27936309    -8.1633878     -7.7443491      0.77106561     50218.233      36.893836      36.893836      36.893836    
   8430000   0.27961236    -8.1649863     -7.7455738      0.75866318     50218.233      36.893836      36.893836      36.893836    
   8440000   0.27943094    -8.1652629     -7.7461224      0.75719473     50218.233      36.893836      36.893836      36.893836    
   8450000   0.27921981    -8.1666869     -7.7478631      0.73961113     50218.233      36.893836      36.893836      36.893836    
   8460000   0.28159156    -8.1659242     -7.7435429      0.74510695     50218.233      36.893836      36.893836      36.893836    
   8470000   0.27891712    -8.1664477     -7.748078       0.7423408      50218.233      36.893836      36.893836      36.893836    
   8480000   0.28100345    -8.1649355     -7.7434363      0.75917928     50218.233      36.893836      36.893836      36.893836    
   8490000   0.28161464    -8.1623986     -7.7399826      0.77539168     50218.233      36.893836      36.893836      36.893836    
   8500000   0.28007447    -8.1646692     -7.7445635      0.76554634     50218.233      36.893836      36.893836      36.893836    
   8510000   0.2805689     -8.165479      -7.7446317      0.7448025      50218.233      36.893836      36.893836      36.893836    
   8520000   0.27896924    -8.1672874     -7.7488395      0.73537947     50218.233      36.893836      36.893836      36.893836    
   8530000   0.28065757    -8.1649755     -7.7439951      0.7531981      50218.233      36.893836      36.893836      36.893836    
   8540000   0.28003785    -8.1675174     -7.7474666      0.7362788      50218.233      36.893836      36.893836      36.893836    
   8550000   0.28018877    -8.1652171     -7.7449399      0.74943515     50218.233      36.893836      36.893836      36.893836    
   8560000   0.27959121    -8.1659753     -7.7465944      0.74680869     50218.233      36.893836      36.893836      36.893836    
   8570000   0.28095422    -8.1653095     -7.7438842      0.75311062     50218.233      36.893836      36.893836      36.893836    
   8580000   0.27962813    -8.1658703     -7.746434       0.7436096      50218.233      36.893836      36.893836      36.893836    
   8590000   0.28005461    -8.1648663     -7.7447904      0.75927667     50218.233      36.893836      36.893836      36.893836    
   8600000   0.27996672    -8.1655587     -7.7456146      0.76081438     50218.233      36.893836      36.893836      36.893836    
   8610000   0.27996889    -8.1646252     -7.7446779      0.75893772     50218.233      36.893836      36.893836      36.893836    
   8620000   0.27987447    -8.1651696     -7.7453639      0.75716694     50218.233      36.893836      36.893836      36.893836    
   8630000   0.27992932    -8.1650997     -7.7452117      0.75476301     50218.233      36.893836      36.893836      36.893836    
   8640000   0.28086032    -8.1650981     -7.7438136      0.76444988     50218.233      36.893836      36.893836      36.893836    
   8650000   0.27963069    -8.1641996     -7.7447595      0.75647183     50218.233      36.893836      36.893836      36.893836    
   8660000   0.27889829    -8.1648437     -7.7465022      0.76037047     50218.233      36.893836      36.893836      36.893836    
   8670000   0.28067802    -8.1652952     -7.7442842      0.75506711     50218.233      36.893836      36.893836      36.893836    
   8680000   0.27987864    -8.1647549     -7.7449429      0.75474269     50218.233      36.893836      36.893836      36.893836    
   8690000   0.2804039     -8.1651332     -7.7445333      0.75212117     50218.233      36.893836      36.893836      36.893836    
   8700000   0.2808922     -8.1641266     -7.7427943      0.7664531      50218.233      36.893836      36.893836      36.893836    
   8710000   0.27979116    -8.1638274     -7.7441466      0.76509105     50218.233      36.893836      36.893836      36.893836    
   8720000   0.28156509    -8.1635785     -7.7412369      0.77923854     50218.233      36.893836      36.893836      36.893836    
   8730000   0.2799846     -8.1644737     -7.7445028      0.76279034     50218.233      36.893836      36.893836      36.893836    
   8740000   0.27976929    -8.1636041     -7.7439562      0.76488231     50218.233      36.893836      36.893836      36.893836    
   8750000   0.28064956    -8.1634381     -7.7424697      0.76822853     50218.233      36.893836      36.893836      36.893836    
   8760000   0.28063741    -8.1655046     -7.7445545      0.76197731     50218.233      36.893836      36.893836      36.893836    
   8770000   0.28046502    -8.1640849     -7.7433934      0.77379773     50218.233      36.893836      36.893836      36.893836    
   8780000   0.27981281    -8.1657701     -7.7460568      0.75176165     50218.233      36.893836      36.893836      36.893836    
   8790000   0.27923658    -8.1628453     -7.7439964      0.76841632     50218.233      36.893836      36.893836      36.893836    
   8800000   0.27997645    -8.1641834     -7.7442247      0.76218339     50218.233      36.893836      36.893836      36.893836    
   8810000   0.28171222    -8.1628088     -7.7402465      0.78139431     50218.233      36.893836      36.893836      36.893836    
   8820000   0.28195015    -8.1660991     -7.7431799      0.75234425     50218.233      36.893836      36.893836      36.893836    
   8830000   0.28026176    -8.1649312     -7.7445445      0.76308272     50218.233      36.893836      36.893836      36.893836    
   8840000   0.27989921    -8.1652367     -7.7453939      0.75509855     50218.233      36.893836      36.893836      36.893836    
   8850000   0.27919383    -8.1628923     -7.7441076      0.76877577     50218.233      36.893836      36.893836      36.893836    
   8860000   0.27957658    -8.1632005     -7.7438416      0.76877136     50218.233      36.893836      36.893836      36.893836    
   8870000   0.27960668    -8.163668      -7.7442639      0.77594496     50218.233      36.893836      36.893836      36.893836    
   8880000   0.28069168    -8.1637571     -7.7427256      0.76724708     50218.233      36.893836      36.893836      36.893836    
   8890000   0.27956416    -8.1665597     -7.7472194      0.75402563     50218.233      36.893836      36.893836      36.893836    
   8900000   0.28057225    -8.165976      -7.7451237      0.74942617     50218.233      36.893836      36.893836      36.893836    
   8910000   0.2773036     -8.1662232     -7.7502737      0.74685353     50218.233      36.893836      36.893836      36.893836    
   8920000   0.28021988    -8.1671306     -7.7468067      0.74228071     50218.233      36.893836      36.893836      36.893836    
   8930000   0.28091159    -8.1647893     -7.7434279      0.75252483     50218.233      36.893836      36.893836      36.893836    
   8940000   0.27979438    -8.1669194     -7.7472338      0.74391099     50218.233      36.893836      36.893836      36.893836    
   8950000   0.27967613    -8.1668735     -7.7473652      0.73939371     50218.233      36.893836      36.893836      36.893836    
   8960000   0.27992686    -8.166138      -7.7462536      0.74805019     50218.233      36.893836      36.893836      36.893836    
   8970000   0.28056314    -8.1650398     -7.7442011      0.76184225     50218.233      36.893836      36.893836      36.893836    
   8980000   0.28000983    -8.1656574     -7.7456486      0.7526426      50218.233      36.893836      36.893836      36.893836    
   8990000   0.27990802    -8.1656925     -7.7458364      0.75457381     50218.233      36.893836      36.893836      36.893836    
   9000000   0.27956828    -8.1671535     -7.747807       0.74488538     50218.233      36.893836      36.893836      36.893836    
   9010000   0.27969666    -8.1647511     -7.7452121      0.75739961     50218.233      36.893836      36.893836      36.893836    
   9020000   0.28126304    -8.165694      -7.7438054      0.74939385     50218.233      36.893836      36.893836      36.893836    
   9030000   0.27991059    -8.1658888     -7.7460289      0.74632785     50218.233      36.893836      36.893836      36.893836    
   9040000   0.27966074    -8.1656188     -7.7461336      0.75018047     50218.233      36.893836      36.893836      36.893836    
   9050000   0.27904872    -8.1644115     -7.7458443      0.75635435     50218.233      36.893836      36.893836      36.893836    
   9060000   0.28026805    -8.1652012     -7.7448051      0.75894195     50218.233      36.893836      36.893836      36.893836    
   9070000   0.28100219    -8.1643375     -7.7428402      0.76615734     50218.233      36.893836      36.893836      36.893836    
   9080000   0.27878931    -8.1641394     -7.7459614      0.75664179     50218.233      36.893836      36.893836      36.893836    
   9090000   0.28028101    -8.1660256     -7.7456101      0.74717777     50218.233      36.893836      36.893836      36.893836    
   9100000   0.28085452    -8.165139      -7.7438632      0.75138837     50218.233      36.893836      36.893836      36.893836    
   9110000   0.27893414    -8.1653939     -7.7469986      0.75578427     50218.233      36.893836      36.893836      36.893836    
   9120000   0.27965138    -8.1661        -7.7466289      0.75072147     50218.233      36.893836      36.893836      36.893836    
   9130000   0.2788716     -8.1654783     -7.7471769      0.75041515     50218.233      36.893836      36.893836      36.893836    
   9140000   0.27992078    -8.1645489     -7.7446737      0.76517461     50218.233      36.893836      36.893836      36.893836    
   9150000   0.2797927     -8.1662792     -7.7465961      0.74450864     50218.233      36.893836      36.893836      36.893836    
   9160000   0.27966932    -8.1648041     -7.7453061      0.75544845     50218.233      36.893836      36.893836      36.893836    
   9170000   0.2807198     -8.1638508     -7.742777       0.77403876     50218.233      36.893836      36.893836      36.893836    
   9180000   0.28066365    -8.1644248     -7.7434353      0.75991932     50218.233      36.893836      36.893836      36.893836    
   9190000   0.27913015    -8.1620078     -7.7433185      0.78440419     50218.233      36.893836      36.893836      36.893836    
   9200000   0.27928858    -8.1618399     -7.742913       0.78727432     50218.233      36.893836      36.893836      36.893836    
   9210000   0.27888625    -8.1646848     -7.7463614      0.75315607     50218.233      36.893836      36.893836      36.893836    
   9220000   0.28018748    -8.1634357     -7.7431605      0.77316417     50218.233      36.893836      36.893836      36.893836    
   9230000   0.28040084    -8.1623086     -7.7417133      0.77761994     50218.233      36.893836      36.893836      36.893836    
   9240000   0.27932449    -8.1665694     -7.7475886      0.74111859     50218.233      36.893836      36.893836      36.893836    
   9250000   0.28109072    -8.1636194     -7.7419893      0.76942973     50218.233      36.893836      36.893836      36.893836    
   9260000   0.28110985    -8.1640991     -7.7424403      0.77459014     50218.233      36.893836      36.893836      36.893836    
   9270000   0.28048914    -8.1639422     -7.7432145      0.76421477     50218.233      36.893836      36.893836      36.893836    
   9280000   0.28005475    -8.1665393     -7.7464632      0.74789882     50218.233      36.893836      36.893836      36.893836    
   9290000   0.28140499    -8.162386      -7.7402845      0.78191961     50218.233      36.893836      36.893836      36.893836    
   9300000   0.27879172    -8.1632703     -7.7450887      0.7654325      50218.233      36.893836      36.893836      36.893836    
   9310000   0.28040621    -8.1644972     -7.7438939      0.76010203     50218.233      36.893836      36.893836      36.893836    
   9320000   0.28041945    -8.1654813     -7.7448581      0.76000514     50218.233      36.893836      36.893836      36.893836    
   9330000   0.28017634    -8.1648301     -7.7445716      0.75564089     50218.233      36.893836      36.893836      36.893836    
   9340000   0.28040156    -8.164141      -7.7435447      0.76249488     50218.233      36.893836      36.893836      36.893836    
   9350000   0.27930175    -8.1630523     -7.7441056      0.77482387     50218.233      36.893836      36.893836      36.893836    
   9360000   0.28067191    -8.1628249     -7.741823       0.77355099     50218.233      36.893836      36.893836      36.893836    
   9370000   0.27873941    -8.1629419     -7.7448388      0.76835359     50218.233      36.893836      36.893836      36.893836    
   9380000   0.28047991    -8.1656497     -7.7449358      0.76409203     50218.233      36.893836      36.893836      36.893836    
   9390000   0.28009517    -8.1655666     -7.7454298      0.7502588      50218.233      36.893836      36.893836      36.893836    
   9400000   0.27911255    -8.1635609     -7.7448981      0.76608044     50218.233      36.893836      36.893836      36.893836    
   9410000   0.27956491    -8.1657149     -7.7463735      0.75917555     50218.233      36.893836      36.893836      36.893836    
   9420000   0.27922519    -8.1677599     -7.7489281      0.73680296     50218.233      36.893836      36.893836      36.893836    
   9430000   0.28009212    -8.1650544     -7.7449222      0.76074923     50218.233      36.893836      36.893836      36.893836    
   9440000   0.27993953    -8.1619462     -7.7420429      0.78454602     50218.233      36.893836      36.893836      36.893836    
   9450000   0.27926702    -8.1645247     -7.7456301      0.76003204     50218.233      36.893836      36.893836      36.893836    
   9460000   0.27957903    -8.1658827     -7.7465202      0.75100518     50218.233      36.893836      36.893836      36.893836    
   9470000   0.27970117    -8.165062      -7.7455162      0.76144227     50218.233      36.893836      36.893836      36.893836    
   9480000   0.28060059    -8.1644503     -7.7435554      0.76136413     50218.233      36.893836      36.893836      36.893836    
   9490000   0.27954843    -8.1633899     -7.7440732      0.76312385     50218.233      36.893836      36.893836      36.893836    
   9500000   0.2818022     -8.1658901     -7.7431928      0.74856378     50218.233      36.893836      36.893836      36.893836    
   9510000   0.28063886    -8.1653554     -7.7444031      0.7606712      50218.233      36.893836      36.893836      36.893836    
   9520000   0.28149264    -8.1651272     -7.7428943      0.75859551     50218.233      36.893836      36.893836      36.893836    
   9530000   0.27964766    -8.1649058     -7.7454403      0.74825604     50218.233      36.893836      36.893836      36.893836    
   9540000   0.27914624    -8.1651098     -7.7463964      0.75714859     50218.233      36.893836      36.893836      36.893836    
   9550000   0.28005441    -8.1662508     -7.7461751      0.74663341     50218.233      36.893836      36.893836      36.893836    
   9560000   0.28062484    -8.1672853     -7.746354       0.73919131     50218.233      36.893836      36.893836      36.893836    
   9570000   0.27864137    -8.1664551     -7.748499       0.75316209     50218.233      36.893836      36.893836      36.893836    
   9580000   0.28123687    -8.163894      -7.7420447      0.75673478     50218.233      36.893836      36.893836      36.893836    
   9590000   0.27966838    -8.166762      -7.7472654      0.73782054     50218.233      36.893836      36.893836      36.893836    
   9600000   0.2801712     -8.1656234     -7.7453725      0.75265326     50218.233      36.893836      36.893836      36.893836    
   9610000   0.2806766     -8.1629295     -7.7419206      0.77927506     50218.233      36.893836      36.893836      36.893836    
   9620000   0.27990016    -8.1642713     -7.744427       0.75648126     50218.233      36.893836      36.893836      36.893836    
   9630000   0.27950058    -8.1647427     -7.7454978      0.76442288     50218.233      36.893836      36.893836      36.893836    
   9640000   0.28006787    -8.166543      -7.7464472      0.7465186      50218.233      36.893836      36.893836      36.893836    
   9650000   0.27885616    -8.1637822     -7.7455039      0.7677598      50218.233      36.893836      36.893836      36.893836    
   9660000   0.27903225    -8.1631646     -7.7446222      0.77373137     50218.233      36.893836      36.893836      36.893836    
   9670000   0.28017294    -8.1642902     -7.7440368      0.76393247     50218.233      36.893836      36.893836      36.893836    
   9680000   0.27938593    -8.1670681     -7.7479952      0.74894882     50218.233      36.893836      36.893836      36.893836    
   9690000   0.28006577    -8.1640501     -7.7439574      0.76656539     50218.233      36.893836      36.893836      36.893836    
   9700000   0.2798049     -8.1649872     -7.7452858      0.75656782     50218.233      36.893836      36.893836      36.893836    
   9710000   0.28103423    -8.1672484     -7.745703       0.74324946     50218.233      36.893836      36.893836      36.893836    
   9720000   0.27937641    -8.1645574     -7.7454987      0.75897549     50218.233      36.893836      36.893836      36.893836    
   9730000   0.27958371    -8.1650591     -7.7456895      0.75847564     50218.233      36.893836      36.893836      36.893836    
   9740000   0.27995563    -8.1642866     -7.7443591      0.75898735     50218.233      36.893836      36.893836      36.893836    
   9750000   0.27933431    -8.1641947     -7.7451992      0.75728111     50218.233      36.893836      36.893836      36.893836    
   9760000   0.28109219    -8.1614086     -7.7397764      0.78129742     50218.233      36.893836      36.893836      36.893836    
   9770000   0.28039787    -8.1636167     -7.7430259      0.76672556     50218.233      36.893836      36.893836      36.893836    
   9780000   0.27869752    -8.1635742     -7.7455339      0.76497557     50218.233      36.893836      36.893836      36.893836    
   9790000   0.28014728    -8.1653562     -7.7451412      0.75858309     50218.233      36.893836      36.893836      36.893836    
   9800000   0.27919989    -8.1617397     -7.7429458      0.78540022     50218.233      36.893836      36.893836      36.893836    
   9810000   0.2801518     -8.1664624     -7.7462406      0.7416269      50218.233      36.893836      36.893836      36.893836    
   9820000   0.27979979    -8.1633562     -7.7436625      0.77229787     50218.233      36.893836      36.893836      36.893836    
   9830000   0.27973373    -8.163342      -7.7437474      0.77044167     50218.233      36.893836      36.893836      36.893836    
   9840000   0.27986092    -8.165592      -7.7458066      0.75589769     50218.233      36.893836      36.893836      36.893836    
   9850000   0.28109514    -8.1660204     -7.7443837      0.74960249     50218.233      36.893836      36.893836      36.893836    
   9860000   0.27870253    -8.1656868     -7.7476389      0.75307853     50218.233      36.893836      36.893836      36.893836    
   9870000   0.28029569    -8.1659437     -7.7455062      0.75180985     50218.233      36.893836      36.893836      36.893836    
   9880000   0.28066532    -8.1652428     -7.7442509      0.75161412     50218.233      36.893836      36.893836      36.893836    
   9890000   0.28020537    -8.1651073     -7.7448053      0.75910432     50218.233      36.893836      36.893836      36.893836    
   9900000   0.27879649    -8.1665498     -7.7483611      0.74326279     50218.233      36.893836      36.893836      36.893836    
   9910000   0.27934567    -8.1655196     -7.746507       0.74741494     50218.233      36.893836      36.893836      36.893836    
   9920000   0.27984602    -8.1660139     -7.7462508      0.7550548      50218.233      36.893836      36.893836      36.893836    
   9930000   0.27906953    -8.1633696     -7.7447713      0.76704966     50218.233      36.893836      36.893836      36.893836    
   9940000   0.27884682    -8.163133      -7.7448687      0.76121462     50218.233      36.893836      36.893836      36.893836    
   9950000   0.27958828    -8.1658517     -7.7464752      0.74657231     50218.233      36.893836      36.893836      36.893836    
   9960000   0.28058129    -8.1653303     -7.7444643      0.75717677     50218.233      36.893836      36.893836      36.893836    
   9970000   0.28095686    -8.1676684     -7.7462391      0.73937877     50218.233      36.893836      36.893836      36.893836    
   9980000   0.27991135    -8.1665612     -7.7467002      0.74903089     50218.233      36.893836      36.893836      36.893836    
   9990000   0.27802506    -8.1668665     -7.7498348      0.73907316     50218.233      36.893836      36.893836      36.893836    
  10000000   0.27983007    -8.165034      -7.7452948      0.7559875      50218.233      36.893836      36.893836      36.893836    
Loop time of 15653.3 on 5 procs for 10000000 steps with 70304 atoms

Performance: 551961.690 tau/day, 638.845 timesteps/s, 44.913 Matom-step/s
94.6% CPU use with 5 MPI tasks x 1 OpenMP threads

MPI task timing breakdown:
Section |  min time  |  avg time  |  max time  |%varavg| %total
---------------------------------------------------------------
Pair    | 5360.2     | 6093       | 7117.2     | 802.3 | 38.93
Neigh   | 41.235     | 43.295     | 44.805     |  20.2 |  0.28
Comm    | 2291.9     | 2306.9     | 2327.7     |  29.1 | 14.74
Output  | 0.18091    | 0.18708    | 0.19842    |   1.4 |  0.00
Modify  | 5338.2     | 6375.7     | 7131.8     | 788.0 | 40.73
Other   |            | 834.1      |            |       |  5.33

Nlocal:        14060.8 ave       14122 max       14029 min
Histogram: 2 0 1 1 0 0 0 0 0 1
Nghost:        18752.8 ave       18797 max       18726 min
Histogram: 2 1 0 0 0 0 1 0 0 1
Neighs:              0 ave           0 max           0 min
Histogram: 5 0 0 0 0 0 0 0 0 0

Total # of neighbors = 0
Ave neighs/atom = 0
Neighbor list builds = 1578176
Dangerous builds = 0
clear
OMP_NUM_THREADS environment is not set. Defaulting to 1 thread. (src/comm.cpp:98)
  using 1 OpenMP thread(s) per MPI task
package gpu 0
jump dms260.lmp

variable T equal 260
# T = 1000* (temp in LJ unit)
variable f equal 10000
log log.${T}
log log.260
