variable TLJ equal (${T}/1000)
variable TLJ equal (485/1000)
variable NCyle equal 8
variable iStep equal (${f})
variable iStep equal (10000)
variable dumpStep equal (${f}*100)
variable dumpStep equal (10000*100)
variable runStep equal (${f}*100*${NCyle})
variable runStep equal (10000*100*${NCyle})
variable runStep equal (10000*100*8)

units       lj
atom_style  atomic
dimension 3
boundary     p p p
pair_style  lj/cut 2.5
read_data  ../data/T${T}.dat
read_data  ../data/T485.dat
Reading data file ...
  orthogonal box = (0.97250269 0.97250269 0.97250269) to (37.866338 37.866338 37.866338)
  1 by 1 by 5 MPI processor grid
  reading atoms ...
  70304 atoms
  reading velocities ...
  70304 velocities
  read_data CPU = 0.209 seconds
change_box all triclinic
Changing box ...
  triclinic box = (0.97250269 0.97250269 0.97250269) to (37.866338 37.866338 37.866338) with tilt (0 0 0)
mass 1 1
mass 2 1
pair_modify shift yes
pair_coeff  1 1 1 1
pair_coeff  1 2 1.5 0.8
pair_coeff  2 2 0.5 0.88


timestep 0.01
thermo ${iStep}
thermo 10000
reset_timestep 0
thermo_style custom step temp pe etotal press vol lx ly lz
fix             1 all nvt temp ${TLJ}  ${TLJ}  0.1
fix             1 all nvt temp 0.485  ${TLJ}  0.1
fix             1 all nvt temp 0.485  0.485  0.1
thermo_modify flush yes

fix dsf all deform 1 xy  wiggle 0.5  ${f}   units box
fix dsf all deform 1 xy  wiggle 0.5  10000   units box
fix ps1 all ave/time 1 1 ${iStep} c_thermo_press[1] c_thermo_press[2]  c_thermo_press[3] c_thermo_press[4]  c_thermo_press[5] c_thermo_press[6]  file  stress.${T}
fix ps1 all ave/time 1 1 10000 c_thermo_press[1] c_thermo_press[2]  c_thermo_press[3] c_thermo_press[4]  c_thermo_press[5] c_thermo_press[6]  file  stress.${T}
fix ps1 all ave/time 1 1 10000 c_thermo_press[1] c_thermo_press[2]  c_thermo_press[3] c_thermo_press[4]  c_thermo_press[5] c_thermo_press[6]  file  stress.485
dump            1 all custom ${dumpStep} dump.${T} id type x y z
dump            1 all custom 1000000 dump.${T} id type x y z
dump            1 all custom 1000000 dump.485 id type x y z
dump_modify 1 sort id
fix nodrift all momentum 1  linear 1 1 1
fix com_seed all recenter INIT INIT INIT shift all
run ${runStep}
run 8000000
Generated 0 of 1 mixed pair_coeff terms from geometric mixing rule
Per MPI rank memory allocation (min/avg/max) = 6.661 | 8.468 | 8.921 Mbytes
   Step          Temp          PotEng         TotEng         Press          Volume           Lx             Ly             Lz      
         0   0.48656364    -7.8564828     -7.1266477      3.3443906      50218.233      36.893836      36.893836      36.893836    
     10000   0.48296642    -7.8472878     -7.1228485      3.3993989      50218.233      36.893836      36.893836      36.893836    
     20000   0.48759214    -7.8502594     -7.1188816      3.3811942      50218.233      36.893836      36.893836      36.893836    
     30000   0.48465595    -7.843682      -7.1167084      3.4365128      50218.233      36.893836      36.893836      36.893836    
     40000   0.48396281    -7.8454984     -7.1195645      3.4198658      50218.233      36.893836      36.893836      36.893836    
     50000   0.48619518    -7.8471288     -7.1178464      3.3953838      50218.233      36.893836      36.893836      36.893836    
     60000   0.48453603    -7.8441537     -7.1173599      3.429296       50218.233      36.893836      36.893836      36.893836    
     70000   0.4882928     -7.8458306     -7.1134019      3.421223       50218.233      36.893836      36.893836      36.893836    
     80000   0.48912182    -7.8490891     -7.1154168      3.3834929      50218.233      36.893836      36.893836      36.893836    
     90000   0.48433336    -7.8477347     -7.121245       3.3827225      50218.233      36.893836      36.893836      36.893836    
    100000   0.48435478    -7.8458846     -7.1193628      3.4042553      50218.233      36.893836      36.893836      36.893836    
    110000   0.48522009    -7.8447584     -7.1169387      3.4190471      50218.233      36.893836      36.893836      36.893836    
    120000   0.48287149    -7.8412206     -7.1169236      3.436979       50218.233      36.893836      36.893836      36.893836    
    130000   0.48342375    -7.8442966     -7.1191713      3.4138766      50218.233      36.893836      36.893836      36.893836    
    140000   0.48665848    -7.8463845     -7.1164072      3.4069773      50218.233      36.893836      36.893836      36.893836    
    150000   0.48568862    -7.8421605     -7.1136379      3.4402313      50218.233      36.893836      36.893836      36.893836    
    160000   0.48611789    -7.848327      -7.1191606      3.3888304      50218.233      36.893836      36.893836      36.893836    
    170000   0.48782163    -7.8426996     -7.1109775      3.4298468      50218.233      36.893836      36.893836      36.893836    
    180000   0.48553618    -7.8438651     -7.1155712      3.4222113      50218.233      36.893836      36.893836      36.893836    
    190000   0.48620243    -7.8514212     -7.1221279      3.3749587      50218.233      36.893836      36.893836      36.893836    
    200000   0.48563375    -7.8455315     -7.1170912      3.4048672      50218.233      36.893836      36.893836      36.893836    
    210000   0.48469164    -7.8422648     -7.1152376      3.4467376      50218.233      36.893836      36.893836      36.893836    
    220000   0.48609614    -7.8452901     -7.1161563      3.4161068      50218.233      36.893836      36.893836      36.893836    
    230000   0.48438426    -7.8437129     -7.1171468      3.4220364      50218.233      36.893836      36.893836      36.893836    
    240000   0.48410004    -7.8443945     -7.1182548      3.410271       50218.233      36.893836      36.893836      36.893836    
    250000   0.48309       -7.8436995     -7.1190748      3.4286819      50218.233      36.893836      36.893836      36.893836    
    260000   0.48414273    -7.8466678     -7.120464       3.4005117      50218.233      36.893836      36.893836      36.893836    
    270000   0.48445453    -7.8488389     -7.1221675      3.3889257      50218.233      36.893836      36.893836      36.893836    
    280000   0.48459766    -7.8453703     -7.1184841      3.4113163      50218.233      36.893836      36.893836      36.893836    
    290000   0.48615499    -7.8445647     -7.1153426      3.4136287      50218.233      36.893836      36.893836      36.893836    
    300000   0.48432792    -7.8447644     -7.1182828      3.4111251      50218.233      36.893836      36.893836      36.893836    
    310000   0.48602093    -7.8449822     -7.1159612      3.4204768      50218.233      36.893836      36.893836      36.893836    
    320000   0.48468043    -7.8445978     -7.1175875      3.4085397      50218.233      36.893836      36.893836      36.893836    
    330000   0.48364045    -7.8480084     -7.122558       3.3816556      50218.233      36.893836      36.893836      36.893836    
    340000   0.48548885    -7.8431697     -7.1149468      3.4229916      50218.233      36.893836      36.893836      36.893836    
    350000   0.4874968     -7.8477586     -7.1165239      3.3982227      50218.233      36.893836      36.893836      36.893836    
    360000   0.48281863    -7.8457005     -7.1214829      3.4011605      50218.233      36.893836      36.893836      36.893836    
    370000   0.48430867    -7.8447928     -7.1183402      3.4094149      50218.233      36.893836      36.893836      36.893836    
    380000   0.48378306    -7.8436977     -7.1180334      3.4155392      50218.233      36.893836      36.893836      36.893836    
    390000   0.48372995    -7.8451026     -7.119518       3.4083928      50218.233      36.893836      36.893836      36.893836    
    400000   0.48428572    -7.8474085     -7.1209903      3.3893502      50218.233      36.893836      36.893836      36.893836    
    410000   0.48659356    -7.8462876     -7.1164077      3.404021       50218.233      36.893836      36.893836      36.893836    
    420000   0.48481128    -7.8460932     -7.1188866      3.4028243      50218.233      36.893836      36.893836      36.893836    
    430000   0.48524522    -7.8455461     -7.1176886      3.4113967      50218.233      36.893836      36.893836      36.893836    
    440000   0.48511863    -7.8479444     -7.1202768      3.404349       50218.233      36.893836      36.893836      36.893836    
    450000   0.48047054    -7.8438613     -7.1231657      3.4110594      50218.233      36.893836      36.893836      36.893836    
    460000   0.48589852    -7.8467603     -7.1179228      3.3983459      50218.233      36.893836      36.893836      36.893836    
    470000   0.48340009    -7.8433417     -7.1182519      3.4162794      50218.233      36.893836      36.893836      36.893836    
    480000   0.48452648    -7.8438291     -7.1170497      3.4161738      50218.233      36.893836      36.893836      36.893836    
    490000   0.48675763    -7.8419681     -7.111842       3.4408344      50218.233      36.893836      36.893836      36.893836    
    500000   0.48677871    -7.8466122     -7.1164545      3.4021793      50218.233      36.893836      36.893836      36.893836    
    510000   0.48396417    -7.8447005     -7.1187646      3.4124454      50218.233      36.893836      36.893836      36.893836    
    520000   0.48161357    -7.8444212     -7.1220111      3.4081063      50218.233      36.893836      36.893836      36.893836    
    530000   0.48501327    -7.8457174     -7.1182078      3.409529       50218.233      36.893836      36.893836      36.893836    
    540000   0.48571401    -7.8445869     -7.1160263      3.412011       50218.233      36.893836      36.893836      36.893836    
    550000   0.48460508    -7.8476518     -7.1207545      3.3876909      50218.233      36.893836      36.893836      36.893836    
    560000   0.48703334    -7.8430535     -7.1125139      3.4313282      50218.233      36.893836      36.893836      36.893836    
    570000   0.48579269    -7.8424909     -7.1138122      3.4323593      50218.233      36.893836      36.893836      36.893836    
    580000   0.48565287    -7.8432482     -7.1147793      3.4343446      50218.233      36.893836      36.893836      36.893836    
    590000   0.48575288    -7.8443585     -7.1157396      3.4097939      50218.233      36.893836      36.893836      36.893836    
    600000   0.48561927    -7.8465475     -7.1181289      3.4005823      50218.233      36.893836      36.893836      36.893836    
    610000   0.48618955    -7.8456696     -7.1163956      3.4056355      50218.233      36.893836      36.893836      36.893836    
    620000   0.48478039    -7.844837      -7.1176767      3.4210139      50218.233      36.893836      36.893836      36.893836    
    630000   0.48705674    -7.8448642     -7.1142894      3.4202882      50218.233      36.893836      36.893836      36.893836    
    640000   0.48687707    -7.8417565     -7.1114513      3.4408854      50218.233      36.893836      36.893836      36.893836    
    650000   0.48502097    -7.8463473     -7.1188262      3.4022746      50218.233      36.893836      36.893836      36.893836    
    660000   0.48401687    -7.8453267     -7.1193117      3.4114615      50218.233      36.893836      36.893836      36.893836    
    670000   0.48711201    -7.8454881     -7.1148305      3.4137197      50218.233      36.893836      36.893836      36.893836    
    680000   0.48730304    -7.8451847     -7.1142405      3.4195898      50218.233      36.893836      36.893836      36.893836    
    690000   0.48532168    -7.8450291     -7.1170569      3.42341        50218.233      36.893836      36.893836      36.893836    
    700000   0.48394591    -7.8438684     -7.1179599      3.4207297      50218.233      36.893836      36.893836      36.893836    
    710000   0.48522425    -7.8409818     -7.1131558      3.4469308      50218.233      36.893836      36.893836      36.893836    
    720000   0.48610709    -7.8463807     -7.1172305      3.4099983      50218.233      36.893836      36.893836      36.893836    
    730000   0.48417046    -7.8418205     -7.1155751      3.4467699      50218.233      36.893836      36.893836      36.893836    
    740000   0.48294761    -7.8435131     -7.119102       3.4315555      50218.233      36.893836      36.893836      36.893836    
    750000   0.48507989    -7.8454034     -7.1177939      3.417018       50218.233      36.893836      36.893836      36.893836    
    760000   0.48347546    -7.8435028     -7.1182999      3.4259116      50218.233      36.893836      36.893836      36.893836    
    770000   0.48391943    -7.8419054     -7.1160366      3.441047       50218.233      36.893836      36.893836      36.893836    
    780000   0.48711377    -7.8416079     -7.1109477      3.4474579      50218.233      36.893836      36.893836      36.893836    
    790000   0.48410679    -7.8452354     -7.1190855      3.4086558      50218.233      36.893836      36.893836      36.893836    
    800000   0.48710678    -7.8414921     -7.1108423      3.446928       50218.233      36.893836      36.893836      36.893836    
    810000   0.48400902    -7.842595      -7.1165918      3.4342405      50218.233      36.893836      36.893836      36.893836    
    820000   0.48467793    -7.8451467     -7.1181401      3.4155666      50218.233      36.893836      36.893836      36.893836    
    830000   0.48552773    -7.8381307     -7.1098495      3.4618195      50218.233      36.893836      36.893836      36.893836    
    840000   0.48227332    -7.8431659     -7.1197662      3.4275405      50218.233      36.893836      36.893836      36.893836    
    850000   0.4837372     -7.8415587     -7.1159633      3.4332758      50218.233      36.893836      36.893836      36.893836    
    860000   0.48562625    -7.8407932     -7.1123641      3.442731       50218.233      36.893836      36.893836      36.893836    
    870000   0.48573723    -7.8400944     -7.1114989      3.4478681      50218.233      36.893836      36.893836      36.893836    
    880000   0.48547566    -7.844055      -7.1158518      3.4336382      50218.233      36.893836      36.893836      36.893836    
    890000   0.48416062    -7.8456387     -7.119408       3.4220429      50218.233      36.893836      36.893836      36.893836    
    900000   0.48613605    -7.8395461     -7.1103524      3.4616795      50218.233      36.893836      36.893836      36.893836    
    910000   0.48515369    -7.8457965     -7.1180763      3.4029386      50218.233      36.893836      36.893836      36.893836    
    920000   0.48266982    -7.844511      -7.1205165      3.4165351      50218.233      36.893836      36.893836      36.893836    
    930000   0.48702374    -7.8412632     -7.110738       3.4504716      50218.233      36.893836      36.893836      36.893836    
    940000   0.48505663    -7.8429444     -7.1153698      3.4405946      50218.233      36.893836      36.893836      36.893836    
    950000   0.4847978     -7.8450404     -7.1178541      3.414296       50218.233      36.893836      36.893836      36.893836    
    960000   0.48448456    -7.8438353     -7.1171188      3.4247678      50218.233      36.893836      36.893836      36.893836    
    970000   0.48359042    -7.8426087     -7.1172334      3.4309222      50218.233      36.893836      36.893836      36.893836    
    980000   0.48243368    -7.8431007     -7.1194605      3.4313213      50218.233      36.893836      36.893836      36.893836    
    990000   0.48323369    -7.8400947     -7.1152544      3.456725       50218.233      36.893836      36.893836      36.893836    
   1000000   0.48414606    -7.8448911     -7.1186823      3.4067351      50218.233      36.893836      36.893836      36.893836    
   1010000   0.48391838    -7.8451979     -7.1193307      3.4030698      50218.233      36.893836      36.893836      36.893836    
   1020000   0.482487      -7.8454775     -7.1217573      3.4049631      50218.233      36.893836      36.893836      36.893836    
   1030000   0.48589854    -7.8416098     -7.1127723      3.4430371      50218.233      36.893836      36.893836      36.893836    
   1040000   0.48609816    -7.8422627     -7.1131258      3.4430878      50218.233      36.893836      36.893836      36.893836    
   1050000   0.48638684    -7.8440944     -7.1145246      3.4174766      50218.233      36.893836      36.893836      36.893836    
   1060000   0.48683367    -7.8455287     -7.1152886      3.4064783      50218.233      36.893836      36.893836      36.893836    
   1070000   0.4832005     -7.8448485     -7.1200581      3.4171195      50218.233      36.893836      36.893836      36.893836    
   1080000   0.48424386    -7.8443595     -7.118004       3.4222071      50218.233      36.893836      36.893836      36.893836    
   1090000   0.48319467    -7.8445821     -7.1198005      3.4157342      50218.233      36.893836      36.893836      36.893836    
   1100000   0.48817129    -7.8419462     -7.1096997      3.4474598      50218.233      36.893836      36.893836      36.893836    
   1110000   0.48565018    -7.8429524     -7.1144875      3.4285144      50218.233      36.893836      36.893836      36.893836    
   1120000   0.48403564    -7.8472554     -7.1212122      3.3914699      50218.233      36.893836      36.893836      36.893836    
   1130000   0.48461878    -7.8450232     -7.1181054      3.413637       50218.233      36.893836      36.893836      36.893836    
   1140000   0.48361927    -7.8415883     -7.1161697      3.4413354      50218.233      36.893836      36.893836      36.893836    
   1150000   0.48805005    -7.8447586     -7.112694       3.4209128      50218.233      36.893836      36.893836      36.893836    
   1160000   0.48633271    -7.8421705     -7.1126818      3.4366378      50218.233      36.893836      36.893836      36.893836    
   1170000   0.48579353    -7.8399875     -7.1113076      3.455526       50218.233      36.893836      36.893836      36.893836    
   1180000   0.48303293    -7.8464324     -7.1218933      3.4001199      50218.233      36.893836      36.893836      36.893836    
   1190000   0.48679788    -7.8407182     -7.1105318      3.4498139      50218.233      36.893836      36.893836      36.893836    
   1200000   0.48508766    -7.8441092     -7.116488       3.4305394      50218.233      36.893836      36.893836      36.893836    
   1210000   0.48307955    -7.8444118     -7.1198028      3.4307134      50218.233      36.893836      36.893836      36.893836    
   1220000   0.48354993    -7.8400278     -7.1147132      3.454066       50218.233      36.893836      36.893836      36.893836    
   1230000   0.48486266    -7.8397483     -7.1124646      3.4490415      50218.233      36.893836      36.893836      36.893836    
   1240000   0.48604463    -7.8403071     -7.1112505      3.4482732      50218.233      36.893836      36.893836      36.893836    
   1250000   0.48590783    -7.8405545     -7.1117031      3.4471947      50218.233      36.893836      36.893836      36.893836    
   1260000   0.48472674    -7.8419336     -7.1148538      3.4384788      50218.233      36.893836      36.893836      36.893836    
   1270000   0.48650103    -7.8439402     -7.114199       3.4373795      50218.233      36.893836      36.893836      36.893836    
   1280000   0.48639283    -7.8433576     -7.1137787      3.439851       50218.233      36.893836      36.893836      36.893836    
   1290000   0.48259662    -7.8401331     -7.1162485      3.4376838      50218.233      36.893836      36.893836      36.893836    
   1300000   0.48399021    -7.8438378     -7.1178628      3.4379191      50218.233      36.893836      36.893836      36.893836    
   1310000   0.48914449    -7.8460403     -7.112334       3.4104695      50218.233      36.893836      36.893836      36.893836    
   1320000   0.48485439    -7.846354      -7.1190827      3.4049287      50218.233      36.893836      36.893836      36.893836    
   1330000   0.48237699    -7.8449149     -7.1213598      3.4276756      50218.233      36.893836      36.893836      36.893836    
   1340000   0.48313913    -7.8438196     -7.1191212      3.4187088      50218.233      36.893836      36.893836      36.893836    
   1350000   0.48386639    -7.8431887     -7.1173994      3.433915       50218.233      36.893836      36.893836      36.893836    
   1360000   0.48465761    -7.8466658     -7.1196897      3.4092405      50218.233      36.893836      36.893836      36.893836    
   1370000   0.48362633    -7.8490415     -7.1236123      3.3889758      50218.233      36.893836      36.893836      36.893836    
   1380000   0.48288542    -7.8438044     -7.1194866      3.4290554      50218.233      36.893836      36.893836      36.893836    
   1390000   0.4858632     -7.8444268     -7.1156424      3.4222775      50218.233      36.893836      36.893836      36.893836    
   1400000   0.48644514    -7.8451191     -7.1154618      3.4221447      50218.233      36.893836      36.893836      36.893836    
   1410000   0.48412107    -7.8400346     -7.1138633      3.4590808      50218.233      36.893836      36.893836      36.893836    
   1420000   0.48707915    -7.8436346     -7.1130263      3.4289843      50218.233      36.893836      36.893836      36.893836    
   1430000   0.48569539    -7.8468278     -7.1182951      3.4133687      50218.233      36.893836      36.893836      36.893836    
   1440000   0.482911      -7.8432061     -7.1188499      3.4303231      50218.233      36.893836      36.893836      36.893836    
   1450000   0.48524678    -7.8453475     -7.1174877      3.4096785      50218.233      36.893836      36.893836      36.893836    
   1460000   0.48467505    -7.8423059     -7.1153037      3.4466718      50218.233      36.893836      36.893836      36.893836    
   1470000   0.48507648    -7.8490337     -7.1214294      3.387885       50218.233      36.893836      36.893836      36.893836    
   1480000   0.48536069    -7.8458417     -7.1178111      3.4074016      50218.233      36.893836      36.893836      36.893836    
   1490000   0.48748421    -7.8453297     -7.1141138      3.4228734      50218.233      36.893836      36.893836      36.893836    
   1500000   0.48689386    -7.8472802     -7.1169498      3.4045987      50218.233      36.893836      36.893836      36.893836    
   1510000   0.48361487    -7.8440201     -7.1186081      3.4342856      50218.233      36.893836      36.893836      36.893836    
   1520000   0.4841384     -7.8445287     -7.1183314      3.4213263      50218.233      36.893836      36.893836      36.893836    
   1530000   0.4837891     -7.8500141     -7.1243408      3.377503       50218.233      36.893836      36.893836      36.893836    
   1540000   0.48386359    -7.8479181     -7.122133       3.3932598      50218.233      36.893836      36.893836      36.893836    
   1550000   0.4842478     -7.840075      -7.1137137      3.4441649      50218.233      36.893836      36.893836      36.893836    
   1560000   0.48445517    -7.8471338     -7.1204614      3.4010581      50218.233      36.893836      36.893836      36.893836    
   1570000   0.48586503    -7.841176      -7.1123888      3.4530631      50218.233      36.893836      36.893836      36.893836    
   1580000   0.48284779    -7.8470295     -7.1227681      3.3995447      50218.233      36.893836      36.893836      36.893836    
   1590000   0.48141598    -7.8435276     -7.121414       3.431566       50218.233      36.893836      36.893836      36.893836    
   1600000   0.48444307    -7.8458555     -7.1192013      3.4162576      50218.233      36.893836      36.893836      36.893836    
   1610000   0.48726384    -7.8459098     -7.1150244      3.4243189      50218.233      36.893836      36.893836      36.893836    
   1620000   0.4857201     -7.8417412     -7.1131714      3.440759       50218.233      36.893836      36.893836      36.893836    
   1630000   0.48325549    -7.8430193     -7.1181464      3.4324594      50218.233      36.893836      36.893836      36.893836    
   1640000   0.48399649    -7.8435926     -7.1176082      3.4172157      50218.233      36.893836      36.893836      36.893836    
   1650000   0.48477144    -7.8435731     -7.1164262      3.4177659      50218.233      36.893836      36.893836      36.893836    
   1660000   0.48423136    -7.8478097     -7.121473       3.4002349      50218.233      36.893836      36.893836      36.893836    
   1670000   0.48540924    -7.8449016     -7.1167981      3.4205095      50218.233      36.893836      36.893836      36.893836    
   1680000   0.48587059    -7.8439582     -7.1151627      3.4391564      50218.233      36.893836      36.893836      36.893836    
   1690000   0.48734327    -7.842355      -7.1113504      3.4376508      50218.233      36.893836      36.893836      36.893836    
   1700000   0.48425342    -7.8399807     -7.1136109      3.4569661      50218.233      36.893836      36.893836      36.893836    
   1710000   0.48336002    -7.8413999     -7.1163702      3.4404785      50218.233      36.893836      36.893836      36.893836    
   1720000   0.48515486    -7.8487331     -7.1210112      3.3959493      50218.233      36.893836      36.893836      36.893836    
   1730000   0.48683698    -7.8418421     -7.1115971      3.4526459      50218.233      36.893836      36.893836      36.893836    
   1740000   0.4849424     -7.8436182     -7.1162149      3.4334874      50218.233      36.893836      36.893836      36.893836    
   1750000   0.482256      -7.841234      -7.1178603      3.443723       50218.233      36.893836      36.893836      36.893836    
   1760000   0.48817968    -7.8450515     -7.1127924      3.4290481      50218.233      36.893836      36.893836      36.893836    
   1770000   0.48287682    -7.843547      -7.1192421      3.4250542      50218.233      36.893836      36.893836      36.893836    
   1780000   0.48408092    -7.8422449     -7.1161339      3.4355311      50218.233      36.893836      36.893836      36.893836    
   1790000   0.48667938    -7.8438061     -7.1137974      3.4321995      50218.233      36.893836      36.893836      36.893836    
   1800000   0.48324529    -7.8447282     -7.1198706      3.4212813      50218.233      36.893836      36.893836      36.893836    
   1810000   0.48513158    -7.8447346     -7.1170476      3.4189622      50218.233      36.893836      36.893836      36.893836    
   1820000   0.48159357    -7.8404167     -7.1180366      3.4432526      50218.233      36.893836      36.893836      36.893836    
   1830000   0.4872214     -7.8498103     -7.1189886      3.3980267      50218.233      36.893836      36.893836      36.893836    
   1840000   0.48626246    -7.8428491     -7.1134658      3.4315144      50218.233      36.893836      36.893836      36.893836    
   1850000   0.48328417    -7.8420208     -7.1171049      3.4430586      50218.233      36.893836      36.893836      36.893836    
   1860000   0.48238782    -7.8468055     -7.1232341      3.4026494      50218.233      36.893836      36.893836      36.893836    
   1870000   0.48408762    -7.8441237     -7.1180026      3.4319971      50218.233      36.893836      36.893836      36.893836    
   1880000   0.48603708    -7.8471763     -7.1181311      3.3985223      50218.233      36.893836      36.893836      36.893836    
   1890000   0.48500757    -7.8441049     -7.1166039      3.424948       50218.233      36.893836      36.893836      36.893836    
   1900000   0.48586408    -7.8463097     -7.117524       3.4131637      50218.233      36.893836      36.893836      36.893836    
   1910000   0.48792666    -7.8435786     -7.1116991      3.4189218      50218.233      36.893836      36.893836      36.893836    
   1920000   0.48518494    -7.8438056     -7.1160385      3.4241268      50218.233      36.893836      36.893836      36.893836    
   1930000   0.48448765    -7.8445659     -7.1178447      3.4175884      50218.233      36.893836      36.893836      36.893836    
   1940000   0.48253589    -7.847012      -7.1232185      3.3959112      50218.233      36.893836      36.893836      36.893836    
   1950000   0.4838442     -7.8414698     -7.1157138      3.4417368      50218.233      36.893836      36.893836      36.893836    
   1960000   0.48618942    -7.8463469     -7.1170732      3.4106743      50218.233      36.893836      36.893836      36.893836    
   1970000   0.48841983    -7.8418419     -7.1092225      3.4392778      50218.233      36.893836      36.893836      36.893836    
   1980000   0.48699911    -7.8439164     -7.1134281      3.4330036      50218.233      36.893836      36.893836      36.893836    
   1990000   0.48424376    -7.8456094     -7.1192541      3.4180731      50218.233      36.893836      36.893836      36.893836    
   2000000   0.48621265    -7.8432312     -7.1139226      3.4340098      50218.233      36.893836      36.893836      36.893836    
   2010000   0.48477242    -7.8439597     -7.1168114      3.4165504      50218.233      36.893836      36.893836      36.893836    
   2020000   0.4856874     -7.8454964     -7.1169756      3.4103522      50218.233      36.893836      36.893836      36.893836    
   2030000   0.48498992    -7.8418659     -7.1143913      3.4372791      50218.233      36.893836      36.893836      36.893836    
   2040000   0.48220968    -7.8444445     -7.1211403      3.4090461      50218.233      36.893836      36.893836      36.893836    
   2050000   0.48423878    -7.8458071     -7.1194593      3.4176634      50218.233      36.893836      36.893836      36.893836    
   2060000   0.48347047    -7.8445669     -7.1193715      3.4255776      50218.233      36.893836      36.893836      36.893836    
   2070000   0.48677179    -7.8428039     -7.1126566      3.4343081      50218.233      36.893836      36.893836      36.893836    
   2080000   0.4864048     -7.8456415     -7.1160447      3.4255462      50218.233      36.893836      36.893836      36.893836    
   2090000   0.48239441    -7.8458952     -7.1223138      3.4074795      50218.233      36.893836      36.893836      36.893836    
   2100000   0.48619463    -7.8452707     -7.1159892      3.4173864      50218.233      36.893836      36.893836      36.893836    
   2110000   0.48480217    -7.8442202     -7.1170273      3.4266908      50218.233      36.893836      36.893836      36.893836    
   2120000   0.48403776    -7.8420291     -7.1159828      3.4347932      50218.233      36.893836      36.893836      36.893836    
   2130000   0.48280753    -7.8414993     -7.1172983      3.4414452      50218.233      36.893836      36.893836      36.893836    
   2140000   0.48369363    -7.8431301     -7.1175999      3.4241137      50218.233      36.893836      36.893836      36.893836    
   2150000   0.48414766    -7.8379652     -7.1117541      3.4628852      50218.233      36.893836      36.893836      36.893836    
   2160000   0.48381644    -7.8433594     -7.117645       3.4292171      50218.233      36.893836      36.893836      36.893836    
   2170000   0.48741933    -7.8430569     -7.1119383      3.4231219      50218.233      36.893836      36.893836      36.893836    
   2180000   0.48565348    -7.8433793     -7.1149094      3.4263703      50218.233      36.893836      36.893836      36.893836    
   2190000   0.48290525    -7.8466114     -7.1222638      3.3968315      50218.233      36.893836      36.893836      36.893836    
   2200000   0.48606817    -7.8459623     -7.1168704      3.3998465      50218.233      36.893836      36.893836      36.893836    
   2210000   0.48781187    -7.8421821     -7.1104747      3.4338913      50218.233      36.893836      36.893836      36.893836    
   2220000   0.48120877    -7.8414591     -7.1196562      3.4451867      50218.233      36.893836      36.893836      36.893836    
   2230000   0.4826835     -7.841881      -7.117866       3.4288858      50218.233      36.893836      36.893836      36.893836    
   2240000   0.48474566    -7.8448137     -7.1177055      3.4254845      50218.233      36.893836      36.893836      36.893836    
   2250000   0.48379767    -7.8405605     -7.1148743      3.4488293      50218.233      36.893836      36.893836      36.893836    
   2260000   0.48576052    -7.8437474     -7.115117       3.4306951      50218.233      36.893836      36.893836      36.893836    
   2270000   0.48587165    -7.8410028     -7.1122057      3.4544905      50218.233      36.893836      36.893836      36.893836    
   2280000   0.48625205    -7.8451975     -7.1158298      3.4121503      50218.233      36.893836      36.893836      36.893836    
   2290000   0.48266099    -7.8441271     -7.1201459      3.418695       50218.233      36.893836      36.893836      36.893836    
   2300000   0.48592588    -7.8437404     -7.114862       3.4298849      50218.233      36.893836      36.893836      36.893836    
   2310000   0.48730498    -7.8437145     -7.1127674      3.4229665      50218.233      36.893836      36.893836      36.893836    
   2320000   0.48584924    -7.846369      -7.1176055      3.4063163      50218.233      36.893836      36.893836      36.893836    
   2330000   0.48263425    -7.8405327     -7.1165917      3.4520364      50218.233      36.893836      36.893836      36.893836    
   2340000   0.48366418    -7.8415068     -7.1160208      3.4400309      50218.233      36.893836      36.893836      36.893836    
   2350000   0.48485651    -7.8424579     -7.1151835      3.4398021      50218.233      36.893836      36.893836      36.893836    
   2360000   0.48439595    -7.8403279     -7.1137443      3.4561334      50218.233      36.893836      36.893836      36.893836    
   2370000   0.48449958    -7.8422228     -7.1154838      3.4401669      50218.233      36.893836      36.893836      36.893836    
   2380000   0.48215552    -7.844786      -7.121563       3.4153243      50218.233      36.893836      36.893836      36.893836    
   2390000   0.48432076    -7.8456456     -7.1191748      3.396067       50218.233      36.893836      36.893836      36.893836    
   2400000   0.4844507     -7.8442545     -7.1175888      3.4283185      50218.233      36.893836      36.893836      36.893836    
   2410000   0.48346001    -7.8423178     -7.1171381      3.4360334      50218.233      36.893836      36.893836      36.893836    
   2420000   0.48551202    -7.8465448     -7.1182871      3.4171771      50218.233      36.893836      36.893836      36.893836    
   2430000   0.48783338    -7.8459152     -7.1141756      3.4169083      50218.233      36.893836      36.893836      36.893836    
   2440000   0.48968888    -7.8452853     -7.1107624      3.4187183      50218.233      36.893836      36.893836      36.893836    
   2450000   0.48476053    -7.8448882     -7.1177578      3.4108748      50218.233      36.893836      36.893836      36.893836    
   2460000   0.48541819    -7.8432552     -7.1151383      3.4440593      50218.233      36.893836      36.893836      36.893836    
   2470000   0.48550512    -7.8439383     -7.1156909      3.4288937      50218.233      36.893836      36.893836      36.893836    
   2480000   0.48444264    -7.8454078     -7.1187541      3.4161803      50218.233      36.893836      36.893836      36.893836    
   2490000   0.48568449    -7.8389203     -7.1104039      3.4507466      50218.233      36.893836      36.893836      36.893836    
   2500000   0.4837837     -7.8436258     -7.1179605      3.4143693      50218.233      36.893836      36.893836      36.893836    
   2510000   0.48666586    -7.8459642     -7.1159757      3.4166582      50218.233      36.893836      36.893836      36.893836    
   2520000   0.48533072    -7.8446216     -7.1166358      3.4191412      50218.233      36.893836      36.893836      36.893836    
   2530000   0.48197168    -7.8416029     -7.1186556      3.4416064      50218.233      36.893836      36.893836      36.893836    
   2540000   0.48396025    -7.8407686     -7.1148386      3.4533142      50218.233      36.893836      36.893836      36.893836    
   2550000   0.48528298    -7.8400883     -7.1121742      3.4554661      50218.233      36.893836      36.893836      36.893836    
   2560000   0.4864642     -7.8424488     -7.1127629      3.4414551      50218.233      36.893836      36.893836      36.893836    
   2570000   0.48331915    -7.8463335     -7.1213651      3.416064       50218.233      36.893836      36.893836      36.893836    
   2580000   0.48420792    -7.8389791     -7.1126775      3.4555063      50218.233      36.893836      36.893836      36.893836    
   2590000   0.48041333    -7.8419133     -7.1213035      3.4323837      50218.233      36.893836      36.893836      36.893836    
   2600000   0.48320768    -7.8460356     -7.1212344      3.3984688      50218.233      36.893836      36.893836      36.893836    
   2610000   0.48440512    -7.842329      -7.1157316      3.4345421      50218.233      36.893836      36.893836      36.893836    
   2620000   0.48411831    -7.8434915     -7.1173243      3.4255642      50218.233      36.893836      36.893836      36.893836    
   2630000   0.48506028    -7.8428946     -7.1153145      3.4350752      50218.233      36.893836      36.893836      36.893836    
   2640000   0.48448817    -7.845059      -7.118337       3.4163841      50218.233      36.893836      36.893836      36.893836    
   2650000   0.48559862    -7.8446042     -7.1162166      3.4186721      50218.233      36.893836      36.893836      36.893836    
   2660000   0.48408865    -7.8462488     -7.1201262      3.4138826      50218.233      36.893836      36.893836      36.893836    
   2670000   0.486912      -7.8435537     -7.113196       3.4289729      50218.233      36.893836      36.893836      36.893836    
   2680000   0.48353892    -7.8482386     -7.1229406      3.3965411      50218.233      36.893836      36.893836      36.893836    
   2690000   0.4860931     -7.8440241     -7.1148948      3.4330885      50218.233      36.893836      36.893836      36.893836    
   2700000   0.48586451    -7.8448195     -7.1160331      3.4178737      50218.233      36.893836      36.893836      36.893836    
   2710000   0.48917853    -7.8431711     -7.1094138      3.4180129      50218.233      36.893836      36.893836      36.893836    
   2720000   0.48705094    -7.8448211     -7.1142551      3.4123575      50218.233      36.893836      36.893836      36.893836    
   2730000   0.4841165     -7.8400812     -7.1139168      3.4494696      50218.233      36.893836      36.893836      36.893836    
   2740000   0.48556593    -7.8434904     -7.1151519      3.4252489      50218.233      36.893836      36.893836      36.893836    
   2750000   0.48523589    -7.8482734     -7.1204299      3.389726       50218.233      36.893836      36.893836      36.893836    
   2760000   0.48595698    -7.8432048     -7.1142797      3.4268196      50218.233      36.893836      36.893836      36.893836    
   2770000   0.483203      -7.8432355     -7.1184413      3.4344011      50218.233      36.893836      36.893836      36.893836    
   2780000   0.48446258    -7.8465005     -7.1198169      3.403559       50218.233      36.893836      36.893836      36.893836    
   2790000   0.48635343    -7.8467104     -7.1171906      3.4116178      50218.233      36.893836      36.893836      36.893836    
   2800000   0.48358795    -7.8432769     -7.1179053      3.4211956      50218.233      36.893836      36.893836      36.893836    
   2810000   0.48516111    -7.8457981     -7.1180668      3.4130081      50218.233      36.893836      36.893836      36.893836    
   2820000   0.48373251    -7.8445003     -7.1189118      3.4164601      50218.233      36.893836      36.893836      36.893836    
   2830000   0.48454114    -7.8465797     -7.1197783      3.4032938      50218.233      36.893836      36.893836      36.893836    
   2840000   0.48587147    -7.8469037     -7.1181069      3.4016746      50218.233      36.893836      36.893836      36.893836    
   2850000   0.48629657    -7.8465513     -7.1171168      3.402213       50218.233      36.893836      36.893836      36.893836    
   2860000   0.48254806    -7.8474582     -7.1236464      3.3897902      50218.233      36.893836      36.893836      36.893836    
   2870000   0.485036      -7.847959      -7.1204154      3.3935996      50218.233      36.893836      36.893836      36.893836    
   2880000   0.48500096    -7.8494791     -7.121988       3.3804976      50218.233      36.893836      36.893836      36.893836    
   2890000   0.48535142    -7.8451631     -7.1171463      3.4212561      50218.233      36.893836      36.893836      36.893836    
   2900000   0.48355142    -7.8464636     -7.1211468      3.4100051      50218.233      36.893836      36.893836      36.893836    
   2910000   0.48392223    -7.8416169     -7.1157439      3.4330798      50218.233      36.893836      36.893836      36.893836    
   2920000   0.48257482    -7.8464209     -7.122569       3.3963393      50218.233      36.893836      36.893836      36.893836    
   2930000   0.483987      -7.842341      -7.1163708      3.4324518      50218.233      36.893836      36.893836      36.893836    
   2940000   0.48403268    -7.8460126     -7.1199739      3.4010344      50218.233      36.893836      36.893836      36.893836    
   2950000   0.48262257    -7.8430808     -7.1191573      3.4208189      50218.233      36.893836      36.893836      36.893836    
   2960000   0.48270526    -7.8480818     -7.1240342      3.3858255      50218.233      36.893836      36.893836      36.893836    
   2970000   0.48551248    -7.8443878     -7.1161294      3.4241771      50218.233      36.893836      36.893836      36.893836    
   2980000   0.48554346    -7.8448626     -7.1165577      3.4250499      50218.233      36.893836      36.893836      36.893836    
   2990000   0.48518088    -7.8483388     -7.1205778      3.3795315      50218.233      36.893836      36.893836      36.893836    
   3000000   0.48560651    -7.8424379     -7.1140385      3.4465334      50218.233      36.893836      36.893836      36.893836    
   3010000   0.4866179     -7.8461347     -7.1162182      3.4003418      50218.233      36.893836      36.893836      36.893836    
   3020000   0.48528725    -7.8472721     -7.1193516      3.4030037      50218.233      36.893836      36.893836      36.893836    
   3030000   0.48577764    -7.8459794     -7.1173233      3.4015816      50218.233      36.893836      36.893836      36.893836    
   3040000   0.48455326    -7.8475324     -7.1207128      3.410232       50218.233      36.893836      36.893836      36.893836    
   3050000   0.4846408     -7.8446763     -7.1177254      3.4142182      50218.233      36.893836      36.893836      36.893836    
   3060000   0.48672579    -7.8465074     -7.1164291      3.4049993      50218.233      36.893836      36.893836      36.893836    
   3070000   0.48208386    -7.8451103     -7.1219948      3.411799       50218.233      36.893836      36.893836      36.893836    
   3080000   0.48549919    -7.846466      -7.1182276      3.4040149      50218.233      36.893836      36.893836      36.893836    
   3090000   0.48520872    -7.8451404     -7.1173377      3.4107974      50218.233      36.893836      36.893836      36.893836    
   3100000   0.48456265    -7.8432982     -7.1164646      3.4240408      50218.233      36.893836      36.893836      36.893836    
   3110000   0.48457292    -7.8454268     -7.1185778      3.4150509      50218.233      36.893836      36.893836      36.893836    
   3120000   0.48414105    -7.8447981     -7.1185968      3.4155105      50218.233      36.893836      36.893836      36.893836    
   3130000   0.48428827    -7.8449107     -7.1184886      3.4106195      50218.233      36.893836      36.893836      36.893836    
   3140000   0.48382407    -7.8452595     -7.1195337      3.4147633      50218.233      36.893836      36.893836      36.893836    
   3150000   0.48501203    -7.845542      -7.1180343      3.4162668      50218.233      36.893836      36.893836      36.893836    
   3160000   0.48468971    -7.8460356     -7.1190114      3.4105259      50218.233      36.893836      36.893836      36.893836    
   3170000   0.48557631    -7.8478076     -7.1194535      3.3904949      50218.233      36.893836      36.893836      36.893836    
   3180000   0.48424399    -7.8448712     -7.1185156      3.4168543      50218.233      36.893836      36.893836      36.893836    
   3190000   0.4842214     -7.8453736     -7.1190518      3.407588       50218.233      36.893836      36.893836      36.893836    
   3200000   0.48417041    -7.8450406     -7.1187953      3.4105225      50218.233      36.893836      36.893836      36.893836    
   3210000   0.48514998    -7.8401302     -7.1124155      3.4572423      50218.233      36.893836      36.893836      36.893836    
   3220000   0.48497886    -7.8428352     -7.1153773      3.424168       50218.233      36.893836      36.893836      36.893836    
   3230000   0.48744078    -7.8440084     -7.1128577      3.4270217      50218.233      36.893836      36.893836      36.893836    
   3240000   0.4829726     -7.8400235     -7.1155749      3.4501749      50218.233      36.893836      36.893836      36.893836    
   3250000   0.48442265    -7.8427745     -7.1161509      3.4325942      50218.233      36.893836      36.893836      36.893836    
   3260000   0.48470471    -7.8417185     -7.1146718      3.4509276      50218.233      36.893836      36.893836      36.893836    
   3270000   0.48730336    -7.8464889     -7.1155442      3.4064151      50218.233      36.893836      36.893836      36.893836    
   3280000   0.48530367    -7.8422092     -7.114264       3.437091       50218.233      36.893836      36.893836      36.893836    
   3290000   0.48660434    -7.8460588     -7.1161626      3.4082194      50218.233      36.893836      36.893836      36.893836    
   3300000   0.48461474    -7.8439229     -7.1170111      3.4258264      50218.233      36.893836      36.893836      36.893836    
   3310000   0.48778742    -7.8446263     -7.1129556      3.4217712      50218.233      36.893836      36.893836      36.893836    
   3320000   0.48683624    -7.8374079     -7.107164       3.4787597      50218.233      36.893836      36.893836      36.893836    
   3330000   0.48302265    -7.8429099     -7.1183862      3.4193304      50218.233      36.893836      36.893836      36.893836    
   3340000   0.48626086    -7.8437559     -7.114375       3.4275652      50218.233      36.893836      36.893836      36.893836    
   3350000   0.48434752    -7.8449177     -7.1184068      3.4202265      50218.233      36.893836      36.893836      36.893836    
   3360000   0.48375325    -7.8432659     -7.1176463      3.4210159      50218.233      36.893836      36.893836      36.893836    
   3370000   0.48433432    -7.8418968     -7.1154056      3.4367743      50218.233      36.893836      36.893836      36.893836    
   3380000   0.48521044    -7.8484627     -7.1206574      3.3956993      50218.233      36.893836      36.893836      36.893836    
   3390000   0.48561598    -7.843566      -7.1151523      3.4167343      50218.233      36.893836      36.893836      36.893836    
   3400000   0.48549509    -7.8418584     -7.1136261      3.4314753      50218.233      36.893836      36.893836      36.893836    
   3410000   0.48242032    -7.8442346     -7.1206144      3.4208944      50218.233      36.893836      36.893836      36.893836    
   3420000   0.48743584    -7.8423665     -7.1112232      3.4352739      50218.233      36.893836      36.893836      36.893836    
   3430000   0.48299416    -7.8400125     -7.1155316      3.4513212      50218.233      36.893836      36.893836      36.893836    
   3440000   0.48376392    -7.847528      -7.1218924      3.391047       50218.233      36.893836      36.893836      36.893836    
   3450000   0.4860306     -7.8452602     -7.1162247      3.4204616      50218.233      36.893836      36.893836      36.893836    
   3460000   0.48493238    -7.8435197     -7.1161315      3.4312006      50218.233      36.893836      36.893836      36.893836    
   3470000   0.4833231     -7.8458387     -7.1208644      3.3996099      50218.233      36.893836      36.893836      36.893836    
   3480000   0.48756427    -7.8447982     -7.1134622      3.4194019      50218.233      36.893836      36.893836      36.893836    
   3490000   0.48668948    -7.844131      -7.1141072      3.4156982      50218.233      36.893836      36.893836      36.893836    
   3500000   0.48640315    -7.8421922     -7.1125979      3.434757       50218.233      36.893836      36.893836      36.893836    
   3510000   0.48534832    -7.8420879     -7.1140758      3.4265941      50218.233      36.893836      36.893836      36.893836    
   3520000   0.48654545    -7.8451611     -7.1153534      3.4070454      50218.233      36.893836      36.893836      36.893836    
   3530000   0.48650356    -7.8454115     -7.1156666      3.4149368      50218.233      36.893836      36.893836      36.893836    
   3540000   0.48606052    -7.8401607     -7.1110803      3.4532938      50218.233      36.893836      36.893836      36.893836    
   3550000   0.48452552    -7.8459414     -7.1191635      3.4010405      50218.233      36.893836      36.893836      36.893836    
   3560000   0.48475072    -7.8437199     -7.1166041      3.4220949      50218.233      36.893836      36.893836      36.893836    
   3570000   0.48497992    -7.8412796     -7.11382        3.436935       50218.233      36.893836      36.893836      36.893836    
   3580000   0.48564582    -7.8454678     -7.1170094      3.4147977      50218.233      36.893836      36.893836      36.893836    
   3590000   0.48641987    -7.8423252     -7.1127058      3.4255202      50218.233      36.893836      36.893836      36.893836    
   3600000   0.48522377    -7.8442091     -7.1163838      3.4248608      50218.233      36.893836      36.893836      36.893836    
   3610000   0.48286053    -7.8435643     -7.1192838      3.4147147      50218.233      36.893836      36.893836      36.893836    
   3620000   0.48376553    -7.8427976     -7.1171596      3.4270975      50218.233      36.893836      36.893836      36.893836    
   3630000   0.48425961    -7.8443071     -7.117928       3.4140623      50218.233      36.893836      36.893836      36.893836    
   3640000   0.48528314    -7.841229      -7.1133146      3.4376942      50218.233      36.893836      36.893836      36.893836    
   3650000   0.48587228    -7.8426961     -7.113898       3.4277445      50218.233      36.893836      36.893836      36.893836    
   3660000   0.48445454    -7.8452754     -7.1186039      3.4046579      50218.233      36.893836      36.893836      36.893836    
   3670000   0.48268713    -7.8427415     -7.1187211      3.4298391      50218.233      36.893836      36.893836      36.893836    
   3680000   0.48322953    -7.8405533     -7.1157193      3.4429039      50218.233      36.893836      36.893836      36.893836    
   3690000   0.48606219    -7.8426347     -7.1135518      3.4350715      50218.233      36.893836      36.893836      36.893836    
   3700000   0.48410756    -7.8456742     -7.1195232      3.4046447      50218.233      36.893836      36.893836      36.893836    
   3710000   0.48493016    -7.8412546     -7.1138697      3.4502074      50218.233      36.893836      36.893836      36.893836    
   3720000   0.48246408    -7.8405594     -7.1168735      3.4427937      50218.233      36.893836      36.893836      36.893836    
   3730000   0.48526997    -7.8428831     -7.1149885      3.4340481      50218.233      36.893836      36.893836      36.893836    
   3740000   0.48314349    -7.8435757     -7.1188708      3.4209221      50218.233      36.893836      36.893836      36.893836    
   3750000   0.48472705    -7.8428498     -7.1157696      3.4281326      50218.233      36.893836      36.893836      36.893836    
   3760000   0.48649797    -7.8430329     -7.1132963      3.4377818      50218.233      36.893836      36.893836      36.893836    
   3770000   0.48670965    -7.8455329     -7.1154788      3.4261093      50218.233      36.893836      36.893836      36.893836    
   3780000   0.48629122    -7.8433368     -7.1139104      3.4340099      50218.233      36.893836      36.893836      36.893836    
   3790000   0.48241924    -7.8440638     -7.1204452      3.4141228      50218.233      36.893836      36.893836      36.893836    
   3800000   0.48348022    -7.8472736     -7.1220636      3.3996854      50218.233      36.893836      36.893836      36.893836    
   3810000   0.48473189    -7.8452184     -7.1181309      3.4185167      50218.233      36.893836      36.893836      36.893836    
   3820000   0.48344529    -7.8428733     -7.1177156      3.4298787      50218.233      36.893836      36.893836      36.893836    
   3830000   0.48620143    -7.8436433     -7.1143516      3.4356374      50218.233      36.893836      36.893836      36.893836    
   3840000   0.48532704    -7.8427579     -7.1147777      3.4468825      50218.233      36.893836      36.893836      36.893836    
   3850000   0.48617482    -7.8440788     -7.1148269      3.4205689      50218.233      36.893836      36.893836      36.893836    
   3860000   0.48381235    -7.8399479     -7.1142397      3.4529183      50218.233      36.893836      36.893836      36.893836    
   3870000   0.48335916    -7.8416941     -7.1166657      3.4319256      50218.233      36.893836      36.893836      36.893836    
   3880000   0.48571628    -7.843069      -7.1145049      3.4312703      50218.233      36.893836      36.893836      36.893836    
   3890000   0.48448763    -7.8441857     -7.1174646      3.4173823      50218.233      36.893836      36.893836      36.893836    
   3900000   0.48615508    -7.8454093     -7.116187       3.4171803      50218.233      36.893836      36.893836      36.893836    
   3910000   0.48492561    -7.8435036     -7.1161256      3.4425434      50218.233      36.893836      36.893836      36.893836    
   3920000   0.48378773    -7.8423781     -7.1167068      3.4315358      50218.233      36.893836      36.893836      36.893836    
   3930000   0.48371598    -7.8432217     -7.1176581      3.4134974      50218.233      36.893836      36.893836      36.893836    
   3940000   0.48561447    -7.8491104     -7.1206991      3.3913294      50218.233      36.893836      36.893836      36.893836    
   3950000   0.48834552    -7.8488378     -7.1163299      3.3948719      50218.233      36.893836      36.893836      36.893836    
   3960000   0.48599926    -7.8442724     -7.1152838      3.4282768      50218.233      36.893836      36.893836      36.893836    
   3970000   0.48810567    -7.8467657     -7.1146176      3.4148733      50218.233      36.893836      36.893836      36.893836    
   3980000   0.48505933    -7.8478755     -7.1202969      3.3938639      50218.233      36.893836      36.893836      36.893836    
   3990000   0.48717722    -7.8421045     -7.1113491      3.4406291      50218.233      36.893836      36.893836      36.893836    
   4000000   0.48607063    -7.8444039     -7.1153083      3.4243029      50218.233      36.893836      36.893836      36.893836    
   4010000   0.48335494    -7.8452229     -7.1202008      3.4081479      50218.233      36.893836      36.893836      36.893836    
   4020000   0.48329843    -7.8446392     -7.1197019      3.4248692      50218.233      36.893836      36.893836      36.893836    
   4030000   0.48504214    -7.8439352     -7.1163823      3.4312412      50218.233      36.893836      36.893836      36.893836    
   4040000   0.48525415    -7.8448169     -7.1169461      3.4124558      50218.233      36.893836      36.893836      36.893836    
   4050000   0.4835896     -7.845874      -7.1204999      3.4020242      50218.233      36.893836      36.893836      36.893836    
   4060000   0.48345393    -7.8461        -7.1209294      3.4067768      50218.233      36.893836      36.893836      36.893836    
   4070000   0.48583534    -7.8438266     -7.115084       3.4269738      50218.233      36.893836      36.893836      36.893836    
   4080000   0.48576347    -7.8441044     -7.1154696      3.4273256      50218.233      36.893836      36.893836      36.893836    
   4090000   0.48400693    -7.8466645     -7.1206645      3.4103916      50218.233      36.893836      36.893836      36.893836    
   4100000   0.48559087    -7.8427137     -7.1143377      3.4221432      50218.233      36.893836      36.893836      36.893836    
   4110000   0.48127169    -7.8453111     -7.1234139      3.4004899      50218.233      36.893836      36.893836      36.893836    
   4120000   0.48519645    -7.8445981     -7.1168138      3.4175567      50218.233      36.893836      36.893836      36.893836    
   4130000   0.48302035    -7.8412576     -7.1167374      3.4500336      50218.233      36.893836      36.893836      36.893836    
   4140000   0.48468763    -7.8409482     -7.1139271      3.4437425      50218.233      36.893836      36.893836      36.893836    
   4150000   0.48497989    -7.847039      -7.1195795      3.396627       50218.233      36.893836      36.893836      36.893836    
   4160000   0.48558161    -7.844033      -7.1156709      3.4259337      50218.233      36.893836      36.893836      36.893836    
   4170000   0.48226733    -7.8403846     -7.1169939      3.4454885      50218.233      36.893836      36.893836      36.893836    
   4180000   0.48536069    -7.8397893     -7.1117586      3.448182       50218.233      36.893836      36.893836      36.893836    
   4190000   0.48537705    -7.8427529     -7.1146977      3.419625       50218.233      36.893836      36.893836      36.893836    
   4200000   0.48549053    -7.8412166     -7.1129911      3.4431478      50218.233      36.893836      36.893836      36.893836    
   4210000   0.48587433    -7.8451799     -7.1163788      3.4193959      50218.233      36.893836      36.893836      36.893836    
   4220000   0.48687836    -7.8468544     -7.1165473      3.4097034      50218.233      36.893836      36.893836      36.893836    
   4230000   0.48512774    -7.845241      -7.1175597      3.412075       50218.233      36.893836      36.893836      36.893836    
   4240000   0.48306305    -7.8441589     -7.1195746      3.4230314      50218.233      36.893836      36.893836      36.893836    
   4250000   0.48589263    -7.8481954     -7.1193669      3.3896166      50218.233      36.893836      36.893836      36.893836    
   4260000   0.48607491    -7.843443      -7.114341       3.433421       50218.233      36.893836      36.893836      36.893836    
   4270000   0.48583002    -7.8470502     -7.1183156      3.3898688      50218.233      36.893836      36.893836      36.893836    
   4280000   0.48488834    -7.8414166     -7.1140945      3.447427       50218.233      36.893836      36.893836      36.893836    
   4290000   0.48606196    -7.8464026     -7.11732        3.397064       50218.233      36.893836      36.893836      36.893836    
   4300000   0.48762372    -7.8434353     -7.1120101      3.4305525      50218.233      36.893836      36.893836      36.893836    
   4310000   0.48441083    -7.844736      -7.1181301      3.4136425      50218.233      36.893836      36.893836      36.893836    
   4320000   0.48323062    -7.8427269     -7.1178913      3.4276016      50218.233      36.893836      36.893836      36.893836    
   4330000   0.48367001    -7.8468578     -7.1213631      3.4042725      50218.233      36.893836      36.893836      36.893836    
   4340000   0.48591506    -7.8484859     -7.1196237      3.3925517      50218.233      36.893836      36.893836      36.893836    
   4350000   0.48282925    -7.8396645     -7.1154309      3.4530638      50218.233      36.893836      36.893836      36.893836    
   4360000   0.48542223    -7.8463147     -7.1181917      3.3934113      50218.233      36.893836      36.893836      36.893836    
   4370000   0.48474477    -7.8409901     -7.1138833      3.4371194      50218.233      36.893836      36.893836      36.893836    
   4380000   0.48517699    -7.84744       -7.1196849      3.3986466      50218.233      36.893836      36.893836      36.893836    
   4390000   0.48268572    -7.8428645     -7.1188463      3.4260663      50218.233      36.893836      36.893836      36.893836    
   4400000   0.48528862    -7.8428439     -7.1149214      3.4409255      50218.233      36.893836      36.893836      36.893836    
   4410000   0.48265485    -7.8441211     -7.1201491      3.4144067      50218.233      36.893836      36.893836      36.893836    
   4420000   0.48536789    -7.8443564     -7.1163149      3.4276248      50218.233      36.893836      36.893836      36.893836    
   4430000   0.48432439    -7.8431994     -7.1167232      3.4181807      50218.233      36.893836      36.893836      36.893836    
   4440000   0.48273582    -7.8496606     -7.1255671      3.3707301      50218.233      36.893836      36.893836      36.893836    
   4450000   0.48139699    -7.84281       -7.1207248      3.4231045      50218.233      36.893836      36.893836      36.893836    
   4460000   0.48722935    -7.8494257     -7.1185921      3.3861343      50218.233      36.893836      36.893836      36.893836    
   4470000   0.4850085     -7.8439349     -7.1164325      3.4235484      50218.233      36.893836      36.893836      36.893836    
   4480000   0.48515265    -7.847063      -7.1193443      3.3977304      50218.233      36.893836      36.893836      36.893836    
   4490000   0.48448371    -7.844398      -7.1176828      3.4212399      50218.233      36.893836      36.893836      36.893836    
   4500000   0.48604306    -7.8435442     -7.11449        3.4235166      50218.233      36.893836      36.893836      36.893836    
   4510000   0.48735561    -7.8477456     -7.1167226      3.4013125      50218.233      36.893836      36.893836      36.893836    
   4520000   0.48453652    -7.8444252     -7.1176307      3.4236981      50218.233      36.893836      36.893836      36.893836    
   4530000   0.48463083    -7.8450426     -7.1181067      3.420272       50218.233      36.893836      36.893836      36.893836    
   4540000   0.48612501    -7.8459783     -7.1168012      3.4175757      50218.233      36.893836      36.893836      36.893836    
   4550000   0.48403275    -7.8481602     -7.1221214      3.3798726      50218.233      36.893836      36.893836      36.893836    
   4560000   0.48280622    -7.8453451     -7.1211461      3.4128364      50218.233      36.893836      36.893836      36.893836    
   4570000   0.48406648    -7.8477181     -7.1216287      3.3861817      50218.233      36.893836      36.893836      36.893836    
   4580000   0.48271713    -7.8415776     -7.1175122      3.4565184      50218.233      36.893836      36.893836      36.893836    
   4590000   0.48562049    -7.8458363     -7.1174159      3.4107414      50218.233      36.893836      36.893836      36.893836    
   4600000   0.48638111    -7.8429798     -7.1134186      3.4369082      50218.233      36.893836      36.893836      36.893836    
   4610000   0.48491096    -7.842516      -7.1151599      3.4312206      50218.233      36.893836      36.893836      36.893836    
   4620000   0.48381749    -7.8407382     -7.1150223      3.4432147      50218.233      36.893836      36.893836      36.893836    
   4630000   0.48589799    -7.8443854     -7.1155488      3.4247403      50218.233      36.893836      36.893836      36.893836    
   4640000   0.48671556    -7.837804      -7.107741       3.4642064      50218.233      36.893836      36.893836      36.893836    
   4650000   0.4837297     -7.8437122     -7.1181279      3.4169838      50218.233      36.893836      36.893836      36.893836    
   4660000   0.48640818    -7.8421281     -7.1125263      3.4425086      50218.233      36.893836      36.893836      36.893836    
   4670000   0.48596       -7.8470525     -7.1181228      3.3927638      50218.233      36.893836      36.893836      36.893836    
   4680000   0.48602364    -7.839141      -7.110116       3.4542634      50218.233      36.893836      36.893836      36.893836    
   4690000   0.48496831    -7.8434628     -7.1160206      3.4180926      50218.233      36.893836      36.893836      36.893836    
   4700000   0.48679429    -7.8399572     -7.1097762      3.457739       50218.233      36.893836      36.893836      36.893836    
   4710000   0.4852205     -7.8404962     -7.1126758      3.4565283      50218.233      36.893836      36.893836      36.893836    
   4720000   0.48611834    -7.8399626     -7.1107955      3.4504729      50218.233      36.893836      36.893836      36.893836    
   4730000   0.48461119    -7.8449286     -7.1180222      3.4272917      50218.233      36.893836      36.893836      36.893836    
   4740000   0.48296251    -7.8466415     -7.122208       3.4053328      50218.233      36.893836      36.893836      36.893836    
   4750000   0.4881711     -7.8460119     -7.1137657      3.4132179      50218.233      36.893836      36.893836      36.893836    
   4760000   0.48468752    -7.8447094     -7.1176885      3.4256847      50218.233      36.893836      36.893836      36.893836    
   4770000   0.48707399    -7.8418478     -7.1112472      3.4418588      50218.233      36.893836      36.893836      36.893836    
   4780000   0.48331495    -7.8486863     -7.1237242      3.3992668      50218.233      36.893836      36.893836      36.893836    
   4790000   0.48274055    -7.8453803     -7.1212798      3.4189319      50218.233      36.893836      36.893836      36.893836    
   4800000   0.48390128    -7.843982      -7.1181404      3.4305676      50218.233      36.893836      36.893836      36.893836    
   4810000   0.48406597    -7.8470248     -7.1209362      3.3961904      50218.233      36.893836      36.893836      36.893836    
   4820000   0.48370116    -7.8430124     -7.117471       3.4303858      50218.233      36.893836      36.893836      36.893836    
   4830000   0.48626185    -7.8445141     -7.1151317      3.4262314      50218.233      36.893836      36.893836      36.893836    
   4840000   0.48457206    -7.8435974     -7.1167496      3.4238125      50218.233      36.893836      36.893836      36.893836    
   4850000   0.48676453    -7.8452267     -7.1150903      3.4176666      50218.233      36.893836      36.893836      36.893836    
   4860000   0.48415164    -7.8470109     -7.1207937      3.4097827      50218.233      36.893836      36.893836      36.893836    
   4870000   0.48216459    -7.8482033     -7.1249667      3.3825858      50218.233      36.893836      36.893836      36.893836    
   4880000   0.4839707     -7.8423277     -7.1163819      3.4375734      50218.233      36.893836      36.893836      36.893836    
   4890000   0.48210168    -7.8493975     -7.1262553      3.3789179      50218.233      36.893836      36.893836      36.893836    
   4900000   0.4867459     -7.8441785     -7.11407        3.4237645      50218.233      36.893836      36.893836      36.893836    
   4910000   0.4873981     -7.8425644     -7.1114777      3.4374293      50218.233      36.893836      36.893836      36.893836    
   4920000   0.48506199    -7.846321      -7.1187383      3.4067465      50218.233      36.893836      36.893836      36.893836    
   4930000   0.48471429    -7.8469513     -7.1198902      3.4033641      50218.233      36.893836      36.893836      36.893836    
   4940000   0.485786      -7.8444987     -7.1158301      3.4206933      50218.233      36.893836      36.893836      36.893836    
   4950000   0.48397719    -7.8458925     -7.119937       3.4146351      50218.233      36.893836      36.893836      36.893836    
   4960000   0.48433761    -7.8468223     -7.1203262      3.4030794      50218.233      36.893836      36.893836      36.893836    
   4970000   0.48777798    -7.8462075     -7.1145509      3.4111006      50218.233      36.893836      36.893836      36.893836    
   4980000   0.4865542     -7.8468258     -7.1170049      3.3974503      50218.233      36.893836      36.893836      36.893836    
   4990000   0.48465207    -7.8491053     -7.1221376      3.3778434      50218.233      36.893836      36.893836      36.893836    
   5000000   0.48267447    -7.8494499     -7.1254485      3.371514       50218.233      36.893836      36.893836      36.893836    
   5010000   0.48461648    -7.849722      -7.1228076      3.3827386      50218.233      36.893836      36.893836      36.893836    
   5020000   0.48632339    -7.8506703     -7.1211956      3.3809144      50218.233      36.893836      36.893836      36.893836    
   5030000   0.48436688    -7.8466456     -7.1201056      3.4057324      50218.233      36.893836      36.893836      36.893836    
   5040000   0.48583845    -7.8403429     -7.1115956      3.4568717      50218.233      36.893836      36.893836      36.893836    
   5050000   0.48359867    -7.8465055     -7.1211178      3.4000044      50218.233      36.893836      36.893836      36.893836    
   5060000   0.48525896    -7.8482741     -7.120396       3.3863037      50218.233      36.893836      36.893836      36.893836    
   5070000   0.48414472    -7.851231      -7.1250243      3.3579417      50218.233      36.893836      36.893836      36.893836    
   5080000   0.48427255    -7.8464981     -7.1200996      3.3986094      50218.233      36.893836      36.893836      36.893836    
   5090000   0.48245661    -7.8455093     -7.1218347      3.4129108      50218.233      36.893836      36.893836      36.893836    
   5100000   0.483934      -7.851112      -7.1252213      3.358647       50218.233      36.893836      36.893836      36.893836    
   5110000   0.4856373     -7.8437915     -7.1153459      3.4194255      50218.233      36.893836      36.893836      36.893836    
   5120000   0.48328213    -7.8481546     -7.1232417      3.3878299      50218.233      36.893836      36.893836      36.893836    
   5130000   0.48301112    -7.8450877     -7.1205813      3.422084       50218.233      36.893836      36.893836      36.893836    
   5140000   0.48500354    -7.8452776     -7.1177826      3.4077614      50218.233      36.893836      36.893836      36.893836    
   5150000   0.48280325    -7.8462113     -7.1220167      3.4022394      50218.233      36.893836      36.893836      36.893836    
   5160000   0.48641498    -7.8443326     -7.1147205      3.4196841      50218.233      36.893836      36.893836      36.893836    
   5170000   0.48506925    -7.8457571     -7.1181635      3.4062707      50218.233      36.893836      36.893836      36.893836    
   5180000   0.48439265    -7.8417138     -7.1151352      3.4504262      50218.233      36.893836      36.893836      36.893836    
   5190000   0.48400435    -7.8451979     -7.1192017      3.412247       50218.233      36.893836      36.893836      36.893836    
   5200000   0.48405128    -7.8462576     -7.120191       3.4011426      50218.233      36.893836      36.893836      36.893836    
   5210000   0.48398409    -7.8446659     -7.1187         3.4216359      50218.233      36.893836      36.893836      36.893836    
   5220000   0.48461318    -7.8460552     -7.1191458      3.3982911      50218.233      36.893836      36.893836      36.893836    
   5230000   0.48476319    -7.8450769     -7.1179425      3.4171573      50218.233      36.893836      36.893836      36.893836    
   5240000   0.48830045    -7.8468228     -7.1143825      3.4142629      50218.233      36.893836      36.893836      36.893836    
   5250000   0.48605303    -7.8417738     -7.1127046      3.4391202      50218.233      36.893836      36.893836      36.893836    
   5260000   0.48603481    -7.8432195     -7.1141776      3.4251006      50218.233      36.893836      36.893836      36.893836    
   5270000   0.484259      -7.8413831     -7.115005       3.4320227      50218.233      36.893836      36.893836      36.893836    
   5280000   0.48287772    -7.8431287     -7.1188224      3.4244801      50218.233      36.893836      36.893836      36.893836    
   5290000   0.48373138    -7.842402      -7.1168152      3.4339533      50218.233      36.893836      36.893836      36.893836    
   5300000   0.48525996    -7.8500861     -7.1222065      3.3796852      50218.233      36.893836      36.893836      36.893836    
   5310000   0.49052425    -7.8431095     -7.1073336      3.4360312      50218.233      36.893836      36.893836      36.893836    
   5320000   0.48578475    -7.8408453     -7.1121786      3.4491346      50218.233      36.893836      36.893836      36.893836    
   5330000   0.48429857    -7.8426695     -7.116232       3.424666       50218.233      36.893836      36.893836      36.893836    
   5340000   0.48543979    -7.8472829     -7.1191336      3.3932632      50218.233      36.893836      36.893836      36.893836    
   5350000   0.48422966    -7.8464072     -7.120073       3.4041564      50218.233      36.893836      36.893836      36.893836    
   5360000   0.48725076    -7.8461822     -7.1153164      3.4100281      50218.233      36.893836      36.893836      36.893836    
   5370000   0.48355389    -7.8418381     -7.1165176      3.4375895      50218.233      36.893836      36.893836      36.893836    
   5380000   0.48545531    -7.8438558     -7.1156831      3.4333109      50218.233      36.893836      36.893836      36.893836    
   5390000   0.48490201    -7.8422655     -7.1149229      3.4377075      50218.233      36.893836      36.893836      36.893836    
   5400000   0.48604081    -7.844866      -7.1158151      3.4077554      50218.233      36.893836      36.893836      36.893836    
   5410000   0.4846528     -7.8441186     -7.1171497      3.406374       50218.233      36.893836      36.893836      36.893836    
   5420000   0.48569713    -7.8450104     -7.1164751      3.412295       50218.233      36.893836      36.893836      36.893836    
   5430000   0.48428183    -7.8403197     -7.1139073      3.4536432      50218.233      36.893836      36.893836      36.893836    
   5440000   0.48638963    -7.8462013     -7.1166273      3.4147724      50218.233      36.893836      36.893836      36.893836    
   5450000   0.48559028    -7.8440891     -7.115714       3.4131548      50218.233      36.893836      36.893836      36.893836    
   5460000   0.48415335    -7.8398139     -7.1135942      3.453359       50218.233      36.893836      36.893836      36.893836    
   5470000   0.48638971    -7.8443974     -7.1148232      3.4193926      50218.233      36.893836      36.893836      36.893836    
   5480000   0.48784845    -7.8430871     -7.1113248      3.4309259      50218.233      36.893836      36.893836      36.893836    
   5490000   0.48764826    -7.8477172     -7.1162552      3.4034164      50218.233      36.893836      36.893836      36.893836    
   5500000   0.48633446    -7.8457904     -7.116299       3.4067314      50218.233      36.893836      36.893836      36.893836    
   5510000   0.48489317    -7.8458009     -7.1184715      3.4158852      50218.233      36.893836      36.893836      36.893836    
   5520000   0.48344423    -7.8467302     -7.1215742      3.3952788      50218.233      36.893836      36.893836      36.893836    
   5530000   0.48416344    -7.8474522     -7.1212173      3.403563       50218.233      36.893836      36.893836      36.893836    
   5540000   0.48369107    -7.8481897     -7.1226634      3.3906418      50218.233      36.893836      36.893836      36.893836    
   5550000   0.48430978    -7.8454067     -7.1189524      3.423307       50218.233      36.893836      36.893836      36.893836    
   5560000   0.4847656     -7.8442739     -7.1171359      3.4120013      50218.233      36.893836      36.893836      36.893836    
   5570000   0.48752592    -7.842719      -7.1114405      3.444476       50218.233      36.893836      36.893836      36.893836    
   5580000   0.48342588    -7.8448069     -7.1196784      3.4154567      50218.233      36.893836      36.893836      36.893836    
   5590000   0.48285752    -7.8472108     -7.1229348      3.400352       50218.233      36.893836      36.893836      36.893836    
   5600000   0.48620597    -7.8438459     -7.1145473      3.4251852      50218.233      36.893836      36.893836      36.893836    
   5610000   0.48479607    -7.8445885     -7.1174048      3.4128705      50218.233      36.893836      36.893836      36.893836    
   5620000   0.48518928    -7.8420083     -7.1142347      3.4354564      50218.233      36.893836      36.893836      36.893836    
   5630000   0.48650716    -7.8444159     -7.1146656      3.4121714      50218.233      36.893836      36.893836      36.893836    
   5640000   0.48476829    -7.8432101     -7.116068       3.4209054      50218.233      36.893836      36.893836      36.893836    
   5650000   0.48736231    -7.8448113     -7.1137782      3.4251454      50218.233      36.893836      36.893836      36.893836    
   5660000   0.48429871    -7.8468041     -7.1203664      3.4025537      50218.233      36.893836      36.893836      36.893836    
   5670000   0.48476538    -7.8446242     -7.1174865      3.4192048      50218.233      36.893836      36.893836      36.893836    
   5680000   0.48523458    -7.8428918     -7.1150503      3.4424877      50218.233      36.893836      36.893836      36.893836    
   5690000   0.48463108    -7.8459527     -7.1190164      3.4072372      50218.233      36.893836      36.893836      36.893836    
   5700000   0.48307635    -7.8418024     -7.1171982      3.4358618      50218.233      36.893836      36.893836      36.893836    
   5710000   0.48372619    -7.8441252     -7.1185462      3.4194867      50218.233      36.893836      36.893836      36.893836    
   5720000   0.48420099    -7.8443333     -7.1180422      3.4240355      50218.233      36.893836      36.893836      36.893836    
   5730000   0.48693058    -7.8442339     -7.1138485      3.4246391      50218.233      36.893836      36.893836      36.893836    
   5740000   0.48516617    -7.8438935     -7.1161546      3.4278365      50218.233      36.893836      36.893836      36.893836    
   5750000   0.48385985    -7.8422578     -7.1164783      3.4282039      50218.233      36.893836      36.893836      36.893836    
   5760000   0.48533551    -7.8412907     -7.1132978      3.4432899      50218.233      36.893836      36.893836      36.893836    
   5770000   0.48543371    -7.8400078     -7.1118676      3.4508277      50218.233      36.893836      36.893836      36.893836    
   5780000   0.48471851    -7.8424556     -7.1153882      3.4398615      50218.233      36.893836      36.893836      36.893836    
   5790000   0.48593446    -7.8437832     -7.1148918      3.4344025      50218.233      36.893836      36.893836      36.893836    
   5800000   0.48478234    -7.8410621     -7.1138989      3.4484666      50218.233      36.893836      36.893836      36.893836    
   5810000   0.48498871    -7.844672      -7.1171993      3.4194907      50218.233      36.893836      36.893836      36.893836    
   5820000   0.48516886    -7.8443138     -7.1165708      3.4154901      50218.233      36.893836      36.893836      36.893836    
   5830000   0.48785318    -7.8367957     -7.1050264      3.4802802      50218.233      36.893836      36.893836      36.893836    
   5840000   0.48368848    -7.8461043     -7.1205819      3.4051442      50218.233      36.893836      36.893836      36.893836    
   5850000   0.48515587    -7.8435052     -7.1157817      3.4316616      50218.233      36.893836      36.893836      36.893836    
   5860000   0.48617715    -7.8424972     -7.1132418      3.4353734      50218.233      36.893836      36.893836      36.893836    
   5870000   0.48383018    -7.8412936     -7.1155586      3.4399118      50218.233      36.893836      36.893836      36.893836    
   5880000   0.4831495     -7.8424151     -7.1177012      3.4349549      50218.233      36.893836      36.893836      36.893836    
   5890000   0.48610275    -7.8444104     -7.1152667      3.4174385      50218.233      36.893836      36.893836      36.893836    
   5900000   0.48654112    -7.8440912     -7.1142899      3.4251685      50218.233      36.893836      36.893836      36.893836    
   5910000   0.48193521    -7.8433355     -7.120443       3.4178224      50218.233      36.893836      36.893836      36.893836    
   5920000   0.48427       -7.8419878     -7.1155931      3.4356787      50218.233      36.893836      36.893836      36.893836    
   5930000   0.48480218    -7.8418434     -7.1146504      3.439757       50218.233      36.893836      36.893836      36.893836    
   5940000   0.48546722    -7.8411532     -7.1129628      3.4441772      50218.233      36.893836      36.893836      36.893836    
   5950000   0.48596186    -7.8451515     -7.1162191      3.413647       50218.233      36.893836      36.893836      36.893836    
   5960000   0.48511155    -7.8442202     -7.1165632      3.4139425      50218.233      36.893836      36.893836      36.893836    
   5970000   0.48610846    -7.8411808     -7.1120285      3.4550761      50218.233      36.893836      36.893836      36.893836    
   5980000   0.48413255    -7.8423159     -7.1161274      3.4369833      50218.233      36.893836      36.893836      36.893836    
   5990000   0.48525345    -7.8409426     -7.1130728      3.4462431      50218.233      36.893836      36.893836      36.893836    
   6000000   0.48832439    -7.8404667     -7.1079905      3.4444329      50218.233      36.893836      36.893836      36.893836    
   6010000   0.4858861     -7.8401552     -7.1113365      3.4511999      50218.233      36.893836      36.893836      36.893836    
   6020000   0.48339328    -7.8396512     -7.1145716      3.4498342      50218.233      36.893836      36.893836      36.893836    
   6030000   0.48519132    -7.8405435     -7.1127668      3.4595294      50218.233      36.893836      36.893836      36.893836    
   6040000   0.48418036    -7.8438508     -7.1175906      3.4308566      50218.233      36.893836      36.893836      36.893836    
   6050000   0.48483877    -7.8446942     -7.1174464      3.4152399      50218.233      36.893836      36.893836      36.893836    
   6060000   0.48337174    -7.8447623     -7.119715       3.4071237      50218.233      36.893836      36.893836      36.893836    
   6070000   0.4828594     -7.8458636     -7.1215848      3.4084985      50218.233      36.893836      36.893836      36.893836    
   6080000   0.48524955    -7.8426411     -7.1147771      3.433438       50218.233      36.893836      36.893836      36.893836    
   6090000   0.4858576     -7.8420839     -7.1133078      3.4364034      50218.233      36.893836      36.893836      36.893836    
   6100000   0.48580221    -7.8436988     -7.1150059      3.4285185      50218.233      36.893836      36.893836      36.893836    
   6110000   0.48698386    -7.8429698     -7.1125044      3.4254279      50218.233      36.893836      36.893836      36.893836    
   6120000   0.48820508    -7.8439673     -7.1116701      3.419865       50218.233      36.893836      36.893836      36.893836    
   6130000   0.48522891    -7.8416756     -7.1138426      3.4431237      50218.233      36.893836      36.893836      36.893836    
   6140000   0.4840659     -7.8421756     -7.1160871      3.4332883      50218.233      36.893836      36.893836      36.893836    
   6150000   0.48740106    -7.8411647     -7.1100735      3.444313       50218.233      36.893836      36.893836      36.893836    
   6160000   0.48483298    -7.8412296     -7.1139905      3.4414189      50218.233      36.893836      36.893836      36.893836    
   6170000   0.48609126    -7.8373581     -7.1082316      3.4670306      50218.233      36.893836      36.893836      36.893836    
   6180000   0.48299296    -7.841338      -7.1168589      3.435774       50218.233      36.893836      36.893836      36.893836    
   6190000   0.48183928    -7.8410686     -7.11832        3.4368736      50218.233      36.893836      36.893836      36.893836    
   6200000   0.48320825    -7.8437978     -7.1189957      3.4315312      50218.233      36.893836      36.893836      36.893836    
   6210000   0.48719262    -7.8442269     -7.1134484      3.416305       50218.233      36.893836      36.893836      36.893836    
   6220000   0.4846212     -7.8426897     -7.1157682      3.4226757      50218.233      36.893836      36.893836      36.893836    
   6230000   0.48211996    -7.8421486     -7.1189789      3.4357644      50218.233      36.893836      36.893836      36.893836    
   6240000   0.4852594     -7.8414133     -7.1135346      3.4378772      50218.233      36.893836      36.893836      36.893836    
   6250000   0.48177041    -7.8424836     -7.1198383      3.4322084      50218.233      36.893836      36.893836      36.893836    
   6260000   0.48447694    -7.8408721     -7.114167       3.4377783      50218.233      36.893836      36.893836      36.893836    
   6270000   0.48434922    -7.8441045     -7.117591       3.4128218      50218.233      36.893836      36.893836      36.893836    
   6280000   0.48292264    -7.8445049     -7.1201312      3.4114119      50218.233      36.893836      36.893836      36.893836    
   6290000   0.48474118    -7.8420381     -7.1149367      3.4233036      50218.233      36.893836      36.893836      36.893836    
   6300000   0.48416671    -7.8393974     -7.1131577      3.4478648      50218.233      36.893836      36.893836      36.893836    
   6310000   0.48459533    -7.8426253     -7.1157426      3.4185799      50218.233      36.893836      36.893836      36.893836    
   6320000   0.48393818    -7.8434469     -7.1175499      3.4117404      50218.233      36.893836      36.893836      36.893836    
   6330000   0.4828577     -7.8389884     -7.1147121      3.4453468      50218.233      36.893836      36.893836      36.893836    
   6340000   0.48379628    -7.8379972     -7.1123131      3.4645794      50218.233      36.893836      36.893836      36.893836    
   6350000   0.48479085    -7.8385739     -7.111398       3.4562614      50218.233      36.893836      36.893836      36.893836    
   6360000   0.48277604    -7.8439159     -7.1197622      3.4120435      50218.233      36.893836      36.893836      36.893836    
   6370000   0.48572513    -7.8419802     -7.1134029      3.4217343      50218.233      36.893836      36.893836      36.893836    
   6380000   0.48430989    -7.8404986     -7.1140441      3.4395409      50218.233      36.893836      36.893836      36.893836    
   6390000   0.48364815    -7.8465329     -7.121071       3.4062017      50218.233      36.893836      36.893836      36.893836    
   6400000   0.48481622    -7.843488      -7.116274       3.425726       50218.233      36.893836      36.893836      36.893836    
   6410000   0.48775522    -7.8456065     -7.1139841      3.4144483      50218.233      36.893836      36.893836      36.893836    
   6420000   0.48678689    -7.839033      -7.1088631      3.4595739      50218.233      36.893836      36.893836      36.893836    
   6430000   0.48306099    -7.8410228     -7.1164416      3.4303636      50218.233      36.893836      36.893836      36.893836    
   6440000   0.48186555    -7.8440596     -7.1212715      3.4072698      50218.233      36.893836      36.893836      36.893836    
   6450000   0.48554195    -7.8402482     -7.1119456      3.4445712      50218.233      36.893836      36.893836      36.893836    
   6460000   0.48619754    -7.8464428     -7.1171569      3.4036622      50218.233      36.893836      36.893836      36.893836    
   6470000   0.48687376    -7.8419735     -7.1116732      3.4411383      50218.233      36.893836      36.893836      36.893836    
   6480000   0.4862269     -7.8412865     -7.1119565      3.4485285      50218.233      36.893836      36.893836      36.893836    
   6490000   0.48545872    -7.8417798     -7.1136021      3.4427356      50218.233      36.893836      36.893836      36.893836    
   6500000   0.48543801    -7.8449526     -7.116806       3.4190916      50218.233      36.893836      36.893836      36.893836    
   6510000   0.48500682    -7.843285      -7.1157851      3.431301       50218.233      36.893836      36.893836      36.893836    
   6520000   0.4854046     -7.8478058     -7.1197093      3.3922766      50218.233      36.893836      36.893836      36.893836    
   6530000   0.48683559    -7.8379043     -7.1076613      3.4787377      50218.233      36.893836      36.893836      36.893836    
   6540000   0.48386882    -7.8403638     -7.1145709      3.4428879      50218.233      36.893836      36.893836      36.893836    
   6550000   0.48440077    -7.8442452     -7.1176544      3.4267061      50218.233      36.893836      36.893836      36.893836    
   6560000   0.48569225    -7.8384732     -7.1099452      3.476119       50218.233      36.893836      36.893836      36.893836    
   6570000   0.48609039    -7.8422514     -7.1131262      3.4463164      50218.233      36.893836      36.893836      36.893836    
   6580000   0.4837787     -7.8425803     -7.1169225      3.426525       50218.233      36.893836      36.893836      36.893836    
   6590000   0.48570954    -7.8417409     -7.1131869      3.4328892      50218.233      36.893836      36.893836      36.893836    
   6600000   0.48647748    -7.8454661     -7.1157603      3.4183446      50218.233      36.893836      36.893836      36.893836    
   6610000   0.48454934    -7.8399613     -7.1131476      3.4564183      50218.233      36.893836      36.893836      36.893836    
   6620000   0.48249178    -7.8410038     -7.1172765      3.443895       50218.233      36.893836      36.893836      36.893836    
   6630000   0.48429667    -7.8414696     -7.1150349      3.4352038      50218.233      36.893836      36.893836      36.893836    
   6640000   0.48637078    -7.8412264     -7.1116807      3.433523       50218.233      36.893836      36.893836      36.893836    
   6650000   0.4829868     -7.840776      -7.1163061      3.4425319      50218.233      36.893836      36.893836      36.893836    
   6660000   0.48326876    -7.8417709     -7.1168781      3.4309549      50218.233      36.893836      36.893836      36.893836    
   6670000   0.48216026    -7.8403562     -7.1171261      3.4482409      50218.233      36.893836      36.893836      36.893836    
   6680000   0.48528671    -7.8367043     -7.1087846      3.4685931      50218.233      36.893836      36.893836      36.893836    
   6690000   0.48571827    -7.8435516     -7.1149845      3.4234173      50218.233      36.893836      36.893836      36.893836    
   6700000   0.48370644    -7.8370069     -7.1114575      3.4706587      50218.233      36.893836      36.893836      36.893836    
   6710000   0.48333458    -7.8406118     -7.1156203      3.4408187      50218.233      36.893836      36.893836      36.893836    
   6720000   0.48468695    -7.8409452     -7.1139251      3.4343632      50218.233      36.893836      36.893836      36.893836    
   6730000   0.48556471    -7.8405606     -7.1122239      3.4523744      50218.233      36.893836      36.893836      36.893836    
   6740000   0.48752813    -7.8411756     -7.1098938      3.4614         50218.233      36.893836      36.893836      36.893836    
   6750000   0.4857706     -7.8405376     -7.111892       3.4611701      50218.233      36.893836      36.893836      36.893836    
   6760000   0.48525263    -7.8408103     -7.1129417      3.4531304      50218.233      36.893836      36.893836      36.893836    
   6770000   0.4861115     -7.8427932     -7.1136364      3.4343822      50218.233      36.893836      36.893836      36.893836    
   6780000   0.485713      -7.841784      -7.1132249      3.4258863      50218.233      36.893836      36.893836      36.893836    
   6790000   0.4822125     -7.8405941     -7.1172856      3.4368252      50218.233      36.893836      36.893836      36.893836    
   6800000   0.48541374    -7.8417659     -7.1136556      3.4244111      50218.233      36.893836      36.893836      36.893836    
   6810000   0.48533727    -7.840294      -7.1122985      3.4481848      50218.233      36.893836      36.893836      36.893836    
   6820000   0.48522095    -7.8406833     -7.1128622      3.4480989      50218.233      36.893836      36.893836      36.893836    
   6830000   0.4849553     -7.8411904     -7.1137678      3.4368873      50218.233      36.893836      36.893836      36.893836    
   6840000   0.4864237     -7.8457267     -7.1161015      3.4076722      50218.233      36.893836      36.893836      36.893836    
   6850000   0.48676155    -7.8476709     -7.117539       3.3973457      50218.233      36.893836      36.893836      36.893836    
   6860000   0.48534913    -7.8435489     -7.1155356      3.4313261      50218.233      36.893836      36.893836      36.893836    
   6870000   0.48509921    -7.845485      -7.1178465      3.400298       50218.233      36.893836      36.893836      36.893836    
   6880000   0.48378669    -7.8447326     -7.1190629      3.4088487      50218.233      36.893836      36.893836      36.893836    
   6890000   0.48639429    -7.8426531     -7.113072       3.4355234      50218.233      36.893836      36.893836      36.893836    
   6900000   0.48584664    -7.8382913     -7.1095317      3.4677584      50218.233      36.893836      36.893836      36.893836    
   6910000   0.48711951    -7.8432738     -7.1126049      3.4223175      50218.233      36.893836      36.893836      36.893836    
   6920000   0.48487931    -7.8414151     -7.1141064      3.4398886      50218.233      36.893836      36.893836      36.893836    
   6930000   0.48387764    -7.8441887     -7.1183826      3.4142756      50218.233      36.893836      36.893836      36.893836    
   6940000   0.48325639    -7.8406955     -7.1158213      3.4421316      50218.233      36.893836      36.893836      36.893836    
   6950000   0.48573598    -7.8440877     -7.1154941      3.4215937      50218.233      36.893836      36.893836      36.893836    
   6960000   0.48601664    -7.8413989     -7.1123843      3.4320802      50218.233      36.893836      36.893836      36.893836    
   6970000   0.48405068    -7.8448725     -7.1188068      3.4177999      50218.233      36.893836      36.893836      36.893836    
   6980000   0.48598637    -7.8426096     -7.1136404      3.4244401      50218.233      36.893836      36.893836      36.893836    
   6990000   0.48191613    -7.8376757     -7.1148118      3.4659162      50218.233      36.893836      36.893836      36.893836    
   7000000   0.48558941    -7.8445645     -7.1161907      3.414163       50218.233      36.893836      36.893836      36.893836    
   7010000   0.48386754    -7.8460314     -7.1202404      3.407499       50218.233      36.893836      36.893836      36.893836    
   7020000   0.48690068    -7.8443353     -7.1139947      3.4263298      50218.233      36.893836      36.893836      36.893836    
   7030000   0.48760951    -7.8467884     -7.1153845      3.4079937      50218.233      36.893836      36.893836      36.893836    
   7040000   0.48597824    -7.8388681     -7.1099111      3.4569757      50218.233      36.893836      36.893836      36.893836    
   7050000   0.48493148    -7.8421154     -7.1147285      3.4315408      50218.233      36.893836      36.893836      36.893836    
   7060000   0.48466754    -7.844481      -7.1174901      3.4141972      50218.233      36.893836      36.893836      36.893836    
   7070000   0.48390503    -7.8437051     -7.1178578      3.4140491      50218.233      36.893836      36.893836      36.893836    
   7080000   0.48658518    -7.839623      -7.1097556      3.4541272      50218.233      36.893836      36.893836      36.893836    
   7090000   0.48244301    -7.8467248     -7.1230706      3.4008238      50218.233      36.893836      36.893836      36.893836    
   7100000   0.48670133    -7.8455277     -7.1154861      3.4161152      50218.233      36.893836      36.893836      36.893836    
   7110000   0.48453416    -7.8398964     -7.1131055      3.4567492      50218.233      36.893836      36.893836      36.893836    
   7120000   0.48592761    -7.8363882     -7.1075072      3.4731073      50218.233      36.893836      36.893836      36.893836    
   7130000   0.48631362    -7.8411032     -7.1116432      3.4427097      50218.233      36.893836      36.893836      36.893836    
   7140000   0.48491444    -7.8432869     -7.1159256      3.4214515      50218.233      36.893836      36.893836      36.893836    
   7150000   0.48575443    -7.8423025     -7.1136812      3.4432074      50218.233      36.893836      36.893836      36.893836    
   7160000   0.48759432    -7.8448272     -7.1134461      3.4183001      50218.233      36.893836      36.893836      36.893836    
   7170000   0.48588913    -7.8383032     -7.1094799      3.4739982      50218.233      36.893836      36.893836      36.893836    
   7180000   0.48543477    -7.8416609     -7.1135191      3.4444727      50218.233      36.893836      36.893836      36.893836    
   7190000   0.48530199    -7.8426083     -7.1146657      3.4373905      50218.233      36.893836      36.893836      36.893836    
   7200000   0.48407335    -7.8435965     -7.1174968      3.4152032      50218.233      36.893836      36.893836      36.893836    
   7210000   0.48613847    -7.8424363     -7.113239       3.4284733      50218.233      36.893836      36.893836      36.893836    
   7220000   0.48345617    -7.8437451     -7.1185711      3.4223535      50218.233      36.893836      36.893836      36.893836    
   7230000   0.48522686    -7.8397965     -7.1119665      3.4560022      50218.233      36.893836      36.893836      36.893836    
   7240000   0.48597785    -7.8401375     -7.1111811      3.4525139      50218.233      36.893836      36.893836      36.893836    
   7250000   0.48438244    -7.8427496     -7.1161863      3.4304999      50218.233      36.893836      36.893836      36.893836    
   7260000   0.48550813    -7.8412159     -7.1129641      3.4478319      50218.233      36.893836      36.893836      36.893836    
   7270000   0.48507958    -7.8413303     -7.1137213      3.4412997      50218.233      36.893836      36.893836      36.893836    
   7280000   0.48320964    -7.8420026     -7.1171985      3.4346822      50218.233      36.893836      36.893836      36.893836    
   7290000   0.48466551    -7.8396646     -7.1126767      3.4578748      50218.233      36.893836      36.893836      36.893836    
   7300000   0.4857844     -7.8418926     -7.1132264      3.4380429      50218.233      36.893836      36.893836      36.893836    
   7310000   0.48816103    -7.8411184     -7.1088872      3.4554998      50218.233      36.893836      36.893836      36.893836    
   7320000   0.48683579    -7.8363662     -7.1061229      3.4816994      50218.233      36.893836      36.893836      36.893836    
   7330000   0.4888526     -7.844464      -7.1111955      3.4242163      50218.233      36.893836      36.893836      36.893836    
   7340000   0.48391566    -7.8433083     -7.1174451      3.4259312      50218.233      36.893836      36.893836      36.893836    
   7350000   0.48583435    -7.8416741     -7.1129329      3.4331426      50218.233      36.893836      36.893836      36.893836    
   7360000   0.48479254    -7.8417096     -7.1145311      3.438615       50218.233      36.893836      36.893836      36.893836    
   7370000   0.48479688    -7.8411284     -7.1139434      3.4528368      50218.233      36.893836      36.893836      36.893836    
   7380000   0.48276499    -7.8414155     -7.1172783      3.4212577      50218.233      36.893836      36.893836      36.893836    
   7390000   0.48474257    -7.8417402     -7.1146367      3.4285105      50218.233      36.893836      36.893836      36.893836    
   7400000   0.48543155    -7.84031       -7.112173       3.4449561      50218.233      36.893836      36.893836      36.893836    
   7410000   0.48616718    -7.8434921     -7.1142517      3.4137664      50218.233      36.893836      36.893836      36.893836    
   7420000   0.48517749    -7.8424901     -7.1147342      3.4183226      50218.233      36.893836      36.893836      36.893836    
   7430000   0.48682192    -7.8398489     -7.1096264      3.4614698      50218.233      36.893836      36.893836      36.893836    
   7440000   0.48526998    -7.8399475     -7.1120529      3.4373222      50218.233      36.893836      36.893836      36.893836    
   7450000   0.48332375    -7.8401528     -7.1151775      3.4483613      50218.233      36.893836      36.893836      36.893836    
   7460000   0.48191623    -7.8453053     -7.1224412      3.3977816      50218.233      36.893836      36.893836      36.893836    
   7470000   0.48356043    -7.8385875     -7.1132572      3.4656131      50218.233      36.893836      36.893836      36.893836    
   7480000   0.48374487    -7.8382574     -7.1126504      3.4539345      50218.233      36.893836      36.893836      36.893836    
   7490000   0.48336654    -7.8429028     -7.1178633      3.4250723      50218.233      36.893836      36.893836      36.893836    
   7500000   0.4830126     -7.8440267     -7.1195181      3.4123304      50218.233      36.893836      36.893836      36.893836    
   7510000   0.48491004    -7.8416942     -7.1143395      3.4325022      50218.233      36.893836      36.893836      36.893836    
   7520000   0.485757      -7.8392086     -7.1105835      3.4479124      50218.233      36.893836      36.893836      36.893836    
   7530000   0.48517556    -7.8397026     -7.1119496      3.4597196      50218.233      36.893836      36.893836      36.893836    
   7540000   0.48498282    -7.8421748     -7.1147109      3.4313711      50218.233      36.893836      36.893836      36.893836    
   7550000   0.48089691    -7.8386451     -7.1173099      3.4454045      50218.233      36.893836      36.893836      36.893836    
   7560000   0.48358191    -7.8447154     -7.1193528      3.4171984      50218.233      36.893836      36.893836      36.893836    
   7570000   0.484503      -7.8390446     -7.1123005      3.4405227      50218.233      36.893836      36.893836      36.893836    
   7580000   0.48323034    -7.8399892     -7.115154       3.4383532      50218.233      36.893836      36.893836      36.893836    
   7590000   0.48456672    -7.8413533     -7.1145136      3.4387942      50218.233      36.893836      36.893836      36.893836    
   7600000   0.4873382     -7.8418464     -7.1108495      3.4391351      50218.233      36.893836      36.893836      36.893836    
   7610000   0.48521436    -7.8419222     -7.114111       3.4340355      50218.233      36.893836      36.893836      36.893836    
   7620000   0.48388869    -7.8407413     -7.1149186      3.4399771      50218.233      36.893836      36.893836      36.893836    
   7630000   0.48688553    -7.838068      -7.1077501      3.4629789      50218.233      36.893836      36.893836      36.893836    
   7640000   0.48338925    -7.842685      -7.1176114      3.4318094      50218.233      36.893836      36.893836      36.893836    
   7650000   0.48565771    -7.83972       -7.1112438      3.4614659      50218.233      36.893836      36.893836      36.893836    
   7660000   0.48562837    -7.8412274     -7.1127952      3.437403       50218.233      36.893836      36.893836      36.893836    
   7670000   0.48449832    -7.8390109     -7.1122738      3.4499214      50218.233      36.893836      36.893836      36.893836    
   7680000   0.48339046    -7.8394627     -7.1143873      3.4495077      50218.233      36.893836      36.893836      36.893836    
   7690000   0.48418179    -7.845084      -7.1188216      3.4125886      50218.233      36.893836      36.893836      36.893836    
   7700000   0.48528508    -7.8414047     -7.1134875      3.4305359      50218.233      36.893836      36.893836      36.893836    
   7710000   0.48255927    -7.8397903     -7.1159617      3.4392011      50218.233      36.893836      36.893836      36.893836    
   7720000   0.48738952    -7.8386002     -7.1075264      3.4553797      50218.233      36.893836      36.893836      36.893836    
   7730000   0.48340187    -7.8425927     -7.1175002      3.4279567      50218.233      36.893836      36.893836      36.893836    
   7740000   0.48345954    -7.8410609     -7.1158819      3.4357086      50218.233      36.893836      36.893836      36.893836    
   7750000   0.48539027    -7.8442834     -7.1162084      3.4092126      50218.233      36.893836      36.893836      36.893836    
   7760000   0.48621016    -7.8402095     -7.1109047      3.447784       50218.233      36.893836      36.893836      36.893836    
   7770000   0.48629662    -7.8402182     -7.1107836      3.4426589      50218.233      36.893836      36.893836      36.893836    
   7780000   0.48524752    -7.8413721     -7.1135111      3.4386206      50218.233      36.893836      36.893836      36.893836    
   7790000   0.48618531    -7.8422165     -7.1129489      3.4338622      50218.233      36.893836      36.893836      36.893836    
   7800000   0.48952626    -7.8421756     -7.1078967      3.4392579      50218.233      36.893836      36.893836      36.893836    
   7810000   0.48461203    -7.8395153     -7.1126076      3.4566537      50218.233      36.893836      36.893836      36.893836    
   7820000   0.48320077    -7.8432545     -7.1184637      3.4115025      50218.233      36.893836      36.893836      36.893836    
   7830000   0.48440562    -7.842296      -7.115698       3.4242937      50218.233      36.893836      36.893836      36.893836    
   7840000   0.48661965    -7.8372842     -7.1073651      3.4654528      50218.233      36.893836      36.893836      36.893836    
   7850000   0.48391376    -7.8426651     -7.1168048      3.4178308      50218.233      36.893836      36.893836      36.893836    
   7860000   0.48646145    -7.8427616     -7.1130798      3.4222792      50218.233      36.893836      36.893836      36.893836    
   7870000   0.48642308    -7.843509      -7.1138847      3.412061       50218.233      36.893836      36.893836      36.893836    
   7880000   0.48484371    -7.8401308     -7.1128756      3.4487043      50218.233      36.893836      36.893836      36.893836    
   7890000   0.48339259    -7.8386565     -7.1135779      3.4464183      50218.233      36.893836      36.893836      36.893836    
   7900000   0.48564733    -7.8429661     -7.1145054      3.4212354      50218.233      36.893836      36.893836      36.893836    
   7910000   0.48443062    -7.8447018     -7.1180662      3.4110482      50218.233      36.893836      36.893836      36.893836    
   7920000   0.48307611    -7.8436019     -7.118998       3.4055098      50218.233      36.893836      36.893836      36.893836    
   7930000   0.48380613    -7.8434705     -7.1177716      3.421662       50218.233      36.893836      36.893836      36.893836    
   7940000   0.48370706    -7.8456125     -7.1200622      3.3930009      50218.233      36.893836      36.893836      36.893836    
   7950000   0.4853921     -7.8426047     -7.1145269      3.4379996      50218.233      36.893836      36.893836      36.893836    
   7960000   0.48485725    -7.8412443     -7.1139688      3.4346604      50218.233      36.893836      36.893836      36.893836    
   7970000   0.48400029    -7.8412837     -7.1152936      3.4338894      50218.233      36.893836      36.893836      36.893836    
   7980000   0.48283198    -7.8434069     -7.1191693      3.4190809      50218.233      36.893836      36.893836      36.893836    
   7990000   0.48619142    -7.8439508     -7.1146741      3.4095041      50218.233      36.893836      36.893836      36.893836    
   8000000   0.48506649    -7.8411304     -7.113541       3.4385623      50218.233      36.893836      36.893836      36.893836    
Loop time of 12529.7 on 5 procs for 8000000 steps with 70304 atoms

Performance: 551649.863 tau/day, 638.484 timesteps/s, 44.888 Matom-step/s
94.6% CPU use with 5 MPI tasks x 1 OpenMP threads

MPI task timing breakdown:
Section |  min time  |  avg time  |  max time  |%varavg| %total
---------------------------------------------------------------
Pair    | 4485.2     | 4971.7     | 5581.4     | 649.1 | 39.68
Neigh   | 38.204     | 42.866     | 47.203     |  51.9 |  0.34
Comm    | 1882.3     | 1898.8     | 1915.8     |  26.6 | 15.15
Output  | 0.14499    | 0.14939    | 0.15718    |   1.1 |  0.00
Modify  | 4401.5     | 4991.2     | 5485.6     | 636.3 | 39.83
Other   |            | 625        |            |       |  4.99

Nlocal:        14060.8 ave       14137 max       14002 min
Histogram: 2 0 0 0 0 1 1 0 0 1
Nghost:        18756.4 ave       18847 max       18701 min
Histogram: 1 1 0 1 1 0 0 0 0 1
Neighs:              0 ave           0 max           0 min
Histogram: 5 0 0 0 0 0 0 0 0 0

Total # of neighbors = 0
Ave neighs/atom = 0
Neighbor list builds = 1624475
Dangerous builds = 0
clear
OMP_NUM_THREADS environment is not set. Defaulting to 1 thread. (src/comm.cpp:98)
  using 1 OpenMP thread(s) per MPI task
package gpu 0
jump dms465.lmp

variable T equal 465
# T = 1000* (temp in LJ unit)
variable f equal 10000
log log.${T}
log log.465
