variable TLJ equal (${T}/1000)
variable TLJ equal (420/1000)
variable NCyle equal 10
variable iStep equal (${f})
variable iStep equal (10000)
variable dumpStep equal (${f}*100)
variable dumpStep equal (10000*100)
variable runStep equal (${f}*100*${NCyle})
variable runStep equal (10000*100*${NCyle})
variable runStep equal (10000*100*10)

units       lj
atom_style  atomic
dimension 3
boundary     p p p
pair_style  lj/cut 2.5
read_data  ../data/T${T}.dat
read_data  ../data/T420.dat
Reading data file ...
  orthogonal box = (0.97250269 0.97250269 0.97250269) to (37.866338 37.866338 37.866338)
  1 by 1 by 5 MPI processor grid
  reading atoms ...
  70304 atoms
  reading velocities ...
  70304 velocities
  read_data CPU = 0.216 seconds
change_box all triclinic
Changing box ...
  triclinic box = (0.97250269 0.97250269 0.97250269) to (37.866338 37.866338 37.866338) with tilt (0 0 0)
mass 1 1
mass 2 1
pair_modify shift yes
pair_coeff  1 1 1 1
pair_coeff  1 2 1.5 0.8
pair_coeff  2 2 0.5 0.88


timestep 0.01
thermo ${iStep}
thermo 10000
reset_timestep 0
thermo_style custom step temp pe etotal press vol lx ly lz
fix             1 all nvt temp ${TLJ}  ${TLJ}  0.1
fix             1 all nvt temp 0.42  ${TLJ}  0.1
fix             1 all nvt temp 0.42  0.42  0.1
thermo_modify flush yes

fix dsf all deform 1 xy  wiggle 0.5  ${f}   units box
fix dsf all deform 1 xy  wiggle 0.5  10000   units box
fix ps1 all ave/time 1 1 ${iStep} c_thermo_press[1] c_thermo_press[2]  c_thermo_press[3] c_thermo_press[4]  c_thermo_press[5] c_thermo_press[6]  file  stress.${T}
fix ps1 all ave/time 1 1 10000 c_thermo_press[1] c_thermo_press[2]  c_thermo_press[3] c_thermo_press[4]  c_thermo_press[5] c_thermo_press[6]  file  stress.${T}
fix ps1 all ave/time 1 1 10000 c_thermo_press[1] c_thermo_press[2]  c_thermo_press[3] c_thermo_press[4]  c_thermo_press[5] c_thermo_press[6]  file  stress.420
dump            1 all custom ${dumpStep} dump.${T} id type x y z
dump            1 all custom 1000000 dump.${T} id type x y z
dump            1 all custom 1000000 dump.420 id type x y z
dump_modify 1 sort id
fix nodrift all momentum 1  linear 1 1 1
fix com_seed all recenter INIT INIT INIT shift all
run ${runStep}
run 10000000
Generated 0 of 1 mixed pair_coeff terms from geometric mixing rule
Per MPI rank memory allocation (min/avg/max) = 6.663 | 7.565 | 8.918 Mbytes
   Step          Temp          PotEng         TotEng         Press          Volume           Lx             Ly             Lz      
         0   0.42008684    -7.965561      -7.3354397      2.4268343      50218.233      36.893836      36.893836      36.893836    
     10000   0.42115124    -7.9562548     -7.3245369      2.5014686      50218.233      36.893836      36.893836      36.893836    
     20000   0.41808886    -7.9599073     -7.332783       2.4602115      50218.233      36.893836      36.893836      36.893836    
     30000   0.41932152    -7.9593429     -7.3303696      2.4679711      50218.233      36.893836      36.893836      36.893836    
     40000   0.42166418    -7.9579609     -7.3254736      2.4985781      50218.233      36.893836      36.893836      36.893836    
     50000   0.42095155    -7.9576176     -7.3261992      2.4797224      50218.233      36.893836      36.893836      36.893836    
     60000   0.42036107    -7.9531693     -7.3226367      2.5159351      50218.233      36.893836      36.893836      36.893836    
     70000   0.41757951    -7.9565101     -7.3301497      2.4982071      50218.233      36.893836      36.893836      36.893836    
     80000   0.41861284    -7.9550363     -7.327126       2.4974429      50218.233      36.893836      36.893836      36.893836    
     90000   0.42030584    -7.9576662     -7.3272164      2.4882581      50218.233      36.893836      36.893836      36.893836    
    100000   0.42125537    -7.954535      -7.322661       2.5134038      50218.233      36.893836      36.893836      36.893836    
    110000   0.42199391    -7.9579383     -7.3249565      2.4857         50218.233      36.893836      36.893836      36.893836    
    120000   0.42110991    -7.9549427     -7.3232868      2.508464       50218.233      36.893836      36.893836      36.893836    
    130000   0.4196325     -7.9564865     -7.3270467      2.4986314      50218.233      36.893836      36.893836      36.893836    
    140000   0.42036399    -7.9576628     -7.3271258      2.4913076      50218.233      36.893836      36.893836      36.893836    
    150000   0.42091423    -7.9554038     -7.3240415      2.5062072      50218.233      36.893836      36.893836      36.893836    
    160000   0.42217796    -7.9555581     -7.3223002      2.5112544      50218.233      36.893836      36.893836      36.893836    
    170000   0.41863068    -7.9567822     -7.3288451      2.4925918      50218.233      36.893836      36.893836      36.893836    
    180000   0.4198909     -7.9536617     -7.3238343      2.5236017      50218.233      36.893836      36.893836      36.893836    
    190000   0.42027306    -7.9538295     -7.3234288      2.5233502      50218.233      36.893836      36.893836      36.893836    
    200000   0.41931989    -7.9561861     -7.3272153      2.5020096      50218.233      36.893836      36.893836      36.893836    
    210000   0.42005533    -7.957601      -7.3275269      2.4880406      50218.233      36.893836      36.893836      36.893836    
    220000   0.41775228    -7.953884      -7.3272645      2.5179395      50218.233      36.893836      36.893836      36.893836    
    230000   0.41872895    -7.9581778     -7.3300933      2.4831506      50218.233      36.893836      36.893836      36.893836    
    240000   0.41764108    -7.9559495     -7.3294968      2.4882021      50218.233      36.893836      36.893836      36.893836    
    250000   0.42011818    -7.9578828     -7.3277145      2.4814739      50218.233      36.893836      36.893836      36.893836    
    260000   0.41826624    -7.9559838     -7.3285934      2.4895837      50218.233      36.893836      36.893836      36.893836    
    270000   0.42092789    -7.9564889     -7.325106       2.4931286      50218.233      36.893836      36.893836      36.893836    
    280000   0.41991162    -7.9542056     -7.3243471      2.5075446      50218.233      36.893836      36.893836      36.893836    
    290000   0.42006363    -7.9537556     -7.3236691      2.5184514      50218.233      36.893836      36.893836      36.893836    
    300000   0.41743251    -7.9552604     -7.3291205      2.5065125      50218.233      36.893836      36.893836      36.893836    
    310000   0.42116074    -7.9568865     -7.3251544      2.498083       50218.233      36.893836      36.893836      36.893836    
    320000   0.42048937    -7.9555476     -7.3248225      2.5004776      50218.233      36.893836      36.893836      36.893836    
    330000   0.42022097    -7.9561616     -7.3258391      2.4985577      50218.233      36.893836      36.893836      36.893836    
    340000   0.42042224    -7.9602358     -7.3296115      2.473647       50218.233      36.893836      36.893836      36.893836    
    350000   0.41997102    -7.9564856     -7.326538       2.496017       50218.233      36.893836      36.893836      36.893836    
    360000   0.42149946    -7.9554678     -7.3232276      2.5110635      50218.233      36.893836      36.893836      36.893836    
    370000   0.41826803    -7.953901      -7.3265079      2.5137724      50218.233      36.893836      36.893836      36.893836    
    380000   0.41989343    -7.9543867     -7.3245555      2.5007708      50218.233      36.893836      36.893836      36.893836    
    390000   0.41763191    -7.9578178     -7.3313788      2.4827915      50218.233      36.893836      36.893836      36.893836    
    400000   0.41894256    -7.9565488     -7.3281439      2.5047936      50218.233      36.893836      36.893836      36.893836    
    410000   0.41816758    -7.9556084     -7.328366       2.5027282      50218.233      36.893836      36.893836      36.893836    
    420000   0.42216864    -7.9552011     -7.3219572      2.5060676      50218.233      36.893836      36.893836      36.893836    
    430000   0.42050859    -7.9571866     -7.3264327      2.492638       50218.233      36.893836      36.893836      36.893836    
    440000   0.41875973    -7.9584552     -7.3303246      2.4794923      50218.233      36.893836      36.893836      36.893836    
    450000   0.41868352    -7.9580492     -7.3300328      2.48653        50218.233      36.893836      36.893836      36.893836    
    460000   0.41898337    -7.9576978     -7.3292317      2.4890958      50218.233      36.893836      36.893836      36.893836    
    470000   0.42169216    -7.9592259     -7.3266967      2.4745113      50218.233      36.893836      36.893836      36.893836    
    480000   0.41913531    -7.9574721     -7.3287781      2.4870836      50218.233      36.893836      36.893836      36.893836    
    490000   0.42112685    -7.9557443     -7.324063       2.5039338      50218.233      36.893836      36.893836      36.893836    
    500000   0.42015829    -7.9570711     -7.3268427      2.4890373      50218.233      36.893836      36.893836      36.893836    
    510000   0.42031459    -7.9598204     -7.3293575      2.4707452      50218.233      36.893836      36.893836      36.893836    
    520000   0.42033977    -7.9569298     -7.3264291      2.4940346      50218.233      36.893836      36.893836      36.893836    
    530000   0.42111887    -7.9561412     -7.3244719      2.4943142      50218.233      36.893836      36.893836      36.893836    
    540000   0.42002553    -7.9593523     -7.329323       2.4826097      50218.233      36.893836      36.893836      36.893836    
    550000   0.41823616    -7.9593432     -7.3319978      2.4719196      50218.233      36.893836      36.893836      36.893836    
    560000   0.42135352    -7.9580275     -7.3260062      2.4800567      50218.233      36.893836      36.893836      36.893836    
    570000   0.41936331    -7.9576093     -7.3285733      2.4942024      50218.233      36.893836      36.893836      36.893836    
    580000   0.419502      -7.9574268     -7.3281828      2.4791371      50218.233      36.893836      36.893836      36.893836    
    590000   0.42000576    -7.9618623     -7.3318626      2.4478715      50218.233      36.893836      36.893836      36.893836    
    600000   0.4212187     -7.9602179     -7.3283988      2.4795305      50218.233      36.893836      36.893836      36.893836    
    610000   0.4212335     -7.9580224     -7.3261811      2.4947887      50218.233      36.893836      36.893836      36.893836    
    620000   0.420572      -7.9537853     -7.3229363      2.5116164      50218.233      36.893836      36.893836      36.893836    
    630000   0.42026109    -7.9613848     -7.3310022      2.4609942      50218.233      36.893836      36.893836      36.893836    
    640000   0.42058648    -7.9559233     -7.3250525      2.5037807      50218.233      36.893836      36.893836      36.893836    
    650000   0.42019024    -7.9543289     -7.3240525      2.5173935      50218.233      36.893836      36.893836      36.893836    
    660000   0.4215176     -7.9557477     -7.3234803      2.5004728      50218.233      36.893836      36.893836      36.893836    
    670000   0.42055377    -7.9561263     -7.3253046      2.505832       50218.233      36.893836      36.893836      36.893836    
    680000   0.42023655    -7.9566699     -7.3263241      2.4844064      50218.233      36.893836      36.893836      36.893836    
    690000   0.41860129    -7.9551984     -7.3273054      2.5047517      50218.233      36.893836      36.893836      36.893836    
    700000   0.42005276    -7.9563032     -7.326233       2.4853097      50218.233      36.893836      36.893836      36.893836    
    710000   0.41919517    -7.9569331     -7.3281493      2.4934655      50218.233      36.893836      36.893836      36.893836    
    720000   0.41838619    -7.9561599     -7.3285895      2.4954859      50218.233      36.893836      36.893836      36.893836    
    730000   0.42004832    -7.956768      -7.3267044      2.5067526      50218.233      36.893836      36.893836      36.893836    
    740000   0.42034464    -7.9578687     -7.3273607      2.4877668      50218.233      36.893836      36.893836      36.893836    
    750000   0.41953772    -7.9566241     -7.3273265      2.4895108      50218.233      36.893836      36.893836      36.893836    
    760000   0.42040276    -7.955033      -7.3244378      2.5008134      50218.233      36.893836      36.893836      36.893836    
    770000   0.41987353    -7.9591055     -7.3293042      2.4742369      50218.233      36.893836      36.893836      36.893836    
    780000   0.42011254    -7.9540495     -7.3238897      2.5093921      50218.233      36.893836      36.893836      36.893836    
    790000   0.42005303    -7.9571563     -7.3270857      2.4814         50218.233      36.893836      36.893836      36.893836    
    800000   0.4192052     -7.9577762     -7.3289774      2.4843983      50218.233      36.893836      36.893836      36.893836    
    810000   0.41964585    -7.957519      -7.3280592      2.4839813      50218.233      36.893836      36.893836      36.893836    
    820000   0.42005858    -7.9560399     -7.3259609      2.5006516      50218.233      36.893836      36.893836      36.893836    
    830000   0.42112557    -7.9569251     -7.3252457      2.495054       50218.233      36.893836      36.893836      36.893836    
    840000   0.42114702    -7.954525      -7.3228135      2.5146925      50218.233      36.893836      36.893836      36.893836    
    850000   0.42047737    -7.9539344     -7.3232273      2.5106233      50218.233      36.893836      36.893836      36.893836    
    860000   0.41773715    -7.9580106     -7.3314138      2.4858083      50218.233      36.893836      36.893836      36.893836    
    870000   0.42079384    -7.9559451     -7.3247634      2.4990706      50218.233      36.893836      36.893836      36.893836    
    880000   0.419398      -7.9584932     -7.3294052      2.4864978      50218.233      36.893836      36.893836      36.893836    
    890000   0.41739739    -7.9556583     -7.3295711      2.4947903      50218.233      36.893836      36.893836      36.893836    
    900000   0.42324132    -7.9552464     -7.3203935      2.5066676      50218.233      36.893836      36.893836      36.893836    
    910000   0.41921541    -7.958309      -7.3294948      2.481586       50218.233      36.893836      36.893836      36.893836    
    920000   0.42220704    -7.957328      -7.3240265      2.4917439      50218.233      36.893836      36.893836      36.893836    
    930000   0.41978307    -7.95776       -7.3280944      2.4882651      50218.233      36.893836      36.893836      36.893836    
    940000   0.42038423    -7.9609652     -7.3303979      2.4576735      50218.233      36.893836      36.893836      36.893836    
    950000   0.42064882    -7.9576388     -7.3266745      2.4881001      50218.233      36.893836      36.893836      36.893836    
    960000   0.41985685    -7.9577118     -7.3279355      2.4862911      50218.233      36.893836      36.893836      36.893836    
    970000   0.42092207    -7.9576349     -7.3262608      2.4847992      50218.233      36.893836      36.893836      36.893836    
    980000   0.4208942     -7.9580579     -7.3267256      2.485799       50218.233      36.893836      36.893836      36.893836    
    990000   0.41907362    -7.9588831     -7.3302816      2.4705663      50218.233      36.893836      36.893836      36.893836    
   1000000   0.42099016    -7.9571767     -7.3257005      2.4896375      50218.233      36.893836      36.893836      36.893836    
   1010000   0.42072598    -7.9581446     -7.3270646      2.4894443      50218.233      36.893836      36.893836      36.893836    
   1020000   0.42011764    -7.9609708     -7.3308033      2.4592662      50218.233      36.893836      36.893836      36.893836    
   1030000   0.4216697     -7.955292      -7.3227964      2.5163585      50218.233      36.893836      36.893836      36.893836    
   1040000   0.41956888    -7.9580445     -7.3287001      2.4827271      50218.233      36.893836      36.893836      36.893836    
   1050000   0.41899438    -7.9579949     -7.3295123      2.481888       50218.233      36.893836      36.893836      36.893836    
   1060000   0.42047106    -7.958709      -7.3280114      2.4735574      50218.233      36.893836      36.893836      36.893836    
   1070000   0.42010435    -7.9585147     -7.3283671      2.4861123      50218.233      36.893836      36.893836      36.893836    
   1080000   0.41989029    -7.9603355     -7.330509       2.4592098      50218.233      36.893836      36.893836      36.893836    
   1090000   0.42225619    -7.9584094     -7.3250342      2.4907279      50218.233      36.893836      36.893836      36.893836    
   1100000   0.42039102    -7.9586578     -7.3280802      2.4843563      50218.233      36.893836      36.893836      36.893836    
   1110000   0.42108516    -7.9581547     -7.3265359      2.475738       50218.233      36.893836      36.893836      36.893836    
   1120000   0.41902265    -7.9595661     -7.331041       2.4714141      50218.233      36.893836      36.893836      36.893836    
   1130000   0.41917482    -7.9573812     -7.328628       2.487682       50218.233      36.893836      36.893836      36.893836    
   1140000   0.42161577    -7.9632925     -7.3308778      2.4361898      50218.233      36.893836      36.893836      36.893836    
   1150000   0.41978351    -7.9608978     -7.3312315      2.4635172      50218.233      36.893836      36.893836      36.893836    
   1160000   0.41702536    -7.9568689     -7.3313397      2.4754847      50218.233      36.893836      36.893836      36.893836    
   1170000   0.4193117     -7.9558702     -7.3269116      2.4989763      50218.233      36.893836      36.893836      36.893836    
   1180000   0.42023879    -7.9569291     -7.3265798      2.4913001      50218.233      36.893836      36.893836      36.893836    
   1190000   0.420371      -7.958276      -7.3277284      2.482074       50218.233      36.893836      36.893836      36.893836    
   1200000   0.41896182    -7.9569515     -7.3285177      2.4902225      50218.233      36.893836      36.893836      36.893836    
   1210000   0.41994247    -7.9565577     -7.326653       2.491079       50218.233      36.893836      36.893836      36.893836    
   1220000   0.4218738     -7.9574217     -7.32462        2.5003492      50218.233      36.893836      36.893836      36.893836    
   1230000   0.41912328    -7.957721      -7.329045       2.4857043      50218.233      36.893836      36.893836      36.893836    
   1240000   0.42138727    -7.9564062     -7.3243343      2.5005463      50218.233      36.893836      36.893836      36.893836    
   1250000   0.42146603    -7.9559942     -7.3238041      2.4900792      50218.233      36.893836      36.893836      36.893836    
   1260000   0.42065785    -7.9525446     -7.3215669      2.5274661      50218.233      36.893836      36.893836      36.893836    
   1270000   0.41843366    -7.955665      -7.3280234      2.4912851      50218.233      36.893836      36.893836      36.893836    
   1280000   0.41924367    -7.9577179     -7.3288614      2.4802192      50218.233      36.893836      36.893836      36.893836    
   1290000   0.42070249    -7.9573905     -7.3263457      2.4869954      50218.233      36.893836      36.893836      36.893836    
   1300000   0.41988451    -7.9591691     -7.3293513      2.4708692      50218.233      36.893836      36.893836      36.893836    
   1310000   0.41959293    -7.9572666     -7.3278862      2.4900192      50218.233      36.893836      36.893836      36.893836    
   1320000   0.42023119    -7.9595165     -7.3291787      2.4683266      50218.233      36.893836      36.893836      36.893836    
   1330000   0.41996218    -7.9559479     -7.3260136      2.4966658      50218.233      36.893836      36.893836      36.893836    
   1340000   0.41790054    -7.9569238     -7.3300819      2.4895504      50218.233      36.893836      36.893836      36.893836    
   1350000   0.41936083    -7.9569158     -7.3278835      2.4910159      50218.233      36.893836      36.893836      36.893836    
   1360000   0.42038876    -7.958419      -7.3278449      2.4811198      50218.233      36.893836      36.893836      36.893836    
   1370000   0.41952114    -7.9563532     -7.3270804      2.4906284      50218.233      36.893836      36.893836      36.893836    
   1380000   0.41945944    -7.9579264     -7.3287462      2.4845664      50218.233      36.893836      36.893836      36.893836    
   1390000   0.41789548    -7.956203      -7.3293687      2.5021194      50218.233      36.893836      36.893836      36.893836    
   1400000   0.41885417    -7.9558477     -7.3275754      2.5058859      50218.233      36.893836      36.893836      36.893836    
   1410000   0.42036811    -7.9550068     -7.3244636      2.5142356      50218.233      36.893836      36.893836      36.893836    
   1420000   0.4191546     -7.9570695     -7.3283465      2.4874071      50218.233      36.893836      36.893836      36.893836    
   1430000   0.42099381    -7.9564625     -7.3249808      2.4967867      50218.233      36.893836      36.893836      36.893836    
   1440000   0.41809447    -7.9578594     -7.3307267      2.472433       50218.233      36.893836      36.893836      36.893836    
   1450000   0.42118284    -7.9596189     -7.3278536      2.4807942      50218.233      36.893836      36.893836      36.893836    
   1460000   0.42125295    -7.9600634     -7.3281929      2.4724973      50218.233      36.893836      36.893836      36.893836    
   1470000   0.42016844    -7.9606482     -7.3304045      2.4660386      50218.233      36.893836      36.893836      36.893836    
   1480000   0.42045054    -7.9541728     -7.323506       2.5160501      50218.233      36.893836      36.893836      36.893836    
   1490000   0.42101528    -7.9590042     -7.3274903      2.4848211      50218.233      36.893836      36.893836      36.893836    
   1500000   0.41984773    -7.9580915     -7.3283288      2.4826021      50218.233      36.893836      36.893836      36.893836    
   1510000   0.4183284     -7.9553317     -7.327848       2.4929827      50218.233      36.893836      36.893836      36.893836    
   1520000   0.41946407    -7.9596961     -7.330509       2.4702165      50218.233      36.893836      36.893836      36.893836    
   1530000   0.42077054    -7.9582272     -7.3270804      2.4839191      50218.233      36.893836      36.893836      36.893836    
   1540000   0.42022294    -7.9590731     -7.3287477      2.4655583      50218.233      36.893836      36.893836      36.893836    
   1550000   0.42041904    -7.9584594     -7.3278398      2.4854306      50218.233      36.893836      36.893836      36.893836    
   1560000   0.41875817    -7.9557588     -7.3276305      2.5031932      50218.233      36.893836      36.893836      36.893836    
   1570000   0.41862127    -7.9605671     -7.3326441      2.456871       50218.233      36.893836      36.893836      36.893836    
   1580000   0.41775216    -7.9566613     -7.330042       2.4868725      50218.233      36.893836      36.893836      36.893836    
   1590000   0.41704586    -7.9570482     -7.3314883      2.4834926      50218.233      36.893836      36.893836      36.893836    
   1600000   0.42005454    -7.954265      -7.3241921      2.4988367      50218.233      36.893836      36.893836      36.893836    
   1610000   0.41752919    -7.9587412     -7.3324563      2.4761236      50218.233      36.893836      36.893836      36.893836    
   1620000   0.41838385    -7.9570006     -7.3294338      2.4893581      50218.233      36.893836      36.893836      36.893836    
   1630000   0.42100936    -7.9575992     -7.3260941      2.490897       50218.233      36.893836      36.893836      36.893836    
   1640000   0.42040439    -7.9567058     -7.3261082      2.5001343      50218.233      36.893836      36.893836      36.893836    
   1650000   0.42065313    -7.9611901     -7.3302194      2.4656271      50218.233      36.893836      36.893836      36.893836    
   1660000   0.42302204    -7.9597532     -7.3252292      2.47251        50218.233      36.893836      36.893836      36.893836    
   1670000   0.41954561    -7.9597117     -7.3304023      2.470622       50218.233      36.893836      36.893836      36.893836    
   1680000   0.41888275    -7.9594595     -7.3311443      2.473517       50218.233      36.893836      36.893836      36.893836    
   1690000   0.42074429    -7.961733      -7.3306255      2.4553984      50218.233      36.893836      36.893836      36.893836    
   1700000   0.41995736    -7.9588115     -7.3288844      2.4812732      50218.233      36.893836      36.893836      36.893836    
   1710000   0.42028631    -7.9611429     -7.3307225      2.4630607      50218.233      36.893836      36.893836      36.893836    
   1720000   0.41943723    -7.9583313     -7.3291844      2.4833412      50218.233      36.893836      36.893836      36.893836    
   1730000   0.42228531    -7.9561813     -7.3227624      2.496943       50218.233      36.893836      36.893836      36.893836    
   1740000   0.41964921    -7.9576196     -7.3281547      2.4802531      50218.233      36.893836      36.893836      36.893836    
   1750000   0.41997786    -7.9578088     -7.327851       2.4802484      50218.233      36.893836      36.893836      36.893836    
   1760000   0.4216028     -7.9532146     -7.3208194      2.5243689      50218.233      36.893836      36.893836      36.893836    
   1770000   0.41914579    -7.9551407     -7.3264309      2.502743       50218.233      36.893836      36.893836      36.893836    
   1780000   0.42037636    -7.9574058     -7.3268503      2.4799647      50218.233      36.893836      36.893836      36.893836    
   1790000   0.41865459    -7.9548595     -7.3268866      2.5060981      50218.233      36.893836      36.893836      36.893836    
   1800000   0.42190366    -7.9582166     -7.3253701      2.4878404      50218.233      36.893836      36.893836      36.893836    
   1810000   0.41992939    -7.9608159     -7.3309308      2.4626358      50218.233      36.893836      36.893836      36.893836    
   1820000   0.41911926    -7.9613863     -7.3327163      2.4514066      50218.233      36.893836      36.893836      36.893836    
   1830000   0.41982636    -7.9586797     -7.3289491      2.4783691      50218.233      36.893836      36.893836      36.893836    
   1840000   0.41987699    -7.9607298     -7.3309233      2.4667466      50218.233      36.893836      36.893836      36.893836    
   1850000   0.42128321    -7.9572493     -7.3253334      2.4916785      50218.233      36.893836      36.893836      36.893836    
   1860000   0.41850721    -7.9586379     -7.330886       2.482752       50218.233      36.893836      36.893836      36.893836    
   1870000   0.42052786    -7.9573481     -7.3265653      2.4957851      50218.233      36.893836      36.893836      36.893836    
   1880000   0.41972989    -7.9572206     -7.3276348      2.4881001      50218.233      36.893836      36.893836      36.893836    
   1890000   0.42186595    -7.9578168     -7.3250269      2.4881708      50218.233      36.893836      36.893836      36.893836    
   1900000   0.41820091    -7.9580708     -7.3307784      2.487004       50218.233      36.893836      36.893836      36.893836    
   1910000   0.4175834     -7.9591594     -7.3327932      2.4668169      50218.233      36.893836      36.893836      36.893836    
   1920000   0.41950207    -7.9594062     -7.3301621      2.4737652      50218.233      36.893836      36.893836      36.893836    
   1930000   0.42133469    -7.960585      -7.3285919      2.4697581      50218.233      36.893836      36.893836      36.893836    
   1940000   0.42023787    -7.9581122     -7.3277644      2.4819364      50218.233      36.893836      36.893836      36.893836    
   1950000   0.41912355    -7.9589851     -7.3303088      2.4810611      50218.233      36.893836      36.893836      36.893836    
   1960000   0.41831556    -7.9600495     -7.3325851      2.4776261      50218.233      36.893836      36.893836      36.893836    
   1970000   0.41902463    -7.9593753     -7.3308473      2.467247       50218.233      36.893836      36.893836      36.893836    
   1980000   0.41899668    -7.9609649     -7.3324788      2.4610658      50218.233      36.893836      36.893836      36.893836    
   1990000   0.42141872    -7.957253      -7.3251339      2.490857       50218.233      36.893836      36.893836      36.893836    
   2000000   0.41948963    -7.9600286     -7.3308031      2.4711607      50218.233      36.893836      36.893836      36.893836    
   2010000   0.41833382    -7.9612253     -7.3337335      2.4553583      50218.233      36.893836      36.893836      36.893836    
   2020000   0.42148274    -7.9575237     -7.3253086      2.489019       50218.233      36.893836      36.893836      36.893836    
   2030000   0.41998398    -7.9602839     -7.3303169      2.4742384      50218.233      36.893836      36.893836      36.893836    
   2040000   0.417567      -7.9596361     -7.3332945      2.4773787      50218.233      36.893836      36.893836      36.893836    
   2050000   0.42209939    -7.9598083     -7.3266683      2.4776117      50218.233      36.893836      36.893836      36.893836    
   2060000   0.41958958    -7.9526615     -7.323286       2.5239828      50218.233      36.893836      36.893836      36.893836    
   2070000   0.42062366    -7.9571781     -7.3262515      2.4972826      50218.233      36.893836      36.893836      36.893836    
   2080000   0.42156502    -7.9589202     -7.3265817      2.4740984      50218.233      36.893836      36.893836      36.893836    
   2090000   0.42034243    -7.9583317     -7.327827       2.4804279      50218.233      36.893836      36.893836      36.893836    
   2100000   0.41968095    -7.9610487     -7.3315362      2.4693709      50218.233      36.893836      36.893836      36.893836    
   2110000   0.41957636    -7.9584489     -7.3290933      2.491232       50218.233      36.893836      36.893836      36.893836    
   2120000   0.41871244    -7.9604356     -7.3323758      2.4672226      50218.233      36.893836      36.893836      36.893836    
   2130000   0.4192431     -7.9590704     -7.3302147      2.477072       50218.233      36.893836      36.893836      36.893836    
   2140000   0.41883591    -7.9558092     -7.3275642      2.5077647      50218.233      36.893836      36.893836      36.893836    
   2150000   0.42051857    -7.9538754     -7.3231065      2.5159795      50218.233      36.893836      36.893836      36.893836    
   2160000   0.42288789    -7.9599597     -7.3256369      2.4691548      50218.233      36.893836      36.893836      36.893836    
   2170000   0.41954291    -7.9575579     -7.3282524      2.4981888      50218.233      36.893836      36.893836      36.893836    
   2180000   0.42070339    -7.9584916     -7.3274455      2.4824496      50218.233      36.893836      36.893836      36.893836    
   2190000   0.42005528    -7.9557937     -7.3257198      2.5066244      50218.233      36.893836      36.893836      36.893836    
   2200000   0.42015578    -7.9559263     -7.3257016      2.4985522      50218.233      36.893836      36.893836      36.893836    
   2210000   0.41971663    -7.9526895     -7.3231235      2.5248706      50218.233      36.893836      36.893836      36.893836    
   2220000   0.42012859    -7.9597139     -7.32953        2.4744207      50218.233      36.893836      36.893836      36.893836    
   2230000   0.41940432    -7.9602249     -7.3311273      2.4653735      50218.233      36.893836      36.893836      36.893836    
   2240000   0.41976843    -7.9570382     -7.3273945      2.4917172      50218.233      36.893836      36.893836      36.893836    
   2250000   0.41859653    -7.9576175     -7.3297317      2.4829377      50218.233      36.893836      36.893836      36.893836    
   2260000   0.41923895    -7.9570218     -7.3281723      2.4862036      50218.233      36.893836      36.893836      36.893836    
   2270000   0.41886758    -7.9578605     -7.3295681      2.4857025      50218.233      36.893836      36.893836      36.893836    
   2280000   0.42183281    -7.9577048     -7.3249646      2.4946277      50218.233      36.893836      36.893836      36.893836    
   2290000   0.42148238    -7.9612261     -7.3290115      2.4552675      50218.233      36.893836      36.893836      36.893836    
   2300000   0.42088376    -7.9550133     -7.3236966      2.5069985      50218.233      36.893836      36.893836      36.893836    
   2310000   0.42040102    -7.9588188     -7.3282262      2.4851331      50218.233      36.893836      36.893836      36.893836    
   2320000   0.41835861    -7.9601586     -7.3326296      2.4680036      50218.233      36.893836      36.893836      36.893836    
   2330000   0.42050354    -7.9580783     -7.327332       2.4792096      50218.233      36.893836      36.893836      36.893836    
   2340000   0.42153734    -7.9578175     -7.3255205      2.4856573      50218.233      36.893836      36.893836      36.893836    
   2350000   0.42137521    -7.9577844     -7.3257306      2.4936342      50218.233      36.893836      36.893836      36.893836    
   2360000   0.41975705    -7.9555197     -7.3258931      2.4959305      50218.233      36.893836      36.893836      36.893836    
   2370000   0.41790026    -7.959801      -7.3329595      2.4741881      50218.233      36.893836      36.893836      36.893836    
   2380000   0.42012634    -7.9564916     -7.3263111      2.5066943      50218.233      36.893836      36.893836      36.893836    
   2390000   0.41829043    -7.958441      -7.3310143      2.4776146      50218.233      36.893836      36.893836      36.893836    
   2400000   0.42013692    -7.954441      -7.3242446      2.5112622      50218.233      36.893836      36.893836      36.893836    
   2410000   0.41973133    -7.9579198     -7.3283317      2.4768643      50218.233      36.893836      36.893836      36.893836    
   2420000   0.41937614    -7.9595245     -7.3304693      2.4689468      50218.233      36.893836      36.893836      36.893836    
   2430000   0.42019199    -7.9589308     -7.3286518      2.4697306      50218.233      36.893836      36.893836      36.893836    
   2440000   0.41976251    -7.9558178     -7.3261829      2.4928794      50218.233      36.893836      36.893836      36.893836    
   2450000   0.4200933     -7.9635148     -7.3333838      2.4462893      50218.233      36.893836      36.893836      36.893836    
   2460000   0.41655706    -7.9625391     -7.3377124      2.4454686      50218.233      36.893836      36.893836      36.893836    
   2470000   0.41824768    -7.9609399     -7.3335774      2.464973       50218.233      36.893836      36.893836      36.893836    
   2480000   0.41783177    -7.9576001     -7.3308614      2.493106       50218.233      36.893836      36.893836      36.893836    
   2490000   0.41866954    -7.9594525     -7.3314571      2.4752258      50218.233      36.893836      36.893836      36.893836    
   2500000   0.41982359    -7.9592685     -7.329542       2.4785533      50218.233      36.893836      36.893836      36.893836    
   2510000   0.42212981    -7.9560548     -7.3228691      2.5107245      50218.233      36.893836      36.893836      36.893836    
   2520000   0.42014409    -7.9550186     -7.3248114      2.5107422      50218.233      36.893836      36.893836      36.893836    
   2530000   0.41823347    -7.9535468     -7.3262055      2.5250527      50218.233      36.893836      36.893836      36.893836    
   2540000   0.41856372    -7.9567961     -7.3289594      2.4867308      50218.233      36.893836      36.893836      36.893836    
   2550000   0.4223281     -7.9558333     -7.3223501      2.5031845      50218.233      36.893836      36.893836      36.893836    
   2560000   0.42051767    -7.9592605     -7.328493       2.4778138      50218.233      36.893836      36.893836      36.893836    
   2570000   0.41921052    -7.9594425     -7.3306357      2.4692975      50218.233      36.893836      36.893836      36.893836    
   2580000   0.41911269    -7.9624718     -7.3338117      2.4559319      50218.233      36.893836      36.893836      36.893836    
   2590000   0.41817901    -7.9590867     -7.3318271      2.4628854      50218.233      36.893836      36.893836      36.893836    
   2600000   0.42046038    -7.9553723     -7.3246907      2.4941493      50218.233      36.893836      36.893836      36.893836    
   2610000   0.42142294    -7.9565166     -7.3243911      2.4912028      50218.233      36.893836      36.893836      36.893836    
   2620000   0.41978028    -7.9608215     -7.33116        2.4545847      50218.233      36.893836      36.893836      36.893836    
   2630000   0.41964724    -7.9569342     -7.3274723      2.4816748      50218.233      36.893836      36.893836      36.893836    
   2640000   0.42036458    -7.9565203     -7.3259824      2.4886607      50218.233      36.893836      36.893836      36.893836    
   2650000   0.4197727     -7.9583857     -7.3287356      2.479306       50218.233      36.893836      36.893836      36.893836    
   2660000   0.42433226    -7.9545115     -7.3180222      2.5241669      50218.233      36.893836      36.893836      36.893836    
   2670000   0.41959354    -7.9583132     -7.3289318      2.4822216      50218.233      36.893836      36.893836      36.893836    
   2680000   0.42061605    -7.9581538     -7.3272387      2.4942259      50218.233      36.893836      36.893836      36.893836    
   2690000   0.41773761    -7.9592591     -7.3326616      2.4672177      50218.233      36.893836      36.893836      36.893836    
   2700000   0.41903322    -7.9608368     -7.3322959      2.4547351      50218.233      36.893836      36.893836      36.893836    
   2710000   0.41945349    -7.9557841     -7.3266128      2.4980015      50218.233      36.893836      36.893836      36.893836    
   2720000   0.4198026     -7.9553948     -7.3256998      2.5078832      50218.233      36.893836      36.893836      36.893836    
   2730000   0.41913769    -7.9574446     -7.328747       2.4867584      50218.233      36.893836      36.893836      36.893836    
   2740000   0.41829522    -7.9578328     -7.3303989      2.4836352      50218.233      36.893836      36.893836      36.893836    
   2750000   0.41968467    -7.9561775     -7.3266595      2.488656       50218.233      36.893836      36.893836      36.893836    
   2760000   0.42240449    -7.9561105     -7.3225128      2.4974926      50218.233      36.893836      36.893836      36.893836    
   2770000   0.42193654    -7.9587461     -7.3258503      2.4922026      50218.233      36.893836      36.893836      36.893836    
   2780000   0.41935531    -7.9584793     -7.3294553      2.4819664      50218.233      36.893836      36.893836      36.893836    
   2790000   0.4165548     -7.9592144     -7.3343911      2.4694814      50218.233      36.893836      36.893836      36.893836    
   2800000   0.41900551    -7.960847      -7.3323476      2.4620949      50218.233      36.893836      36.893836      36.893836    
   2810000   0.42117548    -7.9570243     -7.32527        2.5035017      50218.233      36.893836      36.893836      36.893836    
   2820000   0.41985829    -7.9602802     -7.3305017      2.4652358      50218.233      36.893836      36.893836      36.893836    
   2830000   0.41821098    -7.9562984     -7.3289908      2.4930136      50218.233      36.893836      36.893836      36.893836    
   2840000   0.41948952    -7.9606669     -7.3314415      2.4596291      50218.233      36.893836      36.893836      36.893836    
   2850000   0.4191888     -7.9588295     -7.3300553      2.4785415      50218.233      36.893836      36.893836      36.893836    
   2860000   0.41927862    -7.9563957     -7.3274867      2.4887725      50218.233      36.893836      36.893836      36.893836    
   2870000   0.41930684    -7.9581617     -7.3292103      2.4843946      50218.233      36.893836      36.893836      36.893836    
   2880000   0.41701216    -7.9596993     -7.33419        2.4755387      50218.233      36.893836      36.893836      36.893836    
   2890000   0.4198023     -7.9546661     -7.3249716      2.5075003      50218.233      36.893836      36.893836      36.893836    
   2900000   0.41981373    -7.9596342     -7.3299226      2.4732613      50218.233      36.893836      36.893836      36.893836    
   2910000   0.41957371    -7.9586327     -7.3292811      2.4727333      50218.233      36.893836      36.893836      36.893836    
   2920000   0.41975042    -7.9568501     -7.3272334      2.4897952      50218.233      36.893836      36.893836      36.893836    
   2930000   0.41987053    -7.9587474     -7.3289505      2.4883708      50218.233      36.893836      36.893836      36.893836    
   2940000   0.42133731    -7.9558422     -7.3238453      2.4975025      50218.233      36.893836      36.893836      36.893836    
   2950000   0.42025741    -7.9611087     -7.3307315      2.462676       50218.233      36.893836      36.893836      36.893836    
   2960000   0.42012745    -7.960498      -7.3303158      2.4702299      50218.233      36.893836      36.893836      36.893836    
   2970000   0.42031936    -7.9559466     -7.3254765      2.4940837      50218.233      36.893836      36.893836      36.893836    
   2980000   0.42122283    -7.9583327     -7.3265075      2.4907055      50218.233      36.893836      36.893836      36.893836    
   2990000   0.41810269    -7.9588136     -7.3316685      2.4786454      50218.233      36.893836      36.893836      36.893836    
   3000000   0.42128915    -7.9602489     -7.3283242      2.4620051      50218.233      36.893836      36.893836      36.893836    
   3010000   0.41891223    -7.9609276     -7.3325682      2.4665505      50218.233      36.893836      36.893836      36.893836    
   3020000   0.41939835    -7.9603074     -7.3312188      2.4632663      50218.233      36.893836      36.893836      36.893836    
   3030000   0.42137338    -7.9579183     -7.3258673      2.4802568      50218.233      36.893836      36.893836      36.893836    
   3040000   0.42007691    -7.9593287     -7.3292223      2.4784261      50218.233      36.893836      36.893836      36.893836    
   3050000   0.42039677    -7.9588038     -7.3282176      2.4796438      50218.233      36.893836      36.893836      36.893836    
   3060000   0.41940497    -7.9629604     -7.3338619      2.4401412      50218.233      36.893836      36.893836      36.893836    
   3070000   0.4203272     -7.9597101     -7.3292283      2.472555       50218.233      36.893836      36.893836      36.893836    
   3080000   0.41710554    -7.9584791     -7.3328297      2.4746758      50218.233      36.893836      36.893836      36.893836    
   3090000   0.41873618    -7.9597846     -7.3316893      2.4738691      50218.233      36.893836      36.893836      36.893836    
   3100000   0.42072987    -7.9586912     -7.3276053      2.485683       50218.233      36.893836      36.893836      36.893836    
   3110000   0.41877098    -7.9592436     -7.3310961      2.4693109      50218.233      36.893836      36.893836      36.893836    
   3120000   0.4176466     -7.9562594     -7.3297984      2.5042987      50218.233      36.893836      36.893836      36.893836    
   3130000   0.42088152    -7.9567904     -7.3254771      2.4912281      50218.233      36.893836      36.893836      36.893836    
   3140000   0.41903243    -7.9541023     -7.3255626      2.5159246      50218.233      36.893836      36.893836      36.893836    
   3150000   0.42182609    -7.9579747     -7.3252446      2.4889678      50218.233      36.893836      36.893836      36.893836    
   3160000   0.42063001    -7.9602273     -7.3292913      2.4630653      50218.233      36.893836      36.893836      36.893836    
   3170000   0.42065087    -7.957382      -7.3264146      2.4844854      50218.233      36.893836      36.893836      36.893836    
   3180000   0.41986467    -7.9588169     -7.3290289      2.4825657      50218.233      36.893836      36.893836      36.893836    
   3190000   0.4214407     -7.9559012     -7.3237491      2.5064774      50218.233      36.893836      36.893836      36.893836    
   3200000   0.42007593    -7.9632055     -7.3331005      2.4567105      50218.233      36.893836      36.893836      36.893836    
   3210000   0.41869061    -7.9554367     -7.3274098      2.4924089      50218.233      36.893836      36.893836      36.893836    
   3220000   0.41954068    -7.9595688     -7.3302667      2.4774816      50218.233      36.893836      36.893836      36.893836    
   3230000   0.41937503    -7.95815       -7.3290964      2.4794568      50218.233      36.893836      36.893836      36.893836    
   3240000   0.4183095     -7.9585571     -7.3311017      2.4720101      50218.233      36.893836      36.893836      36.893836    
   3250000   0.42046179    -7.9566603     -7.3259766      2.5023989      50218.233      36.893836      36.893836      36.893836    
   3260000   0.42075728    -7.9551287     -7.3240018      2.5116282      50218.233      36.893836      36.893836      36.893836    
   3270000   0.42036833    -7.9606949     -7.3301514      2.47035        50218.233      36.893836      36.893836      36.893836    
   3280000   0.41841322    -7.9628564     -7.3352455      2.4469695      50218.233      36.893836      36.893836      36.893836    
   3290000   0.41878275    -7.9623344     -7.3341693      2.4492015      50218.233      36.893836      36.893836      36.893836    
   3300000   0.42173896    -7.9559102     -7.3233108      2.5049233      50218.233      36.893836      36.893836      36.893836    
   3310000   0.42092058    -7.956527      -7.3251551      2.5031125      50218.233      36.893836      36.893836      36.893836    
   3320000   0.41932163    -7.9550713     -7.3260978      2.5041335      50218.233      36.893836      36.893836      36.893836    
   3330000   0.42201687    -7.9584486     -7.3254323      2.4852035      50218.233      36.893836      36.893836      36.893836    
   3340000   0.41941131    -7.9569652     -7.3278572      2.4839222      50218.233      36.893836      36.893836      36.893836    
   3350000   0.42392285    -7.9576388     -7.3217636      2.4863296      50218.233      36.893836      36.893836      36.893836    
   3360000   0.4203076     -7.9592863     -7.3288339      2.4683223      50218.233      36.893836      36.893836      36.893836    
   3370000   0.42021723    -7.9586945     -7.3283776      2.4894516      50218.233      36.893836      36.893836      36.893836    
   3380000   0.42027374    -7.9561803     -7.3257786      2.4920493      50218.233      36.893836      36.893836      36.893836    
   3390000   0.41865213    -7.9577186     -7.3297493      2.4874516      50218.233      36.893836      36.893836      36.893836    
   3400000   0.41853936    -7.9584811     -7.330681       2.4907138      50218.233      36.893836      36.893836      36.893836    
   3410000   0.42221456    -7.9566761     -7.3233633      2.5044888      50218.233      36.893836      36.893836      36.893836    
   3420000   0.41933966    -7.9607735     -7.331773       2.4602302      50218.233      36.893836      36.893836      36.893836    
   3430000   0.41972962    -7.9600074     -7.3304219      2.4655412      50218.233      36.893836      36.893836      36.893836    
   3440000   0.41922144    -7.9602635     -7.3314403      2.4667298      50218.233      36.893836      36.893836      36.893836    
   3450000   0.41888936    -7.960954      -7.3326289      2.4655995      50218.233      36.893836      36.893836      36.893836    
   3460000   0.42180299    -7.957996      -7.3253005      2.4844893      50218.233      36.893836      36.893836      36.893836    
   3470000   0.41857081    -7.9569784     -7.3291311      2.5003203      50218.233      36.893836      36.893836      36.893836    
   3480000   0.42011557    -7.9597992     -7.3296348      2.4764795      50218.233      36.893836      36.893836      36.893836    
   3490000   0.41977011    -7.9572321     -7.3275859      2.4816822      50218.233      36.893836      36.893836      36.893836    
   3500000   0.41889171    -7.9610406     -7.332712       2.4511915      50218.233      36.893836      36.893836      36.893836    
   3510000   0.41722696    -7.9610898     -7.3352583      2.4620246      50218.233      36.893836      36.893836      36.893836    
   3520000   0.41820971    -7.9557379     -7.3284322      2.4981455      50218.233      36.893836      36.893836      36.893836    
   3530000   0.42167891    -7.958055      -7.3255456      2.4922092      50218.233      36.893836      36.893836      36.893836    
   3540000   0.42162279    -7.9595792     -7.327154       2.4757628      50218.233      36.893836      36.893836      36.893836    
   3550000   0.42163943    -7.9559984     -7.3235483      2.5018824      50218.233      36.893836      36.893836      36.893836    
   3560000   0.41823422    -7.958211      -7.3308686      2.4739236      50218.233      36.893836      36.893836      36.893836    
   3570000   0.41911372    -7.9622408     -7.3335792      2.4505116      50218.233      36.893836      36.893836      36.893836    
   3580000   0.4200346     -7.9590359     -7.328993       2.4731174      50218.233      36.893836      36.893836      36.893836    
   3590000   0.4184506     -7.9614473     -7.3337803      2.4626967      50218.233      36.893836      36.893836      36.893836    
   3600000   0.41890068    -7.959319      -7.330977       2.4752086      50218.233      36.893836      36.893836      36.893836    
   3610000   0.41984603    -7.9542842     -7.3245241      2.514714       50218.233      36.893836      36.893836      36.893836    
   3620000   0.42208193    -7.9586399     -7.325526       2.4808292      50218.233      36.893836      36.893836      36.893836    
   3630000   0.4185139     -7.9579375     -7.3301756      2.4763772      50218.233      36.893836      36.893836      36.893836    
   3640000   0.42138901    -7.9568047     -7.3247302      2.4938607      50218.233      36.893836      36.893836      36.893836    
   3650000   0.42040749    -7.9557438     -7.3251415      2.4998953      50218.233      36.893836      36.893836      36.893836    
   3660000   0.41973894    -7.9565008     -7.3269014      2.4994368      50218.233      36.893836      36.893836      36.893836    
   3670000   0.42187431    -7.9576241     -7.3248216      2.4977596      50218.233      36.893836      36.893836      36.893836    
   3680000   0.42131263    -7.9543388     -7.3223789      2.5243448      50218.233      36.893836      36.893836      36.893836    
   3690000   0.42042976    -7.9526217     -7.321986       2.5200773      50218.233      36.893836      36.893836      36.893836    
   3700000   0.41953833    -7.9540953     -7.3247968      2.5146313      50218.233      36.893836      36.893836      36.893836    
   3710000   0.42080088    -7.9611754     -7.329983       2.4706181      50218.233      36.893836      36.893836      36.893836    
   3720000   0.41932663    -7.9574288     -7.3284478      2.496066       50218.233      36.893836      36.893836      36.893836    
   3730000   0.420761      -7.9561962     -7.3250637      2.5049424      50218.233      36.893836      36.893836      36.893836    
   3740000   0.41962238    -7.9618246     -7.3324         2.4546456      50218.233      36.893836      36.893836      36.893836    
   3750000   0.41899607    -7.9567062     -7.3282211      2.4838606      50218.233      36.893836      36.893836      36.893836    
   3760000   0.41829045    -7.955866      -7.3284392      2.502441       50218.233      36.893836      36.893836      36.893836    
   3770000   0.41913715    -7.9583309     -7.3296341      2.4737998      50218.233      36.893836      36.893836      36.893836    
   3780000   0.41906003    -7.9584133     -7.3298322      2.4850138      50218.233      36.893836      36.893836      36.893836    
   3790000   0.41977717    -7.956342      -7.3266852      2.4950602      50218.233      36.893836      36.893836      36.893836    
   3800000   0.4214193     -7.9551662     -7.3230462      2.500016       50218.233      36.893836      36.893836      36.893836    
   3810000   0.41963486    -7.9577435     -7.3283001      2.4882867      50218.233      36.893836      36.893836      36.893836    
   3820000   0.41746127    -7.955569      -7.329386       2.4903032      50218.233      36.893836      36.893836      36.893836    
   3830000   0.41829594    -7.9568351     -7.3294002      2.4832746      50218.233      36.893836      36.893836      36.893836    
   3840000   0.41920944    -7.9565538     -7.3277486      2.4955404      50218.233      36.893836      36.893836      36.893836    
   3850000   0.42119015    -7.9601358     -7.3283596      2.4684507      50218.233      36.893836      36.893836      36.893836    
   3860000   0.42085908    -7.9573792     -7.3260995      2.4842198      50218.233      36.893836      36.893836      36.893836    
   3870000   0.41855731    -7.9620136     -7.3341865      2.4598458      50218.233      36.893836      36.893836      36.893836    
   3880000   0.41831246    -7.9601779     -7.3327182      2.4562663      50218.233      36.893836      36.893836      36.893836    
   3890000   0.42179978    -7.960835      -7.3281443      2.4599184      50218.233      36.893836      36.893836      36.893836    
   3900000   0.41920031    -7.9597013     -7.3309097      2.4679594      50218.233      36.893836      36.893836      36.893836    
   3910000   0.42075022    -7.9578883     -7.326772       2.4813442      50218.233      36.893836      36.893836      36.893836    
   3920000   0.4202052     -7.9616251     -7.3313263      2.4593682      50218.233      36.893836      36.893836      36.893836    
   3930000   0.42093964    -7.9606466     -7.3292462      2.4677824      50218.233      36.893836      36.893836      36.893836    
   3940000   0.41685296    -7.9609811     -7.3357106      2.4580886      50218.233      36.893836      36.893836      36.893836    
   3950000   0.42050365    -7.9599224     -7.3291759      2.4743504      50218.233      36.893836      36.893836      36.893836    
   3960000   0.41909251    -7.9603177     -7.3316879      2.475176       50218.233      36.893836      36.893836      36.893836    
   3970000   0.42012358    -7.9613955     -7.3312191      2.4502426      50218.233      36.893836      36.893836      36.893836    
   3980000   0.42064318    -7.9573791     -7.3264233      2.4906808      50218.233      36.893836      36.893836      36.893836    
   3990000   0.420728      -7.9588164     -7.3277333      2.4832375      50218.233      36.893836      36.893836      36.893836    
   4000000   0.42056345    -7.958728      -7.3278918      2.4809678      50218.233      36.893836      36.893836      36.893836    
   4010000   0.41984104    -7.963129      -7.3333764      2.4519229      50218.233      36.893836      36.893836      36.893836    
   4020000   0.42136442    -7.9601357     -7.328098       2.4704054      50218.233      36.893836      36.893836      36.893836    
   4030000   0.41866582    -7.962135      -7.3341452      2.4454231      50218.233      36.893836      36.893836      36.893836    
   4040000   0.41814009    -7.9561865     -7.3289853      2.4823451      50218.233      36.893836      36.893836      36.893836    
   4050000   0.41770501    -7.9583179     -7.3317693      2.4804302      50218.233      36.893836      36.893836      36.893836    
   4060000   0.42200837    -7.959591      -7.3265874      2.4781011      50218.233      36.893836      36.893836      36.893836    
   4070000   0.41940105    -7.9592208     -7.3301282      2.4708272      50218.233      36.893836      36.893836      36.893836    
   4080000   0.41830773    -7.9599287     -7.3324761      2.4677251      50218.233      36.893836      36.893836      36.893836    
   4090000   0.42132549    -7.9599851     -7.3280058      2.4731197      50218.233      36.893836      36.893836      36.893836    
   4100000   0.42095738    -7.956362      -7.3249349      2.4983272      50218.233      36.893836      36.893836      36.893836    
   4110000   0.41980804    -7.9581632     -7.3284601      2.4764852      50218.233      36.893836      36.893836      36.893836    
   4120000   0.42146653    -7.9591018     -7.326911       2.4771592      50218.233      36.893836      36.893836      36.893836    
   4130000   0.42104528    -7.9592966     -7.3277377      2.4831357      50218.233      36.893836      36.893836      36.893836    
   4140000   0.41790343    -7.95693       -7.3300838      2.4853418      50218.233      36.893836      36.893836      36.893836    
   4150000   0.41922295    -7.9575493     -7.3287238      2.4893515      50218.233      36.893836      36.893836      36.893836    
   4160000   0.41825055    -7.9606472     -7.3332803      2.468314       50218.233      36.893836      36.893836      36.893836    
   4170000   0.42088536    -7.9615131     -7.330194       2.4655436      50218.233      36.893836      36.893836      36.893836    
   4180000   0.42002668    -7.9610999     -7.3310688      2.45377        50218.233      36.893836      36.893836      36.893836    
   4190000   0.41930363    -7.9587238     -7.3297773      2.4802856      50218.233      36.893836      36.893836      36.893836    
   4200000   0.41939451    -7.9592474     -7.3301646      2.482034       50218.233      36.893836      36.893836      36.893836    
   4210000   0.41882946    -7.9603892     -7.3321539      2.4621765      50218.233      36.893836      36.893836      36.893836    
   4220000   0.41729803    -7.9556039     -7.3296657      2.4984888      50218.233      36.893836      36.893836      36.893836    
   4230000   0.42036915    -7.9551316     -7.3245869      2.5084051      50218.233      36.893836      36.893836      36.893836    
   4240000   0.41928401    -7.9563743     -7.3274572      2.5043074      50218.233      36.893836      36.893836      36.893836    
   4250000   0.42123591    -7.9572941     -7.3254492      2.4933839      50218.233      36.893836      36.893836      36.893836    
   4260000   0.41891025    -7.9529563     -7.3245999      2.5212408      50218.233      36.893836      36.893836      36.893836    
   4270000   0.41957171    -7.9614331     -7.3320845      2.4534263      50218.233      36.893836      36.893836      36.893836    
   4280000   0.41868511    -7.9588432     -7.3308245      2.4673476      50218.233      36.893836      36.893836      36.893836    
   4290000   0.42028481    -7.9581099     -7.3276917      2.4800117      50218.233      36.893836      36.893836      36.893836    
   4300000   0.41888988    -7.9571311     -7.3288052      2.4846607      50218.233      36.893836      36.893836      36.893836    
   4310000   0.41797132    -7.9579349     -7.3309869      2.4845996      50218.233      36.893836      36.893836      36.893836    
   4320000   0.41900957    -7.9621976     -7.3336922      2.451881       50218.233      36.893836      36.893836      36.893836    
   4330000   0.41954601    -7.9590103     -7.3297002      2.4813466      50218.233      36.893836      36.893836      36.893836    
   4340000   0.41931302    -7.9594345     -7.3304739      2.4577996      50218.233      36.893836      36.893836      36.893836    
   4350000   0.42123599    -7.9601871     -7.3283421      2.4696082      50218.233      36.893836      36.893836      36.893836    
   4360000   0.41842466    -7.9560921     -7.3284641      2.4971801      50218.233      36.893836      36.893836      36.893836    
   4370000   0.41928213    -7.9593836     -7.3304694      2.4694792      50218.233      36.893836      36.893836      36.893836    
   4380000   0.42143938    -7.9607228     -7.3285727      2.4673048      50218.233      36.893836      36.893836      36.893836    
   4390000   0.41965868    -7.9593755     -7.3298964      2.4667619      50218.233      36.893836      36.893836      36.893836    
   4400000   0.41823461    -7.9602175     -7.3328745      2.4687544      50218.233      36.893836      36.893836      36.893836    
   4410000   0.42132165    -7.9622739     -7.3303004      2.4603214      50218.233      36.893836      36.893836      36.893836    
   4420000   0.42045563    -7.9612723     -7.3305979      2.4517119      50218.233      36.893836      36.893836      36.893836    
   4430000   0.4204901     -7.9587743     -7.3280481      2.4828489      50218.233      36.893836      36.893836      36.893836    
   4440000   0.41983014    -7.957058      -7.3273217      2.4911527      50218.233      36.893836      36.893836      36.893836    
   4450000   0.42076364    -7.9551258     -7.3239894      2.5134324      50218.233      36.893836      36.893836      36.893836    
   4460000   0.41914448    -7.9596136     -7.3309058      2.4673011      50218.233      36.893836      36.893836      36.893836    
   4470000   0.42069923    -7.9601346     -7.3290947      2.4617507      50218.233      36.893836      36.893836      36.893836    
   4480000   0.41942927    -7.959396      -7.330261       2.462241       50218.233      36.893836      36.893836      36.893836    
   4490000   0.4183145     -7.9604313     -7.3329685      2.4792909      50218.233      36.893836      36.893836      36.893836    
   4500000   0.41888925    -7.9581219     -7.3297969      2.475696       50218.233      36.893836      36.893836      36.893836    
   4510000   0.42018114    -7.9615756     -7.3313129      2.4632471      50218.233      36.893836      36.893836      36.893836    
   4520000   0.41998842    -7.9578985     -7.3279248      2.4902409      50218.233      36.893836      36.893836      36.893836    
   4530000   0.4191215     -7.9617994     -7.3331261      2.4560204      50218.233      36.893836      36.893836      36.893836    
   4540000   0.4219611     -7.9599726     -7.32704        2.4751269      50218.233      36.893836      36.893836      36.893836    
   4550000   0.42182673    -7.9571987     -7.3244676      2.4869736      50218.233      36.893836      36.893836      36.893836    
   4560000   0.42142185    -7.9577659     -7.3256421      2.4967634      50218.233      36.893836      36.893836      36.893836    
   4570000   0.42014893    -7.9605269     -7.3303124      2.4587805      50218.233      36.893836      36.893836      36.893836    
   4580000   0.42156693    -7.9587095     -7.3263681      2.4846072      50218.233      36.893836      36.893836      36.893836    
   4590000   0.42007836    -7.9582548     -7.3281462      2.4791109      50218.233      36.893836      36.893836      36.893836    
   4600000   0.41872297    -7.9577504     -7.3296749      2.4831242      50218.233      36.893836      36.893836      36.893836    
   4610000   0.41798088    -7.9627594     -7.335797       2.4486957      50218.233      36.893836      36.893836      36.893836    
   4620000   0.42102591    -7.9575683     -7.3260384      2.4936226      50218.233      36.893836      36.893836      36.893836    
   4630000   0.41914337    -7.9597188     -7.3310127      2.4755554      50218.233      36.893836      36.893836      36.893836    
   4640000   0.42115619    -7.958331      -7.3266057      2.4829095      50218.233      36.893836      36.893836      36.893836    
   4650000   0.42052476    -7.9586208     -7.3278426      2.4734641      50218.233      36.893836      36.893836      36.893836    
   4660000   0.42067118    -7.9619379     -7.3309401      2.4672526      50218.233      36.893836      36.893836      36.893836    
   4670000   0.42079044    -7.9575202     -7.3263435      2.4871087      50218.233      36.893836      36.893836      36.893836    
   4680000   0.42123135    -7.958301      -7.326463       2.4773873      50218.233      36.893836      36.893836      36.893836    
   4690000   0.41962362    -7.956917      -7.3274905      2.4935437      50218.233      36.893836      36.893836      36.893836    
   4700000   0.41998126    -7.9572694     -7.3273065      2.4809694      50218.233      36.893836      36.893836      36.893836    
   4710000   0.42019952    -7.958129      -7.3278387      2.4838649      50218.233      36.893836      36.893836      36.893836    
   4720000   0.42079772    -7.9572408     -7.3260532      2.4898408      50218.233      36.893836      36.893836      36.893836    
   4730000   0.42319716    -7.957913      -7.3231263      2.4873805      50218.233      36.893836      36.893836      36.893836    
   4740000   0.4184643     -7.9601404     -7.3324529      2.4598652      50218.233      36.893836      36.893836      36.893836    
   4750000   0.42014187    -7.9565301     -7.3263263      2.493451       50218.233      36.893836      36.893836      36.893836    
   4760000   0.41872845    -7.9575689     -7.3294851      2.4878572      50218.233      36.893836      36.893836      36.893836    
   4770000   0.41723292    -7.9615903     -7.3357498      2.4581088      50218.233      36.893836      36.893836      36.893836    
   4780000   0.4197587     -7.9555722     -7.3259431      2.503532       50218.233      36.893836      36.893836      36.893836    
   4790000   0.41947912    -7.9560891     -7.3268794      2.4992396      50218.233      36.893836      36.893836      36.893836    
   4800000   0.42305627    -7.9576761     -7.3231007      2.4951904      50218.233      36.893836      36.893836      36.893836    
   4810000   0.42057221    -7.962027      -7.3311777      2.4484605      50218.233      36.893836      36.893836      36.893836    
   4820000   0.42000835    -7.9595525     -7.3295489      2.4741387      50218.233      36.893836      36.893836      36.893836    
   4830000   0.41848693    -7.9571695     -7.329448       2.4962697      50218.233      36.893836      36.893836      36.893836    
   4840000   0.42204435    -7.956864      -7.3238065      2.4939835      50218.233      36.893836      36.893836      36.893836    
   4850000   0.42171945    -7.9591006     -7.3265305      2.4742014      50218.233      36.893836      36.893836      36.893836    
   4860000   0.4191603     -7.9584778     -7.3297463      2.4792635      50218.233      36.893836      36.893836      36.893836    
   4870000   0.42085113    -7.9602167     -7.328949       2.4651128      50218.233      36.893836      36.893836      36.893836    
   4880000   0.41922268    -7.9556796     -7.3268546      2.5018145      50218.233      36.893836      36.893836      36.893836    
   4890000   0.42059452    -7.9592154     -7.3283326      2.4737045      50218.233      36.893836      36.893836      36.893836    
   4900000   0.42009026    -7.9604616     -7.3303352      2.4653283      50218.233      36.893836      36.893836      36.893836    
   4910000   0.42084971    -7.9621398     -7.3308742      2.4604579      50218.233      36.893836      36.893836      36.893836    
   4920000   0.41822448    -7.9638489     -7.3365211      2.4409372      50218.233      36.893836      36.893836      36.893836    
   4930000   0.42068133    -7.9601652     -7.3291522      2.468667       50218.233      36.893836      36.893836      36.893836    
   4940000   0.4208661     -7.9563422     -7.325052       2.5002699      50218.233      36.893836      36.893836      36.893836    
   4950000   0.41965854    -7.9591625     -7.3296837      2.4780031      50218.233      36.893836      36.893836      36.893836    
   4960000   0.42156817    -7.9551815     -7.3228382      2.514397       50218.233      36.893836      36.893836      36.893836    
   4970000   0.42038574    -7.9616683     -7.3310986      2.4533001      50218.233      36.893836      36.893836      36.893836    
   4980000   0.41780197    -7.960083      -7.333389       2.464982       50218.233      36.893836      36.893836      36.893836    
   4990000   0.41987207    -7.9590142     -7.3292151      2.4795829      50218.233      36.893836      36.893836      36.893836    
   5000000   0.42030968    -7.9585261     -7.3280705      2.4815458      50218.233      36.893836      36.893836      36.893836    
   5010000   0.42063996    -7.9594967     -7.3285457      2.4771607      50218.233      36.893836      36.893836      36.893836    
   5020000   0.42052912    -7.9607711     -7.3299864      2.4584687      50218.233      36.893836      36.893836      36.893836    
   5030000   0.41993281    -7.9598314     -7.3299411      2.4727215      50218.233      36.893836      36.893836      36.893836    
   5040000   0.41807091    -7.9617678     -7.3346704      2.4569429      50218.233      36.893836      36.893836      36.893836    
   5050000   0.42075904    -7.9570248     -7.3258952      2.4987499      50218.233      36.893836      36.893836      36.893836    
   5060000   0.42296676    -7.9610194     -7.3265783      2.4683213      50218.233      36.893836      36.893836      36.893836    
   5070000   0.4194745     -7.9568286     -7.3276258      2.4865828      50218.233      36.893836      36.893836      36.893836    
   5080000   0.42066341    -7.9590491     -7.328063       2.4739286      50218.233      36.893836      36.893836      36.893836    
   5090000   0.42074722    -7.9633909     -7.3322791      2.4433912      50218.233      36.893836      36.893836      36.893836    
   5100000   0.41971749    -7.9581961     -7.3286289      2.4785225      50218.233      36.893836      36.893836      36.893836    
   5110000   0.42079258    -7.9576679     -7.326488       2.4879074      50218.233      36.893836      36.893836      36.893836    
   5120000   0.41867706    -7.9610761     -7.3330695      2.4676701      50218.233      36.893836      36.893836      36.893836    
   5130000   0.41941266    -7.9613758     -7.3322658      2.4612869      50218.233      36.893836      36.893836      36.893836    
   5140000   0.41869634    -7.9606227     -7.3325871      2.4602408      50218.233      36.893836      36.893836      36.893836    
   5150000   0.41940018    -7.9594146     -7.3303233      2.4660261      50218.233      36.893836      36.893836      36.893836    
   5160000   0.41833875    -7.9557521     -7.3282529      2.5030418      50218.233      36.893836      36.893836      36.893836    
   5170000   0.4215655     -7.958872      -7.3265328      2.4843934      50218.233      36.893836      36.893836      36.893836    
   5180000   0.42032249    -7.9576566     -7.3271818      2.4972044      50218.233      36.893836      36.893836      36.893836    
   5190000   0.41821338    -7.958836      -7.3315248      2.4722029      50218.233      36.893836      36.893836      36.893836    
   5200000   0.41999463    -7.9589595     -7.3289765      2.4753841      50218.233      36.893836      36.893836      36.893836    
   5210000   0.42206786    -7.9571309     -7.3240381      2.501588       50218.233      36.893836      36.893836      36.893836    
   5220000   0.42016793    -7.9599806     -7.3297377      2.4640526      50218.233      36.893836      36.893836      36.893836    
   5230000   0.4182275     -7.9581801     -7.3308478      2.4790284      50218.233      36.893836      36.893836      36.893836    
   5240000   0.42103929    -7.9567349     -7.325185       2.4871054      50218.233      36.893836      36.893836      36.893836    
   5250000   0.4192602     -7.957932      -7.3290506      2.4810815      50218.233      36.893836      36.893836      36.893836    
   5260000   0.41757253    -7.9563687     -7.3300189      2.4966695      50218.233      36.893836      36.893836      36.893836    
   5270000   0.41939292    -7.9620026     -7.3329222      2.4461129      50218.233      36.893836      36.893836      36.893836    
   5280000   0.42038486    -7.9588534     -7.3282851      2.4794509      50218.233      36.893836      36.893836      36.893836    
   5290000   0.42094977    -7.960869      -7.3294533      2.4620539      50218.233      36.893836      36.893836      36.893836    
   5300000   0.42147955    -7.9570706     -7.3248603      2.4849514      50218.233      36.893836      36.893836      36.893836    
   5310000   0.42243531    -7.9589984     -7.3253544      2.4802019      50218.233      36.893836      36.893836      36.893836    
   5320000   0.42085214    -7.9581698     -7.3269006      2.48024        50218.233      36.893836      36.893836      36.893836    
   5330000   0.41839098    -7.9598637     -7.3322861      2.4679239      50218.233      36.893836      36.893836      36.893836    
   5340000   0.42059504    -7.9623171     -7.3314335      2.449944       50218.233      36.893836      36.893836      36.893836    
   5350000   0.42048669    -7.9602222     -7.3295011      2.4758869      50218.233      36.893836      36.893836      36.893836    
   5360000   0.42091484    -7.9615035     -7.3301402      2.4600429      50218.233      36.893836      36.893836      36.893836    
   5370000   0.42118937    -7.9596143     -7.3278393      2.4741386      50218.233      36.893836      36.893836      36.893836    
   5380000   0.41948346    -7.9614563     -7.33224        2.4573489      50218.233      36.893836      36.893836      36.893836    
   5390000   0.42112041    -7.9610972     -7.3294256      2.4577078      50218.233      36.893836      36.893836      36.893836    
   5400000   0.42286084    -7.9562783     -7.321996       2.5013334      50218.233      36.893836      36.893836      36.893836    
   5410000   0.41932094    -7.9579487     -7.3289763      2.4783572      50218.233      36.893836      36.893836      36.893836    
   5420000   0.41891858    -7.9560005     -7.3276316      2.5007471      50218.233      36.893836      36.893836      36.893836    
   5430000   0.41870379    -7.960853      -7.3328062      2.4616561      50218.233      36.893836      36.893836      36.893836    
   5440000   0.41939438    -7.9590653     -7.3299826      2.4726804      50218.233      36.893836      36.893836      36.893836    
   5450000   0.42049524    -7.9596057     -7.3288718      2.4676403      50218.233      36.893836      36.893836      36.893836    
   5460000   0.4193237     -7.9565136     -7.327537       2.4932692      50218.233      36.893836      36.893836      36.893836    
   5470000   0.42180797    -7.9608391     -7.3281361      2.4702007      50218.233      36.893836      36.893836      36.893836    
   5480000   0.41993175    -7.9578399     -7.3279513      2.4899669      50218.233      36.893836      36.893836      36.893836    
   5490000   0.41921979    -7.9615026     -7.3326819      2.460153       50218.233      36.893836      36.893836      36.893836    
   5500000   0.42198855    -7.9615609     -7.328587       2.4599553      50218.233      36.893836      36.893836      36.893836    
   5510000   0.42029857    -7.9558461     -7.3254072      2.4959771      50218.233      36.893836      36.893836      36.893836    
   5520000   0.41915056    -7.9595201     -7.3308032      2.4781138      50218.233      36.893836      36.893836      36.893836    
   5530000   0.42038551    -7.9595636     -7.3289943      2.4725083      50218.233      36.893836      36.893836      36.893836    
   5540000   0.41929769    -7.9641285     -7.3351909      2.441838       50218.233      36.893836      36.893836      36.893836    
   5550000   0.42012337    -7.9609355     -7.3307594      2.4564395      50218.233      36.893836      36.893836      36.893836    
   5560000   0.42099021    -7.963479      -7.3320027      2.4393543      50218.233      36.893836      36.893836      36.893836    
   5570000   0.41914197    -7.9581004     -7.3293964      2.4835204      50218.233      36.893836      36.893836      36.893836    
   5580000   0.41974833    -7.9603231     -7.3307096      2.4677662      50218.233      36.893836      36.893836      36.893836    
   5590000   0.41984918    -7.9611079     -7.3313431      2.4572141      50218.233      36.893836      36.893836      36.893836    
   5600000   0.42038798    -7.9584721     -7.327899       2.4799267      50218.233      36.893836      36.893836      36.893836    
   5610000   0.41781056    -7.9595579     -7.3328509      2.4585522      50218.233      36.893836      36.893836      36.893836    
   5620000   0.42063509    -7.9579568     -7.3270131      2.4804907      50218.233      36.893836      36.893836      36.893836    
   5630000   0.42136178    -7.9570552     -7.3250215      2.486147       50218.233      36.893836      36.893836      36.893836    
   5640000   0.41850278    -7.9594976     -7.3317523      2.4642128      50218.233      36.893836      36.893836      36.893836    
   5650000   0.41854485    -7.9615854     -7.3337771      2.4509873      50218.233      36.893836      36.893836      36.893836    
   5660000   0.42073628    -7.9588836     -7.3277881      2.4765012      50218.233      36.893836      36.893836      36.893836    
   5670000   0.42108341    -7.9620998     -7.3304836      2.4454479      50218.233      36.893836      36.893836      36.893836    
   5680000   0.41983799    -7.9559587     -7.3262107      2.4920672      50218.233      36.893836      36.893836      36.893836    
   5690000   0.41862094    -7.956527      -7.3286046      2.4899839      50218.233      36.893836      36.893836      36.893836    
   5700000   0.41942436    -7.9594796     -7.330352       2.4632091      50218.233      36.893836      36.893836      36.893836    
   5710000   0.41845435    -7.9582934     -7.3306208      2.4706823      50218.233      36.893836      36.893836      36.893836    
   5720000   0.41866733    -7.9579612     -7.3299692      2.4827097      50218.233      36.893836      36.893836      36.893836    
   5730000   0.42133198    -7.9599999     -7.3280109      2.4701407      50218.233      36.893836      36.893836      36.893836    
   5740000   0.42246239    -7.9574568     -7.3237722      2.4889885      50218.233      36.893836      36.893836      36.893836    
   5750000   0.41911746    -7.9585281     -7.3298608      2.4764884      50218.233      36.893836      36.893836      36.893836    
   5760000   0.42069557    -7.9599806     -7.3289462      2.4741381      50218.233      36.893836      36.893836      36.893836    
   5770000   0.42055716    -7.9613725     -7.3305457      2.4577605      50218.233      36.893836      36.893836      36.893836    
   5780000   0.4199224     -7.9553749     -7.3255003      2.4972647      50218.233      36.893836      36.893836      36.893836    
   5790000   0.41682828    -7.9577096     -7.332476       2.4868171      50218.233      36.893836      36.893836      36.893836    
   5800000   0.41848334    -7.9587158     -7.3309997      2.4771609      50218.233      36.893836      36.893836      36.893836    
   5810000   0.41970301    -7.9612606     -7.3317151      2.4641046      50218.233      36.893836      36.893836      36.893836    
   5820000   0.4185027     -7.9567465     -7.3290013      2.492611       50218.233      36.893836      36.893836      36.893836    
   5830000   0.41908131    -7.958458      -7.329845       2.4822273      50218.233      36.893836      36.893836      36.893836    
   5840000   0.42008503    -7.9589716     -7.3288531      2.4748867      50218.233      36.893836      36.893836      36.893836    
   5850000   0.42246515    -7.9563869     -7.3226982      2.4908506      50218.233      36.893836      36.893836      36.893836    
   5860000   0.41635395    -7.9577803     -7.3332583      2.474972       50218.233      36.893836      36.893836      36.893836    
   5870000   0.42155262    -7.9605184     -7.3281984      2.4659044      50218.233      36.893836      36.893836      36.893836    
   5880000   0.42099268    -7.9551613     -7.3236812      2.511385       50218.233      36.893836      36.893836      36.893836    
   5890000   0.41910082    -7.9587869     -7.3301446      2.4874714      50218.233      36.893836      36.893836      36.893836    
   5900000   0.41903704    -7.9560372     -7.3274906      2.4865456      50218.233      36.893836      36.893836      36.893836    
   5910000   0.42242415    -7.9571914     -7.3235642      2.4882714      50218.233      36.893836      36.893836      36.893836    
   5920000   0.41852539    -7.9599502     -7.3321711      2.468903       50218.233      36.893836      36.893836      36.893836    
   5930000   0.42035861    -7.9597338     -7.3292049      2.4708358      50218.233      36.893836      36.893836      36.893836    
   5940000   0.41938697    -7.9608119     -7.3317404      2.4555735      50218.233      36.893836      36.893836      36.893836    
   5950000   0.42031304    -7.9620572     -7.3315966      2.4521168      50218.233      36.893836      36.893836      36.893836    
   5960000   0.41866462    -7.957866      -7.329878       2.4766798      50218.233      36.893836      36.893836      36.893836    
   5970000   0.4234321     -7.963581      -7.3284419      2.4514128      50218.233      36.893836      36.893836      36.893836    
   5980000   0.42006748    -7.960447      -7.3303548      2.4684164      50218.233      36.893836      36.893836      36.893836    
   5990000   0.418394      -7.9625903     -7.3350082      2.44337        50218.233      36.893836      36.893836      36.893836    
   6000000   0.41980102    -7.9612662     -7.3315736      2.4633411      50218.233      36.893836      36.893836      36.893836    
   6010000   0.41887043    -7.9588057     -7.330509       2.4680063      50218.233      36.893836      36.893836      36.893836    
   6020000   0.42149365    -7.9598878     -7.3276563      2.4700968      50218.233      36.893836      36.893836      36.893836    
   6030000   0.42038814    -7.9625265     -7.3319532      2.4403754      50218.233      36.893836      36.893836      36.893836    
   6040000   0.42187933    -7.9575201     -7.3247102      2.4903297      50218.233      36.893836      36.893836      36.893836    
   6050000   0.41779576    -7.9584478     -7.3317631      2.4824928      50218.233      36.893836      36.893836      36.893836    
   6060000   0.42133361    -7.9609062     -7.3289148      2.4600367      50218.233      36.893836      36.893836      36.893836    
   6070000   0.42013237    -7.9614059     -7.3312163      2.457149       50218.233      36.893836      36.893836      36.893836    
   6080000   0.41857753    -7.9594006     -7.3315433      2.4678695      50218.233      36.893836      36.893836      36.893836    
   6090000   0.41889532    -7.9558691     -7.3275351      2.4876874      50218.233      36.893836      36.893836      36.893836    
   6100000   0.41938033    -7.9588541     -7.3297926      2.472358       50218.233      36.893836      36.893836      36.893836    
   6110000   0.42099052    -7.9606839     -7.3292071      2.466991       50218.233      36.893836      36.893836      36.893836    
   6120000   0.41951048    -7.9581661     -7.3289093      2.4790831      50218.233      36.893836      36.893836      36.893836    
   6130000   0.42100192    -7.9556095     -7.3241156      2.510578       50218.233      36.893836      36.893836      36.893836    
   6140000   0.42085493    -7.9570931     -7.3258197      2.4912532      50218.233      36.893836      36.893836      36.893836    
   6150000   0.41929337    -7.960777      -7.3318459      2.4593136      50218.233      36.893836      36.893836      36.893836    
   6160000   0.41909137    -7.9556214     -7.3269933      2.5004413      50218.233      36.893836      36.893836      36.893836    
   6170000   0.42148737    -7.9604904     -7.3282683      2.4660868      50218.233      36.893836      36.893836      36.893836    
   6180000   0.42046877    -7.960479      -7.3297848      2.4672896      50218.233      36.893836      36.893836      36.893836    
   6190000   0.41973584    -7.9569367     -7.3273419      2.503679       50218.233      36.893836      36.893836      36.893836    
   6200000   0.41975877    -7.9592561     -7.3296269      2.4637886      50218.233      36.893836      36.893836      36.893836    
   6210000   0.42162655    -7.9593465     -7.3269156      2.4875704      50218.233      36.893836      36.893836      36.893836    
   6220000   0.42019677    -7.9593591     -7.3290729      2.4764081      50218.233      36.893836      36.893836      36.893836    
   6230000   0.41722695    -7.9602318     -7.3344003      2.4702915      50218.233      36.893836      36.893836      36.893836    
   6240000   0.42070405    -7.9612205     -7.3301734      2.4571137      50218.233      36.893836      36.893836      36.893836    
   6250000   0.42189915    -7.9558625     -7.3230228      2.5056638      50218.233      36.893836      36.893836      36.893836    
   6260000   0.41849701    -7.9575576     -7.329821       2.4757907      50218.233      36.893836      36.893836      36.893836    
   6270000   0.41945454    -7.9593717     -7.3301988      2.4697537      50218.233      36.893836      36.893836      36.893836    
   6280000   0.42207453    -7.9606469     -7.3275441      2.4620509      50218.233      36.893836      36.893836      36.893836    
   6290000   0.42067984    -7.9580946     -7.3270838      2.4738378      50218.233      36.893836      36.893836      36.893836    
   6300000   0.42110299    -7.9585435     -7.326898       2.4726048      50218.233      36.893836      36.893836      36.893836    
   6310000   0.41956149    -7.9582987     -7.3289654      2.4819271      50218.233      36.893836      36.893836      36.893836    
   6320000   0.41995196    -7.9619759     -7.3320569      2.4544436      50218.233      36.893836      36.893836      36.893836    
   6330000   0.41813167    -7.9580752     -7.3308866      2.4778469      50218.233      36.893836      36.893836      36.893836    
   6340000   0.42222216    -7.9588715     -7.3255472      2.4830959      50218.233      36.893836      36.893836      36.893836    
   6350000   0.42111924    -7.9594445     -7.3277747      2.4674242      50218.233      36.893836      36.893836      36.893836    
   6360000   0.41916396    -7.9584789     -7.3297419      2.4801978      50218.233      36.893836      36.893836      36.893836    
   6370000   0.41929528    -7.9561945     -7.3272605      2.5003307      50218.233      36.893836      36.893836      36.893836    
   6380000   0.4188265     -7.9621315     -7.3339007      2.4507063      50218.233      36.893836      36.893836      36.893836    
   6390000   0.42040416    -7.961699      -7.3311017      2.4566212      50218.233      36.893836      36.893836      36.893836    
   6400000   0.42125592    -7.9604373     -7.3285624      2.4659357      50218.233      36.893836      36.893836      36.893836    
   6410000   0.42110821    -7.9603993     -7.328746       2.4754682      50218.233      36.893836      36.893836      36.893836    
   6420000   0.42017417    -7.9615891     -7.3313369      2.4595479      50218.233      36.893836      36.893836      36.893836    
   6430000   0.4192827     -7.9577069     -7.3287918      2.4922053      50218.233      36.893836      36.893836      36.893836    
   6440000   0.42080411    -7.9587113     -7.3275141      2.4696042      50218.233      36.893836      36.893836      36.893836    
   6450000   0.41974509    -7.9653504     -7.3357418      2.4230309      50218.233      36.893836      36.893836      36.893836    
   6460000   0.42135649    -7.9597283     -7.3277026      2.4734919      50218.233      36.893836      36.893836      36.893836    
   6470000   0.42438434    -7.9593552     -7.3227877      2.4815791      50218.233      36.893836      36.893836      36.893836    
   6480000   0.41896688    -7.9602875     -7.3318461      2.4686006      50218.233      36.893836      36.893836      36.893836    
   6490000   0.42023407    -7.9590709     -7.3287287      2.4841898      50218.233      36.893836      36.893836      36.893836    
   6500000   0.42024491    -7.96269       -7.3323316      2.4372805      50218.233      36.893836      36.893836      36.893836    
   6510000   0.41814171    -7.9638355     -7.3366319      2.4435729      50218.233      36.893836      36.893836      36.893836    
   6520000   0.42056252    -7.9569672     -7.3261323      2.4954661      50218.233      36.893836      36.893836      36.893836    
   6530000   0.4185893     -7.9582931     -7.3304181      2.4799635      50218.233      36.893836      36.893836      36.893836    
   6540000   0.42014135    -7.9582495     -7.3280465      2.4778171      50218.233      36.893836      36.893836      36.893836    
   6550000   0.41789864    -7.9635456     -7.3367066      2.4391942      50218.233      36.893836      36.893836      36.893836    
   6560000   0.41862366    -7.9602864     -7.3323598      2.4720849      50218.233      36.893836      36.893836      36.893836    
   6570000   0.41944314    -7.9619215     -7.3327657      2.4507756      50218.233      36.893836      36.893836      36.893836    
   6580000   0.41850687    -7.9595599     -7.3318085      2.4708814      50218.233      36.893836      36.893836      36.893836    
   6590000   0.41890689    -7.9631175     -7.3347661      2.4409302      50218.233      36.893836      36.893836      36.893836    
   6600000   0.41831511    -7.9591951     -7.3317313      2.4676783      50218.233      36.893836      36.893836      36.893836    
   6610000   0.42084758    -7.9590807     -7.3278183      2.4652543      50218.233      36.893836      36.893836      36.893836    
   6620000   0.41934176    -7.9571813     -7.3281776      2.4995729      50218.233      36.893836      36.893836      36.893836    
   6630000   0.42085169    -7.9622895     -7.331021       2.4537981      50218.233      36.893836      36.893836      36.893836    
   6640000   0.42012701    -7.9565545     -7.3263729      2.4969878      50218.233      36.893836      36.893836      36.893836    
   6650000   0.42048856    -7.9584724     -7.3277485      2.4813632      50218.233      36.893836      36.893836      36.893836    
   6660000   0.4189887     -7.9590038     -7.3305297      2.4751855      50218.233      36.893836      36.893836      36.893836    
   6670000   0.41982218    -7.9578442     -7.3281199      2.4866492      50218.233      36.893836      36.893836      36.893836    
   6680000   0.41920073    -7.9565908     -7.3277986      2.5002662      50218.233      36.893836      36.893836      36.893836    
   6690000   0.42188287    -7.9571898     -7.3243745      2.487967       50218.233      36.893836      36.893836      36.893836    
   6700000   0.4196924     -7.9588954     -7.3293657      2.4750323      50218.233      36.893836      36.893836      36.893836    
   6710000   0.41985833    -7.958883      -7.3291045      2.4814291      50218.233      36.893836      36.893836      36.893836    
   6720000   0.42079512    -7.9625997     -7.331416       2.4436822      50218.233      36.893836      36.893836      36.893836    
   6730000   0.42095408    -7.9593908     -7.3279687      2.467581       50218.233      36.893836      36.893836      36.893836    
   6740000   0.41800362    -7.9621313     -7.3351348      2.4487356      50218.233      36.893836      36.893836      36.893836    
   6750000   0.41999118    -7.9584034     -7.3284256      2.4790689      50218.233      36.893836      36.893836      36.893836    
   6760000   0.42006356    -7.9591766     -7.3290903      2.4826389      50218.233      36.893836      36.893836      36.893836    
   6770000   0.42204873    -7.9579433     -7.3248792      2.4906714      50218.233      36.893836      36.893836      36.893836    
   6780000   0.42087285    -7.9561327     -7.3248324      2.4921041      50218.233      36.893836      36.893836      36.893836    
   6790000   0.41964734    -7.9585659     -7.3291038      2.4776135      50218.233      36.893836      36.893836      36.893836    
   6800000   0.41795226    -7.9558587     -7.3289392      2.4921888      50218.233      36.893836      36.893836      36.893836    
   6810000   0.42206721    -7.9592351     -7.3261433      2.4826135      50218.233      36.893836      36.893836      36.893836    
   6820000   0.41889292    -7.9556451     -7.3273147      2.5050877      50218.233      36.893836      36.893836      36.893836    
   6830000   0.4205324     -7.958157      -7.3273674      2.4839712      50218.233      36.893836      36.893836      36.893836    
   6840000   0.41872063    -7.9570584     -7.3289864      2.4841003      50218.233      36.893836      36.893836      36.893836    
   6850000   0.42092505    -7.9567243     -7.3253457      2.4940755      50218.233      36.893836      36.893836      36.893836    
   6860000   0.41950387    -7.9606623     -7.3314154      2.4652788      50218.233      36.893836      36.893836      36.893836    
   6870000   0.41925457    -7.9616016     -7.3327287      2.4603542      50218.233      36.893836      36.893836      36.893836    
   6880000   0.41980718    -7.9593485     -7.3296467      2.4757047      50218.233      36.893836      36.893836      36.893836    
   6890000   0.42031869    -7.9611331     -7.3306641      2.4633922      50218.233      36.893836      36.893836      36.893836    
   6900000   0.42289556    -7.9547363     -7.320402       2.5196229      50218.233      36.893836      36.893836      36.893836    
   6910000   0.41862392    -7.9614281     -7.3335011      2.4620459      50218.233      36.893836      36.893836      36.893836    
   6920000   0.42144699    -7.9607314     -7.3285699      2.4662733      50218.233      36.893836      36.893836      36.893836    
   6930000   0.41841113    -7.9613479     -7.3337401      2.4493285      50218.233      36.893836      36.893836      36.893836    
   6940000   0.41919186    -7.960016      -7.3312371      2.4717916      50218.233      36.893836      36.893836      36.893836    
   6950000   0.41869877    -7.9571784     -7.3291392      2.4878377      50218.233      36.893836      36.893836      36.893836    
   6960000   0.42112152    -7.9621538     -7.3304805      2.4414806      50218.233      36.893836      36.893836      36.893836    
   6970000   0.41824778    -7.9638958     -7.336533       2.4497282      50218.233      36.893836      36.893836      36.893836    
   6980000   0.41976631    -7.9629796     -7.3333391      2.4452669      50218.233      36.893836      36.893836      36.893836    
   6990000   0.42051698    -7.962238      -7.3314715      2.4552522      50218.233      36.893836      36.893836      36.893836    
   7000000   0.42222989    -7.9615605     -7.3282247      2.4568617      50218.233      36.893836      36.893836      36.893836    
   7010000   0.42101765    -7.9588233     -7.3273059      2.4778429      50218.233      36.893836      36.893836      36.893836    
   7020000   0.41994511    -7.9604004     -7.3304917      2.4560982      50218.233      36.893836      36.893836      36.893836    
   7030000   0.42106864    -7.9627505     -7.3311565      2.450598       50218.233      36.893836      36.893836      36.893836    
   7040000   0.42093162    -7.9602916     -7.3289031      2.4688668      50218.233      36.893836      36.893836      36.893836    
   7050000   0.4190134     -7.9576641     -7.329153       2.4764412      50218.233      36.893836      36.893836      36.893836    
   7060000   0.41987537    -7.9574713     -7.3276672      2.4933668      50218.233      36.893836      36.893836      36.893836    
   7070000   0.42191073    -7.9633506     -7.3304935      2.4405487      50218.233      36.893836      36.893836      36.893836    
   7080000   0.4186085     -7.9597336     -7.3318298      2.4659668      50218.233      36.893836      36.893836      36.893836    
   7090000   0.42126915    -7.9596922     -7.3277975      2.4708917      50218.233      36.893836      36.893836      36.893836    
   7100000   0.42082931    -7.9585114     -7.3272764      2.4748553      50218.233      36.893836      36.893836      36.893836    
   7110000   0.41978332    -7.9579699     -7.3283039      2.4793155      50218.233      36.893836      36.893836      36.893836    
   7120000   0.42148366    -7.9568947     -7.3246782      2.4931443      50218.233      36.893836      36.893836      36.893836    
   7130000   0.42004473    -7.9554169     -7.3253588      2.5085705      50218.233      36.893836      36.893836      36.893836    
   7140000   0.42104587    -7.9627071     -7.3311473      2.4502652      50218.233      36.893836      36.893836      36.893836    
   7150000   0.4215646     -7.9586732     -7.3263353      2.4793761      50218.233      36.893836      36.893836      36.893836    
   7160000   0.41962393    -7.9606389     -7.3312119      2.4655134      50218.233      36.893836      36.893836      36.893836    
   7170000   0.41909544    -7.9586948     -7.3300605      2.4769223      50218.233      36.893836      36.893836      36.893836    
   7180000   0.4190786     -7.9609834     -7.3323745      2.4558029      50218.233      36.893836      36.893836      36.893836    
   7190000   0.42039016    -7.956005      -7.3254287      2.5075666      50218.233      36.893836      36.893836      36.893836    
   7200000   0.42069963    -7.9568883     -7.3258478      2.4903041      50218.233      36.893836      36.893836      36.893836    
   7210000   0.41868232    -7.9581517     -7.3301372      2.4862865      50218.233      36.893836      36.893836      36.893836    
   7220000   0.41981468    -7.9582624     -7.3285493      2.473888       50218.233      36.893836      36.893836      36.893836    
   7230000   0.42142635    -7.959153      -7.3270225      2.4757347      50218.233      36.893836      36.893836      36.893836    
   7240000   0.41928132    -7.9601825     -7.3312695      2.4726364      50218.233      36.893836      36.893836      36.893836    
   7250000   0.41943295    -7.9593205     -7.33018        2.4782711      50218.233      36.893836      36.893836      36.893836    
   7260000   0.42074007    -7.9584892     -7.3273881      2.4870137      50218.233      36.893836      36.893836      36.893836    
   7270000   0.42288354    -7.9562121     -7.3218958      2.5118581      50218.233      36.893836      36.893836      36.893836    
   7280000   0.42053804    -7.9605165     -7.3297184      2.467958       50218.233      36.893836      36.893836      36.893836    
   7290000   0.41937573    -7.9595082     -7.3304536      2.4669828      50218.233      36.893836      36.893836      36.893836    
   7300000   0.422551      -7.9631673     -7.3293499      2.4485674      50218.233      36.893836      36.893836      36.893836    
   7310000   0.41879474    -7.9586886     -7.3305054      2.4866191      50218.233      36.893836      36.893836      36.893836    
   7320000   0.42001068    -7.9555764     -7.3255693      2.5003543      50218.233      36.893836      36.893836      36.893836    
   7330000   0.42197787    -7.9586911     -7.3257333      2.4749091      50218.233      36.893836      36.893836      36.893836    
   7340000   0.41899965    -7.9601961     -7.3317055      2.4520499      50218.233      36.893836      36.893836      36.893836    
   7350000   0.41751824    -7.9604409     -7.3341724      2.4630032      50218.233      36.893836      36.893836      36.893836    
   7360000   0.41965766    -7.9622589     -7.3327813      2.4568192      50218.233      36.893836      36.893836      36.893836    
   7370000   0.41923981    -7.9592715     -7.3304207      2.4731356      50218.233      36.893836      36.893836      36.893836    
   7380000   0.42016422    -7.9570724     -7.326835       2.4885615      50218.233      36.893836      36.893836      36.893836    
   7390000   0.41903729    -7.9599653     -7.3314183      2.4680808      50218.233      36.893836      36.893836      36.893836    
   7400000   0.4191586     -7.9599355     -7.3312065      2.4711598      50218.233      36.893836      36.893836      36.893836    
   7410000   0.41844601    -7.9618952     -7.3342351      2.4518544      50218.233      36.893836      36.893836      36.893836    
   7420000   0.42012022    -7.9582331     -7.3280617      2.4824679      50218.233      36.893836      36.893836      36.893836    
   7430000   0.41802256    -7.9612273     -7.3342024      2.47117        50218.233      36.893836      36.893836      36.893836    
   7440000   0.42012943    -7.9561801     -7.3259949      2.497961       50218.233      36.893836      36.893836      36.893836    
   7450000   0.41982027    -7.9598019     -7.3300805      2.4655231      50218.233      36.893836      36.893836      36.893836    
   7460000   0.42058568    -7.9620413     -7.3311717      2.4513882      50218.233      36.893836      36.893836      36.893836    
   7470000   0.41869709    -7.9595051     -7.3314684      2.4718051      50218.233      36.893836      36.893836      36.893836    
   7480000   0.41998152    -7.9573742     -7.3274109      2.4854907      50218.233      36.893836      36.893836      36.893836    
   7490000   0.42138253    -7.9602904     -7.3282256      2.47356        50218.233      36.893836      36.893836      36.893836    
   7500000   0.41833753    -7.9635564     -7.3360591      2.4478642      50218.233      36.893836      36.893836      36.893836    
   7510000   0.41919913    -7.9645254     -7.3357357      2.4342625      50218.233      36.893836      36.893836      36.893836    
   7520000   0.41721008    -7.9595586     -7.3337524      2.4771015      50218.233      36.893836      36.893836      36.893836    
   7530000   0.421893      -7.9581523     -7.3253218      2.4897558      50218.233      36.893836      36.893836      36.893836    
   7540000   0.42257971    -7.9588496     -7.3249891      2.4873583      50218.233      36.893836      36.893836      36.893836    
   7550000   0.42056069    -7.9599396     -7.3291075      2.4643566      50218.233      36.893836      36.893836      36.893836    
   7560000   0.41942638    -7.9583036     -7.329173       2.477289       50218.233      36.893836      36.893836      36.893836    
   7570000   0.42108858    -7.9579304     -7.3263065      2.48664        50218.233      36.893836      36.893836      36.893836    
   7580000   0.42080074    -7.9597442     -7.328552       2.4706863      50218.233      36.893836      36.893836      36.893836    
   7590000   0.42202527    -7.9621972     -7.3291683      2.4495081      50218.233      36.893836      36.893836      36.893836    
   7600000   0.41805403    -7.9583997     -7.3313276      2.4858014      50218.233      36.893836      36.893836      36.893836    
   7610000   0.41966776    -7.9589458     -7.3294531      2.475853       50218.233      36.893836      36.893836      36.893836    
   7620000   0.41915662    -7.9588174     -7.3300915      2.4776322      50218.233      36.893836      36.893836      36.893836    
   7630000   0.41925915    -7.961509      -7.3326293      2.4477252      50218.233      36.893836      36.893836      36.893836    
   7640000   0.42012627    -7.9576595     -7.327479       2.4839115      50218.233      36.893836      36.893836      36.893836    
   7650000   0.42039043    -7.9533618     -7.3227851      2.5166374      50218.233      36.893836      36.893836      36.893836    
   7660000   0.42096022    -7.9615715     -7.3301402      2.4633334      50218.233      36.893836      36.893836      36.893836    
   7670000   0.42059931    -7.9562167     -7.3253268      2.5005161      50218.233      36.893836      36.893836      36.893836    
   7680000   0.41835811    -7.9577361     -7.3302079      2.4795557      50218.233      36.893836      36.893836      36.893836    
   7690000   0.42032442    -7.9579779     -7.3275003      2.4910996      50218.233      36.893836      36.893836      36.893836    
   7700000   0.41902795    -7.9632593     -7.3347263      2.4441526      50218.233      36.893836      36.893836      36.893836    
   7710000   0.41871215    -7.9559755     -7.3279162      2.4958858      50218.233      36.893836      36.893836      36.893836    
   7720000   0.41868945    -7.9594048     -7.3313795      2.4759277      50218.233      36.893836      36.893836      36.893836    
   7730000   0.41953395    -7.9600661     -7.3307741      2.4690394      50218.233      36.893836      36.893836      36.893836    
   7740000   0.41963588    -7.9583881     -7.3289433      2.4917546      50218.233      36.893836      36.893836      36.893836    
   7750000   0.4177188     -7.9564746     -7.3299054      2.4965082      50218.233      36.893836      36.893836      36.893836    
   7760000   0.41964727    -7.9579356     -7.3284737      2.4911448      50218.233      36.893836      36.893836      36.893836    
   7770000   0.41907948    -7.9593262     -7.330716       2.4811594      50218.233      36.893836      36.893836      36.893836    
   7780000   0.41864268    -7.9586501     -7.330695       2.4771275      50218.233      36.893836      36.893836      36.893836    
   7790000   0.41976104    -7.9590006     -7.329368       2.4786034      50218.233      36.893836      36.893836      36.893836    
   7800000   0.42382972    -7.9552648     -7.3195293      2.511152       50218.233      36.893836      36.893836      36.893836    
   7810000   0.42146344    -7.9589033     -7.3267172      2.4804607      50218.233      36.893836      36.893836      36.893836    
   7820000   0.41957911    -7.957336      -7.3279763      2.4998049      50218.233      36.893836      36.893836      36.893836    
   7830000   0.41797501    -7.9578031     -7.3308495      2.4894525      50218.233      36.893836      36.893836      36.893836    
   7840000   0.42005425    -7.9583997     -7.3283273      2.4855924      50218.233      36.893836      36.893836      36.893836    
   7850000   0.42354075    -7.9585384     -7.3232363      2.481226       50218.233      36.893836      36.893836      36.893836    
   7860000   0.42000807    -7.9565646     -7.3265614      2.4962675      50218.233      36.893836      36.893836      36.893836    
   7870000   0.42184659    -7.9607409     -7.3279801      2.4616615      50218.233      36.893836      36.893836      36.893836    
   7880000   0.42131394    -7.9558489     -7.323887       2.5089579      50218.233      36.893836      36.893836      36.893836    
   7890000   0.41929193    -7.9584484     -7.3295195      2.4791314      50218.233      36.893836      36.893836      36.893836    
   7900000   0.41971127    -7.9626591     -7.3331011      2.450588       50218.233      36.893836      36.893836      36.893836    
   7910000   0.41869355    -7.9590711     -7.3310397      2.4730073      50218.233      36.893836      36.893836      36.893836    
   7920000   0.42004026    -7.9615597     -7.3315083      2.466046       50218.233      36.893836      36.893836      36.893836    
   7930000   0.41912259    -7.9591323     -7.3304574      2.4681993      50218.233      36.893836      36.893836      36.893836    
   7940000   0.42066706    -7.9598233     -7.3288317      2.471493       50218.233      36.893836      36.893836      36.893836    
   7950000   0.42116252    -7.9600822     -7.3283474      2.4735994      50218.233      36.893836      36.893836      36.893836    
   7960000   0.41855009    -7.9613179     -7.3335017      2.4601497      50218.233      36.893836      36.893836      36.893836    
   7970000   0.41839458    -7.9562016     -7.3286186      2.5006893      50218.233      36.893836      36.893836      36.893836    
   7980000   0.42021706    -7.9616898     -7.3313732      2.4527498      50218.233      36.893836      36.893836      36.893836    
   7990000   0.42113426    -7.9575284     -7.325836       2.4931719      50218.233      36.893836      36.893836      36.893836    
   8000000   0.42168867    -7.9624273     -7.3299033      2.455859       50218.233      36.893836      36.893836      36.893836    
   8010000   0.42049891    -7.960191      -7.3294516      2.476605       50218.233      36.893836      36.893836      36.893836    
   8020000   0.41977517    -7.9598104     -7.3301566      2.4627504      50218.233      36.893836      36.893836      36.893836    
   8030000   0.4190456     -7.9593721     -7.3308126      2.4770718      50218.233      36.893836      36.893836      36.893836    
   8040000   0.41938131    -7.958051      -7.328988       2.4883385      50218.233      36.893836      36.893836      36.893836    
   8050000   0.4214225     -7.9606007     -7.3284759      2.4711837      50218.233      36.893836      36.893836      36.893836    
   8060000   0.42026529    -7.9616138     -7.3312248      2.4598642      50218.233      36.893836      36.893836      36.893836    
   8070000   0.41796219    -7.9581719     -7.3312375      2.481039       50218.233      36.893836      36.893836      36.893836    
   8080000   0.41947283    -7.9598566     -7.3306563      2.4707368      50218.233      36.893836      36.893836      36.893836    
   8090000   0.42200899    -7.9576726     -7.3246681      2.4907034      50218.233      36.893836      36.893836      36.893836    
   8100000   0.42178774    -7.9573408     -7.3246682      2.4918375      50218.233      36.893836      36.893836      36.893836    
   8110000   0.42010707    -7.9606789     -7.3305273      2.4660305      50218.233      36.893836      36.893836      36.893836    
   8120000   0.41933744    -7.9577232     -7.328726       2.4848486      50218.233      36.893836      36.893836      36.893836    
   8130000   0.41912886    -7.9574112     -7.3287268      2.494555       50218.233      36.893836      36.893836      36.893836    
   8140000   0.41807504    -7.9593196     -7.332216       2.47607        50218.233      36.893836      36.893836      36.893836    
   8150000   0.42043298    -7.9569065     -7.326266       2.4971105      50218.233      36.893836      36.893836      36.893836    
   8160000   0.41726688    -7.9596499     -7.3337585      2.4801731      50218.233      36.893836      36.893836      36.893836    
   8170000   0.42057797    -7.9552889     -7.3244309      2.5023827      50218.233      36.893836      36.893836      36.893836    
   8180000   0.42011567    -7.9584774     -7.3283129      2.4719812      50218.233      36.893836      36.893836      36.893836    
   8190000   0.42265706    -7.9562887     -7.3223121      2.506209       50218.233      36.893836      36.893836      36.893836    
   8200000   0.42037754    -7.9590939     -7.3285366      2.475193       50218.233      36.893836      36.893836      36.893836    
   8210000   0.41754188    -7.958974      -7.3326701      2.4726859      50218.233      36.893836      36.893836      36.893836    
   8220000   0.41977017    -7.9583447     -7.3286984      2.4742014      50218.233      36.893836      36.893836      36.893836    
   8230000   0.41895564    -7.9589535     -7.330529       2.4724454      50218.233      36.893836      36.893836      36.893836    
   8240000   0.41790721    -7.9583604     -7.3315085      2.4863359      50218.233      36.893836      36.893836      36.893836    
   8250000   0.42110467    -7.9597359     -7.3280879      2.471956       50218.233      36.893836      36.893836      36.893836    
   8260000   0.42057352    -7.9607505     -7.3298992      2.4599545      50218.233      36.893836      36.893836      36.893836    
   8270000   0.42047833    -7.9560214     -7.3253129      2.5010554      50218.233      36.893836      36.893836      36.893836    
   8280000   0.41784405    -7.9573768     -7.3306197      2.4805054      50218.233      36.893836      36.893836      36.893836    
   8290000   0.4191574     -7.9580842     -7.329357       2.48743        50218.233      36.893836      36.893836      36.893836    
   8300000   0.42052628    -7.9591582     -7.3283778      2.4783891      50218.233      36.893836      36.893836      36.893836    
   8310000   0.42063521    -7.9583695     -7.3274257      2.4675321      50218.233      36.893836      36.893836      36.893836    
   8320000   0.41880507    -7.9601112     -7.3319125      2.4604628      50218.233      36.893836      36.893836      36.893836    
   8330000   0.42013527    -7.9583754     -7.3281814      2.4813102      50218.233      36.893836      36.893836      36.893836    
   8340000   0.41914495    -7.9581565     -7.329448       2.4820432      50218.233      36.893836      36.893836      36.893836    
   8350000   0.41819577    -7.9563064     -7.3290217      2.4956086      50218.233      36.893836      36.893836      36.893836    
   8360000   0.41940735    -7.9571183     -7.3280163      2.4798604      50218.233      36.893836      36.893836      36.893836    
   8370000   0.41940037    -7.9598963     -7.3308047      2.4637117      50218.233      36.893836      36.893836      36.893836    
   8380000   0.41941361    -7.9581697     -7.3290583      2.4845126      50218.233      36.893836      36.893836      36.893836    
   8390000   0.41934251    -7.9604523     -7.3314475      2.4675838      50218.233      36.893836      36.893836      36.893836    
   8400000   0.42077367    -7.9588716     -7.3277201      2.4801727      50218.233      36.893836      36.893836      36.893836    
   8410000   0.41907781    -7.9610991     -7.3324913      2.4517718      50218.233      36.893836      36.893836      36.893836    
   8420000   0.41815557    -7.9612999     -7.3340755      2.4569737      50218.233      36.893836      36.893836      36.893836    
   8430000   0.41891546    -7.9611084     -7.3327441      2.4596198      50218.233      36.893836      36.893836      36.893836    
   8440000   0.41832113    -7.9583032     -7.3308305      2.4776386      50218.233      36.893836      36.893836      36.893836    
   8450000   0.41933635    -7.9600309     -7.3310353      2.4694122      50218.233      36.893836      36.893836      36.893836    
   8460000   0.42230853    -7.9587567     -7.3253029      2.4875563      50218.233      36.893836      36.893836      36.893836    
   8470000   0.41922626    -7.9561391     -7.3273086      2.5011951      50218.233      36.893836      36.893836      36.893836    
   8480000   0.41987365    -7.9594091     -7.3296076      2.4690483      50218.233      36.893836      36.893836      36.893836    
   8490000   0.41949878    -7.9578453     -7.3286061      2.4838642      50218.233      36.893836      36.893836      36.893836    
   8500000   0.42099548    -7.9622726     -7.3307883      2.4537523      50218.233      36.893836      36.893836      36.893836    
   8510000   0.4181915     -7.9605564     -7.3332781      2.4651086      50218.233      36.893836      36.893836      36.893836    
   8520000   0.42161548    -7.9579299     -7.3255157      2.4837359      50218.233      36.893836      36.893836      36.893836    
   8530000   0.41972806    -7.9643331     -7.3347499      2.4367198      50218.233      36.893836      36.893836      36.893836    
   8540000   0.42005787    -7.9601539     -7.3300761      2.467164       50218.233      36.893836      36.893836      36.893836    
   8550000   0.42049634    -7.9576384     -7.3269029      2.4849179      50218.233      36.893836      36.893836      36.893836    
   8560000   0.41850251    -7.9586914     -7.3309466      2.4759197      50218.233      36.893836      36.893836      36.893836    
   8570000   0.42136995    -7.9594486     -7.3274026      2.4768131      50218.233      36.893836      36.893836      36.893836    
   8580000   0.42119985    -7.958097      -7.3263062      2.4885918      50218.233      36.893836      36.893836      36.893836    
   8590000   0.41957042    -7.9575143     -7.3281677      2.4890617      50218.233      36.893836      36.893836      36.893836    
   8600000   0.41896315    -7.9573958     -7.3289601      2.4979667      50218.233      36.893836      36.893836      36.893836    
   8610000   0.42128195    -7.9601924     -7.3282785      2.4705331      50218.233      36.893836      36.893836      36.893836    
   8620000   0.42133266    -7.958641      -7.326651       2.4910856      50218.233      36.893836      36.893836      36.893836    
   8630000   0.41986467    -7.9607407     -7.3309527      2.4707294      50218.233      36.893836      36.893836      36.893836    
   8640000   0.41934097    -7.960936      -7.3319335      2.4705249      50218.233      36.893836      36.893836      36.893836    
   8650000   0.41989578    -7.9574572     -7.3276225      2.4918005      50218.233      36.893836      36.893836      36.893836    
   8660000   0.41953157    -7.9542682     -7.3249798      2.5151957      50218.233      36.893836      36.893836      36.893836    
   8670000   0.41899881    -7.956021      -7.3275317      2.5033396      50218.233      36.893836      36.893836      36.893836    
   8680000   0.41900475    -7.9558634     -7.3273653      2.5117039      50218.233      36.893836      36.893836      36.893836    
   8690000   0.42052525    -7.9574477     -7.3266688      2.4896496      50218.233      36.893836      36.893836      36.893836    
   8700000   0.41891314    -7.9548225     -7.3264617      2.5041058      50218.233      36.893836      36.893836      36.893836    
   8710000   0.42113224    -7.9532617     -7.3215723      2.5356353      50218.233      36.893836      36.893836      36.893836    
   8720000   0.41997374    -7.9563705     -7.3264188      2.4970759      50218.233      36.893836      36.893836      36.893836    
   8730000   0.41996089    -7.9598571     -7.3299247      2.4717152      50218.233      36.893836      36.893836      36.893836    
   8740000   0.42148709    -7.9537586     -7.321537       2.520747       50218.233      36.893836      36.893836      36.893836    
   8750000   0.4178835     -7.9546182     -7.3278018      2.5129264      50218.233      36.893836      36.893836      36.893836    
   8760000   0.41833159    -7.9581138     -7.3306253      2.4871926      50218.233      36.893836      36.893836      36.893836    
   8770000   0.41953481    -7.9588499     -7.3295567      2.4790092      50218.233      36.893836      36.893836      36.893836    
   8780000   0.42138835    -7.9568298     -7.3247563      2.4952901      50218.233      36.893836      36.893836      36.893836    
   8790000   0.42104554    -7.9570115     -7.3254522      2.4962739      50218.233      36.893836      36.893836      36.893836    
   8800000   0.42036259    -7.9587849     -7.32825        2.4839318      50218.233      36.893836      36.893836      36.893836    
   8810000   0.41796753    -7.9585826     -7.3316402      2.4711381      50218.233      36.893836      36.893836      36.893836    
   8820000   0.41855109    -7.9560759     -7.3282582      2.4947068      50218.233      36.893836      36.893836      36.893836    
   8830000   0.41890246    -7.960631      -7.3322863      2.4698656      50218.233      36.893836      36.893836      36.893836    
   8840000   0.41969812    -7.9604369     -7.3308986      2.4628358      50218.233      36.893836      36.893836      36.893836    
   8850000   0.42118045    -7.9579699     -7.3262082      2.4940545      50218.233      36.893836      36.893836      36.893836    
   8860000   0.41796521    -7.9565964     -7.3296575      2.4923593      50218.233      36.893836      36.893836      36.893836    
   8870000   0.41880923    -7.95951       -7.3313051      2.4699504      50218.233      36.893836      36.893836      36.893836    
   8880000   0.42103227    -7.9573596     -7.3258202      2.4892026      50218.233      36.893836      36.893836      36.893836    
   8890000   0.41896565    -7.9562439     -7.3278043      2.5014755      50218.233      36.893836      36.893836      36.893836    
   8900000   0.42077977    -7.9613064     -7.3301457      2.4699362      50218.233      36.893836      36.893836      36.893836    
   8910000   0.42045303    -7.9587388     -7.3280682      2.4823012      50218.233      36.893836      36.893836      36.893836    
   8920000   0.41989789    -7.9602666     -7.3304288      2.4617367      50218.233      36.893836      36.893836      36.893836    
   8930000   0.41922905    -7.959342      -7.3305074      2.4704598      50218.233      36.893836      36.893836      36.893836    
   8940000   0.42142835    -7.9578792     -7.3257456      2.4977486      50218.233      36.893836      36.893836      36.893836    
   8950000   0.4187237     -7.9591263     -7.3310497      2.4777478      50218.233      36.893836      36.893836      36.893836    
   8960000   0.42169413    -7.9565344     -7.3240022      2.4922092      50218.233      36.893836      36.893836      36.893836    
   8970000   0.41745682    -7.9588274     -7.3326511      2.4773808      50218.233      36.893836      36.893836      36.893836    
   8980000   0.41935503    -7.9610013     -7.3319777      2.4625821      50218.233      36.893836      36.893836      36.893836    
   8990000   0.41831894    -7.960843      -7.3333735      2.4597351      50218.233      36.893836      36.893836      36.893836    
   9000000   0.41975077    -7.9573704     -7.3277532      2.4864786      50218.233      36.893836      36.893836      36.893836    
   9010000   0.41872612    -7.958964      -7.3308838      2.4760188      50218.233      36.893836      36.893836      36.893836    
   9020000   0.4175751     -7.9622815     -7.3359278      2.4567367      50218.233      36.893836      36.893836      36.893836    
   9030000   0.4214279     -7.955287      -7.3231541      2.5074004      50218.233      36.893836      36.893836      36.893836    
   9040000   0.42002702    -7.9633479     -7.3333163      2.4476443      50218.233      36.893836      36.893836      36.893836    
   9050000   0.41961871    -7.9578343     -7.3284152      2.4849779      50218.233      36.893836      36.893836      36.893836    
   9060000   0.42002045    -7.9580182     -7.3279964      2.4864808      50218.233      36.893836      36.893836      36.893836    
   9070000   0.41776582    -7.9573015     -7.3306617      2.4927915      50218.233      36.893836      36.893836      36.893836    
   9080000   0.42037586    -7.9613737     -7.3308189      2.4674049      50218.233      36.893836      36.893836      36.893836    
   9090000   0.41911158    -7.9619306     -7.3332722      2.4526511      50218.233      36.893836      36.893836      36.893836    
   9100000   0.41682615    -7.9583418     -7.3331115      2.4825421      50218.233      36.893836      36.893836      36.893836    
   9110000   0.42022205    -7.9583038     -7.3279797      2.4944678      50218.233      36.893836      36.893836      36.893836    
   9120000   0.41866957    -7.9578065     -7.3298111      2.4881162      50218.233      36.893836      36.893836      36.893836    
   9130000   0.42163871    -7.9557156     -7.3232665      2.5061387      50218.233      36.893836      36.893836      36.893836    
   9140000   0.42116999    -7.9561254     -7.3243795      2.5053406      50218.233      36.893836      36.893836      36.893836    
   9150000   0.41970553    -7.959787      -7.3302377      2.4751337      50218.233      36.893836      36.893836      36.893836    
   9160000   0.4196433     -7.9559018     -7.3264458      2.5039608      50218.233      36.893836      36.893836      36.893836    
   9170000   0.42152758    -7.9642751     -7.3319927      2.4492607      50218.233      36.893836      36.893836      36.893836    
   9180000   0.42101341    -7.9565767     -7.3250656      2.5056976      50218.233      36.893836      36.893836      36.893836    
   9190000   0.42124794    -7.9572844     -7.3254215      2.4878473      50218.233      36.893836      36.893836      36.893836    
   9200000   0.42075999    -7.9589596     -7.3278286      2.4758211      50218.233      36.893836      36.893836      36.893836    
   9210000   0.42085262    -7.9584073     -7.3271373      2.4923345      50218.233      36.893836      36.893836      36.893836    
   9220000   0.41859089    -7.9565332     -7.3286558      2.5051603      50218.233      36.893836      36.893836      36.893836    
   9230000   0.42201666    -7.9567854     -7.3237694      2.4974325      50218.233      36.893836      36.893836      36.893836    
   9240000   0.41970339    -7.9586238     -7.3290776      2.4844151      50218.233      36.893836      36.893836      36.893836    
   9250000   0.41863206    -7.9570438     -7.3291046      2.4902521      50218.233      36.893836      36.893836      36.893836    
   9260000   0.41983436    -7.9558652     -7.3261226      2.4982122      50218.233      36.893836      36.893836      36.893836    
   9270000   0.41985801    -7.9614175     -7.3316394      2.4664329      50218.233      36.893836      36.893836      36.893836    
   9280000   0.41846807    -7.9598298     -7.3321366      2.4767799      50218.233      36.893836      36.893836      36.893836    
   9290000   0.41912422    -7.9584863     -7.3298089      2.4907052      50218.233      36.893836      36.893836      36.893836    
   9300000   0.42176378    -7.9591302     -7.3264935      2.473085       50218.233      36.893836      36.893836      36.893836    
   9310000   0.4192912     -7.9603995     -7.3314716      2.4698938      50218.233      36.893836      36.893836      36.893836    
   9320000   0.42090297    -7.9603812     -7.3290357      2.4724065      50218.233      36.893836      36.893836      36.893836    
   9330000   0.41918163    -7.9617084     -7.3329449      2.4652996      50218.233      36.893836      36.893836      36.893836    
   9340000   0.41857387    -7.9592699     -7.331418       2.4777911      50218.233      36.893836      36.893836      36.893836    
   9350000   0.41634597    -7.9588354     -7.3343254      2.4781342      50218.233      36.893836      36.893836      36.893836    
   9360000   0.42123289    -7.9571528     -7.3253125      2.4930763      50218.233      36.893836      36.893836      36.893836    
   9370000   0.42138444    -7.9636285     -7.3315608      2.4421991      50218.233      36.893836      36.893836      36.893836    
   9380000   0.42107662    -7.956903      -7.325297       2.5065806      50218.233      36.893836      36.893836      36.893836    
   9390000   0.41999179    -7.9610445     -7.3310658      2.4679795      50218.233      36.893836      36.893836      36.893836    
   9400000   0.42091607    -7.9598232     -7.3284581      2.4807779      50218.233      36.893836      36.893836      36.893836    
   9410000   0.41996269    -7.9598645     -7.3299294      2.4749042      50218.233      36.893836      36.893836      36.893836    
   9420000   0.41921081    -7.9608243     -7.332017       2.4737153      50218.233      36.893836      36.893836      36.893836    
   9430000   0.42094245    -7.9593386     -7.3279339      2.4843588      50218.233      36.893836      36.893836      36.893836    
   9440000   0.42139774    -7.9593515     -7.3272639      2.4774367      50218.233      36.893836      36.893836      36.893836    
   9450000   0.41896502    -7.9601037     -7.3316651      2.4768294      50218.233      36.893836      36.893836      36.893836    
   9460000   0.42025841    -7.9568872     -7.3265086      2.4989351      50218.233      36.893836      36.893836      36.893836    
   9470000   0.41991137    -7.961108      -7.3312499      2.4728097      50218.233      36.893836      36.893836      36.893836    
   9480000   0.41932984    -7.9591057     -7.3301199      2.4788063      50218.233      36.893836      36.893836      36.893836    
   9490000   0.42088642    -7.957184      -7.3258633      2.4988         50218.233      36.893836      36.893836      36.893836    
   9500000   0.41961024    -7.956983      -7.3275766      2.4934238      50218.233      36.893836      36.893836      36.893836    
   9510000   0.41870825    -7.9588988     -7.3308454      2.4827272      50218.233      36.893836      36.893836      36.893836    
   9520000   0.42013352    -7.9600268     -7.3298355      2.474898       50218.233      36.893836      36.893836      36.893836    
   9530000   0.41836418    -7.9598362     -7.3322988      2.474111       50218.233      36.893836      36.893836      36.893836    
   9540000   0.41956886    -7.9616612     -7.3323169      2.4594496      50218.233      36.893836      36.893836      36.893836    
   9550000   0.42127241    -7.957141      -7.3252413      2.5003999      50218.233      36.893836      36.893836      36.893836    
   9560000   0.42091558    -7.9564727     -7.3251083      2.4983067      50218.233      36.893836      36.893836      36.893836    
   9570000   0.42071957    -7.9597269     -7.3286565      2.474842       50218.233      36.893836      36.893836      36.893836    
   9580000   0.41919728    -7.9567768     -7.3279898      2.4968223      50218.233      36.893836      36.893836      36.893836    
   9590000   0.42160056    -7.9621746     -7.3297828      2.4486241      50218.233      36.893836      36.893836      36.893836    
   9600000   0.42098117    -7.9597025     -7.3282397      2.4765136      50218.233      36.893836      36.893836      36.893836    
   9610000   0.41952329    -7.9592384     -7.3299624      2.4744436      50218.233      36.893836      36.893836      36.893836    
   9620000   0.42019515    -7.9597755     -7.3294918      2.4833969      50218.233      36.893836      36.893836      36.893836    
   9630000   0.42222485    -7.9589809     -7.3256526      2.4772125      50218.233      36.893836      36.893836      36.893836    
   9640000   0.42226825    -7.9583115     -7.3249181      2.4927523      50218.233      36.893836      36.893836      36.893836    
   9650000   0.41881559    -7.9554319     -7.3272174      2.5088371      50218.233      36.893836      36.893836      36.893836    
   9660000   0.42072216    -7.9603008     -7.3292265      2.4703226      50218.233      36.893836      36.893836      36.893836    
   9670000   0.41676558    -7.9567827     -7.3316433      2.487682       50218.233      36.893836      36.893836      36.893836    
   9680000   0.42041757    -7.9604759     -7.3298585      2.471541       50218.233      36.893836      36.893836      36.893836    
   9690000   0.41933969    -7.9578065     -7.3288059      2.4830283      50218.233      36.893836      36.893836      36.893836    
   9700000   0.42194153    -7.9597832     -7.3268799      2.4785519      50218.233      36.893836      36.893836      36.893836    
   9710000   0.41747286    -7.9593537     -7.3331533      2.467624       50218.233      36.893836      36.893836      36.893836    
   9720000   0.41986735    -7.9570926     -7.3273006      2.5010216      50218.233      36.893836      36.893836      36.893836    
   9730000   0.41844845    -7.9583792     -7.3307154      2.4883272      50218.233      36.893836      36.893836      36.893836    
   9740000   0.41892614    -7.9605716     -7.3321913      2.4574751      50218.233      36.893836      36.893836      36.893836    
   9750000   0.41960242    -7.9579186     -7.3285239      2.481058       50218.233      36.893836      36.893836      36.893836    
   9760000   0.41948911    -7.9557353     -7.3265106      2.4947207      50218.233      36.893836      36.893836      36.893836    
   9770000   0.42133226    -7.9569715     -7.3249821      2.49957        50218.233      36.893836      36.893836      36.893836    
   9780000   0.41942606    -7.9576109     -7.3284808      2.4874519      50218.233      36.893836      36.893836      36.893836    
   9790000   0.42068338    -7.957897      -7.3268809      2.4850636      50218.233      36.893836      36.893836      36.893836    
   9800000   0.42213152    -7.9605807     -7.3273925      2.4672972      50218.233      36.893836      36.893836      36.893836    
   9810000   0.4201347     -7.9579571     -7.327764       2.4891033      50218.233      36.893836      36.893836      36.893836    
   9820000   0.4204275     -7.9565091     -7.3258769      2.4983684      50218.233      36.893836      36.893836      36.893836    
   9830000   0.42078256    -7.9561532     -7.3249883      2.5033188      50218.233      36.893836      36.893836      36.893836    
   9840000   0.41980232    -7.9590895     -7.329395       2.4819879      50218.233      36.893836      36.893836      36.893836    
   9850000   0.41979493    -7.959712      -7.3300286      2.4683065      50218.233      36.893836      36.893836      36.893836    
   9860000   0.4195223     -7.9580953     -7.3288208      2.4858843      50218.233      36.893836      36.893836      36.893836    
   9870000   0.41840931    -7.9623343     -7.3347293      2.455942       50218.233      36.893836      36.893836      36.893836    
   9880000   0.41865272    -7.9587225     -7.3307524      2.4887789      50218.233      36.893836      36.893836      36.893836    
   9890000   0.420924      -7.956776      -7.325399       2.5002748      50218.233      36.893836      36.893836      36.893836    
   9900000   0.41932917    -7.9616881     -7.3327033      2.4528735      50218.233      36.893836      36.893836      36.893836    
   9910000   0.41937275    -7.9584727     -7.3294225      2.4801749      50218.233      36.893836      36.893836      36.893836    
   9920000   0.41820992    -7.9587266     -7.3314207      2.4759395      50218.233      36.893836      36.893836      36.893836    
   9930000   0.41825906    -7.9575915     -7.3302118      2.4923728      50218.233      36.893836      36.893836      36.893836    
   9940000   0.4198926     -7.958958      -7.329128       2.4722636      50218.233      36.893836      36.893836      36.893836    
   9950000   0.41974137    -7.9564885     -7.3268854      2.4925867      50218.233      36.893836      36.893836      36.893836    
   9960000   0.42128561    -7.9606472     -7.3287277      2.4577808      50218.233      36.893836      36.893836      36.893836    
   9970000   0.42135244    -7.9564357     -7.324416       2.494308       50218.233      36.893836      36.893836      36.893836    
   9980000   0.4220896     -7.9586001     -7.3254747      2.4840274      50218.233      36.893836      36.893836      36.893836    
   9990000   0.42192812    -7.959923      -7.3270398      2.4741953      50218.233      36.893836      36.893836      36.893836    
  10000000   0.42014275    -7.9586655     -7.3284604      2.4789935      50218.233      36.893836      36.893836      36.893836    
Loop time of 15717.4 on 5 procs for 10000000 steps with 70304 atoms

Performance: 549709.822 tau/day, 636.238 timesteps/s, 44.730 Matom-step/s
94.2% CPU use with 5 MPI tasks x 1 OpenMP threads

MPI task timing breakdown:
Section |  min time  |  avg time  |  max time  |%varavg| %total
---------------------------------------------------------------
Pair    | 5324.2     | 6033.4     | 6847.2     | 630.2 | 38.39
Neigh   | 49.832     | 52.353     | 58.265     |  42.8 |  0.33
Comm    | 2276.6     | 2329.2     | 2357.7     |  61.3 | 14.82
Output  | 0.17947    | 0.18552    | 0.19599    |   1.3 |  0.00
Modify  | 5658.4     | 6518.5     | 7266.6     | 642.2 | 41.47
Other   |            | 783.7      |            |       |  4.99

Nlocal:        14060.8 ave       14086 max       14045 min
Histogram: 2 1 0 0 0 0 0 1 0 1
Nghost:        18732.2 ave       18762 max       18695 min
Histogram: 1 0 0 0 1 0 1 1 0 1
Neighs:              0 ave           0 max           0 min
Histogram: 5 0 0 0 0 0 0 0 0 0

Total # of neighbors = 0
Ave neighs/atom = 0
Neighbor list builds = 1969099
Dangerous builds = 0
clear
OMP_NUM_THREADS environment is not set. Defaulting to 1 thread. (src/comm.cpp:98)
  using 1 OpenMP thread(s) per MPI task
package gpu 0
jump dms400.lmp

variable T equal 400
# T = 1000* (temp in LJ unit)
variable f equal 10000
log log.${T}
log log.400
