variable TLJ equal (${T}/1000)
variable TLJ equal (455/1000)
variable NCyle equal 8
variable iStep equal (${f})
variable iStep equal (10000)
variable dumpStep equal (${f}*100)
variable dumpStep equal (10000*100)
variable runStep equal (${f}*100*${NCyle})
variable runStep equal (10000*100*${NCyle})
variable runStep equal (10000*100*8)

units       lj
atom_style  atomic
dimension 3
boundary     p p p
pair_style  lj/cut 2.5
read_data  ../data/T${T}.dat
read_data  ../data/T455.dat
Reading data file ...
  orthogonal box = (0.97250269 0.97250269 0.97250269) to (37.866338 37.866338 37.866338)
  1 by 1 by 5 MPI processor grid
  reading atoms ...
  70304 atoms
  reading velocities ...
  70304 velocities
  read_data CPU = 0.209 seconds
change_box all triclinic
Changing box ...
  triclinic box = (0.97250269 0.97250269 0.97250269) to (37.866338 37.866338 37.866338) with tilt (0 0 0)
mass 1 1
mass 2 1
pair_modify shift yes
pair_coeff  1 1 1 1
pair_coeff  1 2 1.5 0.8
pair_coeff  2 2 0.5 0.88


timestep 0.01
thermo ${iStep}
thermo 10000
reset_timestep 0
thermo_style custom step temp pe etotal press vol lx ly lz
fix             1 all nvt temp ${TLJ}  ${TLJ}  0.1
fix             1 all nvt temp 0.455  ${TLJ}  0.1
fix             1 all nvt temp 0.455  0.455  0.1
thermo_modify flush yes

fix dsf all deform 1 xy  wiggle 0.5  ${f}   units box
fix dsf all deform 1 xy  wiggle 0.5  10000   units box
fix ps1 all ave/time 1 1 ${iStep} c_thermo_press[1] c_thermo_press[2]  c_thermo_press[3] c_thermo_press[4]  c_thermo_press[5] c_thermo_press[6]  file  stress.${T}
fix ps1 all ave/time 1 1 10000 c_thermo_press[1] c_thermo_press[2]  c_thermo_press[3] c_thermo_press[4]  c_thermo_press[5] c_thermo_press[6]  file  stress.${T}
fix ps1 all ave/time 1 1 10000 c_thermo_press[1] c_thermo_press[2]  c_thermo_press[3] c_thermo_press[4]  c_thermo_press[5] c_thermo_press[6]  file  stress.455
dump            1 all custom ${dumpStep} dump.${T} id type x y z
dump            1 all custom 1000000 dump.${T} id type x y z
dump            1 all custom 1000000 dump.455 id type x y z
dump_modify 1 sort id
fix nodrift all momentum 1  linear 1 1 1
fix com_seed all recenter INIT INIT INIT shift all
run ${runStep}
run 8000000
Generated 0 of 1 mixed pair_coeff terms from geometric mixing rule
Per MPI rank memory allocation (min/avg/max) = 8.916 | 8.919 | 8.923 Mbytes
   Step          Temp          PotEng         TotEng         Press          Volume           Lx             Ly             Lz      
         0   0.45657194    -7.9082893     -7.2234412      2.9061351      50218.233      36.893836      36.893836      36.893836    
     10000   0.45569421    -7.9026769     -7.2191453      2.9511907      50218.233      36.893836      36.893836      36.893836    
     20000   0.45694801    -7.8972478     -7.2118356      2.9936555      50218.233      36.893836      36.893836      36.893836    
     30000   0.45498583    -7.8987457     -7.2162767      2.9768592      50218.233      36.893836      36.893836      36.893836    
     40000   0.45447473    -7.900843      -7.2191406      2.9616031      50218.233      36.893836      36.893836      36.893836    
     50000   0.4569319     -7.9044998     -7.2191117      2.9411018      50218.233      36.893836      36.893836      36.893836    
     60000   0.45796173    -7.8964069     -7.2094741      3.0045465      50218.233      36.893836      36.893836      36.893836    
     70000   0.45610302    -7.9008987     -7.216754       2.9656784      50218.233      36.893836      36.893836      36.893836    
     80000   0.45594699    -7.8976749     -7.2137641      2.9830397      50218.233      36.893836      36.893836      36.893836    
     90000   0.45710342    -7.9001438     -7.2144985      2.9679948      50218.233      36.893836      36.893836      36.893836    
    100000   0.45481204    -7.9018565     -7.2196482      2.9519454      50218.233      36.893836      36.893836      36.893836    
    110000   0.45564765    -7.8974222     -7.2139604      2.9913982      50218.233      36.893836      36.893836      36.893836    
    120000   0.45534498    -7.9004133     -7.2174056      2.9616035      50218.233      36.893836      36.893836      36.893836    
    130000   0.45525089    -7.8954212     -7.2125545      3.007888       50218.233      36.893836      36.893836      36.893836    
    140000   0.45440255    -7.8998948     -7.2183007      2.9647723      50218.233      36.893836      36.893836      36.893836    
    150000   0.45744415    -7.9021843     -7.2160278      2.9478943      50218.233      36.893836      36.893836      36.893836    
    160000   0.45570382    -7.9016771     -7.2181311      2.9635753      50218.233      36.893836      36.893836      36.893836    
    170000   0.45487385    -7.8966025     -7.2143014      2.9966562      50218.233      36.893836      36.893836      36.893836    
    180000   0.45600004    -7.8979512     -7.2139609      2.9948076      50218.233      36.893836      36.893836      36.893836    
    190000   0.45583674    -7.8973843     -7.2136389      3.0072561      50218.233      36.893836      36.893836      36.893836    
    200000   0.4587057     -7.8972482     -7.2091995      2.9887431      50218.233      36.893836      36.893836      36.893836    
    210000   0.45503891    -7.8967108     -7.2141621      2.9912492      50218.233      36.893836      36.893836      36.893836    
    220000   0.45302581    -7.9018164     -7.2222873      2.9447837      50218.233      36.893836      36.893836      36.893836    
    230000   0.45504178    -7.8997542     -7.2172013      2.9748997      50218.233      36.893836      36.893836      36.893836    
    240000   0.45791239    -7.8974546     -7.2105958      2.9896657      50218.233      36.893836      36.893836      36.893836    
    250000   0.45579371    -7.897756      -7.2140751      2.9907674      50218.233      36.893836      36.893836      36.893836    
    260000   0.4543654     -7.8974043     -7.2158659      2.9924928      50218.233      36.893836      36.893836      36.893836    
    270000   0.45289179    -7.9017265     -7.2223985      2.9581816      50218.233      36.893836      36.893836      36.893836    
    280000   0.45317212    -7.8993145     -7.219566       2.9828998      50218.233      36.893836      36.893836      36.893836    
    290000   0.45559968    -7.9004332     -7.2170434      2.9723219      50218.233      36.893836      36.893836      36.893836    
    300000   0.45393053    -7.9024072     -7.2215211      2.9526172      50218.233      36.893836      36.893836      36.893836    
    310000   0.45424214    -7.897764      -7.2164105      2.9979045      50218.233      36.893836      36.893836      36.893836    
    320000   0.45523755    -7.898541      -7.2156944      2.980194       50218.233      36.893836      36.893836      36.893836    
    330000   0.45282268    -7.9031254     -7.2239011      2.9464833      50218.233      36.893836      36.893836      36.893836    
    340000   0.45686698    -7.8975702     -7.2122794      2.990525       50218.233      36.893836      36.893836      36.893836    
    350000   0.45604951    -7.901432      -7.2173675      2.9491517      50218.233      36.893836      36.893836      36.893836    
    360000   0.45597743    -7.8951598     -7.2112034      2.9984195      50218.233      36.893836      36.893836      36.893836    
    370000   0.4549526     -7.9006467     -7.2182275      2.9582492      50218.233      36.893836      36.893836      36.893836    
    380000   0.45406133    -7.8994488     -7.2183665      2.960503       50218.233      36.893836      36.893836      36.893836    
    390000   0.45705184    -7.8995878     -7.2140198      2.9789804      50218.233      36.893836      36.893836      36.893836    
    400000   0.45652511    -7.9008205     -7.2160426      2.9600186      50218.233      36.893836      36.893836      36.893836    
    410000   0.45341265    -7.8973607     -7.2172514      2.9848496      50218.233      36.893836      36.893836      36.893836    
    420000   0.45467984    -7.9029961     -7.2209861      2.9488336      50218.233      36.893836      36.893836      36.893836    
    430000   0.45307548    -7.899994      -7.2203905      2.9710176      50218.233      36.893836      36.893836      36.893836    
    440000   0.45696272    -7.8979441     -7.2125098      2.9809522      50218.233      36.893836      36.893836      36.893836    
    450000   0.45428302    -7.8994959     -7.2180811      2.967549       50218.233      36.893836      36.893836      36.893836    
    460000   0.45471883    -7.8971893     -7.2151208      2.9893215      50218.233      36.893836      36.893836      36.893836    
    470000   0.45509225    -7.9045187     -7.22189        2.9313624      50218.233      36.893836      36.893836      36.893836    
    480000   0.45378083    -7.9003622     -7.2197007      2.9629653      50218.233      36.893836      36.893836      36.893836    
    490000   0.45308552    -7.901781      -7.2221624      2.9544408      50218.233      36.893836      36.893836      36.893836    
    500000   0.45467398    -7.8997518     -7.2177505      2.9731652      50218.233      36.893836      36.893836      36.893836    
    510000   0.45443118    -7.9023684     -7.2207313      2.952585       50218.233      36.893836      36.893836      36.893836    
    520000   0.45557918    -7.8973285     -7.2139695      2.9883511      50218.233      36.893836      36.893836      36.893836    
    530000   0.45436709    -7.9020987     -7.2205577      2.9479722      50218.233      36.893836      36.893836      36.893836    
    540000   0.45620461    -7.9049059     -7.2206087      2.9319398      50218.233      36.893836      36.893836      36.893836    
    550000   0.45331166    -7.9025258     -7.222568       2.948284       50218.233      36.893836      36.893836      36.893836    
    560000   0.45677617    -7.9003496     -7.215195       2.9639535      50218.233      36.893836      36.893836      36.893836    
    570000   0.45627286    -7.900165      -7.2157654      2.9767568      50218.233      36.893836      36.893836      36.893836    
    580000   0.45416977    -7.8993936     -7.2181487      2.9646285      50218.233      36.893836      36.893836      36.893836    
    590000   0.45461352    -7.902129      -7.2202184      2.9435985      50218.233      36.893836      36.893836      36.893836    
    600000   0.45643856    -7.9001357     -7.2154876      2.96424        50218.233      36.893836      36.893836      36.893836    
    610000   0.45512564    -7.9008568     -7.2181781      2.9514212      50218.233      36.893836      36.893836      36.893836    
    620000   0.45461365    -7.8999396     -7.2180289      2.9672029      50218.233      36.893836      36.893836      36.893836    
    630000   0.45390162    -7.8992498     -7.2184071      2.9636672      50218.233      36.893836      36.893836      36.893836    
    640000   0.45395296    -7.9010281     -7.2201083      2.9609356      50218.233      36.893836      36.893836      36.893836    
    650000   0.45683094    -7.8978566     -7.21262        2.9900865      50218.233      36.893836      36.893836      36.893836    
    660000   0.45729627    -7.900514      -7.2145793      2.9596025      50218.233      36.893836      36.893836      36.893836    
    670000   0.45629561    -7.901015      -7.2165813      2.9533751      50218.233      36.893836      36.893836      36.893836    
    680000   0.45379236    -7.8996333     -7.2189544      2.9740887      50218.233      36.893836      36.893836      36.893836    
    690000   0.45642994    -7.8977404     -7.2131052      2.9902493      50218.233      36.893836      36.893836      36.893836    
    700000   0.45551259    -7.8985855     -7.2153264      2.9821098      50218.233      36.893836      36.893836      36.893836    
    710000   0.45412316    -7.9011375     -7.2199625      2.9580716      50218.233      36.893836      36.893836      36.893836    
    720000   0.45651783    -7.8968876     -7.2121206      2.9996207      50218.233      36.893836      36.893836      36.893836    
    730000   0.45551939    -7.9016053     -7.218336       2.9656868      50218.233      36.893836      36.893836      36.893836    
    740000   0.45743685    -7.8998281     -7.2136826      2.9702593      50218.233      36.893836      36.893836      36.893836    
    750000   0.45664905    -7.8965102     -7.2115464      2.9945463      50218.233      36.893836      36.893836      36.893836    
    760000   0.45649723    -7.8984168     -7.2136807      2.973257       50218.233      36.893836      36.893836      36.893836    
    770000   0.45495959    -7.8981367     -7.215707       2.9841622      50218.233      36.893836      36.893836      36.893836    
    780000   0.45485538    -7.8978363     -7.215563       2.9866035      50218.233      36.893836      36.893836      36.893836    
    790000   0.45516988    -7.9009501     -7.218205       2.9597436      50218.233      36.893836      36.893836      36.893836    
    800000   0.45646452    -7.8987392     -7.2140522      2.9842355      50218.233      36.893836      36.893836      36.893836    
    810000   0.45350056    -7.9005809     -7.2203397      2.9567469      50218.233      36.893836      36.893836      36.893836    
    820000   0.45586461    -7.9006456     -7.2168584      2.9656477      50218.233      36.893836      36.893836      36.893836    
    830000   0.45588082    -7.8979663     -7.2141548      2.9814168      50218.233      36.893836      36.893836      36.893836    
    840000   0.45646123    -7.8988064     -7.2141243      2.9783348      50218.233      36.893836      36.893836      36.893836    
    850000   0.45609858    -7.8964843     -7.2123462      2.9911217      50218.233      36.893836      36.893836      36.893836    
    860000   0.45551619    -7.8971098     -7.2138452      2.9857044      50218.233      36.893836      36.893836      36.893836    
    870000   0.45374308    -7.901375      -7.22077        2.9566503      50218.233      36.893836      36.893836      36.893836    
    880000   0.45544257    -7.8986119     -7.2154578      2.9834218      50218.233      36.893836      36.893836      36.893836    
    890000   0.45494252    -7.8988855     -7.2164814      2.9739963      50218.233      36.893836      36.893836      36.893836    
    900000   0.45299897    -7.897585      -7.2180962      2.988643       50218.233      36.893836      36.893836      36.893836    
    910000   0.45538989    -7.9019625     -7.2188874      2.958671       50218.233      36.893836      36.893836      36.893836    
    920000   0.45625084    -7.9003026     -7.2159361      2.9661617      50218.233      36.893836      36.893836      36.893836    
    930000   0.45586328    -7.8996516     -7.2158664      2.9700894      50218.233      36.893836      36.893836      36.893836    
    940000   0.45488478    -7.9045267     -7.2222092      2.9404216      50218.233      36.893836      36.893836      36.893836    
    950000   0.45329771    -7.9014342     -7.2214973      2.9604837      50218.233      36.893836      36.893836      36.893836    
    960000   0.45853166    -7.9001984     -7.2124107      2.9717815      50218.233      36.893836      36.893836      36.893836    
    970000   0.4580322     -7.9012136     -7.2141751      2.970643       50218.233      36.893836      36.893836      36.893836    
    980000   0.45478825    -7.8998939     -7.2177212      2.9585297      50218.233      36.893836      36.893836      36.893836    
    990000   0.45237639    -7.9013346     -7.2227796      2.9532065      50218.233      36.893836      36.893836      36.893836    
   1000000   0.45614525    -7.9030353     -7.2188272      2.9440037      50218.233      36.893836      36.893836      36.893836    
   1010000   0.45316746    -7.899391      -7.2196495      2.9664196      50218.233      36.893836      36.893836      36.893836    
   1020000   0.45603239    -7.8998105     -7.2157716      2.9683691      50218.233      36.893836      36.893836      36.893836    
   1030000   0.45489006    -7.9009458     -7.2186204      2.96181        50218.233      36.893836      36.893836      36.893836    
   1040000   0.45555982    -7.8974234     -7.2140934      2.978416       50218.233      36.893836      36.893836      36.893836    
   1050000   0.45627119    -7.9000631     -7.215666       2.9632584      50218.233      36.893836      36.893836      36.893836    
   1060000   0.45565209    -7.8975551     -7.2140867      2.9800582      50218.233      36.893836      36.893836      36.893836    
   1070000   0.45663291    -7.9026522     -7.2177126      2.9506589      50218.233      36.893836      36.893836      36.893836    
   1080000   0.45523511    -7.8993528     -7.2165098      2.9770888      50218.233      36.893836      36.893836      36.893836    
   1090000   0.45478488    -7.9003012     -7.2181336      2.963177       50218.233      36.893836      36.893836      36.893836    
   1100000   0.45551069    -7.8994372     -7.2161809      2.9787589      50218.233      36.893836      36.893836      36.893836    
   1110000   0.45678053    -7.8984154     -7.2132543      2.9858017      50218.233      36.893836      36.893836      36.893836    
   1120000   0.45660407    -7.8998453     -7.214949       2.9684501      50218.233      36.893836      36.893836      36.893836    
   1130000   0.45556253    -7.9009742     -7.2176401      2.9617252      50218.233      36.893836      36.893836      36.893836    
   1140000   0.4538348     -7.9030274     -7.2222849      2.9382776      50218.233      36.893836      36.893836      36.893836    
   1150000   0.45545883    -7.9018686     -7.21869        2.9558458      50218.233      36.893836      36.893836      36.893836    
   1160000   0.45342342    -7.9004138     -7.2202883      2.9544734      50218.233      36.893836      36.893836      36.893836    
   1170000   0.45463066    -7.897766      -7.2158297      2.984123       50218.233      36.893836      36.893836      36.893836    
   1180000   0.45368574    -7.8986058     -7.2180869      2.9739892      50218.233      36.893836      36.893836      36.893836    
   1190000   0.45721444    -7.9026592     -7.2168473      2.958823       50218.233      36.893836      36.893836      36.893836    
   1200000   0.45500685    -7.902163      -7.2196625      2.9537057      50218.233      36.893836      36.893836      36.893836    
   1210000   0.45634942    -7.8960045     -7.2114901      3.0026748      50218.233      36.893836      36.893836      36.893836    
   1220000   0.45499181    -7.8953939     -7.2129159      3.0113033      50218.233      36.893836      36.893836      36.893836    
   1230000   0.45642751    -7.8989304     -7.2142989      2.9743274      50218.233      36.893836      36.893836      36.893836    
   1240000   0.45588474    -7.9000067     -7.2161893      2.9675504      50218.233      36.893836      36.893836      36.893836    
   1250000   0.45348812    -7.9012251     -7.2210026      2.9625766      50218.233      36.893836      36.893836      36.893836    
   1260000   0.45573104    -7.9001048     -7.2165179      2.9609881      50218.233      36.893836      36.893836      36.893836    
   1270000   0.45807833    -7.9021086     -7.2150008      2.9429113      50218.233      36.893836      36.893836      36.893836    
   1280000   0.45623778    -7.9012655     -7.2169185      2.9519845      50218.233      36.893836      36.893836      36.893836    
   1290000   0.45516858    -7.9010367     -7.2182936      2.9576369      50218.233      36.893836      36.893836      36.893836    
   1300000   0.45401942    -7.8978382     -7.2168188      2.9836601      50218.233      36.893836      36.893836      36.893836    
   1310000   0.45385745    -7.9011732     -7.2203967      2.9624104      50218.233      36.893836      36.893836      36.893836    
   1320000   0.45638102    -7.9048655     -7.2203037      2.9371753      50218.233      36.893836      36.893836      36.893836    
   1330000   0.4557544     -7.8985596     -7.2149377      2.9749004      50218.233      36.893836      36.893836      36.893836    
   1340000   0.45736578    -7.8996983     -7.2136594      2.9681386      50218.233      36.893836      36.893836      36.893836    
   1350000   0.4551575     -7.9030772     -7.2203506      2.9445001      50218.233      36.893836      36.893836      36.893836    
   1360000   0.4567099     -7.8988126     -7.2137575      2.9826022      50218.233      36.893836      36.893836      36.893836    
   1370000   0.45454717    -7.9009348     -7.2191238      2.951845       50218.233      36.893836      36.893836      36.893836    
   1380000   0.45671498    -7.9013392     -7.2162764      2.9551896      50218.233      36.893836      36.893836      36.893836    
   1390000   0.45401114    -7.8957987     -7.2147916      2.9924143      50218.233      36.893836      36.893836      36.893836    
   1400000   0.45760368    -7.9004077     -7.2140119      2.9758171      50218.233      36.893836      36.893836      36.893836    
   1410000   0.45774394    -7.9029042     -7.216298       2.9550605      50218.233      36.893836      36.893836      36.893836    
   1420000   0.45518337    -7.9001769     -7.2174116      2.9732671      50218.233      36.893836      36.893836      36.893836    
   1430000   0.455967      -7.8999508     -7.21601        2.9716257      50218.233      36.893836      36.893836      36.893836    
   1440000   0.45433804    -7.9022809     -7.2207835      2.947647       50218.233      36.893836      36.893836      36.893836    
   1450000   0.45186329    -7.8981284     -7.2203431      2.9822559      50218.233      36.893836      36.893836      36.893836    
   1460000   0.45465132    -7.9033526     -7.2213853      2.9437358      50218.233      36.893836      36.893836      36.893836    
   1470000   0.45220015    -7.899768      -7.2214774      2.9670857      50218.233      36.893836      36.893836      36.893836    
   1480000   0.45683869    -7.8993973     -7.214149       2.9687038      50218.233      36.893836      36.893836      36.893836    
   1490000   0.45687633    -7.8971645     -7.2118598      2.989812       50218.233      36.893836      36.893836      36.893836    
   1500000   0.45586726    -7.9008021     -7.2170109      2.9732892      50218.233      36.893836      36.893836      36.893836    
   1510000   0.45361679    -7.8996093     -7.2191938      2.9772881      50218.233      36.893836      36.893836      36.893836    
   1520000   0.45364056    -7.9000945     -7.2196433      2.9717094      50218.233      36.893836      36.893836      36.893836    
   1530000   0.45504374    -7.8990279     -7.216472       2.9925196      50218.233      36.893836      36.893836      36.893836    
   1540000   0.45784342    -7.8994168     -7.2126615      2.9773352      50218.233      36.893836      36.893836      36.893836    
   1550000   0.45490028    -7.9008489     -7.2185082      2.9624221      50218.233      36.893836      36.893836      36.893836    
   1560000   0.45634202    -7.9002912     -7.2157879      2.9674827      50218.233      36.893836      36.893836      36.893836    
   1570000   0.45478705    -7.8977508     -7.2155799      2.990252       50218.233      36.893836      36.893836      36.893836    
   1580000   0.45875566    -7.9022922     -7.2141685      2.9525792      50218.233      36.893836      36.893836      36.893836    
   1590000   0.45519714    -7.9006232     -7.2178372      2.9642952      50218.233      36.893836      36.893836      36.893836    
   1600000   0.45695738    -7.9015787     -7.2161524      2.9633424      50218.233      36.893836      36.893836      36.893836    
   1610000   0.45325653    -7.9018152     -7.22194        2.9581068      50218.233      36.893836      36.893836      36.893836    
   1620000   0.4549367     -7.8982605     -7.2158651      2.9910514      50218.233      36.893836      36.893836      36.893836    
   1630000   0.45535283    -7.903306      -7.2202865      2.9402328      50218.233      36.893836      36.893836      36.893836    
   1640000   0.45339351    -7.8986281     -7.2185476      2.9843341      50218.233      36.893836      36.893836      36.893836    
   1650000   0.45261161    -7.902001      -7.2230932      2.9460659      50218.233      36.893836      36.893836      36.893836    
   1660000   0.45529899    -7.9017442     -7.2188055      2.9520684      50218.233      36.893836      36.893836      36.893836    
   1670000   0.45215526    -7.9026423     -7.224419       2.9456989      50218.233      36.893836      36.893836      36.893836    
   1680000   0.45548733    -7.9011068     -7.2178856      2.9675915      50218.233      36.893836      36.893836      36.893836    
   1690000   0.45913381    -7.8971542     -7.2084633      3.0002322      50218.233      36.893836      36.893836      36.893836    
   1700000   0.45478573    -7.8976438     -7.2154749      2.9914703      50218.233      36.893836      36.893836      36.893836    
   1710000   0.45681855    -7.8984065     -7.2131884      2.9769376      50218.233      36.893836      36.893836      36.893836    
   1720000   0.45462233    -7.9007355     -7.2188117      2.9642553      50218.233      36.893836      36.893836      36.893836    
   1730000   0.45480555    -7.8977634     -7.2155648      2.9839123      50218.233      36.893836      36.893836      36.893836    
   1740000   0.45576678    -7.8973757     -7.2137353      2.9924188      50218.233      36.893836      36.893836      36.893836    
   1750000   0.45560099    -7.9032117     -7.2198199      2.9407151      50218.233      36.893836      36.893836      36.893836    
   1760000   0.45437096    -7.9001501     -7.2186033      2.9555724      50218.233      36.893836      36.893836      36.893836    
   1770000   0.45166724    -7.899186      -7.2216948      2.9695362      50218.233      36.893836      36.893836      36.893836    
   1780000   0.45492527    -7.8976359     -7.2152577      2.98866        50218.233      36.893836      36.893836      36.893836    
   1790000   0.45602137    -7.8971799     -7.2131576      2.9930219      50218.233      36.893836      36.893836      36.893836    
   1800000   0.4533474     -7.8982551     -7.2182437      2.9779594      50218.233      36.893836      36.893836      36.893836    
   1810000   0.45415664    -7.8962859     -7.2150607      2.9947403      50218.233      36.893836      36.893836      36.893836    
   1820000   0.45436848    -7.901145      -7.2196019      2.9598959      50218.233      36.893836      36.893836      36.893836    
   1830000   0.45497259    -7.8994196     -7.2169705      2.9725113      50218.233      36.893836      36.893836      36.893836    
   1840000   0.45463442    -7.8982425     -7.2163006      2.9754696      50218.233      36.893836      36.893836      36.893836    
   1850000   0.46070904    -7.9028256     -7.2117719      2.9455644      50218.233      36.893836      36.893836      36.893836    
   1860000   0.4539006     -7.8979381     -7.2170969      2.9784335      50218.233      36.893836      36.893836      36.893836    
   1870000   0.45633346    -7.8984542     -7.2139638      2.9807064      50218.233      36.893836      36.893836      36.893836    
   1880000   0.45307196    -7.8987042     -7.219106       2.9718536      50218.233      36.893836      36.893836      36.893836    
   1890000   0.45492906    -7.8987228     -7.2163389      2.9773753      50218.233      36.893836      36.893836      36.893836    
   1900000   0.45539688    -7.9020362     -7.2189505      2.9585803      50218.233      36.893836      36.893836      36.893836    
   1910000   0.45385489    -7.8963014     -7.2155287      2.9911778      50218.233      36.893836      36.893836      36.893836    
   1920000   0.45595389    -7.8981399     -7.2142188      2.9853429      50218.233      36.893836      36.893836      36.893836    
   1930000   0.45603341    -7.8999451     -7.2159047      2.9774478      50218.233      36.893836      36.893836      36.893836    
   1940000   0.45700978    -7.8987451     -7.2132401      2.9657989      50218.233      36.893836      36.893836      36.893836    
   1950000   0.45465168    -7.8984029     -7.2164351      2.9871482      50218.233      36.893836      36.893836      36.893836    
   1960000   0.45308846    -7.899488      -7.2198649      2.9678279      50218.233      36.893836      36.893836      36.893836    
   1970000   0.45409342    -7.8960736     -7.2149432      2.9903125      50218.233      36.893836      36.893836      36.893836    
   1980000   0.45678022    -7.9002785     -7.2151179      2.9710806      50218.233      36.893836      36.893836      36.893836    
   1990000   0.45461108    -7.8969948     -7.2150879      2.9960428      50218.233      36.893836      36.893836      36.893836    
   2000000   0.45319157    -7.8981491     -7.2183714      2.9771988      50218.233      36.893836      36.893836      36.893836    
   2010000   0.45604789    -7.901011      -7.2169489      2.9609946      50218.233      36.893836      36.893836      36.893836    
   2020000   0.45379727    -7.8994458     -7.2187596      2.9748894      50218.233      36.893836      36.893836      36.893836    
   2030000   0.4569064     -7.8999897     -7.2146399      2.9752216      50218.233      36.893836      36.893836      36.893836    
   2040000   0.45425918    -7.9018423     -7.2204633      2.9500421      50218.233      36.893836      36.893836      36.893836    
   2050000   0.45521431    -7.8997517     -7.21694        2.9702202      50218.233      36.893836      36.893836      36.893836    
   2060000   0.45480768    -7.8996463     -7.2174445      2.9681668      50218.233      36.893836      36.893836      36.893836    
   2070000   0.45516491    -7.8980257     -7.2152881      2.9857514      50218.233      36.893836      36.893836      36.893836    
   2080000   0.45569145    -7.8972365     -7.213709       2.9855568      50218.233      36.893836      36.893836      36.893836    
   2090000   0.45598601    -7.9004503     -7.216481       2.966762       50218.233      36.893836      36.893836      36.893836    
   2100000   0.45731183    -7.8969007     -7.2109427      2.9867315      50218.233      36.893836      36.893836      36.893836    
   2110000   0.45765994    -7.9005273     -7.2140472      2.9660573      50218.233      36.893836      36.893836      36.893836    
   2120000   0.45524891    -7.8997104     -7.2168467      2.9644957      50218.233      36.893836      36.893836      36.893836    
   2130000   0.45442593    -7.8985005     -7.2168713      2.9702492      50218.233      36.893836      36.893836      36.893836    
   2140000   0.4552752     -7.898478      -7.2155749      2.9844982      50218.233      36.893836      36.893836      36.893836    
   2150000   0.45358785    -7.8952401     -7.214868       2.9987867      50218.233      36.893836      36.893836      36.893836    
   2160000   0.45584721    -7.8968551     -7.213094       2.9926111      50218.233      36.893836      36.893836      36.893836    
   2170000   0.45289789    -7.8993182     -7.219981       2.971964       50218.233      36.893836      36.893836      36.893836    
   2180000   0.45681238    -7.8978339     -7.2126251      2.9831389      50218.233      36.893836      36.893836      36.893836    
   2190000   0.45614173    -7.8924489     -7.208246       3.0197572      50218.233      36.893836      36.893836      36.893836    
   2200000   0.45372238    -7.8954316     -7.2148577      3.0017113      50218.233      36.893836      36.893836      36.893836    
   2210000   0.45390284    -7.8965422     -7.2156977      2.9909548      50218.233      36.893836      36.893836      36.893836    
   2220000   0.45697198    -7.8992824     -7.2138342      2.9751127      50218.233      36.893836      36.893836      36.893836    
   2230000   0.4550141     -7.8979849     -7.2154735      2.987601       50218.233      36.893836      36.893836      36.893836    
   2240000   0.45405724    -7.89752       -7.2164439      2.9882894      50218.233      36.893836      36.893836      36.893836    
   2250000   0.45505986    -7.8982346     -7.2156546      2.9871951      50218.233      36.893836      36.893836      36.893836    
   2260000   0.45611541    -7.8945197     -7.2103563      3.0063918      50218.233      36.893836      36.893836      36.893836    
   2270000   0.45075052    -7.8984386     -7.2223224      2.9694667      50218.233      36.893836      36.893836      36.893836    
   2280000   0.45772457    -7.8937458     -7.2071688      3.0342056      50218.233      36.893836      36.893836      36.893836    
   2290000   0.45662214    -7.8958248     -7.2109013      3.0080738      50218.233      36.893836      36.893836      36.893836    
   2300000   0.45428951    -7.8977473     -7.2163228      2.9914258      50218.233      36.893836      36.893836      36.893836    
   2310000   0.45618239    -7.8989748     -7.214711       2.9778508      50218.233      36.893836      36.893836      36.893836    
   2320000   0.4527642     -7.8980181     -7.2188814      2.9785866      50218.233      36.893836      36.893836      36.893836    
   2330000   0.45718567    -7.8978283     -7.2120596      3.0022885      50218.233      36.893836      36.893836      36.893836    
   2340000   0.4576256     -7.8981014     -7.2116727      2.9787594      50218.233      36.893836      36.893836      36.893836    
   2350000   0.45442036    -7.8964941     -7.2148732      2.9915626      50218.233      36.893836      36.893836      36.893836    
   2360000   0.45511367    -7.9028597     -7.2201989      2.9538185      50218.233      36.893836      36.893836      36.893836    
   2370000   0.45669829    -7.9003544     -7.2153167      2.9652829      50218.233      36.893836      36.893836      36.893836    
   2380000   0.45479116    -7.8949467     -7.2127696      3.0024175      50218.233      36.893836      36.893836      36.893836    
   2390000   0.45453068    -7.89893       -7.2171436      2.9656427      50218.233      36.893836      36.893836      36.893836    
   2400000   0.45615013    -7.9003353     -7.2161198      2.9783715      50218.233      36.893836      36.893836      36.893836    
   2410000   0.45489972    -7.897674      -7.2153342      2.9894279      50218.233      36.893836      36.893836      36.893836    
   2420000   0.45406107    -7.8998202     -7.2187383      2.9706131      50218.233      36.893836      36.893836      36.893836    
   2430000   0.45391255    -7.9007204     -7.2198612      2.9519962      50218.233      36.893836      36.893836      36.893836    
   2440000   0.4548422     -7.9008961     -7.2186425      2.9647785      50218.233      36.893836      36.893836      36.893836    
   2450000   0.45454376    -7.8973436     -7.2155377      2.9725978      50218.233      36.893836      36.893836      36.893836    
   2460000   0.45687268    -7.8964817     -7.2111824      3.0004679      50218.233      36.893836      36.893836      36.893836    
   2470000   0.45736977    -7.8982532     -7.2122083      2.9909699      50218.233      36.893836      36.893836      36.893836    
   2480000   0.45520649    -7.9007182     -7.2179182      2.9613208      50218.233      36.893836      36.893836      36.893836    
   2490000   0.4567458     -7.9003718     -7.2152629      2.9678442      50218.233      36.893836      36.893836      36.893836    
   2500000   0.4559069     -7.8986014     -7.2147507      2.9730157      50218.233      36.893836      36.893836      36.893836    
   2510000   0.45466931    -7.8997262     -7.2177319      2.9580457      50218.233      36.893836      36.893836      36.893836    
   2520000   0.45497385    -7.8971351     -7.214684       2.9900357      50218.233      36.893836      36.893836      36.893836    
   2530000   0.45328594    -7.8971772     -7.2172579      2.9908813      50218.233      36.893836      36.893836      36.893836    
   2540000   0.45550722    -7.9014583     -7.2182072      2.9601866      50218.233      36.893836      36.893836      36.893836    
   2550000   0.45417601    -7.8979588     -7.2167045      2.9916703      50218.233      36.893836      36.893836      36.893836    
   2560000   0.45471067    -7.8977298     -7.2156735      2.9843403      50218.233      36.893836      36.893836      36.893836    
   2570000   0.45299612    -7.8966658     -7.2171813      2.9897807      50218.233      36.893836      36.893836      36.893836    
   2580000   0.45557231    -7.9010599     -7.2177111      2.9619872      50218.233      36.893836      36.893836      36.893836    
   2590000   0.45465396    -7.898684      -7.2167128      2.9813817      50218.233      36.893836      36.893836      36.893836    
   2600000   0.45418736    -7.8967537     -7.2154823      3.0007326      50218.233      36.893836      36.893836      36.893836    
   2610000   0.45353646    -7.9000137     -7.2197187      2.9680026      50218.233      36.893836      36.893836      36.893836    
   2620000   0.45547392    -7.8965583     -7.2133571      3.0000016      50218.233      36.893836      36.893836      36.893836    
   2630000   0.45485835    -7.8990402     -7.2167624      2.9779932      50218.233      36.893836      36.893836      36.893836    
   2640000   0.45428641    -7.8963886     -7.2149687      3.0086574      50218.233      36.893836      36.893836      36.893836    
   2650000   0.45592429    -7.8979228     -7.2140461      2.9968826      50218.233      36.893836      36.893836      36.893836    
   2660000   0.45530666    -7.8951432     -7.2121929      2.9945839      50218.233      36.893836      36.893836      36.893836    
   2670000   0.45557575    -7.8968251     -7.2134712      2.9958808      50218.233      36.893836      36.893836      36.893836    
   2680000   0.45767008    -7.8976983     -7.2112029      2.9908507      50218.233      36.893836      36.893836      36.893836    
   2690000   0.45553482    -7.8991853     -7.2158927      2.9875539      50218.233      36.893836      36.893836      36.893836    
   2700000   0.45552467    -7.8963079     -7.2130306      3.0030541      50218.233      36.893836      36.893836      36.893836    
   2710000   0.45501822    -7.8977735     -7.2152559      2.9938872      50218.233      36.893836      36.893836      36.893836    
   2720000   0.45534901    -7.8975455     -7.2145317      2.9935283      50218.233      36.893836      36.893836      36.893836    
   2730000   0.44985206    -7.8984168     -7.2236483      2.9738681      50218.233      36.893836      36.893836      36.893836    
   2740000   0.45637119    -7.9013245     -7.2167774      2.9612799      50218.233      36.893836      36.893836      36.893836    
   2750000   0.45443779    -7.8950195     -7.2133725      3.0077393      50218.233      36.893836      36.893836      36.893836    
   2760000   0.45287194    -7.8955954     -7.2162971      2.9869901      50218.233      36.893836      36.893836      36.893836    
   2770000   0.45830023    -7.898456      -7.2110154      2.9898338      50218.233      36.893836      36.893836      36.893836    
   2780000   0.45851726    -7.8997952     -7.2120291      2.9758444      50218.233      36.893836      36.893836      36.893836    
   2790000   0.45334682    -7.8999921     -7.2199815      2.9767251      50218.233      36.893836      36.893836      36.893836    
   2800000   0.45367074    -7.8970069     -7.2165105      2.9939862      50218.233      36.893836      36.893836      36.893836    
   2810000   0.45357654    -7.8990824     -7.2187272      2.9726066      50218.233      36.893836      36.893836      36.893836    
   2820000   0.45286683    -7.8977475     -7.2184569      2.9884769      50218.233      36.893836      36.893836      36.893836    
   2830000   0.45492993    -7.8985879     -7.2162027      2.9830496      50218.233      36.893836      36.893836      36.893836    
   2840000   0.45504508    -7.9020404     -7.2194825      2.953475       50218.233      36.893836      36.893836      36.893836    
   2850000   0.45925984    -7.8966832     -7.2078032      3.0094015      50218.233      36.893836      36.893836      36.893836    
   2860000   0.45740613    -7.8986175     -7.2125181      2.9801827      50218.233      36.893836      36.893836      36.893836    
   2870000   0.45334027    -7.8984119     -7.2184112      2.9809061      50218.233      36.893836      36.893836      36.893836    
   2880000   0.45134716    -7.8972647     -7.2202536      2.9809631      50218.233      36.893836      36.893836      36.893836    
   2890000   0.45357262    -7.9006319     -7.2202827      2.9495034      50218.233      36.893836      36.893836      36.893836    
   2900000   0.45657521    -7.8977301     -7.212877       2.982459       50218.233      36.893836      36.893836      36.893836    
   2910000   0.45407812    -7.9003736     -7.2192661      2.9606891      50218.233      36.893836      36.893836      36.893836    
   2920000   0.45459924    -7.9001951     -7.2183059      2.9713308      50218.233      36.893836      36.893836      36.893836    
   2930000   0.45525775    -7.8991888     -7.2163119      2.9727254      50218.233      36.893836      36.893836      36.893836    
   2940000   0.45216586    -7.901938      -7.2236988      2.9554405      50218.233      36.893836      36.893836      36.893836    
   2950000   0.4574726     -7.899546      -7.2133469      2.9803741      50218.233      36.893836      36.893836      36.893836    
   2960000   0.45436717    -7.8973018     -7.2157607      2.9918777      50218.233      36.893836      36.893836      36.893836    
   2970000   0.45534408    -7.8982789     -7.2152725      2.9858376      50218.233      36.893836      36.893836      36.893836    
   2980000   0.45444157    -7.8977205     -7.2160679      2.9939329      50218.233      36.893836      36.893836      36.893836    
   2990000   0.45567226    -7.9034835     -7.2199848      2.9410604      50218.233      36.893836      36.893836      36.893836    
   3000000   0.45275973    -7.8999244     -7.2207944      2.9627011      50218.233      36.893836      36.893836      36.893836    
   3010000   0.45335044    -7.9000138     -7.2199978      2.9710727      50218.233      36.893836      36.893836      36.893836    
   3020000   0.45659416    -7.8998293     -7.2149478      2.9761377      50218.233      36.893836      36.893836      36.893836    
   3030000   0.45553697    -7.8960102     -7.2127145      3.0063248      50218.233      36.893836      36.893836      36.893836    
   3040000   0.45302569    -7.9012555     -7.2217266      2.9532831      50218.233      36.893836      36.893836      36.893836    
   3050000   0.45443204    -7.8986527     -7.2170143      2.9816518      50218.233      36.893836      36.893836      36.893836    
   3060000   0.45466653    -7.8977044     -7.2157144      2.9897911      50218.233      36.893836      36.893836      36.893836    
   3070000   0.45405427    -7.8960312     -7.2149595      3.0033373      50218.233      36.893836      36.893836      36.893836    
   3080000   0.45662149    -7.8978575     -7.212935       2.984654       50218.233      36.893836      36.893836      36.893836    
   3090000   0.45360433    -7.8953653     -7.2149685      3.0087136      50218.233      36.893836      36.893836      36.893836    
   3100000   0.45501099    -7.9009647     -7.2184579      2.972816       50218.233      36.893836      36.893836      36.893836    
   3110000   0.45603107    -7.8967299     -7.2126931      2.9945493      50218.233      36.893836      36.893836      36.893836    
   3120000   0.45724981    -7.8987858     -7.2129209      2.9828856      50218.233      36.893836      36.893836      36.893836    
   3130000   0.45781561    -7.8955666     -7.2088529      2.9936753      50218.233      36.893836      36.893836      36.893836    
   3140000   0.45484619    -7.8956967     -7.2134371      2.9968511      50218.233      36.893836      36.893836      36.893836    
   3150000   0.4551489     -7.8948927     -7.2121791      3.0068676      50218.233      36.893836      36.893836      36.893836    
   3160000   0.45367509    -7.8992522     -7.2187492      2.9732057      50218.233      36.893836      36.893836      36.893836    
   3170000   0.45652513    -7.8959363     -7.2111584      3.0047037      50218.233      36.893836      36.893836      36.893836    
   3180000   0.45239081    -7.8972384     -7.2186618      2.9830432      50218.233      36.893836      36.893836      36.893836    
   3190000   0.45342413    -7.8978014     -7.2176749      2.9776803      50218.233      36.893836      36.893836      36.893836    
   3200000   0.4536911     -7.8977676     -7.2172406      2.9848764      50218.233      36.893836      36.893836      36.893836    
   3210000   0.4580802     -7.8991967     -7.2120861      2.9753044      50218.233      36.893836      36.893836      36.893836    
   3220000   0.45635489    -7.897238      -7.2127154      2.9962526      50218.233      36.893836      36.893836      36.893836    
   3230000   0.4578676     -7.8959974     -7.2092058      3.0179426      50218.233      36.893836      36.893836      36.893836    
   3240000   0.45443224    -7.9004825     -7.2188439      2.9637752      50218.233      36.893836      36.893836      36.893836    
   3250000   0.45644456    -7.8971682     -7.2125111      2.9918882      50218.233      36.893836      36.893836      36.893836    
   3260000   0.45459378    -7.9011499     -7.219269       2.9624703      50218.233      36.893836      36.893836      36.893836    
   3270000   0.45570686    -7.8949089     -7.2113583      3.0053468      50218.233      36.893836      36.893836      36.893836    
   3280000   0.45669317    -7.8962124     -7.2111824      3.0184244      50218.233      36.893836      36.893836      36.893836    
   3290000   0.45439164    -7.9016943     -7.2201166      2.9579168      50218.233      36.893836      36.893836      36.893836    
   3300000   0.45308963    -7.8971744     -7.2175496      2.9908908      50218.233      36.893836      36.893836      36.893836    
   3310000   0.45171681    -7.897441      -7.2198754      2.977971       50218.233      36.893836      36.893836      36.893836    
   3320000   0.4553034     -7.8979754     -7.21503        2.9901608      50218.233      36.893836      36.893836      36.893836    
   3330000   0.4557319     -7.8972957     -7.2137075      2.9939625      50218.233      36.893836      36.893836      36.893836    
   3340000   0.45518294    -7.8975277     -7.2147631      2.998471       50218.233      36.893836      36.893836      36.893836    
   3350000   0.45412932    -7.8966677     -7.2154834      2.9932165      50218.233      36.893836      36.893836      36.893836    
   3360000   0.45254676    -7.8989345     -7.220124       2.9683602      50218.233      36.893836      36.893836      36.893836    
   3370000   0.45493337    -7.8991605     -7.2167701      2.97437        50218.233      36.893836      36.893836      36.893836    
   3380000   0.45893704    -7.8957541     -7.2073583      3.0038216      50218.233      36.893836      36.893836      36.893836    
   3390000   0.45532774    -7.9005095     -7.2175276      2.9650501      50218.233      36.893836      36.893836      36.893836    
   3400000   0.45329523    -7.89722       -7.2172869      2.9908196      50218.233      36.893836      36.893836      36.893836    
   3410000   0.45429431    -7.8947208     -7.213289       2.9979579      50218.233      36.893836      36.893836      36.893836    
   3420000   0.4538006     -7.8986913     -7.2180001      2.9709247      50218.233      36.893836      36.893836      36.893836    
   3430000   0.45282189    -7.9012436     -7.2220205      2.955331       50218.233      36.893836      36.893836      36.893836    
   3440000   0.45712872    -7.8939402     -7.2082569      3.0055353      50218.233      36.893836      36.893836      36.893836    
   3450000   0.45371929    -7.8967342     -7.216165       2.9857397      50218.233      36.893836      36.893836      36.893836    
   3460000   0.45348887    -7.8992829     -7.2190593      2.9703562      50218.233      36.893836      36.893836      36.893836    
   3470000   0.45608675    -7.8979846     -7.2138642      2.9759897      50218.233      36.893836      36.893836      36.893836    
   3480000   0.45564671    -7.8969994     -7.213539       2.9756499      50218.233      36.893836      36.893836      36.893836    
   3490000   0.45176072    -7.8970595     -7.219428       2.9791799      50218.233      36.893836      36.893836      36.893836    
   3500000   0.45434872    -7.8935869     -7.2120735      3.0106318      50218.233      36.893836      36.893836      36.893836    
   3510000   0.45357769    -7.9004373     -7.2200804      2.9587464      50218.233      36.893836      36.893836      36.893836    
   3520000   0.45079019    -7.8982981     -7.2221225      2.9642969      50218.233      36.893836      36.893836      36.893836    
   3530000   0.45612127    -7.8964158     -7.2122436      3.0034494      50218.233      36.893836      36.893836      36.893836    
   3540000   0.45600921    -7.8975539     -7.2135498      2.9770667      50218.233      36.893836      36.893836      36.893836    
   3550000   0.4545106     -7.9016187     -7.2198625      2.9579352      50218.233      36.893836      36.893836      36.893836    
   3560000   0.45524166    -7.9013555     -7.2185027      2.9490375      50218.233      36.893836      36.893836      36.893836    
   3570000   0.45436904    -7.8987262     -7.2171824      2.968219       50218.233      36.893836      36.893836      36.893836    
   3580000   0.45430891    -7.8958577     -7.214404       2.9968115      50218.233      36.893836      36.893836      36.893836    
   3590000   0.45518095    -7.8942576     -7.2114959      3.0087429      50218.233      36.893836      36.893836      36.893836    
   3600000   0.45488303    -7.897198      -7.2148832      2.9842283      50218.233      36.893836      36.893836      36.893836    
   3610000   0.45513189    -7.8942059     -7.2115177      3.0203852      50218.233      36.893836      36.893836      36.893836    
   3620000   0.454642      -7.8994956     -7.2175423      2.9614369      50218.233      36.893836      36.893836      36.893836    
   3630000   0.45312928    -7.8994074     -7.2197231      2.9617244      50218.233      36.893836      36.893836      36.893836    
   3640000   0.45578568    -7.8970468     -7.213378       2.9822226      50218.233      36.893836      36.893836      36.893836    
   3650000   0.45615199    -7.8935671     -7.2093488      3.015031       50218.233      36.893836      36.893836      36.893836    
   3660000   0.4524692     -7.8959603     -7.2172661      2.9960829      50218.233      36.893836      36.893836      36.893836    
   3670000   0.45309006    -7.8974984     -7.217873       2.9868836      50218.233      36.893836      36.893836      36.893836    
   3680000   0.45576571    -7.8961917     -7.2125528      3.0004084      50218.233      36.893836      36.893836      36.893836    
   3690000   0.45568828    -7.8999027     -7.21638        2.9658905      50218.233      36.893836      36.893836      36.893836    
   3700000   0.45585286    -7.897679      -7.2139094      2.9885082      50218.233      36.893836      36.893836      36.893836    
   3710000   0.45657391    -7.8983564     -7.2135053      2.9850003      50218.233      36.893836      36.893836      36.893836    
   3720000   0.45812411    -7.897424      -7.2102476      2.9940774      50218.233      36.893836      36.893836      36.893836    
   3730000   0.45519423    -7.9003888     -7.2176071      2.9774745      50218.233      36.893836      36.893836      36.893836    
   3740000   0.45641157    -7.9001684     -7.2155608      2.9759532      50218.233      36.893836      36.893836      36.893836    
   3750000   0.45311058    -7.8989205     -7.2192643      2.9664013      50218.233      36.893836      36.893836      36.893836    
   3760000   0.45517658    -7.8981519     -7.2153968      2.9777865      50218.233      36.893836      36.893836      36.893836    
   3770000   0.45441718    -7.8942394     -7.2126233      3.0049451      50218.233      36.893836      36.893836      36.893836    
   3780000   0.45620602    -7.8989571     -7.2146578      2.9839472      50218.233      36.893836      36.893836      36.893836    
   3790000   0.45454721    -7.8971432     -7.2153321      2.9834889      50218.233      36.893836      36.893836      36.893836    
   3800000   0.45737539    -7.8975663     -7.211513       2.9822836      50218.233      36.893836      36.893836      36.893836    
   3810000   0.45637231    -7.8950314     -7.2104827      2.9999027      50218.233      36.893836      36.893836      36.893836    
   3820000   0.45487049    -7.8998088     -7.2175128      2.9633109      50218.233      36.893836      36.893836      36.893836    
   3830000   0.45709964    -7.8923197     -7.20668        3.0298796      50218.233      36.893836      36.893836      36.893836    
   3840000   0.45400837    -7.8998046     -7.2188017      2.9609728      50218.233      36.893836      36.893836      36.893836    
   3850000   0.45510155    -7.897669      -7.2150264      2.9811882      50218.233      36.893836      36.893836      36.893836    
   3860000   0.45482323    -7.9029717     -7.2207465      2.9437156      50218.233      36.893836      36.893836      36.893836    
   3870000   0.45528211    -7.8990163     -7.2161029      2.9846532      50218.233      36.893836      36.893836      36.893836    
   3880000   0.4558963     -7.8995045     -7.2156698      2.9677868      50218.233      36.893836      36.893836      36.893836    
   3890000   0.45669115    -7.898871      -7.2138441      2.9716464      50218.233      36.893836      36.893836      36.893836    
   3900000   0.45584458    -7.8992326     -7.2154754      2.9668126      50218.233      36.893836      36.893836      36.893836    
   3910000   0.45604466    -7.899891      -7.2158337      2.9679241      50218.233      36.893836      36.893836      36.893836    
   3920000   0.45468685    -7.8999709     -7.2179504      2.9624475      50218.233      36.893836      36.893836      36.893836    
   3930000   0.4536268     -7.8968879     -7.2164574      2.9854221      50218.233      36.893836      36.893836      36.893836    
   3940000   0.45177445    -7.9009867     -7.2233346      2.9538957      50218.233      36.893836      36.893836      36.893836    
   3950000   0.4548895     -7.8992112     -7.2168867      2.9712255      50218.233      36.893836      36.893836      36.893836    
   3960000   0.45476735    -7.9005233     -7.218382       2.9582932      50218.233      36.893836      36.893836      36.893836    
   3970000   0.45538081    -7.894345      -7.2112835      3.0020757      50218.233      36.893836      36.893836      36.893836    
   3980000   0.45656182    -7.8974259     -7.2125929      2.9947382      50218.233      36.893836      36.893836      36.893836    
   3990000   0.45615887    -7.8980383     -7.2138097      2.9735996      50218.233      36.893836      36.893836      36.893836    
   4000000   0.45297423    -7.9001542     -7.2207025      2.9668881      50218.233      36.893836      36.893836      36.893836    
   4010000   0.45339861    -7.9007143     -7.220626       2.9570821      50218.233      36.893836      36.893836      36.893836    
   4020000   0.4532902     -7.9026229     -7.2226973      2.9478757      50218.233      36.893836      36.893836      36.893836    
   4030000   0.45502409    -7.9006632     -7.2181368      2.9589094      50218.233      36.893836      36.893836      36.893836    
   4040000   0.4561239     -7.8994193     -7.2152431      2.975227       50218.233      36.893836      36.893836      36.893836    
   4050000   0.45583805    -7.8984746     -7.2147272      2.9863781      50218.233      36.893836      36.893836      36.893836    
   4060000   0.45694595    -7.900113      -7.2147039      2.9679737      50218.233      36.893836      36.893836      36.893836    
   4070000   0.45649088    -7.8998783     -7.2151518      2.9694088      50218.233      36.893836      36.893836      36.893836    
   4080000   0.45358771    -7.9020034     -7.2216315      2.9435675      50218.233      36.893836      36.893836      36.893836    
   4090000   0.45553725    -7.8978969     -7.2146008      2.9882996      50218.233      36.893836      36.893836      36.893836    
   4100000   0.4558849     -7.8988739     -7.2150563      2.9884683      50218.233      36.893836      36.893836      36.893836    
   4110000   0.4561194     -7.8973335     -7.2131642      2.9859798      50218.233      36.893836      36.893836      36.893836    
   4120000   0.45548626    -7.8980801     -7.2148604      2.9814365      50218.233      36.893836      36.893836      36.893836    
   4130000   0.45382651    -7.8927772     -7.2120471      3.0165085      50218.233      36.893836      36.893836      36.893836    
   4140000   0.45552082    -7.8986581     -7.2153866      2.9782314      50218.233      36.893836      36.893836      36.893836    
   4150000   0.45387221    -7.8987532     -7.2179546      2.9771765      50218.233      36.893836      36.893836      36.893836    
   4160000   0.45596075    -7.900964      -7.2170326      2.9580151      50218.233      36.893836      36.893836      36.893836    
   4170000   0.45697634    -7.8971701     -7.2117153      2.9793031      50218.233      36.893836      36.893836      36.893836    
   4180000   0.45494792    -7.8952417     -7.2128295      3.0057161      50218.233      36.893836      36.893836      36.893836    
   4190000   0.45694534    -7.8934684     -7.2080602      3.0174934      50218.233      36.893836      36.893836      36.893836    
   4200000   0.45635472    -7.8974157     -7.2128933      2.9906447      50218.233      36.893836      36.893836      36.893836    
   4210000   0.45685526    -7.8905426     -7.2052695      3.0396038      50218.233      36.893836      36.893836      36.893836    
   4220000   0.45530727    -7.8973972     -7.2144461      2.9865433      50218.233      36.893836      36.893836      36.893836    
   4230000   0.45682382    -7.8927555     -7.2075295      3.0231105      50218.233      36.893836      36.893836      36.893836    
   4240000   0.4562929     -7.8983202     -7.2138905      2.9826024      50218.233      36.893836      36.893836      36.893836    
   4250000   0.45532649    -7.898795      -7.215815       2.9891017      50218.233      36.893836      36.893836      36.893836    
   4260000   0.45344925    -7.8989733     -7.2188091      2.9749108      50218.233      36.893836      36.893836      36.893836    
   4270000   0.45472063    -7.8932845     -7.2112133      3.0276759      50218.233      36.893836      36.893836      36.893836    
   4280000   0.45335061    -7.8942825     -7.2142663      2.9956522      50218.233      36.893836      36.893836      36.893836    
   4290000   0.45604009    -7.8995561     -7.2155057      2.9678346      50218.233      36.893836      36.893836      36.893836    
   4300000   0.45531231    -7.896734      -7.2137752      2.9916528      50218.233      36.893836      36.893836      36.893836    
   4310000   0.45737559    -7.8997922     -7.2137386      2.9754074      50218.233      36.893836      36.893836      36.893836    
   4320000   0.4540737     -7.9013562     -7.2202553      2.9563468      50218.233      36.893836      36.893836      36.893836    
   4330000   0.45385314    -7.9001674     -7.2193974      2.9573254      50218.233      36.893836      36.893836      36.893836    
   4340000   0.45690389    -7.9012674     -7.2159213      2.951405       50218.233      36.893836      36.893836      36.893836    
   4350000   0.45661409    -7.8972452     -7.2123338      2.9860468      50218.233      36.893836      36.893836      36.893836    
   4360000   0.45325636    -7.8997861     -7.2199112      2.9607897      50218.233      36.893836      36.893836      36.893836    
   4370000   0.45420251    -7.8939715     -7.2126775      3.0022829      50218.233      36.893836      36.893836      36.893836    
   4380000   0.45538237    -7.897109      -7.2140452      2.987753       50218.233      36.893836      36.893836      36.893836    
   4390000   0.45452332    -7.9009817     -7.2192064      2.9639996      50218.233      36.893836      36.893836      36.893836    
   4400000   0.45523062    -7.8968757     -7.2140395      2.9777261      50218.233      36.893836      36.893836      36.893836    
   4410000   0.45698494    -7.8972525     -7.2117848      2.994896       50218.233      36.893836      36.893836      36.893836    
   4420000   0.45442421    -7.898114      -7.2164874      2.9866216      50218.233      36.893836      36.893836      36.893836    
   4430000   0.45419428    -7.8971957     -7.215914       2.9857942      50218.233      36.893836      36.893836      36.893836    
   4440000   0.45565686    -7.8959227     -7.2124472      2.9977385      50218.233      36.893836      36.893836      36.893836    
   4450000   0.45741954    -7.8977416     -7.211622       2.986776       50218.233      36.893836      36.893836      36.893836    
   4460000   0.45413826    -7.9011416     -7.2199439      2.9622844      50218.233      36.893836      36.893836      36.893836    
   4470000   0.45530315    -7.8989483     -7.2160033      2.9567737      50218.233      36.893836      36.893836      36.893836    
   4480000   0.45563205    -7.9012253     -7.217787       2.9546341      50218.233      36.893836      36.893836      36.893836    
   4490000   0.45337554    -7.8986177     -7.218564       2.965289       50218.233      36.893836      36.893836      36.893836    
   4500000   0.45682811    -7.8983168     -7.2130844      2.9846859      50218.233      36.893836      36.893836      36.893836    
   4510000   0.45189734    -7.8987231     -7.2208867      2.9726937      50218.233      36.893836      36.893836      36.893836    
   4520000   0.4549432     -7.9024532     -7.2200481      2.9465916      50218.233      36.893836      36.893836      36.893836    
   4530000   0.45371038    -7.8965056     -7.2159497      2.9821119      50218.233      36.893836      36.893836      36.893836    
   4540000   0.45585289    -7.8965675     -7.2127979      2.9937202      50218.233      36.893836      36.893836      36.893836    
   4550000   0.45441557    -7.8965192     -7.2149056      2.9888418      50218.233      36.893836      36.893836      36.893836    
   4560000   0.45519853    -7.896662      -7.2138739      2.980985       50218.233      36.893836      36.893836      36.893836    
   4570000   0.45435758    -7.8968885     -7.2153618      2.9862244      50218.233      36.893836      36.893836      36.893836    
   4580000   0.45450418    -7.9017395     -7.2199929      2.9481773      50218.233      36.893836      36.893836      36.893836    
   4590000   0.45262421    -7.8938796     -7.2149529      3.0080667      50218.233      36.893836      36.893836      36.893836    
   4600000   0.45635444    -7.8985372     -7.2140152      2.9800874      50218.233      36.893836      36.893836      36.893836    
   4610000   0.45608659    -7.8972349     -7.2131147      2.9826453      50218.233      36.893836      36.893836      36.893836    
   4620000   0.45249329    -7.9008655     -7.2221352      2.9554157      50218.233      36.893836      36.893836      36.893836    
   4630000   0.45258026    -7.8934686     -7.2146079      3.0156721      50218.233      36.893836      36.893836      36.893836    
   4640000   0.45378473    -7.8981897     -7.2175222      2.9786572      50218.233      36.893836      36.893836      36.893836    
   4650000   0.4541382     -7.8990618     -7.2178642      2.9694377      50218.233      36.893836      36.893836      36.893836    
   4660000   0.45742253    -7.897567      -7.211443       2.9890707      50218.233      36.893836      36.893836      36.893836    
   4670000   0.45400003    -7.8959579     -7.2149675      2.9895573      50218.233      36.893836      36.893836      36.893836    
   4680000   0.45708926    -7.8987147     -7.2130905      2.9832631      50218.233      36.893836      36.893836      36.893836    
   4690000   0.45762421    -7.8987841     -7.2123576      2.9688449      50218.233      36.893836      36.893836      36.893836    
   4700000   0.45630584    -7.8954532     -7.2110042      2.9955406      50218.233      36.893836      36.893836      36.893836    
   4710000   0.45521203    -7.8985831     -7.2157748      2.9750585      50218.233      36.893836      36.893836      36.893836    
   4720000   0.45240221    -7.89686       -7.2182663      2.9855444      50218.233      36.893836      36.893836      36.893836    
   4730000   0.45267834    -7.8986862     -7.2196783      2.9820451      50218.233      36.893836      36.893836      36.893836    
   4740000   0.45480006    -7.9002323     -7.2180419      2.9599836      50218.233      36.893836      36.893836      36.893836    
   4750000   0.45485195    -7.8957898     -7.2135216      2.9974026      50218.233      36.893836      36.893836      36.893836    
   4760000   0.45521076    -7.8976897     -7.2148833      2.9703746      50218.233      36.893836      36.893836      36.893836    
   4770000   0.45520447    -7.9024099     -7.2196129      2.941698       50218.233      36.893836      36.893836      36.893836    
   4780000   0.4528151     -7.8984495     -7.2192365      2.9613916      50218.233      36.893836      36.893836      36.893836    
   4790000   0.45469541    -7.8956962     -7.2136628      2.996111       50218.233      36.893836      36.893836      36.893836    
   4800000   0.45483508    -7.8956549     -7.213412       2.9939728      50218.233      36.893836      36.893836      36.893836    
   4810000   0.45277963    -7.897362      -7.2182022      2.981083       50218.233      36.893836      36.893836      36.893836    
   4820000   0.45418096    -7.8973875     -7.2161257      2.983935       50218.233      36.893836      36.893836      36.893836    
   4830000   0.45481014    -7.9000504     -7.2178449      2.9650157      50218.233      36.893836      36.893836      36.893836    
   4840000   0.4554912     -7.9005469     -7.2173198      2.9567447      50218.233      36.893836      36.893836      36.893836    
   4850000   0.45603791    -7.8970586     -7.2130114      2.9796276      50218.233      36.893836      36.893836      36.893836    
   4860000   0.45346486    -7.8989045     -7.2187168      2.9692927      50218.233      36.893836      36.893836      36.893836    
   4870000   0.45574409    -7.9017808     -7.2181744      2.9607508      50218.233      36.893836      36.893836      36.893836    
   4880000   0.45331816    -7.8973529     -7.2173853      2.9865592      50218.233      36.893836      36.893836      36.893836    
   4890000   0.45392114    -7.8966508     -7.2157788      2.9908178      50218.233      36.893836      36.893836      36.893836    
   4900000   0.45251832    -7.899399      -7.2206312      2.9649789      50218.233      36.893836      36.893836      36.893836    
   4910000   0.45458694    -7.8978047     -7.215934       2.9810121      50218.233      36.893836      36.893836      36.893836    
   4920000   0.45352083    -7.8977973     -7.2175257      2.9758152      50218.233      36.893836      36.893836      36.893836    
   4930000   0.45466294    -7.8993852     -7.2174004      2.967771       50218.233      36.893836      36.893836      36.893836    
   4940000   0.4593379     -7.9010798     -7.2120827      2.971162       50218.233      36.893836      36.893836      36.893836    
   4950000   0.45442411    -7.9040717     -7.2224453      2.9236563      50218.233      36.893836      36.893836      36.893836    
   4960000   0.45378977    -7.8962016     -7.2155267      2.9886613      50218.233      36.893836      36.893836      36.893836    
   4970000   0.4563297     -7.9027503     -7.2182655      2.9404319      50218.233      36.893836      36.893836      36.893836    
   4980000   0.45326485    -7.9018913     -7.2220037      2.9383944      50218.233      36.893836      36.893836      36.893836    
   4990000   0.45576016    -7.8993407     -7.2157102      2.9747946      50218.233      36.893836      36.893836      36.893836    
   5000000   0.45665289    -7.8988356     -7.213866       2.9790147      50218.233      36.893836      36.893836      36.893836    
   5010000   0.45670061    -7.899114      -7.2140728      2.9731713      50218.233      36.893836      36.893836      36.893836    
   5020000   0.45686247    -7.9022042     -7.2169202      2.9547447      50218.233      36.893836      36.893836      36.893836    
   5030000   0.45624465    -7.8992112     -7.2148539      2.9740808      50218.233      36.893836      36.893836      36.893836    
   5040000   0.45505154    -7.9008772     -7.2183096      2.9596539      50218.233      36.893836      36.893836      36.893836    
   5050000   0.45494865    -7.9005053     -7.2180921      2.951273       50218.233      36.893836      36.893836      36.893836    
   5060000   0.45162451    -7.8973554     -7.2199282      2.9665463      50218.233      36.893836      36.893836      36.893836    
   5070000   0.4536261     -7.9008926     -7.2204631      2.964895       50218.233      36.893836      36.893836      36.893836    
   5080000   0.45482361    -7.89937       -7.2171443      2.9660988      50218.233      36.893836      36.893836      36.893836    
   5090000   0.45690401    -7.8996601     -7.2143139      2.9607077      50218.233      36.893836      36.893836      36.893836    
   5100000   0.45381293    -7.9000064     -7.2192967      2.9603439      50218.233      36.893836      36.893836      36.893836    
   5110000   0.45315812    -7.896612      -7.2168845      2.9850418      50218.233      36.893836      36.893836      36.893836    
   5120000   0.45661702    -7.8989041     -7.2139883      2.9707596      50218.233      36.893836      36.893836      36.893836    
   5130000   0.45462387    -7.8983335     -7.2164074      2.9748121      50218.233      36.893836      36.893836      36.893836    
   5140000   0.45394462    -7.8968438     -7.2159366      2.9815902      50218.233      36.893836      36.893836      36.893836    
   5150000   0.45420011    -7.8997726     -7.2184821      2.9711999      50218.233      36.893836      36.893836      36.893836    
   5160000   0.45406512    -7.8986583     -7.2175703      2.9670077      50218.233      36.893836      36.893836      36.893836    
   5170000   0.45486719    -7.9002493     -7.2179582      2.9654276      50218.233      36.893836      36.893836      36.893836    
   5180000   0.45474478    -7.8980125     -7.2159051      2.9665424      50218.233      36.893836      36.893836      36.893836    
   5190000   0.45189494    -7.8959664     -7.2181336      2.9944041      50218.233      36.893836      36.893836      36.893836    
   5200000   0.45547052    -7.8994769     -7.2162809      2.9684862      50218.233      36.893836      36.893836      36.893836    
   5210000   0.45408101    -7.8970632     -7.2159514      2.9856619      50218.233      36.893836      36.893836      36.893836    
   5220000   0.4541507     -7.8989733     -7.217757       2.9735122      50218.233      36.893836      36.893836      36.893836    
   5230000   0.45509783    -7.8960018     -7.2133647      2.9963536      50218.233      36.893836      36.893836      36.893836    
   5240000   0.45402618    -7.9003251     -7.2192955      2.9637069      50218.233      36.893836      36.893836      36.893836    
   5250000   0.45219436    -7.8991419     -7.22086        2.9721981      50218.233      36.893836      36.893836      36.893836    
   5260000   0.45446459    -7.8967035     -7.2150163      2.9974691      50218.233      36.893836      36.893836      36.893836    
   5270000   0.45289466    -7.9012615     -7.2219292      2.9516926      50218.233      36.893836      36.893836      36.893836    
   5280000   0.45344187    -7.89641       -7.2162568      2.9971435      50218.233      36.893836      36.893836      36.893836    
   5290000   0.45709325    -7.895767      -7.2101369      2.9991237      50218.233      36.893836      36.893836      36.893836    
   5300000   0.45178311    -7.89815       -7.2204849      2.9647026      50218.233      36.893836      36.893836      36.893836    
   5310000   0.45614829    -7.8980425     -7.2138298      2.9831804      50218.233      36.893836      36.893836      36.893836    
   5320000   0.45308862    -7.8980612     -7.2184379      2.9859923      50218.233      36.893836      36.893836      36.893836    
   5330000   0.45158891    -7.8976695     -7.2202958      2.9732123      50218.233      36.893836      36.893836      36.893836    
   5340000   0.4555996     -7.900819      -7.2174293      2.9620769      50218.233      36.893836      36.893836      36.893836    
   5350000   0.45363325    -7.8972854     -7.2168452      2.9880632      50218.233      36.893836      36.893836      36.893836    
   5360000   0.45485435    -7.9021537     -7.2198819      2.9547271      50218.233      36.893836      36.893836      36.893836    
   5370000   0.45461324    -7.8957095     -7.2137993      2.9950059      50218.233      36.893836      36.893836      36.893836    
   5380000   0.45396107    -7.8994872     -7.2185553      2.9559423      50218.233      36.893836      36.893836      36.893836    
   5390000   0.4566208     -7.8990402     -7.2141187      2.9861395      50218.233      36.893836      36.893836      36.893836    
   5400000   0.45382436    -7.9023359     -7.221609       2.9475745      50218.233      36.893836      36.893836      36.893836    
   5410000   0.4564004     -7.8988934     -7.2143025      2.9641283      50218.233      36.893836      36.893836      36.893836    
   5420000   0.45314103    -7.8976208     -7.217919       2.9776657      50218.233      36.893836      36.893836      36.893836    
   5430000   0.4553262     -7.8984422     -7.2154626      2.9792857      50218.233      36.893836      36.893836      36.893836    
   5440000   0.45545602    -7.8995874     -7.216413       2.9706221      50218.233      36.893836      36.893836      36.893836    
   5450000   0.45395167    -7.9002052     -7.2192874      2.9618819      50218.233      36.893836      36.893836      36.893836    
   5460000   0.45609104    -7.9000365     -7.2159096      2.9727704      50218.233      36.893836      36.893836      36.893836    
   5470000   0.45502372    -7.8981878     -7.2156619      2.9834399      50218.233      36.893836      36.893836      36.893836    
   5480000   0.4563159     -7.9012061     -7.216742       2.9711737      50218.233      36.893836      36.893836      36.893836    
   5490000   0.45626419    -7.8997601     -7.2153735      2.9786137      50218.233      36.893836      36.893836      36.893836    
   5500000   0.45261801    -7.9006577     -7.2217403      2.9571984      50218.233      36.893836      36.893836      36.893836    
   5510000   0.4561654     -7.8999862     -7.2157478      2.9592527      50218.233      36.893836      36.893836      36.893836    
   5520000   0.45463019    -7.8978726     -7.215937       2.9844449      50218.233      36.893836      36.893836      36.893836    
   5530000   0.45595542    -7.8948054     -7.210882       3.0087926      50218.233      36.893836      36.893836      36.893836    
   5540000   0.45616855    -7.8976788     -7.2134358      2.997305       50218.233      36.893836      36.893836      36.893836    
   5550000   0.45595425    -7.8985679     -7.2146462      2.9803833      50218.233      36.893836      36.893836      36.893836    
   5560000   0.45406466    -7.9013202     -7.2202329      2.951751       50218.233      36.893836      36.893836      36.893836    
   5570000   0.45540179    -7.8979819     -7.214889       2.9775704      50218.233      36.893836      36.893836      36.893836    
   5580000   0.45653168    -7.9039137     -7.2191259      2.938568       50218.233      36.893836      36.893836      36.893836    
   5590000   0.45577641    -7.9015549     -7.2179         2.950007       50218.233      36.893836      36.893836      36.893836    
   5600000   0.45378878    -7.9004149     -7.2197414      2.9617536      50218.233      36.893836      36.893836      36.893836    
   5610000   0.45595361    -7.8971244     -7.2132038      2.9926562      50218.233      36.893836      36.893836      36.893836    
   5620000   0.45322377    -7.9033326     -7.2235067      2.9431227      50218.233      36.893836      36.893836      36.893836    
   5630000   0.45757205    -7.9001443     -7.2137959      2.9626929      50218.233      36.893836      36.893836      36.893836    
   5640000   0.45668447    -7.8994947     -7.2144777      2.9686331      50218.233      36.893836      36.893836      36.893836    
   5650000   0.45385534    -7.8997536     -7.2189802      2.9690072      50218.233      36.893836      36.893836      36.893836    
   5660000   0.45583523    -7.8950333     -7.2112902      2.9985612      50218.233      36.893836      36.893836      36.893836    
   5670000   0.45373862    -7.8921864     -7.2115882      3.023703       50218.233      36.893836      36.893836      36.893836    
   5680000   0.45359051    -7.8993159     -7.2189398      2.9727118      50218.233      36.893836      36.893836      36.893836    
   5690000   0.45702981    -7.9028893     -7.2173543      2.9433156      50218.233      36.893836      36.893836      36.893836    
   5700000   0.45549868    -7.9010722     -7.2178338      2.9581131      50218.233      36.893836      36.893836      36.893836    
   5710000   0.45379491    -7.8992351     -7.2185525      2.9679105      50218.233      36.893836      36.893836      36.893836    
   5720000   0.45687775    -7.9015299     -7.216223       2.9591215      50218.233      36.893836      36.893836      36.893836    
   5730000   0.45706492    -7.8996426     -7.214055       2.9857006      50218.233      36.893836      36.893836      36.893836    
   5740000   0.45447152    -7.8990002     -7.2173026      2.9723503      50218.233      36.893836      36.893836      36.893836    
   5750000   0.45561417    -7.8993182     -7.2159067      2.9830062      50218.233      36.893836      36.893836      36.893836    
   5760000   0.45572129    -7.8997246     -7.2161524      2.9808265      50218.233      36.893836      36.893836      36.893836    
   5770000   0.45609588    -7.899194      -7.2150599      2.987732       50218.233      36.893836      36.893836      36.893836    
   5780000   0.45678465    -7.9008562     -7.215689       2.962564       50218.233      36.893836      36.893836      36.893836    
   5790000   0.45656242    -7.8979121     -7.2130783      2.9811612      50218.233      36.893836      36.893836      36.893836    
   5800000   0.45334104    -7.9015362     -7.2215343      2.9583261      50218.233      36.893836      36.893836      36.893836    
   5810000   0.45882384    -7.9046577     -7.2164318      2.9414408      50218.233      36.893836      36.893836      36.893836    
   5820000   0.45308975    -7.90018       -7.2205551      2.9647029      50218.233      36.893836      36.893836      36.893836    
   5830000   0.45481409    -7.8982637     -7.2160522      2.9872355      50218.233      36.893836      36.893836      36.893836    
   5840000   0.45596902    -7.9001835     -7.2162397      2.9592377      50218.233      36.893836      36.893836      36.893836    
   5850000   0.45484823    -7.903028      -7.2207653      2.9339398      50218.233      36.893836      36.893836      36.893836    
   5860000   0.45475782    -7.9010015     -7.2188745      2.9611         50218.233      36.893836      36.893836      36.893836    
   5870000   0.45370282    -7.9029166     -7.222372       2.9376415      50218.233      36.893836      36.893836      36.893836    
   5880000   0.45508382    -7.9027218     -7.2201057      2.9449918      50218.233      36.893836      36.893836      36.893836    
   5890000   0.4551752     -7.8975695     -7.2148164      2.995862       50218.233      36.893836      36.893836      36.893836    
   5900000   0.45377698    -7.9014854     -7.2208296      2.95589        50218.233      36.893836      36.893836      36.893836    
   5910000   0.45577021    -7.9037123     -7.2200667      2.9393023      50218.233      36.893836      36.893836      36.893836    
   5920000   0.45536632    -7.8972094     -7.2141697      2.9846393      50218.233      36.893836      36.893836      36.893836    
   5930000   0.45454114    -7.8991393     -7.2173373      2.9689494      50218.233      36.893836      36.893836      36.893836    
   5940000   0.45437182    -7.902634      -7.2210859      2.9452608      50218.233      36.893836      36.893836      36.893836    
   5950000   0.45324771    -7.8970203     -7.2171584      2.988823       50218.233      36.893836      36.893836      36.893836    
   5960000   0.45559334    -7.9010335     -7.2176532      2.9612792      50218.233      36.893836      36.893836      36.893836    
   5970000   0.45408553    -7.9006157     -7.2194971      2.9678429      50218.233      36.893836      36.893836      36.893836    
   5980000   0.45367152    -7.8998813     -7.2193837      2.9665323      50218.233      36.893836      36.893836      36.893836    
   5990000   0.45607523    -7.9017441     -7.2176409      2.9531404      50218.233      36.893836      36.893836      36.893836    
   6000000   0.45531675    -7.9016659     -7.2187005      2.9517409      50218.233      36.893836      36.893836      36.893836    
   6010000   0.45791495    -7.9029064     -7.2160438      2.9534902      50218.233      36.893836      36.893836      36.893836    
   6020000   0.4540694     -7.9020334     -7.2209389      2.9525223      50218.233      36.893836      36.893836      36.893836    
   6030000   0.45326626    -7.9017369     -7.2218472      2.9510284      50218.233      36.893836      36.893836      36.893836    
   6040000   0.45797045    -7.905948      -7.2190021      2.9236956      50218.233      36.893836      36.893836      36.893836    
   6050000   0.45437687    -7.906225      -7.2246693      2.930051       50218.233      36.893836      36.893836      36.893836    
   6060000   0.45406584    -7.9027365     -7.2216475      2.9437646      50218.233      36.893836      36.893836      36.893836    
   6070000   0.45566266    -7.9035177     -7.2200335      2.9348322      50218.233      36.893836      36.893836      36.893836    
   6080000   0.45455899    -7.9024174     -7.2205886      2.9430782      50218.233      36.893836      36.893836      36.893836    
   6090000   0.4543962     -7.9034187     -7.2218341      2.940249       50218.233      36.893836      36.893836      36.893836    
   6100000   0.45619528    -7.8990173     -7.2147341      2.9740581      50218.233      36.893836      36.893836      36.893836    
   6110000   0.45439667    -7.9060728     -7.2244875      2.9148838      50218.233      36.893836      36.893836      36.893836    
   6120000   0.45522996    -7.8976385     -7.2148033      2.9926888      50218.233      36.893836      36.893836      36.893836    
   6130000   0.4562926     -7.8975655     -7.2131364      2.9952179      50218.233      36.893836      36.893836      36.893836    
   6140000   0.45559983    -7.8975082     -7.2141181      2.9821265      50218.233      36.893836      36.893836      36.893836    
   6150000   0.45641246    -7.9020242     -7.2174153      2.9525724      50218.233      36.893836      36.893836      36.893836    
   6160000   0.4566723     -7.8999432     -7.2149445      2.9797821      50218.233      36.893836      36.893836      36.893836    
   6170000   0.4554104     -7.9008729     -7.217767       2.9525541      50218.233      36.893836      36.893836      36.893836    
   6180000   0.45385025    -7.9019287     -7.221163       2.9388099      50218.233      36.893836      36.893836      36.893836    
   6190000   0.45599682    -7.900119      -7.2161335      2.9627724      50218.233      36.893836      36.893836      36.893836    
   6200000   0.45531112    -7.9023604     -7.2194035      2.9538026      50218.233      36.893836      36.893836      36.893836    
   6210000   0.45700629    -7.9004978     -7.2149981      2.9562412      50218.233      36.893836      36.893836      36.893836    
   6220000   0.45719876    -7.9030058     -7.2172174      2.945192       50218.233      36.893836      36.893836      36.893836    
   6230000   0.45487752    -7.8990399     -7.2167333      2.9647252      50218.233      36.893836      36.893836      36.893836    
   6240000   0.45433861    -7.899138      -7.2176398      2.9720433      50218.233      36.893836      36.893836      36.893836    
   6250000   0.45316782    -7.900459      -7.2207169      2.9529729      50218.233      36.893836      36.893836      36.893836    
   6260000   0.45346501    -7.8981418     -7.2179539      2.9797661      50218.233      36.893836      36.893836      36.893836    
   6270000   0.45590351    -7.8978603     -7.2140148      2.9838997      50218.233      36.893836      36.893836      36.893836    
   6280000   0.45766478    -7.8988412     -7.2123538      2.981447       50218.233      36.893836      36.893836      36.893836    
   6290000   0.45347894    -7.8970894     -7.2168807      2.9752079      50218.233      36.893836      36.893836      36.893836    
   6300000   0.45437917    -7.8994519     -7.2178929      2.9755672      50218.233      36.893836      36.893836      36.893836    
   6310000   0.45359338    -7.9033217     -7.2229413      2.9293914      50218.233      36.893836      36.893836      36.893836    
   6320000   0.45578507    -7.8948391     -7.2111712      3.0058481      50218.233      36.893836      36.893836      36.893836    
   6330000   0.45587669    -7.9002526     -7.2164473      2.9711398      50218.233      36.893836      36.893836      36.893836    
   6340000   0.45525539    -7.898488      -7.2156147      2.9766495      50218.233      36.893836      36.893836      36.893836    
   6350000   0.45569585    -7.9008157     -7.2172817      2.953689       50218.233      36.893836      36.893836      36.893836    
   6360000   0.45573453    -7.900237      -7.2166449      2.9598621      50218.233      36.893836      36.893836      36.893836    
   6370000   0.45363004    -7.8999047     -7.2194693      2.9578905      50218.233      36.893836      36.893836      36.893836    
   6380000   0.45815298    -7.9001954     -7.2129758      2.9633539      50218.233      36.893836      36.893836      36.893836    
   6390000   0.45476562    -7.9035847     -7.2214459      2.942397       50218.233      36.893836      36.893836      36.893836    
   6400000   0.45520256    -7.901216      -7.2184218      2.9549943      50218.233      36.893836      36.893836      36.893836    
   6410000   0.45478233    -7.8995999     -7.2174361      2.9707105      50218.233      36.893836      36.893836      36.893836    
   6420000   0.45472889    -7.9010097     -7.2189261      2.9669059      50218.233      36.893836      36.893836      36.893836    
   6430000   0.45676202    -7.8984662     -7.2133329      2.9893022      50218.233      36.893836      36.893836      36.893836    
   6440000   0.4552558     -7.9019893     -7.2191153      2.9525644      50218.233      36.893836      36.893836      36.893836    
   6450000   0.45424998    -7.8975759     -7.2162106      2.9836929      50218.233      36.893836      36.893836      36.893836    
   6460000   0.45691169    -7.9020463     -7.2166885      2.9476482      50218.233      36.893836      36.893836      36.893836    
   6470000   0.45421383    -7.9011674     -7.2198563      2.9574008      50218.233      36.893836      36.893836      36.893836    
   6480000   0.45665661    -7.90338       -7.2184049      2.9383175      50218.233      36.893836      36.893836      36.893836    
   6490000   0.45675157    -7.89839       -7.2132724      2.9828081      50218.233      36.893836      36.893836      36.893836    
   6500000   0.45352501    -7.90208       -7.2218022      2.9471261      50218.233      36.893836      36.893836      36.893836    
   6510000   0.45526753    -7.9005867     -7.2176951      2.964923       50218.233      36.893836      36.893836      36.893836    
   6520000   0.4554374     -7.9014011     -7.2182547      2.9593548      50218.233      36.893836      36.893836      36.893836    
   6530000   0.45568813    -7.9050563     -7.2215338      2.9321076      50218.233      36.893836      36.893836      36.893836    
   6540000   0.45543417    -7.9004805     -7.217339       2.9612092      50218.233      36.893836      36.893836      36.893836    
   6550000   0.45777061    -7.9000681     -7.213422       2.9599325      50218.233      36.893836      36.893836      36.893836    
   6560000   0.45603633    -7.9001852     -7.2161404      2.9684203      50218.233      36.893836      36.893836      36.893836    
   6570000   0.4540263     -7.9002598     -7.21923        2.9661495      50218.233      36.893836      36.893836      36.893836    
   6580000   0.45363819    -7.9021866     -7.221739       2.9379282      50218.233      36.893836      36.893836      36.893836    
   6590000   0.45482172    -7.8974546     -7.2152318      2.9824835      50218.233      36.893836      36.893836      36.893836    
   6600000   0.45201858    -7.8997726     -7.2217544      2.9705454      50218.233      36.893836      36.893836      36.893836    
   6610000   0.45592527    -7.8996489     -7.2157707      2.9743765      50218.233      36.893836      36.893836      36.893836    
   6620000   0.45372118    -7.8992698     -7.2186978      2.9826185      50218.233      36.893836      36.893836      36.893836    
   6630000   0.45438488    -7.8985215     -7.2169539      2.9810123      50218.233      36.893836      36.893836      36.893836    
   6640000   0.45562106    -7.9002206     -7.2167988      2.9683801      50218.233      36.893836      36.893836      36.893836    
   6650000   0.45701001    -7.9008238     -7.2153185      2.9550053      50218.233      36.893836      36.893836      36.893836    
   6660000   0.45418856    -7.9034664     -7.2221932      2.9306533      50218.233      36.893836      36.893836      36.893836    
   6670000   0.45556159    -7.9013037     -7.2179711      2.9587681      50218.233      36.893836      36.893836      36.893836    
   6680000   0.45362624    -7.8991967     -7.218767       2.9634182      50218.233      36.893836      36.893836      36.893836    
   6690000   0.45525701    -7.9010741     -7.2181983      2.9513857      50218.233      36.893836      36.893836      36.893836    
   6700000   0.45203147    -7.9049476     -7.22691        2.9165433      50218.233      36.893836      36.893836      36.893836    
   6710000   0.45571073    -7.8981345     -7.2145781      2.9729166      50218.233      36.893836      36.893836      36.893836    
   6720000   0.45544459    -7.8994927     -7.2163356      2.9722518      50218.233      36.893836      36.893836      36.893836    
   6730000   0.45513421    -7.9020676     -7.219376       2.9440618      50218.233      36.893836      36.893836      36.893836    
   6740000   0.45329325    -7.8967408     -7.2168106      2.9834227      50218.233      36.893836      36.893836      36.893836    
   6750000   0.45484992    -7.9027212     -7.220456       2.9420236      50218.233      36.893836      36.893836      36.893836    
   6760000   0.45559348    -7.8983356     -7.2149551      2.9784841      50218.233      36.893836      36.893836      36.893836    
   6770000   0.45409078    -7.9028233     -7.2216968      2.9376517      50218.233      36.893836      36.893836      36.893836    
   6780000   0.45710867    -7.8997734     -7.2141201      2.9667982      50218.233      36.893836      36.893836      36.893836    
   6790000   0.45195136    -7.8969176     -7.2190002      2.9761934      50218.233      36.893836      36.893836      36.893836    
   6800000   0.45662106    -7.9017704     -7.2168486      2.9515275      50218.233      36.893836      36.893836      36.893836    
   6810000   0.45675022    -7.8998855     -7.2147699      2.96051        50218.233      36.893836      36.893836      36.893836    
   6820000   0.45565558    -7.8984769     -7.2150033      2.9751678      50218.233      36.893836      36.893836      36.893836    
   6830000   0.45669921    -7.899426      -7.2143869      2.9666173      50218.233      36.893836      36.893836      36.893836    
   6840000   0.45463203    -7.9008889     -7.2189506      2.9511668      50218.233      36.893836      36.893836      36.893836    
   6850000   0.45508675    -7.9019507     -7.2193303      2.9490427      50218.233      36.893836      36.893836      36.893836    
   6860000   0.45518692    -7.9051282     -7.2223575      2.9319099      50218.233      36.893836      36.893836      36.893836    
   6870000   0.4539139     -7.9016596     -7.2207984      2.9456317      50218.233      36.893836      36.893836      36.893836    
   6880000   0.45529433    -7.9038996     -7.2209678      2.9358049      50218.233      36.893836      36.893836      36.893836    
   6890000   0.45752187    -7.9041417     -7.2178686      2.9348047      50218.233      36.893836      36.893836      36.893836    
   6900000   0.45387096    -7.8997823     -7.2189856      2.9602365      50218.233      36.893836      36.893836      36.893836    
   6910000   0.45468865    -7.8999463     -7.217923       2.9709251      50218.233      36.893836      36.893836      36.893836    
   6920000   0.45442532    -7.8995929     -7.2179646      2.9706883      50218.233      36.893836      36.893836      36.893836    
   6930000   0.455939      -7.8977024     -7.2138037      2.9910634      50218.233      36.893836      36.893836      36.893836    
   6940000   0.45506422    -7.9060718     -7.2234851      2.9155334      50218.233      36.893836      36.893836      36.893836    
   6950000   0.45424024    -7.9023919     -7.2210413      2.9379776      50218.233      36.893836      36.893836      36.893836    
   6960000   0.45428313    -7.9005864     -7.2191714      2.9484008      50218.233      36.893836      36.893836      36.893836    
   6970000   0.45694478    -7.9007577     -7.2153503      2.9694828      50218.233      36.893836      36.893836      36.893836    
   6980000   0.45461541    -7.9043294     -7.222416       2.9262963      50218.233      36.893836      36.893836      36.893836    
   6990000   0.4576615     -7.9005334     -7.2140509      2.9734228      50218.233      36.893836      36.893836      36.893836    
   7000000   0.45245061    -7.9007906     -7.2221244      2.9607042      50218.233      36.893836      36.893836      36.893836    
   7010000   0.45461871    -7.9015854     -7.219667       2.9482936      50218.233      36.893836      36.893836      36.893836    
   7020000   0.45725802    -7.9021729     -7.2162956      2.9547029      50218.233      36.893836      36.893836      36.893836    
   7030000   0.45412166    -7.9018505     -7.2206777      2.9441009      50218.233      36.893836      36.893836      36.893836    
   7040000   0.45294494    -7.9017481     -7.2223404      2.9495227      50218.233      36.893836      36.893836      36.893836    
   7050000   0.45570887    -7.9046695     -7.2211159      2.9369572      50218.233      36.893836      36.893836      36.893836    
   7060000   0.45645457    -7.8992302     -7.2145581      2.9806694      50218.233      36.893836      36.893836      36.893836    
   7070000   0.45557785    -7.9005912     -7.2172342      2.9675133      50218.233      36.893836      36.893836      36.893836    
   7080000   0.45661303    -7.9002778     -7.215368       2.9755861      50218.233      36.893836      36.893836      36.893836    
   7090000   0.4560827     -7.9022142     -7.2180999      2.9465644      50218.233      36.893836      36.893836      36.893836    
   7100000   0.45558313    -7.9037357     -7.2203708      2.9380058      50218.233      36.893836      36.893836      36.893836    
   7110000   0.45498942    -7.8986624     -7.216188       2.9738213      50218.233      36.893836      36.893836      36.893836    
   7120000   0.453186      -7.9010502     -7.2212809      2.9589071      50218.233      36.893836      36.893836      36.893836    
   7130000   0.45455342    -7.9030447     -7.2212243      2.9424407      50218.233      36.893836      36.893836      36.893836    
   7140000   0.45651873    -7.9030668     -7.2182985      2.9525192      50218.233      36.893836      36.893836      36.893836    
   7150000   0.45541521    -7.9037159     -7.2206028      2.9423997      50218.233      36.893836      36.893836      36.893836    
   7160000   0.45361191    -7.9030126     -7.2226044      2.9531687      50218.233      36.893836      36.893836      36.893836    
   7170000   0.45518105    -7.8997029     -7.2169411      2.9638843      50218.233      36.893836      36.893836      36.893836    
   7180000   0.45508016    -7.9027368     -7.2201263      2.9400165      50218.233      36.893836      36.893836      36.893836    
   7190000   0.45618238    -7.8985212     -7.2142574      2.9845278      50218.233      36.893836      36.893836      36.893836    
   7200000   0.4525776     -7.8981439     -7.2192872      2.9865259      50218.233      36.893836      36.893836      36.893836    
   7210000   0.45567171    -7.8980168     -7.2145189      2.9834374      50218.233      36.893836      36.893836      36.893836    
   7220000   0.45524619    -7.9025092     -7.2196497      2.9500349      50218.233      36.893836      36.893836      36.893836    
   7230000   0.45503625    -7.8974881     -7.2149434      2.9855842      50218.233      36.893836      36.893836      36.893836    
   7240000   0.45328286    -7.8984487     -7.2185341      2.971714       50218.233      36.893836      36.893836      36.893836    
   7250000   0.45472887    -7.8966154     -7.2145319      2.9945642      50218.233      36.893836      36.893836      36.893836    
   7260000   0.45343386    -7.8979891     -7.217848       2.974876       50218.233      36.893836      36.893836      36.893836    
   7270000   0.45321569    -7.8992946     -7.2194807      2.9717654      50218.233      36.893836      36.893836      36.893836    
   7280000   0.4541507     -7.9010933     -7.2198769      2.9759179      50218.233      36.893836      36.893836      36.893836    
   7290000   0.45711672    -7.9057831     -7.2201178      2.9314727      50218.233      36.893836      36.893836      36.893836    
   7300000   0.45487245    -7.9016001     -7.2193011      2.9489013      50218.233      36.893836      36.893836      36.893836    
   7310000   0.45406994    -7.8989679     -7.2178727      2.9732783      50218.233      36.893836      36.893836      36.893836    
   7320000   0.45570711    -7.901378      -7.2178271      2.9645338      50218.233      36.893836      36.893836      36.893836    
   7330000   0.45330408    -7.9041789     -7.2242325      2.9355308      50218.233      36.893836      36.893836      36.893836    
   7340000   0.45448597    -7.905747      -7.2240277      2.9292719      50218.233      36.893836      36.893836      36.893836    
   7350000   0.4568446     -7.9012984     -7.2160412      2.9533126      50218.233      36.893836      36.893836      36.893836    
   7360000   0.45675227    -7.9024691     -7.2173505      2.9502361      50218.233      36.893836      36.893836      36.893836    
   7370000   0.45759486    -7.904603      -7.2182204      2.9289558      50218.233      36.893836      36.893836      36.893836    
   7380000   0.45289796    -7.9021313     -7.222794       2.9475793      50218.233      36.893836      36.893836      36.893836    
   7390000   0.45482102    -7.8999094     -7.2176876      2.9756196      50218.233      36.893836      36.893836      36.893836    
   7400000   0.45222148    -7.9007793     -7.2224568      2.9522809      50218.233      36.893836      36.893836      36.893836    
   7410000   0.45489553    -7.9026606     -7.220327       2.9493154      50218.233      36.893836      36.893836      36.893836    
   7420000   0.4550953     -7.9079443     -7.2253111      2.9166499      50218.233      36.893836      36.893836      36.893836    
   7430000   0.45574054    -7.8998124     -7.2162113      2.9702985      50218.233      36.893836      36.893836      36.893836    
   7440000   0.45685746    -7.9027787     -7.2175022      2.9520055      50218.233      36.893836      36.893836      36.893836    
   7450000   0.45526574    -7.9037226     -7.2208337      2.9451413      50218.233      36.893836      36.893836      36.893836    
   7460000   0.45607148    -7.9025615     -7.218464       2.9577141      50218.233      36.893836      36.893836      36.893836    
   7470000   0.45444962    -7.9019528     -7.2202881      2.9574666      50218.233      36.893836      36.893836      36.893836    
   7480000   0.45655513    -7.9021081     -7.2172852      2.9588203      50218.233      36.893836      36.893836      36.893836    
   7490000   0.45646747    -7.9063315     -7.22164        2.92862        50218.233      36.893836      36.893836      36.893836    
   7500000   0.45605184    -7.9036349     -7.2195669      2.9367143      50218.233      36.893836      36.893836      36.893836    
   7510000   0.45567061    -7.901552      -7.2180558      2.9612915      50218.233      36.893836      36.893836      36.893836    
   7520000   0.45549395    -7.9025673     -7.2193361      2.9537642      50218.233      36.893836      36.893836      36.893836    
   7530000   0.45472321    -7.9024967     -7.2204216      2.9452269      50218.233      36.893836      36.893836      36.893836    
   7540000   0.45537466    -7.8980422     -7.2149899      2.9781256      50218.233      36.893836      36.893836      36.893836    
   7550000   0.45508757    -7.9022664     -7.2196447      2.9455509      50218.233      36.893836      36.893836      36.893836    
   7560000   0.4556065     -7.9031612     -7.2197611      2.9430107      50218.233      36.893836      36.893836      36.893836    
   7570000   0.45118974    -7.9034985     -7.2267236      2.9283919      50218.233      36.893836      36.893836      36.893836    
   7580000   0.45598315    -7.9029909     -7.2190259      2.9509012      50218.233      36.893836      36.893836      36.893836    
   7590000   0.45729477    -7.9043907     -7.2184583      2.9362868      50218.233      36.893836      36.893836      36.893836    
   7600000   0.45568962    -7.9011955     -7.2176708      2.9569791      50218.233      36.893836      36.893836      36.893836    
   7610000   0.45706648    -7.9048438     -7.2192538      2.937836       50218.233      36.893836      36.893836      36.893836    
   7620000   0.45392702    -7.9006342     -7.2197534      2.9586324      50218.233      36.893836      36.893836      36.893836    
   7630000   0.45540712    -7.9012363     -7.2181354      2.9608008      50218.233      36.893836      36.893836      36.893836    
   7640000   0.45454529    -7.9031287     -7.2213204      2.9435069      50218.233      36.893836      36.893836      36.893836    
   7650000   0.45282225    -7.9031374     -7.2239137      2.9421938      50218.233      36.893836      36.893836      36.893836    
   7660000   0.45567078    -7.9001748     -7.2166783      2.9615756      50218.233      36.893836      36.893836      36.893836    
   7670000   0.4531901     -7.8993774     -7.2196019      2.9685544      50218.233      36.893836      36.893836      36.893836    
   7680000   0.45477983    -7.89969       -7.21753        2.960275       50218.233      36.893836      36.893836      36.893836    
   7690000   0.45782919    -7.9021237     -7.2153897      2.9481906      50218.233      36.893836      36.893836      36.893836    
   7700000   0.45566511    -7.8995056     -7.2160176      2.9684363      50218.233      36.893836      36.893836      36.893836    
   7710000   0.45369318    -7.9004631     -7.219933       2.9579283      50218.233      36.893836      36.893836      36.893836    
   7720000   0.45524623    -7.9006743     -7.2178147      2.9641665      50218.233      36.893836      36.893836      36.893836    
   7730000   0.4573974     -7.9027593     -7.216673       2.9513582      50218.233      36.893836      36.893836      36.893836    
   7740000   0.45356739    -7.9038676     -7.2235262      2.9353759      50218.233      36.893836      36.893836      36.893836    
   7750000   0.45320116    -7.9027106     -7.2229185      2.9431331      50218.233      36.893836      36.893836      36.893836    
   7760000   0.45631166    -7.8990118     -7.214554       2.9686833      50218.233      36.893836      36.893836      36.893836    
   7770000   0.4553309     -7.9027888     -7.2198021      2.9517308      50218.233      36.893836      36.893836      36.893836    
   7780000   0.45312679    -7.9010015     -7.221321       2.9530465      50218.233      36.893836      36.893836      36.893836    
   7790000   0.45738027    -7.9012691     -7.2152085      2.9595697      50218.233      36.893836      36.893836      36.893836    
   7800000   0.45396456    -7.8997913     -7.2188541      2.96707        50218.233      36.893836      36.893836      36.893836    
   7810000   0.45368944    -7.8970185     -7.216494       2.9919596      50218.233      36.893836      36.893836      36.893836    
   7820000   0.45643443    -7.9050264     -7.2203845      2.9375361      50218.233      36.893836      36.893836      36.893836    
   7830000   0.45333871    -7.9002384     -7.22024        2.9652535      50218.233      36.893836      36.893836      36.893836    
   7840000   0.45205498    -7.9011964     -7.2231236      2.9562255      50218.233      36.893836      36.893836      36.893836    
   7850000   0.45476751    -7.9010313     -7.2188898      2.9582588      50218.233      36.893836      36.893836      36.893836    
   7860000   0.45487213    -7.9025125     -7.220214       2.9436565      50218.233      36.893836      36.893836      36.893836    
   7870000   0.45705565    -7.8998267     -7.214253       2.9695506      50218.233      36.893836      36.893836      36.893836    
   7880000   0.45686912    -7.9030226     -7.2177287      2.9472363      50218.233      36.893836      36.893836      36.893836    
   7890000   0.45587717    -7.9028957     -7.2190896      2.9519051      50218.233      36.893836      36.893836      36.893836    
   7900000   0.45510127    -7.9036393     -7.2209971      2.9320942      50218.233      36.893836      36.893836      36.893836    
   7910000   0.45315685    -7.9029904     -7.2232648      2.9410045      50218.233      36.893836      36.893836      36.893836    
   7920000   0.45103355    -7.9036041     -7.2270634      2.9350728      50218.233      36.893836      36.893836      36.893836    
   7930000   0.45423284    -7.9031172     -7.2217776      2.9449728      50218.233      36.893836      36.893836      36.893836    
   7940000   0.4544503     -7.8993609     -7.2176952      2.9694011      50218.233      36.893836      36.893836      36.893836    
   7950000   0.45500518    -7.9030268     -7.2205287      2.9315364      50218.233      36.893836      36.893836      36.893836    
   7960000   0.45572039    -7.9032826     -7.2197117      2.9366683      50218.233      36.893836      36.893836      36.893836    
   7970000   0.45734904    -7.9026359     -7.2166221      2.9510306      50218.233      36.893836      36.893836      36.893836    
   7980000   0.45430514    -7.9019794     -7.2205314      2.949831       50218.233      36.893836      36.893836      36.893836    
   7990000   0.45329871    -7.9014655     -7.2215271      2.9509261      50218.233      36.893836      36.893836      36.893836    
   8000000   0.4547414     -7.9028461     -7.2207437      2.9443601      50218.233      36.893836      36.893836      36.893836    
Loop time of 12737.1 on 5 procs for 8000000 steps with 70304 atoms

Performance: 542665.872 tau/day, 628.086 timesteps/s, 44.157 Matom-step/s
94.2% CPU use with 5 MPI tasks x 1 OpenMP threads

MPI task timing breakdown:
Section |  min time  |  avg time  |  max time  |%varavg| %total
---------------------------------------------------------------
Pair    | 3872       | 4873.7     | 5539.7     | 911.3 | 38.26
Neigh   | 38.509     | 41.997     | 47.419     |  50.6 |  0.33
Comm    | 1882.8     | 1901.8     | 1927.4     |  34.4 | 14.93
Output  | 0.14674    | 0.15207    | 0.16157    |   1.3 |  0.00
Modify  | 4634.1     | 5295.7     | 6320.9     | 874.0 | 41.58
Other   |            | 623.7      |            |       |  4.90

Nlocal:        14060.8 ave       14134 max       14002 min
Histogram: 1 0 1 0 1 1 0 0 0 1
Nghost:        18731.4 ave       18822 max       18672 min
Histogram: 1 1 1 0 0 0 1 0 0 1
Neighs:              0 ave           0 max           0 min
Histogram: 5 0 0 0 0 0 0 0 0 0

Total # of neighbors = 0
Ave neighs/atom = 0
Neighbor list builds = 1608363
Dangerous builds = 0
clear
OMP_NUM_THREADS environment is not set. Defaulting to 1 thread. (src/comm.cpp:98)
  using 1 OpenMP thread(s) per MPI task
package gpu 0
jump dms435.lmp

variable T equal 435
# T = 1000* (temp in LJ unit)
variable f equal 10000
log log.${T}
log log.435
