variable TLJ equal (${T}/1000)
variable TLJ equal (515/1000)
variable NCyle equal 8
variable iStep equal (${f})
variable iStep equal (10000)
variable dumpStep equal (${f}*100)
variable dumpStep equal (10000*100)
variable runStep equal (${f}*100*${NCyle})
variable runStep equal (10000*100*${NCyle})
variable runStep equal (10000*100*8)

units       lj
atom_style  atomic
dimension 3
boundary     p p p
pair_style  lj/cut 2.5
read_data  ../data/T${T}.dat
read_data  ../data/T515.dat
Reading data file ...
  orthogonal box = (0.97250269 0.97250269 0.97250269) to (37.866338 37.866338 37.866338)
  1 by 1 by 5 MPI processor grid
  reading atoms ...
  70304 atoms
  reading velocities ...
  70304 velocities
  read_data CPU = 0.211 seconds
change_box all triclinic
Changing box ...
  triclinic box = (0.97250269 0.97250269 0.97250269) to (37.866338 37.866338 37.866338) with tilt (0 0 0)
mass 1 1
mass 2 1
pair_modify shift yes
pair_coeff  1 1 1 1
pair_coeff  1 2 1.5 0.8
pair_coeff  2 2 0.5 0.88


timestep 0.01
thermo ${iStep}
thermo 10000
reset_timestep 0
thermo_style custom step temp pe etotal press vol lx ly lz
fix             1 all nvt temp ${TLJ}  ${TLJ}  0.1
fix             1 all nvt temp 0.515  ${TLJ}  0.1
fix             1 all nvt temp 0.515  0.515  0.1
thermo_modify flush yes

fix dsf all deform 1 xy  wiggle 0.5  ${f}   units box
fix dsf all deform 1 xy  wiggle 0.5  10000   units box
fix ps1 all ave/time 1 1 ${iStep} c_thermo_press[1] c_thermo_press[2]  c_thermo_press[3] c_thermo_press[4]  c_thermo_press[5] c_thermo_press[6]  file  stress.${T}
fix ps1 all ave/time 1 1 10000 c_thermo_press[1] c_thermo_press[2]  c_thermo_press[3] c_thermo_press[4]  c_thermo_press[5] c_thermo_press[6]  file  stress.${T}
fix ps1 all ave/time 1 1 10000 c_thermo_press[1] c_thermo_press[2]  c_thermo_press[3] c_thermo_press[4]  c_thermo_press[5] c_thermo_press[6]  file  stress.515
dump            1 all custom ${dumpStep} dump.${T} id type x y z
dump            1 all custom 1000000 dump.${T} id type x y z
dump            1 all custom 1000000 dump.515 id type x y z
dump_modify 1 sort id
fix nodrift all momentum 1  linear 1 1 1
fix com_seed all recenter INIT INIT INIT shift all
run ${runStep}
run 8000000
Generated 0 of 1 mixed pair_coeff terms from geometric mixing rule
Per MPI rank memory allocation (min/avg/max) = 6.668 | 8.469 | 8.923 Mbytes
   Step          Temp          PotEng         TotEng         Press          Volume           Lx             Ly             Lz      
         0   0.51193476    -7.7959563     -7.0280651      3.8275204      50218.233      36.893836      36.893836      36.893836    
     10000   0.51215355    -7.7899727     -7.0217533      3.8591732      50218.233      36.893836      36.893836      36.893836    
     20000   0.51332415    -7.7818616     -7.0118863      3.912694       50218.233      36.893836      36.893836      36.893836    
     30000   0.51490668    -7.781931      -7.009582       3.9310356      50218.233      36.893836      36.893836      36.893836    
     40000   0.51533751    -7.7835168     -7.0105215      3.9148128      50218.233      36.893836      36.893836      36.893836    
     50000   0.51477059    -7.7831959     -7.011051       3.9104248      50218.233      36.893836      36.893836      36.893836    
     60000   0.51522836    -7.7845474     -7.0117159      3.8864532      50218.233      36.893836      36.893836      36.893836    
     70000   0.51611474    -7.7855476     -7.0113865      3.8963438      50218.233      36.893836      36.893836      36.893836    
     80000   0.51678788    -7.779646      -7.0044752      3.9324708      50218.233      36.893836      36.893836      36.893836    
     90000   0.51545878    -7.7809146     -7.0077375      3.9375627      50218.233      36.893836      36.893836      36.893836    
    100000   0.51738889    -7.7826915     -7.0066192      3.9231836      50218.233      36.893836      36.893836      36.893836    
    110000   0.51563642    -7.7870442     -7.0136006      3.8954296      50218.233      36.893836      36.893836      36.893836    
    120000   0.5129388     -7.7863971     -7.0169998      3.8843342      50218.233      36.893836      36.893836      36.893836    
    130000   0.51502609    -7.7845447     -7.0120166      3.9034144      50218.233      36.893836      36.893836      36.893836    
    140000   0.51430814    -7.7806849     -7.0092336      3.9260033      50218.233      36.893836      36.893836      36.893836    
    150000   0.51466444    -7.7844456     -7.0124599      3.9047097      50218.233      36.893836      36.893836      36.893836    
    160000   0.51312435    -7.7805058     -7.0108302      3.9313491      50218.233      36.893836      36.893836      36.893836    
    170000   0.5154502     -7.7808386     -7.0076742      3.9375392      50218.233      36.893836      36.893836      36.893836    
    180000   0.51624977    -7.782546      -7.0081824      3.9263433      50218.233      36.893836      36.893836      36.893836    
    190000   0.51415727    -7.7824013     -7.0111763      3.9215506      50218.233      36.893836      36.893836      36.893836    
    200000   0.51492378    -7.7759687     -7.003594       3.9702448      50218.233      36.893836      36.893836      36.893836    
    210000   0.51530781    -7.7831763     -7.0102256      3.9157706      50218.233      36.893836      36.893836      36.893836    
    220000   0.51495081    -7.7838963     -7.0114811      3.912311       50218.233      36.893836      36.893836      36.893836    
    230000   0.51558523    -7.779809      -7.0064421      3.9443609      50218.233      36.893836      36.893836      36.893836    
    240000   0.51693997    -7.7902165     -7.0148176      3.8682052      50218.233      36.893836      36.893836      36.893836    
    250000   0.51407315    -7.7894123     -7.0183135      3.870872       50218.233      36.893836      36.893836      36.893836    
    260000   0.51487432    -7.7869317     -7.0146312      3.8795819      50218.233      36.893836      36.893836      36.893836    
    270000   0.51378934    -7.7859131     -7.0152401      3.8981906      50218.233      36.893836      36.893836      36.893836    
    280000   0.51568388    -7.7860463     -7.0125315      3.8883586      50218.233      36.893836      36.893836      36.893836    
    290000   0.51455265    -7.7874771     -7.0156591      3.8758057      50218.233      36.893836      36.893836      36.893836    
    300000   0.51336307    -7.7862276     -7.016194       3.8871162      50218.233      36.893836      36.893836      36.893836    
    310000   0.51538119    -7.7892851     -7.0162243      3.8711718      50218.233      36.893836      36.893836      36.893836    
    320000   0.51487113    -7.7884392     -7.0161435      3.8690939      50218.233      36.893836      36.893836      36.893836    
    330000   0.51486029    -7.7837613     -7.0114819      3.902846       50218.233      36.893836      36.893836      36.893836    
    340000   0.51483024    -7.7791299     -7.0068955      3.9408611      50218.233      36.893836      36.893836      36.893836    
    350000   0.51621127    -7.7855322     -7.0112263      3.8944565      50218.233      36.893836      36.893836      36.893836    
    360000   0.51598652    -7.7831862     -7.0092175      3.9164536      50218.233      36.893836      36.893836      36.893836    
    370000   0.51515485    -7.7859412     -7.0132199      3.8951645      50218.233      36.893836      36.893836      36.893836    
    380000   0.51637471    -7.7817909     -7.0072398      3.9147265      50218.233      36.893836      36.893836      36.893836    
    390000   0.51467573    -7.7850285     -7.0130259      3.8914071      50218.233      36.893836      36.893836      36.893836    
    400000   0.51671341    -7.7834413     -7.0083822      3.9158938      50218.233      36.893836      36.893836      36.893836    
    410000   0.51311906    -7.7850735     -7.0154059      3.8936844      50218.233      36.893836      36.893836      36.893836    
    420000   0.51504266    -7.7841827     -7.0116297      3.8953915      50218.233      36.893836      36.893836      36.893836    
    430000   0.51435346    -7.7849054     -7.0133862      3.9064028      50218.233      36.893836      36.893836      36.893836    
    440000   0.51317854    -7.7794258     -7.0096689      3.9437112      50218.233      36.893836      36.893836      36.893836    
    450000   0.5162092     -7.7833351     -7.0090324      3.9204509      50218.233      36.893836      36.893836      36.893836    
    460000   0.51533303    -7.7850508     -7.0120623      3.9021811      50218.233      36.893836      36.893836      36.893836    
    470000   0.51576136    -7.787368      -7.0137369      3.8800603      50218.233      36.893836      36.893836      36.893836    
    480000   0.51639934    -7.7820524     -7.0074644      3.9215746      50218.233      36.893836      36.893836      36.893836    
    490000   0.51555395    -7.7858063     -7.0124864      3.8887446      50218.233      36.893836      36.893836      36.893836    
    500000   0.513667      -7.7827628     -7.0122733      3.9163552      50218.233      36.893836      36.893836      36.893836    
    510000   0.51524885    -7.7837506     -7.0108883      3.9082631      50218.233      36.893836      36.893836      36.893836    
    520000   0.51583634    -7.7795292     -7.0057857      3.9372841      50218.233      36.893836      36.893836      36.893836    
    530000   0.51584601    -7.78074       -7.006982       3.9301377      50218.233      36.893836      36.893836      36.893836    
    540000   0.51586843    -7.7845384     -7.0107467      3.9045239      50218.233      36.893836      36.893836      36.893836    
    550000   0.51584622    -7.7850356     -7.0112773      3.9001994      50218.233      36.893836      36.893836      36.893836    
    560000   0.51301417    -7.7836413     -7.014131       3.8941918      50218.233      36.893836      36.893836      36.893836    
    570000   0.51417578    -7.7827878     -7.0115351      3.9062437      50218.233      36.893836      36.893836      36.893836    
    580000   0.51345682    -7.7823679     -7.0121937      3.9123839      50218.233      36.893836      36.893836      36.893836    
    590000   0.51573237    -7.7870394     -7.0134519      3.8830538      50218.233      36.893836      36.893836      36.893836    
    600000   0.51348579    -7.7840976     -7.0138799      3.9010947      50218.233      36.893836      36.893836      36.893836    
    610000   0.51738894    -7.7838095     -7.0077372      3.9001255      50218.233      36.893836      36.893836      36.893836    
    620000   0.51361252    -7.7827152     -7.0123074      3.9227345      50218.233      36.893836      36.893836      36.893836    
    630000   0.51327076    -7.7825228     -7.0126276      3.9154381      50218.233      36.893836      36.893836      36.893836    
    640000   0.51471667    -7.7806254     -7.0085614      3.9279283      50218.233      36.893836      36.893836      36.893836    
    650000   0.51268843    -7.7797007     -7.010679       3.9296169      50218.233      36.893836      36.893836      36.893836    
    660000   0.51171987    -7.779272      -7.0117031      3.9265466      50218.233      36.893836      36.893836      36.893836    
    670000   0.51324586    -7.7822981     -7.0124402      3.9143469      50218.233      36.893836      36.893836      36.893836    
    680000   0.51733202    -7.7792686     -7.0032816      3.94151        50218.233      36.893836      36.893836      36.893836    
    690000   0.51786577    -7.782473      -7.0056854      3.925042       50218.233      36.893836      36.893836      36.893836    
    700000   0.51437557    -7.7827514     -7.0111991      3.9126752      50218.233      36.893836      36.893836      36.893836    
    710000   0.51737157    -7.7789991     -7.0029528      3.9449416      50218.233      36.893836      36.893836      36.893836    
    720000   0.51265235    -7.7826648     -7.0136972      3.9077866      50218.233      36.893836      36.893836      36.893836    
    730000   0.51460397    -7.7804358     -7.0085409      3.92717        50218.233      36.893836      36.893836      36.893836    
    740000   0.51962965    -7.7792806     -6.9998472      3.9378165      50218.233      36.893836      36.893836      36.893836    
    750000   0.51335044    -7.7835427     -7.013528       3.9091989      50218.233      36.893836      36.893836      36.893836    
    760000   0.51561811    -7.7803453     -7.0069291      3.9367717      50218.233      36.893836      36.893836      36.893836    
    770000   0.51827343    -7.7835498     -7.0061507      3.9089157      50218.233      36.893836      36.893836      36.893836    
    780000   0.51520975    -7.7815661     -7.0087625      3.909441       50218.233      36.893836      36.893836      36.893836    
    790000   0.51635566    -7.7825347     -7.0080122      3.9028387      50218.233      36.893836      36.893836      36.893836    
    800000   0.51595147    -7.7832118     -7.0092956      3.9142643      50218.233      36.893836      36.893836      36.893836    
    810000   0.51153135    -7.7825973     -7.0153112      3.9032644      50218.233      36.893836      36.893836      36.893836    
    820000   0.51294709    -7.7841571     -7.0147474      3.8976757      50218.233      36.893836      36.893836      36.893836    
    830000   0.51675908    -7.7808777     -7.0057501      3.9286508      50218.233      36.893836      36.893836      36.893836    
    840000   0.51570685    -7.7822313     -7.008682       3.9181585      50218.233      36.893836      36.893836      36.893836    
    850000   0.51376619    -7.7825469     -7.0119086      3.9019446      50218.233      36.893836      36.893836      36.893836    
    860000   0.51355248    -7.7767221     -7.0064043      3.9479802      50218.233      36.893836      36.893836      36.893836    
    870000   0.51376588    -7.7823392     -7.0117014      3.9248209      50218.233      36.893836      36.893836      36.893836    
    880000   0.51716678    -7.7808492     -7.00511        3.9289144      50218.233      36.893836      36.893836      36.893836    
    890000   0.51459514    -7.7856583     -7.0137766      3.895528       50218.233      36.893836      36.893836      36.893836    
    900000   0.51699885    -7.7851252     -7.0096379      3.88844        50218.233      36.893836      36.893836      36.893836    
    910000   0.51580683    -7.7803831     -7.0066839      3.9441051      50218.233      36.893836      36.893836      36.893836    
    920000   0.5124656     -7.7795832     -7.0108957      3.9208816      50218.233      36.893836      36.893836      36.893836    
    930000   0.51531817    -7.7769146     -7.0039484      3.9509253      50218.233      36.893836      36.893836      36.893836    
    940000   0.51350085    -7.7812494     -7.0110091      3.9196693      50218.233      36.893836      36.893836      36.893836    
    950000   0.51402707    -7.7849574     -7.0139277      3.8900369      50218.233      36.893836      36.893836      36.893836    
    960000   0.51542674    -7.7849566     -7.0118275      3.8979745      50218.233      36.893836      36.893836      36.893836    
    970000   0.51703581    -7.7840157     -7.008473       3.8988319      50218.233      36.893836      36.893836      36.893836    
    980000   0.51514471    -7.7798628     -7.0071567      3.9282142      50218.233      36.893836      36.893836      36.893836    
    990000   0.51564341    -7.7837411     -7.010287       3.9105859      50218.233      36.893836      36.893836      36.893836    
   1000000   0.51468873    -7.7868486     -7.0148265      3.8866607      50218.233      36.893836      36.893836      36.893836    
   1010000   0.51434126    -7.7826804     -7.0111795      3.9135332      50218.233      36.893836      36.893836      36.893836    
   1020000   0.51352514    -7.7855042     -7.0152275      3.881334       50218.233      36.893836      36.893836      36.893836    
   1030000   0.51473834    -7.7831683     -7.0110718      3.9092814      50218.233      36.893836      36.893836      36.893836    
   1040000   0.51398555    -7.7806855     -7.0097181      3.9316739      50218.233      36.893836      36.893836      36.893836    
   1050000   0.5108302     -7.7837231     -7.0174887      3.902374       50218.233      36.893836      36.893836      36.893836    
   1060000   0.51503422    -7.7843733     -7.011833       3.8963218      50218.233      36.893836      36.893836      36.893836    
   1070000   0.51697253    -7.7791028     -7.0036551      3.9374107      50218.233      36.893836      36.893836      36.893836    
   1080000   0.51588917    -7.784323      -7.0105002      3.8987786      50218.233      36.893836      36.893836      36.893836    
   1090000   0.51913112    -7.7811333     -7.0024477      3.9345443      50218.233      36.893836      36.893836      36.893836    
   1100000   0.51707696    -7.7811589     -7.0055545      3.9248848      50218.233      36.893836      36.893836      36.893836    
   1110000   0.51730389    -7.7759873     -7.0000425      3.9782182      50218.233      36.893836      36.893836      36.893836    
   1120000   0.51171429    -7.7829048     -7.0153443      3.9102751      50218.233      36.893836      36.893836      36.893836    
   1130000   0.51768608    -7.7836299     -7.0071119      3.9027628      50218.233      36.893836      36.893836      36.893836    
   1140000   0.51541473    -7.7825529     -7.0094418      3.9161884      50218.233      36.893836      36.893836      36.893836    
   1150000   0.51620873    -7.7822115     -7.0079094      3.9116977      50218.233      36.893836      36.893836      36.893836    
   1160000   0.51841233    -7.7827386     -7.0051312      3.9220823      50218.233      36.893836      36.893836      36.893836    
   1170000   0.51655637    -7.7793723     -7.0045487      3.9385798      50218.233      36.893836      36.893836      36.893836    
   1180000   0.51674193    -7.7784033     -7.0033015      3.9493102      50218.233      36.893836      36.893836      36.893836    
   1190000   0.51556597    -7.7775549     -7.0042169      3.9564011      50218.233      36.893836      36.893836      36.893836    
   1200000   0.5151379     -7.7787044     -7.0060085      3.9429337      50218.233      36.893836      36.893836      36.893836    
   1210000   0.51483206    -7.7783346     -7.0060975      3.9512192      50218.233      36.893836      36.893836      36.893836    
   1220000   0.51485553    -7.7776449     -7.0053725      3.9613933      50218.233      36.893836      36.893836      36.893836    
   1230000   0.51454936    -7.7805364     -7.0087233      3.9325467      50218.233      36.893836      36.893836      36.893836    
   1240000   0.51430624    -7.778851      -7.0074026      3.939789       50218.233      36.893836      36.893836      36.893836    
   1250000   0.51770461    -7.7739731     -6.9974272      3.9816266      50218.233      36.893836      36.893836      36.893836    
   1260000   0.51595088    -7.7835039     -7.0095885      3.9139944      50218.233      36.893836      36.893836      36.893836    
   1270000   0.51256589    -7.7812771     -7.0124392      3.9215439      50218.233      36.893836      36.893836      36.893836    
   1280000   0.51410742    -7.7806143     -7.0094641      3.9277139      50218.233      36.893836      36.893836      36.893836    
   1290000   0.51626903    -7.779156      -7.0047634      3.9474442      50218.233      36.893836      36.893836      36.893836    
   1300000   0.51532084    -7.7811035     -7.0081332      3.9336828      50218.233      36.893836      36.893836      36.893836    
   1310000   0.51463221    -7.7797844     -7.007847       3.933823       50218.233      36.893836      36.893836      36.893836    
   1320000   0.51499792    -7.7765831     -7.0040972      3.9587339      50218.233      36.893836      36.893836      36.893836    
   1330000   0.5140263     -7.7808127     -7.0097842      3.9381548      50218.233      36.893836      36.893836      36.893836    
   1340000   0.51009305    -7.7839793     -7.0188506      3.8959257      50218.233      36.893836      36.893836      36.893836    
   1350000   0.51396973    -7.7771812     -7.0062376      3.9500902      50218.233      36.893836      36.893836      36.893836    
   1360000   0.51774624    -7.7817299     -7.0051215      3.920463       50218.233      36.893836      36.893836      36.893836    
   1370000   0.5175227     -7.7774296     -7.0011566      3.9552223      50218.233      36.893836      36.893836      36.893836    
   1380000   0.51368842    -7.7757386     -7.0052169      3.9608864      50218.233      36.893836      36.893836      36.893836    
   1390000   0.51481438    -7.7784738     -7.0062632      3.9359731      50218.233      36.893836      36.893836      36.893836    
   1400000   0.51461447    -7.7781484     -7.0062377      3.938746       50218.233      36.893836      36.893836      36.893836    
   1410000   0.51361958    -7.7790114     -7.008593       3.9326544      50218.233      36.893836      36.893836      36.893836    
   1420000   0.51537512    -7.777681      -7.0046293      3.9442418      50218.233      36.893836      36.893836      36.893836    
   1430000   0.51756136    -7.7754894     -6.9991584      3.9655289      50218.233      36.893836      36.893836      36.893836    
   1440000   0.51588825    -7.7799932     -7.0061719      3.9363441      50218.233      36.893836      36.893836      36.893836    
   1450000   0.5139792     -7.7806617     -7.0097039      3.9264596      50218.233      36.893836      36.893836      36.893836    
   1460000   0.51362533    -7.7773747     -7.0069477      3.9469848      50218.233      36.893836      36.893836      36.893836    
   1470000   0.51598819    -7.779743      -7.0057717      3.9392864      50218.233      36.893836      36.893836      36.893836    
   1480000   0.51340116    -7.7764791     -7.0063883      3.9564898      50218.233      36.893836      36.893836      36.893836    
   1490000   0.51659435    -7.7782379     -7.0033574      3.9507594      50218.233      36.893836      36.893836      36.893836    
   1500000   0.51697463    -7.7785034     -7.0030525      3.951183       50218.233      36.893836      36.893836      36.893836    
   1510000   0.51592634    -7.7812153     -7.0073368      3.9337118      50218.233      36.893836      36.893836      36.893836    
   1520000   0.5153767     -7.7824581     -7.009404       3.9233894      50218.233      36.893836      36.893836      36.893836    
   1530000   0.51410829    -7.782428      -7.0112766      3.9071213      50218.233      36.893836      36.893836      36.893836    
   1540000   0.51483111    -7.7774082     -7.0051726      3.9497774      50218.233      36.893836      36.893836      36.893836    
   1550000   0.51310249    -7.7819302     -7.0122874      3.9195408      50218.233      36.893836      36.893836      36.893836    
   1560000   0.51418892    -7.7778348     -7.0065624      3.9497489      50218.233      36.893836      36.893836      36.893836    
   1570000   0.51748663    -7.77897       -7.0027511      3.9465638      50218.233      36.893836      36.893836      36.893836    
   1580000   0.51495416    -7.7810489     -7.0086286      3.9258797      50218.233      36.893836      36.893836      36.893836    
   1590000   0.51319927    -7.7751391     -7.0053511      3.9728296      50218.233      36.893836      36.893836      36.893836    
   1600000   0.51320701    -7.781047      -7.0112474      3.9289239      50218.233      36.893836      36.893836      36.893836    
   1610000   0.5158074     -7.7809852     -7.0072851      3.9311833      50218.233      36.893836      36.893836      36.893836    
   1620000   0.51710834    -7.7765859     -7.0009344      3.9543982      50218.233      36.893836      36.893836      36.893836    
   1630000   0.5116206     -7.7783114     -7.0108914      3.948067       50218.233      36.893836      36.893836      36.893836    
   1640000   0.51332808    -7.7795462     -7.009565       3.9324692      50218.233      36.893836      36.893836      36.893836    
   1650000   0.51720406    -7.780297      -7.0045019      3.9370609      50218.233      36.893836      36.893836      36.893836    
   1660000   0.51447939    -7.7767198     -7.0050117      3.9664033      50218.233      36.893836      36.893836      36.893836    
   1670000   0.51644853    -7.7783654     -7.0037036      3.955428       50218.233      36.893836      36.893836      36.893836    
   1680000   0.51390092    -7.7798657     -7.0090253      3.9362211      50218.233      36.893836      36.893836      36.893836    
   1690000   0.51481643    -7.7776344     -7.0054208      3.959181       50218.233      36.893836      36.893836      36.893836    
   1700000   0.51301056    -7.7783788     -7.0088739      3.9496013      50218.233      36.893836      36.893836      36.893836    
   1710000   0.5147686     -7.7819288     -7.0097869      3.9198427      50218.233      36.893836      36.893836      36.893836    
   1720000   0.51467152    -7.7819062     -7.0099099      3.9171432      50218.233      36.893836      36.893836      36.893836    
   1730000   0.51460979    -7.7815687     -7.009665       3.9141471      50218.233      36.893836      36.893836      36.893836    
   1740000   0.51349253    -7.7809447     -7.0107169      3.9280673      50218.233      36.893836      36.893836      36.893836    
   1750000   0.51551697    -7.7808443     -7.0075798      3.9321526      50218.233      36.893836      36.893836      36.893836    
   1760000   0.51363435    -7.7808081     -7.0103675      3.9406322      50218.233      36.893836      36.893836      36.893836    
   1770000   0.51574137    -7.7784819     -7.0048808      3.9333781      50218.233      36.893836      36.893836      36.893836    
   1780000   0.51187372    -7.7800376     -7.012238       3.9219511      50218.233      36.893836      36.893836      36.893836    
   1790000   0.51326629    -7.7790093     -7.0091209      3.9305566      50218.233      36.893836      36.893836      36.893836    
   1800000   0.51599168    -7.7793818     -7.0054052      3.9406504      50218.233      36.893836      36.893836      36.893836    
   1810000   0.51534646    -7.778638      -7.0056293      3.9460298      50218.233      36.893836      36.893836      36.893836    
   1820000   0.51216994    -7.7810165     -7.0127725      3.9260882      50218.233      36.893836      36.893836      36.893836    
   1830000   0.51660377    -7.7810878     -7.0061932      3.9316672      50218.233      36.893836      36.893836      36.893836    
   1840000   0.51619253    -7.7848186     -7.0105408      3.9005127      50218.233      36.893836      36.893836      36.893836    
   1850000   0.51539322    -7.778794      -7.0057151      3.942421       50218.233      36.893836      36.893836      36.893836    
   1860000   0.51558203    -7.7829222     -7.0095602      3.9340873      50218.233      36.893836      36.893836      36.893836    
   1870000   0.5128453     -7.7779337     -7.0086767      3.9545282      50218.233      36.893836      36.893836      36.893836    
   1880000   0.51526111    -7.7789977     -7.006117       3.9489528      50218.233      36.893836      36.893836      36.893836    
   1890000   0.51364498    -7.7764299     -7.0059734      3.9587235      50218.233      36.893836      36.893836      36.893836    
   1900000   0.51755423    -7.7778373     -7.001517       3.9566073      50218.233      36.893836      36.893836      36.893836    
   1910000   0.51403802    -7.7818225     -7.0107765      3.9274175      50218.233      36.893836      36.893836      36.893836    
   1920000   0.51673101    -7.7795091     -7.0044236      3.9425039      50218.233      36.893836      36.893836      36.893836    
   1930000   0.51681749    -7.7770566     -7.0018414      3.9594092      50218.233      36.893836      36.893836      36.893836    
   1940000   0.51620035    -7.7784739     -7.0041843      3.939658       50218.233      36.893836      36.893836      36.893836    
   1950000   0.51459464    -7.7742711     -7.0023901      3.9741391      50218.233      36.893836      36.893836      36.893836    
   1960000   0.51622696    -7.7799394     -7.00561        3.9341995      50218.233      36.893836      36.893836      36.893836    
   1970000   0.51562504    -7.7795878     -7.0061613      3.9371954      50218.233      36.893836      36.893836      36.893836    
   1980000   0.51618822    -7.7808815     -7.0066102      3.9294837      50218.233      36.893836      36.893836      36.893836    
   1990000   0.51339416    -7.7840756     -7.0139953      3.8850059      50218.233      36.893836      36.893836      36.893836    
   2000000   0.51362603    -7.7803569     -7.0099288      3.9306223      50218.233      36.893836      36.893836      36.893836    
   2010000   0.51072882    -7.77905       -7.0129676      3.9462262      50218.233      36.893836      36.893836      36.893836    
   2020000   0.51190957    -7.7760961     -7.0082427      3.96751        50218.233      36.893836      36.893836      36.893836    
   2030000   0.51449287    -7.7777752     -7.0060468      3.950609       50218.233      36.893836      36.893836      36.893836    
   2040000   0.51513367    -7.779168      -7.0064785      3.9388793      50218.233      36.893836      36.893836      36.893836    
   2050000   0.51371203    -7.7783238     -7.0077667      3.9665706      50218.233      36.893836      36.893836      36.893836    
   2060000   0.51738434    -7.7769283     -7.0008628      3.9573586      50218.233      36.893836      36.893836      36.893836    
   2070000   0.5152765     -7.7767996     -7.0038958      3.965056       50218.233      36.893836      36.893836      36.893836    
   2080000   0.51418779    -7.776006      -7.0047353      3.9577259      50218.233      36.893836      36.893836      36.893836    
   2090000   0.51474586    -7.7774017     -7.0052939      3.9617408      50218.233      36.893836      36.893836      36.893836    
   2100000   0.51446737    -7.7785818     -7.0068917      3.9572045      50218.233      36.893836      36.893836      36.893836    
   2110000   0.51600508    -7.7787518     -7.0047552      3.9482671      50218.233      36.893836      36.893836      36.893836    
   2120000   0.51516483    -7.7768103     -7.0040741      3.9567423      50218.233      36.893836      36.893836      36.893836    
   2130000   0.51400601    -7.7771207     -7.0061226      3.9529549      50218.233      36.893836      36.893836      36.893836    
   2140000   0.51309407    -7.7774328     -7.0078026      3.9444148      50218.233      36.893836      36.893836      36.893836    
   2150000   0.51342226    -7.7743531     -7.0042307      3.9669749      50218.233      36.893836      36.893836      36.893836    
   2160000   0.51742127    -7.7778622     -7.0017413      3.9598385      50218.233      36.893836      36.893836      36.893836    
   2170000   0.51480599    -7.7783277     -7.0061297      3.9581744      50218.233      36.893836      36.893836      36.893836    
   2180000   0.51527044    -7.7781337     -7.005239       3.9563389      50218.233      36.893836      36.893836      36.893836    
   2190000   0.51446584    -7.7755344     -7.0038466      3.9774104      50218.233      36.893836      36.893836      36.893836    
   2200000   0.51628417    -7.7761228     -7.0017076      3.9584549      50218.233      36.893836      36.893836      36.893836    
   2210000   0.51498102    -7.7782631     -7.0058026      3.9516344      50218.233      36.893836      36.893836      36.893836    
   2220000   0.51366247    -7.7766579     -7.0061751      3.9614419      50218.233      36.893836      36.893836      36.893836    
   2230000   0.51318169    -7.776776      -7.0070144      3.9457962      50218.233      36.893836      36.893836      36.893836    
   2240000   0.51596418    -7.7774786     -7.0035434      3.9607665      50218.233      36.893836      36.893836      36.893836    
   2250000   0.51560907    -7.7759863     -7.0025837      3.9680046      50218.233      36.893836      36.893836      36.893836    
   2260000   0.51579713    -7.7815705     -7.0078858      3.9233283      50218.233      36.893836      36.893836      36.893836    
   2270000   0.51160862    -7.7780859     -7.0106839      3.9528107      50218.233      36.893836      36.893836      36.893836    
   2280000   0.51633546    -7.7737844     -6.9992922      3.9855063      50218.233      36.893836      36.893836      36.893836    
   2290000   0.51714684    -7.78422       -7.0085108      3.9028677      50218.233      36.893836      36.893836      36.893836    
   2300000   0.51388792    -7.7849221     -7.0141012      3.8930038      50218.233      36.893836      36.893836      36.893836    
   2310000   0.51471642    -7.782819      -7.0107553      3.9082368      50218.233      36.893836      36.893836      36.893836    
   2320000   0.51568521    -7.7784662     -7.0049494      3.9468724      50218.233      36.893836      36.893836      36.893836    
   2330000   0.51443205    -7.7817757     -7.0101386      3.9134281      50218.233      36.893836      36.893836      36.893836    
   2340000   0.51789008    -7.7822014     -7.0053773      3.9209605      50218.233      36.893836      36.893836      36.893836    
   2350000   0.51726847    -7.782302      -7.0064104      3.9172532      50218.233      36.893836      36.893836      36.893836    
   2360000   0.51358733    -7.7809771     -7.010607       3.9341473      50218.233      36.893836      36.893836      36.893836    
   2370000   0.5168089     -7.7795704     -7.004368       3.9407878      50218.233      36.893836      36.893836      36.893836    
   2380000   0.51796375    -7.7814158     -7.0044812      3.9261711      50218.233      36.893836      36.893836      36.893836    
   2390000   0.51582267    -7.7799607     -7.0062377      3.9407113      50218.233      36.893836      36.893836      36.893836    
   2400000   0.51542212    -7.7819601     -7.0088379      3.9283772      50218.233      36.893836      36.893836      36.893836    
   2410000   0.516343      -7.7753497     -7.0008462      3.9682522      50218.233      36.893836      36.893836      36.893836    
   2420000   0.51697325    -7.7789076     -7.0034588      3.9493691      50218.233      36.893836      36.893836      36.893836    
   2430000   0.5163387     -7.7785616     -7.0040646      3.9413947      50218.233      36.893836      36.893836      36.893836    
   2440000   0.51483079    -7.7809234     -7.0086882      3.9377218      50218.233      36.893836      36.893836      36.893836    
   2450000   0.51549244    -7.7794334     -7.0062057      3.9342536      50218.233      36.893836      36.893836      36.893836    
   2460000   0.51688634    -7.7807491     -7.0054307      3.9319712      50218.233      36.893836      36.893836      36.893836    
   2470000   0.51525965    -7.7800621     -7.0071836      3.9251813      50218.233      36.893836      36.893836      36.893836    
   2480000   0.5159881     -7.7760595     -7.0020883      3.9639498      50218.233      36.893836      36.893836      36.893836    
   2490000   0.5171531     -7.778939      -7.0032204      3.9584605      50218.233      36.893836      36.893836      36.893836    
   2500000   0.51702545    -7.7807909     -7.0052637      3.9415653      50218.233      36.893836      36.893836      36.893836    
   2510000   0.51569044    -7.777436      -7.0039113      3.9485591      50218.233      36.893836      36.893836      36.893836    
   2520000   0.5181863     -7.7768854     -6.999617       3.9613148      50218.233      36.893836      36.893836      36.893836    
   2530000   0.51296761    -7.7769868     -7.0075463      3.964701       50218.233      36.893836      36.893836      36.893836    
   2540000   0.5140095     -7.7778117     -7.0068084      3.9666065      50218.233      36.893836      36.893836      36.893836    
   2550000   0.51303607    -7.7811366     -7.0115935      3.9272159      50218.233      36.893836      36.893836      36.893836    
   2560000   0.51551827    -7.7803165     -7.0070501      3.9305214      50218.233      36.893836      36.893836      36.893836    
   2570000   0.51484439    -7.7740281     -7.0017725      3.9866777      50218.233      36.893836      36.893836      36.893836    
   2580000   0.52023584    -7.7767785     -6.9964359      3.970992       50218.233      36.893836      36.893836      36.893836    
   2590000   0.51472493    -7.7773249     -7.0052485      3.9606315      50218.233      36.893836      36.893836      36.893836    
   2600000   0.51228324    -7.7732929     -7.004879       3.9893224      50218.233      36.893836      36.893836      36.893836    
   2610000   0.51597035    -7.7777511     -7.0038066      3.9605765      50218.233      36.893836      36.893836      36.893836    
   2620000   0.51327618    -7.779036      -7.0091327      3.9270548      50218.233      36.893836      36.893836      36.893836    
   2630000   0.51285971    -7.7763859     -7.0071073      3.9626902      50218.233      36.893836      36.893836      36.893836    
   2640000   0.5145004     -7.7799635     -7.0082239      3.9405807      50218.233      36.893836      36.893836      36.893836    
   2650000   0.5183134     -7.7760218     -6.9985628      3.9674309      50218.233      36.893836      36.893836      36.893836    
   2660000   0.51717391    -7.7771307     -7.0013809      3.9601339      50218.233      36.893836      36.893836      36.893836    
   2670000   0.51475279    -7.7754512     -7.003333       3.9688141      50218.233      36.893836      36.893836      36.893836    
   2680000   0.51671505    -7.7770776     -7.002016       3.9531736      50218.233      36.893836      36.893836      36.893836    
   2690000   0.51614017    -7.7772051     -7.0030058      3.9575069      50218.233      36.893836      36.893836      36.893836    
   2700000   0.51377014    -7.7825318     -7.0118876      3.9046217      50218.233      36.893836      36.893836      36.893836    
   2710000   0.51679185    -7.7779557     -7.002779       3.9541496      50218.233      36.893836      36.893836      36.893836    
   2720000   0.51815126    -7.7795948     -7.002379       3.9378094      50218.233      36.893836      36.893836      36.893836    
   2730000   0.51542195    -7.7790535     -7.0059315      3.9377745      50218.233      36.893836      36.893836      36.893836    
   2740000   0.51660783    -7.7774194     -7.0025186      3.9707641      50218.233      36.893836      36.893836      36.893836    
   2750000   0.51529492    -7.7807566     -7.0078253      3.9332363      50218.233      36.893836      36.893836      36.893836    
   2760000   0.51524656    -7.7815551     -7.0086963      3.9209168      50218.233      36.893836      36.893836      36.893836    
   2770000   0.51335284    -7.7784659     -7.0084476      3.9441717      50218.233      36.893836      36.893836      36.893836    
   2780000   0.51461622    -7.7740372     -7.0021239      3.9780648      50218.233      36.893836      36.893836      36.893836    
   2790000   0.51375999    -7.7767915     -7.0061624      3.9610023      50218.233      36.893836      36.893836      36.893836    
   2800000   0.51586157    -7.7807117     -7.0069303      3.9270545      50218.233      36.893836      36.893836      36.893836    
   2810000   0.5145772     -7.7833241     -7.0114693      3.9113003      50218.233      36.893836      36.893836      36.893836    
   2820000   0.51754631    -7.7793714     -7.0030629      3.948766       50218.233      36.893836      36.893836      36.893836    
   2830000   0.5141841     -7.7830582     -7.011793       3.9142214      50218.233      36.893836      36.893836      36.893836    
   2840000   0.51575304    -7.7780437     -7.0044252      3.9558297      50218.233      36.893836      36.893836      36.893836    
   2850000   0.51533363    -7.7802096     -7.0072202      3.9349739      50218.233      36.893836      36.893836      36.893836    
   2860000   0.51493688    -7.7782867     -7.0058923      3.9518142      50218.233      36.893836      36.893836      36.893836    
   2870000   0.51311101    -7.77891       -7.0092544      3.9500384      50218.233      36.893836      36.893836      36.893836    
   2880000   0.51480583    -7.77703       -7.0048322      3.9607953      50218.233      36.893836      36.893836      36.893836    
   2890000   0.51696205    -7.7778002     -7.0023682      3.9571957      50218.233      36.893836      36.893836      36.893836    
   2900000   0.51684339    -7.7831514     -7.0078973      3.9052037      50218.233      36.893836      36.893836      36.893836    
   2910000   0.51395725    -7.7756659     -7.004741       3.9610523      50218.233      36.893836      36.893836      36.893836    
   2920000   0.51393504    -7.776678      -7.0057864      3.9519107      50218.233      36.893836      36.893836      36.893836    
   2930000   0.51569714    -7.7780657     -7.004531       3.9592276      50218.233      36.893836      36.893836      36.893836    
   2940000   0.51665179    -7.7773136     -7.002347       3.963031       50218.233      36.893836      36.893836      36.893836    
   2950000   0.51416366    -7.7781824     -7.0069479      3.9505037      50218.233      36.893836      36.893836      36.893836    
   2960000   0.51226254    -7.7812053     -7.0128224      3.9286712      50218.233      36.893836      36.893836      36.893836    
   2970000   0.5131457     -7.7783351     -7.0086275      3.9451214      50218.233      36.893836      36.893836      36.893836    
   2980000   0.51644798    -7.7770356     -7.0023747      3.9550132      50218.233      36.893836      36.893836      36.893836    
   2990000   0.51291426    -7.7749001     -7.0055397      3.97335        50218.233      36.893836      36.893836      36.893836    
   3000000   0.5164697     -7.7791671     -7.0044736      3.946241       50218.233      36.893836      36.893836      36.893836    
   3010000   0.51322038    -7.7798767     -7.0100571      3.9432791      50218.233      36.893836      36.893836      36.893836    
   3020000   0.51670022    -7.7800885     -7.0050492      3.9332867      50218.233      36.893836      36.893836      36.893836    
   3030000   0.51519354    -7.7790244     -7.006245       3.9468715      50218.233      36.893836      36.893836      36.893836    
   3040000   0.51375032    -7.7781283     -7.0075138      3.9381039      50218.233      36.893836      36.893836      36.893836    
   3050000   0.51365001    -7.7764236     -7.0059595      3.9624288      50218.233      36.893836      36.893836      36.893836    
   3060000   0.51610045    -7.7776893     -7.0035497      3.9471643      50218.233      36.893836      36.893836      36.893836    
   3070000   0.51528016    -7.7763763     -7.0034671      3.9574052      50218.233      36.893836      36.893836      36.893836    
   3080000   0.51752346    -7.7758597     -6.9995856      3.9633001      50218.233      36.893836      36.893836      36.893836    
   3090000   0.5132203     -7.779049      -7.0092295      3.9408572      50218.233      36.893836      36.893836      36.893836    
   3100000   0.51383346    -7.7790122     -7.008273       3.9329734      50218.233      36.893836      36.893836      36.893836    
   3110000   0.51697196    -7.7822246     -7.0067777      3.9194266      50218.233      36.893836      36.893836      36.893836    
   3120000   0.51773769    -7.7762451     -6.9996496      3.9720289      50218.233      36.893836      36.893836      36.893836    
   3130000   0.51336311    -7.7758971     -7.0058634      3.9699563      50218.233      36.893836      36.893836      36.893836    
   3140000   0.51457629    -7.7777235     -7.00587        3.9508719      50218.233      36.893836      36.893836      36.893836    
   3150000   0.51383474    -7.77784       -7.0070988      3.952829       50218.233      36.893836      36.893836      36.893836    
   3160000   0.5144021     -7.7749205     -7.0033283      3.9738477      50218.233      36.893836      36.893836      36.893836    
   3170000   0.51567716    -7.7772371     -7.0037324      3.9485846      50218.233      36.893836      36.893836      36.893836    
   3180000   0.51288484    -7.7796075     -7.0102912      3.9418593      50218.233      36.893836      36.893836      36.893836    
   3190000   0.51463279    -7.7786732     -7.006735       3.9365818      50218.233      36.893836      36.893836      36.893836    
   3200000   0.51297809    -7.7765025     -7.0070463      3.9576936      50218.233      36.893836      36.893836      36.893836    
   3210000   0.5159176     -7.7788164     -7.004951       3.9533598      50218.233      36.893836      36.893836      36.893836    
   3220000   0.51728617    -7.7726497     -6.9967315      3.9953856      50218.233      36.893836      36.893836      36.893836    
   3230000   0.51605369    -7.7765857     -7.0025162      3.9584239      50218.233      36.893836      36.893836      36.893836    
   3240000   0.51346191    -7.7762139     -7.006032       3.9716224      50218.233      36.893836      36.893836      36.893836    
   3250000   0.51511732    -7.7776263     -7.0049614      3.9497911      50218.233      36.893836      36.893836      36.893836    
   3260000   0.51543138    -7.7776523     -7.0045162      3.9557751      50218.233      36.893836      36.893836      36.893836    
   3270000   0.5151163     -7.7742231     -7.0015596      3.9896346      50218.233      36.893836      36.893836      36.893836    
   3280000   0.51424929    -7.7801481     -7.0087851      3.9370557      50218.233      36.893836      36.893836      36.893836    
   3290000   0.51684841    -7.7781261     -7.0028645      3.9476209      50218.233      36.893836      36.893836      36.893836    
   3300000   0.51622805    -7.7760728     -7.0017417      3.9666067      50218.233      36.893836      36.893836      36.893836    
   3310000   0.51642182    -7.7774536     -7.0028319      3.9527815      50218.233      36.893836      36.893836      36.893836    
   3320000   0.51448279    -7.7766583     -7.0049451      3.9631718      50218.233      36.893836      36.893836      36.893836    
   3330000   0.51675657    -7.776433      -7.0013091      3.954785       50218.233      36.893836      36.893836      36.893836    
   3340000   0.51459473    -7.7755455     -7.0036644      3.9682611      50218.233      36.893836      36.893836      36.893836    
   3350000   0.51502091    -7.775087      -7.0025666      3.9659706      50218.233      36.893836      36.893836      36.893836    
   3360000   0.51390727    -7.7721412     -7.0012913      3.9982287      50218.233      36.893836      36.893836      36.893836    
   3370000   0.51647199    -7.7760822     -7.0013853      3.9641562      50218.233      36.893836      36.893836      36.893836    
   3380000   0.51371224    -7.7751054     -7.004548       3.9742488      50218.233      36.893836      36.893836      36.893836    
   3390000   0.51522608    -7.7786679     -7.0058398      3.9459069      50218.233      36.893836      36.893836      36.893836    
   3400000   0.51489595    -7.7764469     -7.0041139      3.9629652      50218.233      36.893836      36.893836      36.893836    
   3410000   0.5165433     -7.772297      -6.9974931      3.994522       50218.233      36.893836      36.893836      36.893836    
   3420000   0.51230231    -7.7740546     -7.0056121      3.972093       50218.233      36.893836      36.893836      36.893836    
   3430000   0.51667102    -7.7735056     -6.9985101      3.9851884      50218.233      36.893836      36.893836      36.893836    
   3440000   0.51602531    -7.7736862     -6.9996593      3.9785342      50218.233      36.893836      36.893836      36.893836    
   3450000   0.51293766    -7.7752303     -7.0058348      3.9672557      50218.233      36.893836      36.893836      36.893836    
   3460000   0.51674308    -7.7763887     -7.0012851      3.9732902      50218.233      36.893836      36.893836      36.893836    
   3470000   0.51353787    -7.775916      -7.0056201      3.9655913      50218.233      36.893836      36.893836      36.893836    
   3480000   0.51633275    -7.7753607     -7.0008726      3.974939       50218.233      36.893836      36.893836      36.893836    
   3490000   0.51581966    -7.7734679     -6.9997494      3.9955583      50218.233      36.893836      36.893836      36.893836    
   3500000   0.51549522    -7.7787205     -7.0054887      3.9471081      50218.233      36.893836      36.893836      36.893836    
   3510000   0.51517802    -7.7794192     -7.0066632      3.9441859      50218.233      36.893836      36.893836      36.893836    
   3520000   0.51534206    -7.7741923     -7.0011902      3.9861527      50218.233      36.893836      36.893836      36.893836    
   3530000   0.51252992    -7.7780824     -7.0092984      3.9601235      50218.233      36.893836      36.893836      36.893836    
   3540000   0.51628781    -7.7773219     -7.0029012      3.9580899      50218.233      36.893836      36.893836      36.893836    
   3550000   0.51333487    -7.7828816     -7.0128903      3.9104376      50218.233      36.893836      36.893836      36.893836    
   3560000   0.51316026    -7.773431      -7.0037016      3.9800813      50218.233      36.893836      36.893836      36.893836    
   3570000   0.51806551    -7.7792063     -7.0021191      3.9476731      50218.233      36.893836      36.893836      36.893836    
   3580000   0.51494038    -7.7786657     -7.0062661      3.9564902      50218.233      36.893836      36.893836      36.893836    
   3590000   0.51385469    -7.7746328     -7.0038617      3.9762128      50218.233      36.893836      36.893836      36.893836    
   3600000   0.51617474    -7.7727594     -6.9985083      4.0004014      50218.233      36.893836      36.893836      36.893836    
   3610000   0.51310551    -7.7810288     -7.0113815      3.9248418      50218.233      36.893836      36.893836      36.893836    
   3620000   0.51500069    -7.7738796     -7.0013896      3.9853915      50218.233      36.893836      36.893836      36.893836    
   3630000   0.51587048    -7.7775338     -7.0037391      3.9475146      50218.233      36.893836      36.893836      36.893836    
   3640000   0.51413989    -7.7821736     -7.0109747      3.9151272      50218.233      36.893836      36.893836      36.893836    
   3650000   0.5122341     -7.776879      -7.0085387      3.9542123      50218.233      36.893836      36.893836      36.893836    
   3660000   0.51274813    -7.7759699     -7.0068587      3.9680496      50218.233      36.893836      36.893836      36.893836    
   3670000   0.51502049    -7.7757647     -7.0032449      3.9847564      50218.233      36.893836      36.893836      36.893836    
   3680000   0.51402894    -7.774905      -7.0038726      3.9715597      50218.233      36.893836      36.893836      36.893836    
   3690000   0.51454271    -7.7743838     -7.0025807      3.979053       50218.233      36.893836      36.893836      36.893836    
   3700000   0.51482672    -7.7792718     -7.0070427      3.9479028      50218.233      36.893836      36.893836      36.893836    
   3710000   0.51505863    -7.7780319     -7.0054549      3.9615093      50218.233      36.893836      36.893836      36.893836    
   3720000   0.51324895    -7.7745346     -7.0046722      3.9770283      50218.233      36.893836      36.893836      36.893836    
   3730000   0.51348708    -7.7773349     -7.0071152      3.9653916      50218.233      36.893836      36.893836      36.893836    
   3740000   0.51579584    -7.7767154     -7.0030326      3.9671082      50218.233      36.893836      36.893836      36.893836    
   3750000   0.51671009    -7.7765619     -7.0015078      3.9525658      50218.233      36.893836      36.893836      36.893836    
   3760000   0.5158955     -7.7767682     -7.0029359      3.9703231      50218.233      36.893836      36.893836      36.893836    
   3770000   0.51628557    -7.7760512     -7.0016338      3.9774017      50218.233      36.893836      36.893836      36.893836    
   3780000   0.51218194    -7.7743648     -7.0061028      3.9649438      50218.233      36.893836      36.893836      36.893836    
   3790000   0.51343264    -7.7770692     -7.0069312      3.9574392      50218.233      36.893836      36.893836      36.893836    
   3800000   0.51308246    -7.7717229     -7.0021102      4.0078558      50218.233      36.893836      36.893836      36.893836    
   3810000   0.51623039    -7.7787006     -7.004366       3.9563953      50218.233      36.893836      36.893836      36.893836    
   3820000   0.51333871    -7.7811972     -7.0112001      3.9306651      50218.233      36.893836      36.893836      36.893836    
   3830000   0.51484217    -7.7796109     -7.0073586      3.9405195      50218.233      36.893836      36.893836      36.893836    
   3840000   0.51533715    -7.776704      -7.0037093      3.9628164      50218.233      36.893836      36.893836      36.893836    
   3850000   0.51218043    -7.7750417     -7.006782       3.9709353      50218.233      36.893836      36.893836      36.893836    
   3860000   0.51158062    -7.7802377     -7.0128777      3.9309673      50218.233      36.893836      36.893836      36.893836    
   3870000   0.51476483    -7.7791414     -7.0070051      3.939137       50218.233      36.893836      36.893836      36.893836    
   3880000   0.51488052    -7.7785978     -7.006288       3.9422951      50218.233      36.893836      36.893836      36.893836    
   3890000   0.51631099    -7.7805713     -7.0061159      3.9309342      50218.233      36.893836      36.893836      36.893836    
   3900000   0.51542284    -7.7807041     -7.0075808      3.9248538      50218.233      36.893836      36.893836      36.893836    
   3910000   0.51694204    -7.7796561     -7.0042541      3.9424072      50218.233      36.893836      36.893836      36.893836    
   3920000   0.51335129    -7.7764082     -7.0063922      3.9560491      50218.233      36.893836      36.893836      36.893836    
   3930000   0.51273014    -7.7807165     -7.0116322      3.9219639      50218.233      36.893836      36.893836      36.893836    
   3940000   0.51273297    -7.7816836     -7.0125951      3.9169917      50218.233      36.893836      36.893836      36.893836    
   3950000   0.51424233    -7.7782325     -7.00688        3.9389551      50218.233      36.893836      36.893836      36.893836    
   3960000   0.51450714    -7.7848635     -7.0131137      3.9077225      50218.233      36.893836      36.893836      36.893836    
   3970000   0.51564697    -7.7774324     -7.003973       3.9539379      50218.233      36.893836      36.893836      36.893836    
   3980000   0.51664231    -7.7791878     -7.0042354      3.9430008      50218.233      36.893836      36.893836      36.893836    
   3990000   0.51807984    -7.7776653     -7.0005566      3.9676077      50218.233      36.893836      36.893836      36.893836    
   4000000   0.51216976    -7.7757435     -7.0074998      3.9600471      50218.233      36.893836      36.893836      36.893836    
   4010000   0.51672879    -7.7800476     -7.0049655      3.9369613      50218.233      36.893836      36.893836      36.893836    
   4020000   0.51332999    -7.7780385     -7.0080544      3.9544067      50218.233      36.893836      36.893836      36.893836    
   4030000   0.512051      -7.7781398     -7.0100742      3.9395647      50218.233      36.893836      36.893836      36.893836    
   4040000   0.51628631    -7.7775909     -7.0031724      3.9551663      50218.233      36.893836      36.893836      36.893836    
   4050000   0.5127979     -7.7797146     -7.0105287      3.9269904      50218.233      36.893836      36.893836      36.893836    
   4060000   0.51382145    -7.7791816     -7.0084604      3.9374041      50218.233      36.893836      36.893836      36.893836    
   4070000   0.51178717    -7.7762476     -7.0085777      3.9617098      50218.233      36.893836      36.893836      36.893836    
   4080000   0.51502005    -7.7783735     -7.0058544      3.9441863      50218.233      36.893836      36.893836      36.893836    
   4090000   0.51570543    -7.7740576     -7.0005104      3.9827626      50218.233      36.893836      36.893836      36.893836    
   4100000   0.51558984    -7.772648      -6.9992743      3.9835121      50218.233      36.893836      36.893836      36.893836    
   4110000   0.51543998    -7.7776994     -7.0045505      3.9427264      50218.233      36.893836      36.893836      36.893836    
   4120000   0.51635152    -7.7794425     -7.0049263      3.940492       50218.233      36.893836      36.893836      36.893836    
   4130000   0.51619668    -7.777665      -7.003381       3.9516314      50218.233      36.893836      36.893836      36.893836    
   4140000   0.51567545    -7.7792392     -7.0057371      3.9377251      50218.233      36.893836      36.893836      36.893836    
   4150000   0.51533487    -7.7727677     -6.9997764      3.9861292      50218.233      36.893836      36.893836      36.893836    
   4160000   0.51509095    -7.7786959     -7.0060705      3.946801       50218.233      36.893836      36.893836      36.893836    
   4170000   0.51502318    -7.7819562     -7.0094324      3.9197538      50218.233      36.893836      36.893836      36.893836    
   4180000   0.51630297    -7.7766296     -7.0021862      3.9613347      50218.233      36.893836      36.893836      36.893836    
   4190000   0.51367734    -7.7731041     -7.002599       3.9812812      50218.233      36.893836      36.893836      36.893836    
   4200000   0.51575768    -7.7830819     -7.0094564      3.9134619      50218.233      36.893836      36.893836      36.893836    
   4210000   0.51257839    -7.7802567     -7.0114001      3.9256736      50218.233      36.893836      36.893836      36.893836    
   4220000   0.51372791    -7.7752489     -7.004668       3.9583098      50218.233      36.893836      36.893836      36.893836    
   4230000   0.5138708     -7.7812506     -7.0104553      3.9102711      50218.233      36.893836      36.893836      36.893836    
   4240000   0.51513027    -7.7803411     -7.0076567      3.9246024      50218.233      36.893836      36.893836      36.893836    
   4250000   0.51193549    -7.779697      -7.0118047      3.9295573      50218.233      36.893836      36.893836      36.893836    
   4260000   0.51779433    -7.7808614     -7.0041809      3.9207017      50218.233      36.893836      36.893836      36.893836    
   4270000   0.51415811    -7.781116      -7.0098898      3.926024       50218.233      36.893836      36.893836      36.893836    
   4280000   0.5151486     -7.7779461     -7.0052342      3.9394255      50218.233      36.893836      36.893836      36.893836    
   4290000   0.51118944    -7.7743479     -7.0075747      3.9560651      50218.233      36.893836      36.893836      36.893836    
   4300000   0.51644876    -7.7795018     -7.0048397      3.9369773      50218.233      36.893836      36.893836      36.893836    
   4310000   0.51541785    -7.7772349     -7.0041191      3.9664674      50218.233      36.893836      36.893836      36.893836    
   4320000   0.51437106    -7.7769839     -7.0054383      3.9570189      50218.233      36.893836      36.893836      36.893836    
   4330000   0.51924196    -7.7794352     -7.0005833      3.9445614      50218.233      36.893836      36.893836      36.893836    
   4340000   0.51433201    -7.7775189     -7.0060319      3.9495157      50218.233      36.893836      36.893836      36.893836    
   4350000   0.51636471    -7.7779882     -7.0034521      3.9444292      50218.233      36.893836      36.893836      36.893836    
   4360000   0.51341526    -7.7756768     -7.0055648      3.9648333      50218.233      36.893836      36.893836      36.893836    
   4370000   0.51468595    -7.7794406     -7.0074227      3.9352581      50218.233      36.893836      36.893836      36.893836    
   4380000   0.51199007    -7.7789216     -7.0109474      3.9380676      50218.233      36.893836      36.893836      36.893836    
   4390000   0.51655836    -7.7793326     -7.0045061      3.9369026      50218.233      36.893836      36.893836      36.893836    
   4400000   0.51488505    -7.7815631     -7.0092466      3.9336585      50218.233      36.893836      36.893836      36.893836    
   4410000   0.51538843    -7.7817294     -7.0086577      3.913779       50218.233      36.893836      36.893836      36.893836    
   4420000   0.51624569    -7.7812342     -7.0068767      3.9334338      50218.233      36.893836      36.893836      36.893836    
   4430000   0.51453762    -7.7788329     -7.0070374      3.9391962      50218.233      36.893836      36.893836      36.893836    
   4440000   0.51571736    -7.7814271     -7.0078621      3.9250369      50218.233      36.893836      36.893836      36.893836    
   4450000   0.51786715    -7.7789738     -7.0021841      3.9499399      50218.233      36.893836      36.893836      36.893836    
   4460000   0.51398209    -7.7777808     -7.0068186      3.9420892      50218.233      36.893836      36.893836      36.893836    
   4470000   0.51572771    -7.7816113     -7.0080308      3.9143994      50218.233      36.893836      36.893836      36.893836    
   4480000   0.51701934    -7.7787271     -7.0032091      3.9449357      50218.233      36.893836      36.893836      36.893836    
   4490000   0.51557334    -7.7754579     -7.0021089      3.9701355      50218.233      36.893836      36.893836      36.893836    
   4500000   0.51471795    -7.7784941     -7.0064281      3.936936       50218.233      36.893836      36.893836      36.893836    
   4510000   0.51667512    -7.7786218     -7.0036202      3.9372682      50218.233      36.893836      36.893836      36.893836    
   4520000   0.5116881     -7.7773854     -7.0098642      3.9492136      50218.233      36.893836      36.893836      36.893836    
   4530000   0.51315611    -7.7786849     -7.0089617      3.9385972      50218.233      36.893836      36.893836      36.893836    
   4540000   0.51592524    -7.7794853     -7.0056085      3.9333417      50218.233      36.893836      36.893836      36.893836    
   4550000   0.51346197    -7.7795653     -7.0093833      3.9274056      50218.233      36.893836      36.893836      36.893836    
   4560000   0.51553043    -7.7783617     -7.005077       3.9458214      50218.233      36.893836      36.893836      36.893836    
   4570000   0.51469313    -7.7775123     -7.0054836      3.9566989      50218.233      36.893836      36.893836      36.893836    
   4580000   0.51544447    -7.7812602     -7.0081045      3.9143773      50218.233      36.893836      36.893836      36.893836    
   4590000   0.51371919    -7.779234      -7.0086662      3.9352582      50218.233      36.893836      36.893836      36.893836    
   4600000   0.51449702    -7.7805134     -7.0087788      3.9227932      50218.233      36.893836      36.893836      36.893836    
   4610000   0.51446801    -7.7787094     -7.0070183      3.9459484      50218.233      36.893836      36.893836      36.893836    
   4620000   0.514644      -7.7762509     -7.0042959      3.9581328      50218.233      36.893836      36.893836      36.893836    
   4630000   0.51326226    -7.7787406     -7.0088582      3.9312657      50218.233      36.893836      36.893836      36.893836    
   4640000   0.51441024    -7.7734043     -7.0017999      3.9824518      50218.233      36.893836      36.893836      36.893836    
   4650000   0.51390432    -7.7777294     -7.0068838      3.9443851      50218.233      36.893836      36.893836      36.893836    
   4660000   0.51457601    -7.7746045     -7.0027515      3.9721691      50218.233      36.893836      36.893836      36.893836    
   4670000   0.514383      -7.7821036     -7.0105401      3.926901       50218.233      36.893836      36.893836      36.893836    
   4680000   0.51623478    -7.7760653     -7.0017242      3.9697193      50218.233      36.893836      36.893836      36.893836    
   4690000   0.5142461     -7.7742318     -7.0028737      3.9819194      50218.233      36.893836      36.893836      36.893836    
   4700000   0.51365346    -7.7803565     -7.0098872      3.9356738      50218.233      36.893836      36.893836      36.893836    
   4710000   0.5125252     -7.7794095     -7.0106326      3.9387831      50218.233      36.893836      36.893836      36.893836    
   4720000   0.51367535    -7.7785212     -7.0080191      3.9384325      50218.233      36.893836      36.893836      36.893836    
   4730000   0.51383311    -7.7771121     -7.0063734      3.9532761      50218.233      36.893836      36.893836      36.893836    
   4740000   0.51483724    -7.7764874     -7.0042425      3.9653882      50218.233      36.893836      36.893836      36.893836    
   4750000   0.51355803    -7.7801492     -7.0098231      3.9311119      50218.233      36.893836      36.893836      36.893836    
   4760000   0.51459156    -7.7738433     -7.0019669      3.9784028      50218.233      36.893836      36.893836      36.893836    
   4770000   0.51450962    -7.7777744     -7.006021       3.9492003      50218.233      36.893836      36.893836      36.893836    
   4780000   0.51571226    -7.7816324     -7.008075       3.9315756      50218.233      36.893836      36.893836      36.893836    
   4790000   0.51543398    -7.7821469     -7.0090069      3.9286562      50218.233      36.893836      36.893836      36.893836    
   4800000   0.51586958    -7.7827108     -7.0089175      3.9267692      50218.233      36.893836      36.893836      36.893836    
   4810000   0.51610384    -7.7796666     -7.0055218      3.9434478      50218.233      36.893836      36.893836      36.893836    
   4820000   0.51698607    -7.7774909     -7.0020228      3.9549588      50218.233      36.893836      36.893836      36.893836    
   4830000   0.51532553    -7.7728956     -6.9999183      3.9938902      50218.233      36.893836      36.893836      36.893836    
   4840000   0.51088715    -7.7793929     -7.0130731      3.9457249      50218.233      36.893836      36.893836      36.893836    
   4850000   0.51483179    -7.7802686     -7.0080319      3.9335236      50218.233      36.893836      36.893836      36.893836    
   4860000   0.5172143     -7.7763955     -7.000585       3.9790258      50218.233      36.893836      36.893836      36.893836    
   4870000   0.51118007    -7.7817024     -7.0149432      3.9188116      50218.233      36.893836      36.893836      36.893836    
   4880000   0.51181643    -7.7823482     -7.0146344      3.9134658      50218.233      36.893836      36.893836      36.893836    
   4890000   0.51280147    -7.7796045     -7.0104133      3.9290764      50218.233      36.893836      36.893836      36.893836    
   4900000   0.51592261    -7.7800576     -7.0061847      3.9410086      50218.233      36.893836      36.893836      36.893836    
   4910000   0.51735476    -7.7789958     -7.0029747      3.9466712      50218.233      36.893836      36.893836      36.893836    
   4920000   0.51503113    -7.7738158     -7.0012801      3.9802871      50218.233      36.893836      36.893836      36.893836    
   4930000   0.51627371    -7.7798928     -7.0054932      3.9395734      50218.233      36.893836      36.893836      36.893836    
   4940000   0.5165899     -7.7761753     -7.0013014      3.9556097      50218.233      36.893836      36.893836      36.893836    
   4950000   0.51367889    -7.7804123     -7.0099049      3.9364792      50218.233      36.893836      36.893836      36.893836    
   4960000   0.51491547    -7.777392      -7.0050298      3.955802       50218.233      36.893836      36.893836      36.893836    
   4970000   0.51543503    -7.7762473     -7.0031057      3.9622517      50218.233      36.893836      36.893836      36.893836    
   4980000   0.51468003    -7.7771651     -7.0051561      3.95581        50218.233      36.893836      36.893836      36.893836    
   4990000   0.51237049    -7.7817547     -7.0132099      3.9185919      50218.233      36.893836      36.893836      36.893836    
   5000000   0.51343347    -7.7830936     -7.0129543      3.9127305      50218.233      36.893836      36.893836      36.893836    
   5010000   0.51438622    -7.7759193     -7.0043509      3.967573       50218.233      36.893836      36.893836      36.893836    
   5020000   0.51515685    -7.7793328     -7.0066085      3.9565757      50218.233      36.893836      36.893836      36.893836    
   5030000   0.51298565    -7.7800873     -7.0106198      3.9307943      50218.233      36.893836      36.893836      36.893836    
   5040000   0.51570843    -7.7797688     -7.0062172      3.9455064      50218.233      36.893836      36.893836      36.893836    
   5050000   0.51561443    -7.7779226     -7.004512       3.964463       50218.233      36.893836      36.893836      36.893836    
   5060000   0.51715906    -7.7781793     -7.0024518      3.9645179      50218.233      36.893836      36.893836      36.893836    
   5070000   0.51288955    -7.7824506     -7.0131272      3.9259769      50218.233      36.893836      36.893836      36.893836    
   5080000   0.51223419    -7.7816756     -7.0133352      3.9279844      50218.233      36.893836      36.893836      36.893836    
   5090000   0.51359897    -7.7720456     -7.0016581      3.9829316      50218.233      36.893836      36.893836      36.893836    
   5100000   0.51375499    -7.7797701     -7.0091486      3.9419175      50218.233      36.893836      36.893836      36.893836    
   5110000   0.51581745    -7.7798556     -7.0061404      3.9415877      50218.233      36.893836      36.893836      36.893836    
   5120000   0.51407883    -7.7762444     -7.0051371      3.966263       50218.233      36.893836      36.893836      36.893836    
   5130000   0.5122355     -7.7731754     -7.0048331      3.9885276      50218.233      36.893836      36.893836      36.893836    
   5140000   0.51775637    -7.7780007     -7.0013772      3.9506762      50218.233      36.893836      36.893836      36.893836    
   5150000   0.51443216    -7.7766934     -7.0050561      3.9523664      50218.233      36.893836      36.893836      36.893836    
   5160000   0.51519278    -7.7757339     -7.0029557      3.962478       50218.233      36.893836      36.893836      36.893836    
   5170000   0.51381576    -7.7748715     -7.0041588      3.9688657      50218.233      36.893836      36.893836      36.893836    
   5180000   0.51383452    -7.7715364     -7.0007956      4.0058845      50218.233      36.893836      36.893836      36.893836    
   5190000   0.51429191    -7.7741947     -7.0027678      3.9868035      50218.233      36.893836      36.893836      36.893836    
   5200000   0.515661      -7.7801254     -7.0066449      3.9380717      50218.233      36.893836      36.893836      36.893836    
   5210000   0.51721261    -7.7773868     -7.0015789      3.9662536      50218.233      36.893836      36.893836      36.893836    
   5220000   0.51471243    -7.7807868     -7.0087291      3.9289329      50218.233      36.893836      36.893836      36.893836    
   5230000   0.51427747    -7.7815877     -7.0101825      3.924242       50218.233      36.893836      36.893836      36.893836    
   5240000   0.5145811     -7.7807406     -7.0088799      3.9433687      50218.233      36.893836      36.893836      36.893836    
   5250000   0.51527936    -7.7814056     -7.0084975      3.9231635      50218.233      36.893836      36.893836      36.893836    
   5260000   0.51362351    -7.777961      -7.0075367      3.9491011      50218.233      36.893836      36.893836      36.893836    
   5270000   0.51426331    -7.7801846     -7.0088006      3.928471       50218.233      36.893836      36.893836      36.893836    
   5280000   0.5152312     -7.776544      -7.0037082      3.9576364      50218.233      36.893836      36.893836      36.893836    
   5290000   0.51598661    -7.7779506     -7.0039817      3.9582731      50218.233      36.893836      36.893836      36.893836    
   5300000   0.51391692    -7.7790208     -7.0081564      3.933551       50218.233      36.893836      36.893836      36.893836    
   5310000   0.51549576    -7.7757599     -7.0025273      3.9641001      50218.233      36.893836      36.893836      36.893836    
   5320000   0.51543058    -7.7718676     -6.9987327      3.987235       50218.233      36.893836      36.893836      36.893836    
   5330000   0.51637347    -7.7791224     -7.0045732      3.9395044      50218.233      36.893836      36.893836      36.893836    
   5340000   0.51491909    -7.7790011     -7.0066334      3.9394524      50218.233      36.893836      36.893836      36.893836    
   5350000   0.51364026    -7.7781299     -7.0076804      3.9509071      50218.233      36.893836      36.893836      36.893836    
   5360000   0.51478082    -7.7774628     -7.0053025      3.9635831      50218.233      36.893836      36.893836      36.893836    
   5370000   0.51586029    -7.7716728     -6.9978933      3.9964307      50218.233      36.893836      36.893836      36.893836    
   5380000   0.51357688    -7.7777179     -7.0073635      3.9505685      50218.233      36.893836      36.893836      36.893836    
   5390000   0.51877379    -7.7796165     -7.0014669      3.9402815      50218.233      36.893836      36.893836      36.893836    
   5400000   0.51624944    -7.7765412     -7.002178       3.9705776      50218.233      36.893836      36.893836      36.893836    
   5410000   0.51644207    -7.7792819     -7.0046298      3.9488583      50218.233      36.893836      36.893836      36.893836    
   5420000   0.51934343    -7.7776882     -6.9986841      3.961958       50218.233      36.893836      36.893836      36.893836    
   5430000   0.51737213    -7.7781749     -7.0021277      3.9514419      50218.233      36.893836      36.893836      36.893836    
   5440000   0.51891365    -7.7789625     -7.0006031      3.9534124      50218.233      36.893836      36.893836      36.893836    
   5450000   0.51424927    -7.7800203     -7.0086574      3.9328132      50218.233      36.893836      36.893836      36.893836    
   5460000   0.51526688    -7.7783565     -7.0054671      3.9480352      50218.233      36.893836      36.893836      36.893836    
   5470000   0.51768732    -7.7745218     -6.9980019      3.9864223      50218.233      36.893836      36.893836      36.893836    
   5480000   0.51202151    -7.7773702     -7.0093489      3.9459131      50218.233      36.893836      36.893836      36.893836    
   5490000   0.51254022    -7.7757168     -7.0069174      3.9592578      50218.233      36.893836      36.893836      36.893836    
   5500000   0.51389798    -7.779399      -7.008563       3.9378903      50218.233      36.893836      36.893836      36.893836    
   5510000   0.51473818    -7.7768296     -7.0047333      3.9689773      50218.233      36.893836      36.893836      36.893836    
   5520000   0.51457838    -7.777526      -7.0056694      3.9599678      50218.233      36.893836      36.893836      36.893836    
   5530000   0.51583987    -7.7706742     -6.9969254      3.999038       50218.233      36.893836      36.893836      36.893836    
   5540000   0.51350265    -7.7796757     -7.0094327      3.9329674      50218.233      36.893836      36.893836      36.893836    
   5550000   0.51277079    -7.7785898     -7.0094445      3.9356126      50218.233      36.893836      36.893836      36.893836    
   5560000   0.51636696    -7.7760521     -7.0015126      3.9677849      50218.233      36.893836      36.893836      36.893836    
   5570000   0.51411473    -7.7765992     -7.0054381      3.9520941      50218.233      36.893836      36.893836      36.893836    
   5580000   0.51227107    -7.7790666     -7.0106709      3.9367019      50218.233      36.893836      36.893836      36.893836    
   5590000   0.51635377    -7.7809633     -7.0064436      3.9156973      50218.233      36.893836      36.893836      36.893836    
   5600000   0.51589187    -7.7834091     -7.0095823      3.9093103      50218.233      36.893836      36.893836      36.893836    
   5610000   0.51518265    -7.7791419     -7.0063789      3.9250815      50218.233      36.893836      36.893836      36.893836    
   5620000   0.51495531    -7.7771504     -7.0047284      3.9510103      50218.233      36.893836      36.893836      36.893836    
   5630000   0.51433283    -7.7722719     -7.0007836      3.984864       50218.233      36.893836      36.893836      36.893836    
   5640000   0.51370992    -7.7798585     -7.0093046      3.9224568      50218.233      36.893836      36.893836      36.893836    
   5650000   0.51479326    -7.7776391     -7.0054602      3.9453252      50218.233      36.893836      36.893836      36.893836    
   5660000   0.51519578    -7.7773225     -7.0045398      3.9474336      50218.233      36.893836      36.893836      36.893836    
   5670000   0.51633594    -7.7815563     -7.0070634      3.9277628      50218.233      36.893836      36.893836      36.893836    
   5680000   0.51570283    -7.7755193     -7.0019761      3.9621937      50218.233      36.893836      36.893836      36.893836    
   5690000   0.51656418    -7.7780112     -7.0031759      3.9410308      50218.233      36.893836      36.893836      36.893836    
   5700000   0.51453077    -7.7790677     -7.0072826      3.9299326      50218.233      36.893836      36.893836      36.893836    
   5710000   0.51539195    -7.781073      -7.0079961      3.9157062      50218.233      36.893836      36.893836      36.893836    
   5720000   0.51461971    -7.7781349     -7.0062163      3.9506684      50218.233      36.893836      36.893836      36.893836    
   5730000   0.51738309    -7.7805608     -7.0044972      3.9250535      50218.233      36.893836      36.893836      36.893836    
   5740000   0.51643893    -7.7767217     -7.0020743      3.9620278      50218.233      36.893836      36.893836      36.893836    
   5750000   0.51373805    -7.7758194     -7.0052233      3.9576605      50218.233      36.893836      36.893836      36.893836    
   5760000   0.51696394    -7.7755637     -7.0001288      3.9627338      50218.233      36.893836      36.893836      36.893836    
   5770000   0.51496638    -7.7772235     -7.004785       3.9563774      50218.233      36.893836      36.893836      36.893836    
   5780000   0.51469257    -7.7767218     -7.004694       3.959321       50218.233      36.893836      36.893836      36.893836    
   5790000   0.51496931    -7.7821347     -7.0096917      3.9140166      50218.233      36.893836      36.893836      36.893836    
   5800000   0.51536843    -7.7803223     -7.0072806      3.9423139      50218.233      36.893836      36.893836      36.893836    
   5810000   0.517076      -7.7800282     -7.0044252      3.9404383      50218.233      36.893836      36.893836      36.893836    
   5820000   0.51375791    -7.7795868     -7.0089609      3.9310716      50218.233      36.893836      36.893836      36.893836    
   5830000   0.51530567    -7.7767171     -7.0037696      3.9633223      50218.233      36.893836      36.893836      36.893836    
   5840000   0.51344043    -7.7777119     -7.0075622      3.947108       50218.233      36.893836      36.893836      36.893836    
   5850000   0.51700436    -7.7762405     -7.0007449      3.9720531      50218.233      36.893836      36.893836      36.893836    
   5860000   0.51596234    -7.7744819     -7.0005494      3.9790709      50218.233      36.893836      36.893836      36.893836    
   5870000   0.51657581    -7.7755512     -7.0006985      3.9665724      50218.233      36.893836      36.893836      36.893836    
   5880000   0.51675778    -7.7764918     -7.0013662      3.9592931      50218.233      36.893836      36.893836      36.893836    
   5890000   0.51603651    -7.7777076     -7.0036638      3.9481263      50218.233      36.893836      36.893836      36.893836    
   5900000   0.51608675    -7.7749617     -7.0008426      3.9730466      50218.233      36.893836      36.893836      36.893836    
   5910000   0.51421696    -7.7790445     -7.0077301      3.9310061      50218.233      36.893836      36.893836      36.893836    
   5920000   0.51773768    -7.7800217     -7.0034262      3.9398788      50218.233      36.893836      36.893836      36.893836    
   5930000   0.51628203    -7.7777315     -7.0033195      3.9532163      50218.233      36.893836      36.893836      36.893836    
   5940000   0.51649899    -7.7740134     -6.999276       3.9749246      50218.233      36.893836      36.893836      36.893836    
   5950000   0.51346821    -7.7739216     -7.0037302      3.979043       50218.233      36.893836      36.893836      36.893836    
   5960000   0.5160428     -7.7770112     -7.0029581      3.9481843      50218.233      36.893836      36.893836      36.893836    
   5970000   0.51281052    -7.7783342     -7.0091294      3.9382765      50218.233      36.893836      36.893836      36.893836    
   5980000   0.51505428    -7.7815146     -7.0089441      3.9161078      50218.233      36.893836      36.893836      36.893836    
   5990000   0.51299142    -7.7772865     -7.0078103      3.9541296      50218.233      36.893836      36.893836      36.893836    
   6000000   0.5158181     -7.7765265     -7.0028104      3.9670562      50218.233      36.893836      36.893836      36.893836    
   6010000   0.51573857    -7.7792751     -7.0056782      3.9301584      50218.233      36.893836      36.893836      36.893836    
   6020000   0.51519023    -7.7770545     -7.0042801      3.9569843      50218.233      36.893836      36.893836      36.893836    
   6030000   0.51502359    -7.778567      -7.0060426      3.9457049      50218.233      36.893836      36.893836      36.893836    
   6040000   0.51556161    -7.7773103     -7.0039789      3.9484526      50218.233      36.893836      36.893836      36.893836    
   6050000   0.51391056    -7.7744698     -7.0036149      3.9758497      50218.233      36.893836      36.893836      36.893836    
   6060000   0.51436988    -7.7761821     -7.0046382      3.9694423      50218.233      36.893836      36.893836      36.893836    
   6070000   0.51598077    -7.7796236     -7.0056635      3.9411247      50218.233      36.893836      36.893836      36.893836    
   6080000   0.5171594     -7.7784904     -7.0027624      3.9457547      50218.233      36.893836      36.893836      36.893836    
   6090000   0.51371334    -7.7773256     -7.0067666      3.9473357      50218.233      36.893836      36.893836      36.893836    
   6100000   0.51328201    -7.7788449     -7.0089328      3.9365471      50218.233      36.893836      36.893836      36.893836    
   6110000   0.517048      -7.7760323     -7.0004714      3.9710832      50218.233      36.893836      36.893836      36.893836    
   6120000   0.51475742    -7.7794051     -7.00728        3.9474566      50218.233      36.893836      36.893836      36.893836    
   6130000   0.51318871    -7.7777651     -7.007993       3.9574797      50218.233      36.893836      36.893836      36.893836    
   6140000   0.51641077    -7.7751026     -7.0004975      3.9786253      50218.233      36.893836      36.893836      36.893836    
   6150000   0.5129529     -7.7767239     -7.0073055      3.9574735      50218.233      36.893836      36.893836      36.893836    
   6160000   0.51520281    -7.779432      -7.0066388      3.9291229      50218.233      36.893836      36.893836      36.893836    
   6170000   0.51512443    -7.7783027     -7.005627       3.9459563      50218.233      36.893836      36.893836      36.893836    
   6180000   0.51465657    -7.7757849     -7.003811       3.9550488      50218.233      36.893836      36.893836      36.893836    
   6190000   0.5167875     -7.7773403     -7.0021701      3.9540173      50218.233      36.893836      36.893836      36.893836    
   6200000   0.51262312    -7.7765029     -7.0075792      3.957858       50218.233      36.893836      36.893836      36.893836    
   6210000   0.51374693    -7.7772611     -7.0066516      3.9539671      50218.233      36.893836      36.893836      36.893836    
   6220000   0.51701616    -7.7797274     -7.0042142      3.9353067      50218.233      36.893836      36.893836      36.893836    
   6230000   0.51362762    -7.7774699     -7.0070395      3.9493414      50218.233      36.893836      36.893836      36.893836    
   6240000   0.51777238    -7.7807953     -7.0041478      3.9308063      50218.233      36.893836      36.893836      36.893836    
   6250000   0.51759432    -7.7778221     -7.0014417      3.9475536      50218.233      36.893836      36.893836      36.893836    
   6260000   0.51202624    -7.7803343     -7.0123058      3.9235301      50218.233      36.893836      36.893836      36.893836    
   6270000   0.51471635    -7.779598      -7.0075345      3.9513733      50218.233      36.893836      36.893836      36.893836    
   6280000   0.51680272    -7.7789581     -7.0037651      3.9458117      50218.233      36.893836      36.893836      36.893836    
   6290000   0.51442947    -7.7806393     -7.0090061      3.9332202      50218.233      36.893836      36.893836      36.893836    
   6300000   0.51521793    -7.7760373     -7.0032214      3.9695015      50218.233      36.893836      36.893836      36.893836    
   6310000   0.51441973    -7.7803797     -7.0087611      3.9349571      50218.233      36.893836      36.893836      36.893836    
   6320000   0.51468012    -7.7783472     -7.006338       3.9366767      50218.233      36.893836      36.893836      36.893836    
   6330000   0.51737523    -7.7767468     -7.000695       3.9673511      50218.233      36.893836      36.893836      36.893836    
   6340000   0.51374747    -7.7861208     -7.0155106      3.8886042      50218.233      36.893836      36.893836      36.893836    
   6350000   0.51537958    -7.7790895     -7.0060311      3.9415675      50218.233      36.893836      36.893836      36.893836    
   6360000   0.51883285    -7.7797446     -7.0015063      3.9460777      50218.233      36.893836      36.893836      36.893836    
   6370000   0.5139529     -7.7798516     -7.0089332      3.9285304      50218.233      36.893836      36.893836      36.893836    
   6380000   0.51558803    -7.7849829     -7.0116119      3.8924683      50218.233      36.893836      36.893836      36.893836    
   6390000   0.5138782     -7.7796123     -7.008806       3.9315451      50218.233      36.893836      36.893836      36.893836    
   6400000   0.51466247    -7.7808834     -7.0089007      3.928198       50218.233      36.893836      36.893836      36.893836    
   6410000   0.51374048    -7.7784982     -7.0078985      3.9433599      50218.233      36.893836      36.893836      36.893836    
   6420000   0.51754156    -7.7745606     -6.9982593      3.9713389      50218.233      36.893836      36.893836      36.893836    
   6430000   0.51772008    -7.7808382     -7.0042691      3.9342765      50218.233      36.893836      36.893836      36.893836    
   6440000   0.51729547    -7.7829248     -7.0069927      3.9244383      50218.233      36.893836      36.893836      36.893836    
   6450000   0.51703333    -7.7810996     -7.0055607      3.9190526      50218.233      36.893836      36.893836      36.893836    
   6460000   0.51554347    -7.7799727     -7.0066685      3.9284232      50218.233      36.893836      36.893836      36.893836    
   6470000   0.5149496     -7.7789579     -7.0065445      3.9448945      50218.233      36.893836      36.893836      36.893836    
   6480000   0.51500651    -7.7809059     -7.0084071      3.9261559      50218.233      36.893836      36.893836      36.893836    
   6490000   0.51659678    -7.7805437     -7.0056595      3.9364559      50218.233      36.893836      36.893836      36.893836    
   6500000   0.51658673    -7.7776709     -7.0028018      3.9612239      50218.233      36.893836      36.893836      36.893836    
   6510000   0.51415041    -7.778669      -7.0074544      3.9384575      50218.233      36.893836      36.893836      36.893836    
   6520000   0.51410922    -7.7751971     -7.0040442      3.9728347      50218.233      36.893836      36.893836      36.893836    
   6530000   0.5157663     -7.7758175     -7.0021791      3.9679589      50218.233      36.893836      36.893836      36.893836    
   6540000   0.51696293    -7.7800872     -7.0046538      3.9325953      50218.233      36.893836      36.893836      36.893836    
   6550000   0.51731023    -7.7826027     -7.0066484      3.9127482      50218.233      36.893836      36.893836      36.893836    
   6560000   0.51181662    -7.7781839     -7.0104699      3.9475094      50218.233      36.893836      36.893836      36.893836    
   6570000   0.51693375    -7.7800738     -7.0046842      3.9417131      50218.233      36.893836      36.893836      36.893836    
   6580000   0.51450451    -7.7790109     -7.0072651      3.9382561      50218.233      36.893836      36.893836      36.893836    
   6590000   0.51232545    -7.7834245     -7.0149472      3.9156931      50218.233      36.893836      36.893836      36.893836    
   6600000   0.5179053     -7.7766369     -6.99979        3.9666291      50218.233      36.893836      36.893836      36.893836    
   6610000   0.51524163    -7.7781581     -7.0053066      3.9432897      50218.233      36.893836      36.893836      36.893836    
   6620000   0.51088341    -7.7848084     -7.0184942      3.8842229      50218.233      36.893836      36.893836      36.893836    
   6630000   0.51739844    -7.7810586     -7.004972       3.9282         50218.233      36.893836      36.893836      36.893836    
   6640000   0.51565689    -7.7807426     -7.0072683      3.9321597      50218.233      36.893836      36.893836      36.893836    
   6650000   0.51230956    -7.7796148     -7.0111614      3.924899       50218.233      36.893836      36.893836      36.893836    
   6660000   0.51389497    -7.7852277     -7.0143962      3.9008402      50218.233      36.893836      36.893836      36.893836    
   6670000   0.51456324    -7.7789512     -7.0071173      3.9444622      50218.233      36.893836      36.893836      36.893836    
   6680000   0.51179386    -7.779225      -7.0115452      3.9324114      50218.233      36.893836      36.893836      36.893836    
   6690000   0.51566982    -7.7771704     -7.0036767      3.9628699      50218.233      36.893836      36.893836      36.893836    
   6700000   0.5153314     -7.7804638     -7.0074777      3.9325854      50218.233      36.893836      36.893836      36.893836    
   6710000   0.51270375    -7.7811603     -7.0121156      3.9242039      50218.233      36.893836      36.893836      36.893836    
   6720000   0.5137227     -7.7815046     -7.0109315      3.9195502      50218.233      36.893836      36.893836      36.893836    
   6730000   0.51442358    -7.780372      -7.0087476      3.9330643      50218.233      36.893836      36.893836      36.893836    
   6740000   0.51157331    -7.777509      -7.0101599      3.9528022      50218.233      36.893836      36.893836      36.893836    
   6750000   0.51574805    -7.7738983     -7.0002872      3.9826181      50218.233      36.893836      36.893836      36.893836    
   6760000   0.51788043    -7.7773548     -7.0005452      3.9616503      50218.233      36.893836      36.893836      36.893836    
   6770000   0.51415903    -7.7790418     -7.0078142      3.9354512      50218.233      36.893836      36.893836      36.893836    
   6780000   0.51632636    -7.7770841     -7.0026056      3.9680475      50218.233      36.893836      36.893836      36.893836    
   6790000   0.51352779    -7.7760772     -7.0057965      3.973122       50218.233      36.893836      36.893836      36.893836    
   6800000   0.5150852     -7.7757608     -7.0031439      3.9684884      50218.233      36.893836      36.893836      36.893836    
   6810000   0.51639449    -7.7807885     -7.0062078      3.9308193      50218.233      36.893836      36.893836      36.893836    
   6820000   0.51589391    -7.7818685     -7.0080386      3.9198862      50218.233      36.893836      36.893836      36.893836    
   6830000   0.51555063    -7.7828213     -7.0095064      3.9160502      50218.233      36.893836      36.893836      36.893836    
   6840000   0.51778357    -7.7798006     -7.0031363      3.93791        50218.233      36.893836      36.893836      36.893836    
   6850000   0.51412501    -7.7785478     -7.0073713      3.956458       50218.233      36.893836      36.893836      36.893836    
   6860000   0.51718723    -7.7803163     -7.0045465      3.9389348      50218.233      36.893836      36.893836      36.893836    
   6870000   0.51362925    -7.7787539     -7.0083209      3.9520159      50218.233      36.893836      36.893836      36.893836    
   6880000   0.51500208    -7.779364      -7.0068719      3.9354428      50218.233      36.893836      36.893836      36.893836    
   6890000   0.51553036    -7.7755069     -7.0022223      3.9795203      50218.233      36.893836      36.893836      36.893836    
   6900000   0.51332137    -7.7828165     -7.0128454      3.9075331      50218.233      36.893836      36.893836      36.893836    
   6910000   0.51662056    -7.7822125     -7.0072926      3.9110689      50218.233      36.893836      36.893836      36.893836    
   6920000   0.51491914    -7.7798376     -7.0074699      3.9389927      50218.233      36.893836      36.893836      36.893836    
   6930000   0.51429038    -7.7812469     -7.0098223      3.9313114      50218.233      36.893836      36.893836      36.893836    
   6940000   0.51359961    -7.7802899     -7.0099014      3.9326678      50218.233      36.893836      36.893836      36.893836    
   6950000   0.5142069     -7.7819879     -7.0106885      3.9111784      50218.233      36.893836      36.893836      36.893836    
   6960000   0.51515318    -7.784351      -7.0116322      3.9015343      50218.233      36.893836      36.893836      36.893836    
   6970000   0.51603399    -7.7792066     -7.0051666      3.9467297      50218.233      36.893836      36.893836      36.893836    
   6980000   0.51436841    -7.7786562     -7.0071146      3.9511487      50218.233      36.893836      36.893836      36.893836    
   6990000   0.51885916    -7.7813911     -7.0031134      3.9251325      50218.233      36.893836      36.893836      36.893836    
   7000000   0.51415104    -7.7813242     -7.0101086      3.9242023      50218.233      36.893836      36.893836      36.893836    
   7010000   0.51399308    -7.7767588     -7.0057802      3.9586918      50218.233      36.893836      36.893836      36.893836    
   7020000   0.51809178    -7.7806178     -7.0034912      3.9373881      50218.233      36.893836      36.893836      36.893836    
   7030000   0.51281396    -7.7799441     -7.0107341      3.934577       50218.233      36.893836      36.893836      36.893836    
   7040000   0.51445093    -7.7795591     -7.0078936      3.9418237      50218.233      36.893836      36.893836      36.893836    
   7050000   0.51614195    -7.7811606     -7.0069587      3.9353442      50218.233      36.893836      36.893836      36.893836    
   7060000   0.5141675     -7.7829425     -7.0117022      3.9121524      50218.233      36.893836      36.893836      36.893836    
   7070000   0.51205299    -7.7839108     -7.0158423      3.8916178      50218.233      36.893836      36.893836      36.893836    
   7080000   0.51294607    -7.7785338     -7.0091256      3.9451403      50218.233      36.893836      36.893836      36.893836    
   7090000   0.51381657    -7.7779558     -7.0072419      3.9481017      50218.233      36.893836      36.893836      36.893836    
   7100000   0.51471612    -7.7796777     -7.0076145      3.9437047      50218.233      36.893836      36.893836      36.893836    
   7110000   0.51627516    -7.7834173     -7.0090155      3.9141308      50218.233      36.893836      36.893836      36.893836    
   7120000   0.51469266    -7.7811809     -7.0091529      3.9241811      50218.233      36.893836      36.893836      36.893836    
   7130000   0.51525125    -7.7811556     -7.0082897      3.9228367      50218.233      36.893836      36.893836      36.893836    
   7140000   0.51578872    -7.7833524     -7.0096803      3.8991601      50218.233      36.893836      36.893836      36.893836    
   7150000   0.51280367    -7.7828908     -7.0136962      3.9014875      50218.233      36.893836      36.893836      36.893836    
   7160000   0.51382117    -7.7808631     -7.0101423      3.9274902      50218.233      36.893836      36.893836      36.893836    
   7170000   0.51741487    -7.7816385     -7.0055272      3.9141185      50218.233      36.893836      36.893836      36.893836    
   7180000   0.5162917     -7.7821008     -7.0076743      3.9130327      50218.233      36.893836      36.893836      36.893836    
   7190000   0.51906859    -7.7839654     -7.0053735      3.9147462      50218.233      36.893836      36.893836      36.893836    
   7200000   0.51508228    -7.7804425     -7.0078301      3.9244094      50218.233      36.893836      36.893836      36.893836    
   7210000   0.51229604    -7.784356      -7.0159229      3.8982387      50218.233      36.893836      36.893836      36.893836    
   7220000   0.51311071    -7.7805543     -7.0108991      3.9409218      50218.233      36.893836      36.893836      36.893836    
   7230000   0.51333479    -7.7841408     -7.0141495      3.9037672      50218.233      36.893836      36.893836      36.893836    
   7240000   0.514297      -7.7845963     -7.0131618      3.9071866      50218.233      36.893836      36.893836      36.893836    
   7250000   0.51308682    -7.7780868     -7.0084676      3.9400044      50218.233      36.893836      36.893836      36.893836    
   7260000   0.51444079    -7.7770302     -7.00538        3.9503024      50218.233      36.893836      36.893836      36.893836    
   7270000   0.51734513    -7.7784362     -7.0024296      3.9435646      50218.233      36.893836      36.893836      36.893836    
   7280000   0.51438059    -7.7828798     -7.0113199      3.9159772      50218.233      36.893836      36.893836      36.893836    
   7290000   0.51593806    -7.7874576     -7.0135615      3.8656483      50218.233      36.893836      36.893836      36.893836    
   7300000   0.51383101    -7.7818593     -7.0111238      3.917936       50218.233      36.893836      36.893836      36.893836    
   7310000   0.51532567    -7.7818528     -7.0088753      3.9217709      50218.233      36.893836      36.893836      36.893836    
   7320000   0.51518072    -7.7814219     -7.0086618      3.9290358      50218.233      36.893836      36.893836      36.893836    
   7330000   0.51278959    -7.7801752     -7.0110018      3.925484       50218.233      36.893836      36.893836      36.893836    
   7340000   0.51559818    -7.7809877     -7.0076015      3.9165148      50218.233      36.893836      36.893836      36.893836    
   7350000   0.51791609    -7.7802636     -7.0034005      3.9390521      50218.233      36.893836      36.893836      36.893836    
   7360000   0.5160979     -7.7851995     -7.0110637      3.8857281      50218.233      36.893836      36.893836      36.893836    
   7370000   0.51553819    -7.781271      -7.0079747      3.923737       50218.233      36.893836      36.893836      36.893836    
   7380000   0.51678882    -7.7852092     -7.0100369      3.9048314      50218.233      36.893836      36.893836      36.893836    
   7390000   0.5133228     -7.7840935     -7.0141203      3.9131917      50218.233      36.893836      36.893836      36.893836    
   7400000   0.51883376    -7.7863259     -7.0080863      3.8950458      50218.233      36.893836      36.893836      36.893836    
   7410000   0.5128871     -7.781788      -7.0124683      3.912985       50218.233      36.893836      36.893836      36.893836    
   7420000   0.51441338    -7.7827661     -7.011157       3.918012       50218.233      36.893836      36.893836      36.893836    
   7430000   0.5109484     -7.7809617     -7.01455        3.9182548      50218.233      36.893836      36.893836      36.893836    
   7440000   0.51535038    -7.7829485     -7.0099339      3.9166943      50218.233      36.893836      36.893836      36.893836    
   7450000   0.51663337    -7.783714      -7.0087749      3.9042845      50218.233      36.893836      36.893836      36.893836    
   7460000   0.51723336    -7.7834192     -7.0075802      3.9105531      50218.233      36.893836      36.893836      36.893836    
   7470000   0.51416616    -7.7829916     -7.0117533      3.9076499      50218.233      36.893836      36.893836      36.893836    
   7480000   0.51602056    -7.7816245     -7.0076047      3.9276376      50218.233      36.893836      36.893836      36.893836    
   7490000   0.51297247    -7.7815245     -7.0120767      3.9172931      50218.233      36.893836      36.893836      36.893836    
   7500000   0.51546057    -7.7821562     -7.0089764      3.9184183      50218.233      36.893836      36.893836      36.893836    
   7510000   0.5128395     -7.7834832     -7.0142349      3.8977551      50218.233      36.893836      36.893836      36.893836    
   7520000   0.51540247    -7.7843676     -7.0112749      3.888669       50218.233      36.893836      36.893836      36.893836    
   7530000   0.51421242    -7.7857855     -7.0144779      3.8836953      50218.233      36.893836      36.893836      36.893836    
   7540000   0.51394583    -7.7789792     -7.0080714      3.9419709      50218.233      36.893836      36.893836      36.893836    
   7550000   0.51488767    -7.7829235     -7.010603       3.9060216      50218.233      36.893836      36.893836      36.893836    
   7560000   0.51636998    -7.7775499     -7.003006       3.9553648      50218.233      36.893836      36.893836      36.893836    
   7570000   0.51670788    -7.7885946     -7.0135438      3.8692494      50218.233      36.893836      36.893836      36.893836    
   7580000   0.51408188    -7.7808341     -7.0097223      3.9297304      50218.233      36.893836      36.893836      36.893836    
   7590000   0.51499573    -7.7821561     -7.0096735      3.920455       50218.233      36.893836      36.893836      36.893836    
   7600000   0.51579161    -7.7781597     -7.0044833      3.9586643      50218.233      36.893836      36.893836      36.893836    
   7610000   0.51493595    -7.7813807     -7.0089878      3.915353       50218.233      36.893836      36.893836      36.893836    
   7620000   0.5140027     -7.7805679     -7.0095748      3.9259304      50218.233      36.893836      36.893836      36.893836    
   7630000   0.51475922    -7.7803079     -7.0081801      3.9310751      50218.233      36.893836      36.893836      36.893836    
   7640000   0.51724069    -7.7801157     -7.0042657      3.9278895      50218.233      36.893836      36.893836      36.893836    
   7650000   0.51855398    -7.7794785     -7.0016586      3.9519175      50218.233      36.893836      36.893836      36.893836    
   7660000   0.51496331    -7.7818166     -7.0093826      3.9225685      50218.233      36.893836      36.893836      36.893836    
   7670000   0.51208066    -7.777672      -7.0095619      3.944839       50218.233      36.893836      36.893836      36.893836    
   7680000   0.51593183    -7.7774941     -7.0036074      3.9495842      50218.233      36.893836      36.893836      36.893836    
   7690000   0.5135695     -7.7810704     -7.0107271      3.9252755      50218.233      36.893836      36.893836      36.893836    
   7700000   0.51411885    -7.7783505     -7.0071832      3.9388238      50218.233      36.893836      36.893836      36.893836    
   7710000   0.51571889    -7.7783032     -7.0047359      3.9441174      50218.233      36.893836      36.893836      36.893836    
   7720000   0.51483747    -7.7764862     -7.004241       3.9627557      50218.233      36.893836      36.893836      36.893836    
   7730000   0.51692698    -7.7766931     -7.0013136      3.9650292      50218.233      36.893836      36.893836      36.893836    
   7740000   0.51722278    -7.7842993     -7.0084762      3.9043894      50218.233      36.893836      36.893836      36.893836    
   7750000   0.51430089    -7.7769506     -7.0055103      3.9637335      50218.233      36.893836      36.893836      36.893836    
   7760000   0.51699739    -7.7804988     -7.0050137      3.9507438      50218.233      36.893836      36.893836      36.893836    
   7770000   0.51538202    -7.7782738     -7.0052118      3.9548845      50218.233      36.893836      36.893836      36.893836    
   7780000   0.51430328    -7.7790276     -7.0075837      3.9481969      50218.233      36.893836      36.893836      36.893836    
   7790000   0.51504405    -7.7821265     -7.0095715      3.9136974      50218.233      36.893836      36.893836      36.893836    
   7800000   0.51471512    -7.7816577     -7.009596       3.9321964      50218.233      36.893836      36.893836      36.893836    
   7810000   0.51379915    -7.7795215     -7.0088337      3.9457051      50218.233      36.893836      36.893836      36.893836    
   7820000   0.51378297    -7.7819726     -7.0113091      3.9120095      50218.233      36.893836      36.893836      36.893836    
   7830000   0.51471783    -7.7792736     -7.0072078      3.9534275      50218.233      36.893836      36.893836      36.893836    
   7840000   0.51599404    -7.7778739     -7.0038939      3.9485714      50218.233      36.893836      36.893836      36.893836    
   7850000   0.51469238    -7.7814775     -7.0094499      3.9165689      50218.233      36.893836      36.893836      36.893836    
   7860000   0.51668251    -7.781411      -7.0063983      3.9339038      50218.233      36.893836      36.893836      36.893836    
   7870000   0.51566623    -7.7773655     -7.0038772      3.9524123      50218.233      36.893836      36.893836      36.893836    
   7880000   0.51655431    -7.7800125     -7.005192       3.9392386      50218.233      36.893836      36.893836      36.893836    
   7890000   0.51435229    -7.7790033     -7.0074858      3.942163       50218.233      36.893836      36.893836      36.893836    
   7900000   0.51662524    -7.7795023     -7.0045755      3.9423265      50218.233      36.893836      36.893836      36.893836    
   7910000   0.51542817    -7.7797892     -7.0066579      3.9407237      50218.233      36.893836      36.893836      36.893836    
   7920000   0.51419815    -7.7857394     -7.0144532      3.8926808      50218.233      36.893836      36.893836      36.893836    
   7930000   0.51253246    -7.7841311     -7.0153434      3.9100459      50218.233      36.893836      36.893836      36.893836    
   7940000   0.5147222     -7.7783874     -7.0063151      3.9531114      50218.233      36.893836      36.893836      36.893836    
   7950000   0.51405242    -7.7811941     -7.0101265      3.9361279      50218.233      36.893836      36.893836      36.893836    
   7960000   0.51501018    -7.779112      -7.0066077      3.9403764      50218.233      36.893836      36.893836      36.893836    
   7970000   0.51689982    -7.7813798     -7.0060411      3.9279254      50218.233      36.893836      36.893836      36.893836    
   7980000   0.51282731    -7.7755441     -7.0063141      3.96084        50218.233      36.893836      36.893836      36.893836    
   7990000   0.51459415    -7.7818162     -7.0099359      3.9206652      50218.233      36.893836      36.893836      36.893836    
   8000000   0.51646567    -7.7861307     -7.0114432      3.9008208      50218.233      36.893836      36.893836      36.893836    
Loop time of 12699.7 on 5 procs for 8000000 steps with 70304 atoms

Performance: 544266.046 tau/day, 629.938 timesteps/s, 44.287 Matom-step/s
94.8% CPU use with 5 MPI tasks x 1 OpenMP threads

MPI task timing breakdown:
Section |  min time  |  avg time  |  max time  |%varavg| %total
---------------------------------------------------------------
Pair    | 4628.9     | 5006.3     | 5277.3     | 426.7 | 39.42
Neigh   | 38.79      | 42.137     | 45.906     |  36.2 |  0.33
Comm    | 1925.9     | 1937.3     | 1952.2     |  25.9 | 15.25
Output  | 0.14402    | 0.14943    | 0.15843    |   1.3 |  0.00
Modify  | 4786.7     | 5048.9     | 5418.9     | 418.6 | 39.76
Other   |            | 664.9      |            |       |  5.24

Nlocal:        14060.8 ave       14122 max       13988 min
Histogram: 1 0 0 1 0 1 0 1 0 1
Nghost:        18758.4 ave       18826 max       18676 min
Histogram: 1 0 0 0 2 0 0 0 1 1
Neighs:              0 ave           0 max           0 min
Histogram: 5 0 0 0 0 0 0 0 0 0

Total # of neighbors = 0
Ave neighs/atom = 0
Neighbor list builds = 1655051
Dangerous builds = 0
clear
OMP_NUM_THREADS environment is not set. Defaulting to 1 thread. (src/comm.cpp:98)
  using 1 OpenMP thread(s) per MPI task
package gpu 0
jump dms495.lmp

variable T equal 495
# T = 1000* (temp in LJ unit)
variable f equal 10000
log log.${T}
log log.495
