variable TLJ equal (${T}/1000)
variable TLJ equal (560/1000)
variable NCyle equal 10
variable iStep equal (${f})
variable iStep equal (10000)
variable dumpStep equal (${f}*100)
variable dumpStep equal (10000*100)
variable runStep equal (${f}*100*${NCyle})
variable runStep equal (10000*100*${NCyle})
variable runStep equal (10000*100*10)

units       lj
atom_style  atomic
dimension 3
boundary     p p p
pair_style  lj/cut 2.5
read_data  ../data/T${T}.dat
read_data  ../data/T560.dat
Reading data file ...
  orthogonal box = (0.97250269 0.97250269 0.97250269) to (37.866338 37.866338 37.866338)
  1 by 1 by 5 MPI processor grid
  reading atoms ...
  70304 atoms
  reading velocities ...
  70304 velocities
  read_data CPU = 0.212 seconds
change_box all triclinic
Changing box ...
  triclinic box = (0.97250269 0.97250269 0.97250269) to (37.866338 37.866338 37.866338) with tilt (0 0 0)
mass 1 1
mass 2 1
pair_modify shift yes
pair_coeff  1 1 1 1
pair_coeff  1 2 1.5 0.8
pair_coeff  2 2 0.5 0.88


timestep 0.01
thermo ${iStep}
thermo 10000
reset_timestep 0
thermo_style custom step temp pe etotal press vol lx ly lz
fix             1 all nvt temp ${TLJ}  ${TLJ}  0.1
fix             1 all nvt temp 0.56  ${TLJ}  0.1
fix             1 all nvt temp 0.56  0.56  0.1
thermo_modify flush yes

fix dsf all deform 1 xy  wiggle 0.5  ${f}   units box
fix dsf all deform 1 xy  wiggle 0.5  10000   units box
fix ps1 all ave/time 1 1 ${iStep} c_thermo_press[1] c_thermo_press[2]  c_thermo_press[3] c_thermo_press[4]  c_thermo_press[5] c_thermo_press[6]  file  stress.${T}
fix ps1 all ave/time 1 1 10000 c_thermo_press[1] c_thermo_press[2]  c_thermo_press[3] c_thermo_press[4]  c_thermo_press[5] c_thermo_press[6]  file  stress.${T}
fix ps1 all ave/time 1 1 10000 c_thermo_press[1] c_thermo_press[2]  c_thermo_press[3] c_thermo_press[4]  c_thermo_press[5] c_thermo_press[6]  file  stress.560
dump            1 all custom ${dumpStep} dump.${T} id type x y z
dump            1 all custom 1000000 dump.${T} id type x y z
dump            1 all custom 1000000 dump.560 id type x y z
dump_modify 1 sort id
fix nodrift all momentum 1  linear 1 1 1
fix com_seed all recenter INIT INIT INIT shift all
run ${runStep}
run 10000000
Generated 0 of 1 mixed pair_coeff terms from geometric mixing rule
Per MPI rank memory allocation (min/avg/max) = 6.667 | 8.471 | 8.924 Mbytes
   Step          Temp          PotEng         TotEng         Press          Volume           Lx             Ly             Lz      
         0   0.55997773    -7.7000466     -6.8600919      4.5856909      50218.233      36.893836      36.893836      36.893836    
     10000   0.55988999    -7.6929455     -6.8531225      4.634467       50218.233      36.893836      36.893836      36.893836    
     20000   0.5615776     -7.6834081     -6.8410537      4.6999462      50218.233      36.893836      36.893836      36.893836    
     30000   0.55994278    -7.6881424     -6.8482402      4.6709379      50218.233      36.893836      36.893836      36.893836    
     40000   0.56153858    -7.6818004     -6.8395045      4.7250508      50218.233      36.893836      36.893836      36.893836    
     50000   0.55989382    -7.6832355     -6.8434067      4.6978655      50218.233      36.893836      36.893836      36.893836    
     60000   0.55840857    -7.6876845     -6.8500835      4.6656195      50218.233      36.893836      36.893836      36.893836    
     70000   0.55819115    -7.6850759     -6.8478011      4.6762193      50218.233      36.893836      36.893836      36.893836    
     80000   0.56044613    -7.6886444     -6.8479872      4.6655882      50218.233      36.893836      36.893836      36.893836    
     90000   0.55888755    -7.6883163     -6.8499969      4.6676156      50218.233      36.893836      36.893836      36.893836    
    100000   0.56044627    -7.6864961     -6.8458386      4.680496       50218.233      36.893836      36.893836      36.893836    
    110000   0.5587215     -7.684823      -6.8467527      4.6891364      50218.233      36.893836      36.893836      36.893836    
    120000   0.56183478    -7.6887803     -6.8460401      4.6637945      50218.233      36.893836      36.893836      36.893836    
    130000   0.56054095    -7.690442      -6.8496425      4.6415734      50218.233      36.893836      36.893836      36.893836    
    140000   0.56237008    -7.6861692     -6.8426261      4.6920112      50218.233      36.893836      36.893836      36.893836    
    150000   0.56048744    -7.6887573     -6.8480381      4.6613667      50218.233      36.893836      36.893836      36.893836    
    160000   0.55775845    -7.6893819     -6.8527561      4.6690883      50218.233      36.893836      36.893836      36.893836    
    170000   0.55669066    -7.6865321     -6.851508       4.671568       50218.233      36.893836      36.893836      36.893836    
    180000   0.55600057    -7.6851392     -6.8511502      4.691765       50218.233      36.893836      36.893836      36.893836    
    190000   0.55855315    -7.6870261     -6.8492083      4.6891859      50218.233      36.893836      36.893836      36.893836    
    200000   0.56176219    -7.6837594     -6.8411281      4.7054369      50218.233      36.893836      36.893836      36.893836    
    210000   0.56095551    -7.6829296     -6.8415083      4.7063833      50218.233      36.893836      36.893836      36.893836    
    220000   0.5591358     -7.6832574     -6.8445656      4.7117907      50218.233      36.893836      36.893836      36.893836    
    230000   0.56105716    -7.681776      -6.8402022      4.7234388      50218.233      36.893836      36.893836      36.893836    
    240000   0.5598127     -7.6828213     -6.8431142      4.7147078      50218.233      36.893836      36.893836      36.893836    
    250000   0.55840167    -7.6804723     -6.8428817      4.7265499      50218.233      36.893836      36.893836      36.893836    
    260000   0.5603731     -7.6865223     -6.8459746      4.6880544      50218.233      36.893836      36.893836      36.893836    
    270000   0.56345718    -7.6922119     -6.8470381      4.6460537      50218.233      36.893836      36.893836      36.893836    
    280000   0.56158184    -7.6872385     -6.8448777      4.6732127      50218.233      36.893836      36.893836      36.893836    
    290000   0.5589549     -7.6815444     -6.8431239      4.7177378      50218.233      36.893836      36.893836      36.893836    
    300000   0.55803777    -7.6822642     -6.8452195      4.7208519      50218.233      36.893836      36.893836      36.893836    
    310000   0.56117196    -7.6878519     -6.8461059      4.6736317      50218.233      36.893836      36.893836      36.893836    
    320000   0.55961209    -7.6837009     -6.8442947      4.7112003      50218.233      36.893836      36.893836      36.893836    
    330000   0.56094418    -7.6822933     -6.840889       4.7263576      50218.233      36.893836      36.893836      36.893836    
    340000   0.56038       -7.6868476     -6.8462896      4.6881734      50218.233      36.893836      36.893836      36.893836    
    350000   0.55941005    -7.6842676     -6.8451645      4.6991383      50218.233      36.893836      36.893836      36.893836    
    360000   0.56132908    -7.6833542     -6.8413725      4.7160633      50218.233      36.893836      36.893836      36.893836    
    370000   0.56127664    -7.6855727     -6.8436698      4.695825       50218.233      36.893836      36.893836      36.893836    
    380000   0.55843904    -7.6903281     -6.8526815      4.6674644      50218.233      36.893836      36.893836      36.893836    
    390000   0.55903598    -7.6846217     -6.8460797      4.7140331      50218.233      36.893836      36.893836      36.893836    
    400000   0.55840451    -7.6860621     -6.8484672      4.7005497      50218.233      36.893836      36.893836      36.893836    
    410000   0.56091579    -7.6840605     -6.8426988      4.7118529      50218.233      36.893836      36.893836      36.893836    
    420000   0.559701      -7.6854844     -6.8459448      4.6949583      50218.233      36.893836      36.893836      36.893836    
    430000   0.55818359    -7.6864596     -6.8491961      4.6805359      50218.233      36.893836      36.893836      36.893836    
    440000   0.56145917    -7.6872562     -6.8450794      4.6928534      50218.233      36.893836      36.893836      36.893836    
    450000   0.56400462    -7.6854596     -6.8394647      4.7062263      50218.233      36.893836      36.893836      36.893836    
    460000   0.55818565    -7.6872893     -6.8500227      4.6753846      50218.233      36.893836      36.893836      36.893836    
    470000   0.56084912    -7.6832455     -6.8419837      4.7143418      50218.233      36.893836      36.893836      36.893836    
    480000   0.55912953    -7.6784782     -6.8397959      4.7527366      50218.233      36.893836      36.893836      36.893836    
    490000   0.55860206    -7.68297       -6.8450788      4.7051772      50218.233      36.893836      36.893836      36.893836    
    500000   0.56141562    -7.6860546     -6.8439431      4.6938565      50218.233      36.893836      36.893836      36.893836    
    510000   0.5591963     -7.679303      -6.8405205      4.7274136      50218.233      36.893836      36.893836      36.893836    
    520000   0.56039297    -7.6863671     -6.8457896      4.6863192      50218.233      36.893836      36.893836      36.893836    
    530000   0.56195953    -7.6812258     -6.8382985      4.727712       50218.233      36.893836      36.893836      36.893836    
    540000   0.56107174    -7.6863825     -6.8447869      4.6834682      50218.233      36.893836      36.893836      36.893836    
    550000   0.56087133    -7.6855144     -6.8442194      4.6973397      50218.233      36.893836      36.893836      36.893836    
    560000   0.55817138    -7.6846428     -6.8473976      4.7001731      50218.233      36.893836      36.893836      36.893836    
    570000   0.55931161    -7.6838119     -6.8448564      4.6954364      50218.233      36.893836      36.893836      36.893836    
    580000   0.56027676    -7.6811882     -6.8407851      4.7161887      50218.233      36.893836      36.893836      36.893836    
    590000   0.56205726    -7.6852731     -6.8421993      4.6984945      50218.233      36.893836      36.893836      36.893836    
    600000   0.56045063    -7.6829736     -6.8423097      4.7146335      50218.233      36.893836      36.893836      36.893836    
    610000   0.55970421    -7.68146       -6.8419157      4.729695       50218.233      36.893836      36.893836      36.893836    
    620000   0.55940305    -7.6808985     -6.8418059      4.7211544      50218.233      36.893836      36.893836      36.893836    
    630000   0.55930701    -7.6825614     -6.8436128      4.7204757      50218.233      36.893836      36.893836      36.893836    
    640000   0.55900961    -7.6836975     -6.845195       4.6989534      50218.233      36.893836      36.893836      36.893836    
    650000   0.55783393    -7.6832739     -6.8465349      4.7065899      50218.233      36.893836      36.893836      36.893836    
    660000   0.55987393    -7.6794893     -6.8396904      4.7431942      50218.233      36.893836      36.893836      36.893836    
    670000   0.55852056    -7.6840942     -6.8463252      4.7102803      50218.233      36.893836      36.893836      36.893836    
    680000   0.55820129    -7.682557      -6.845267       4.7199607      50218.233      36.893836      36.893836      36.893836    
    690000   0.56132356    -7.6810005     -6.8390271      4.7424642      50218.233      36.893836      36.893836      36.893836    
    700000   0.55783991    -7.6823375     -6.8455895      4.7142455      50218.233      36.893836      36.893836      36.893836    
    710000   0.55941494    -7.6827366     -6.8436261      4.7089694      50218.233      36.893836      36.893836      36.893836    
    720000   0.55735458    -7.6860166     -6.8499966      4.6886778      50218.233      36.893836      36.893836      36.893836    
    730000   0.55929635    -7.6796875     -6.840755       4.7351367      50218.233      36.893836      36.893836      36.893836    
    740000   0.55915127    -7.6797521     -6.8410371      4.7448778      50218.233      36.893836      36.893836      36.893836    
    750000   0.55901253    -7.6820026     -6.8434958      4.7277705      50218.233      36.893836      36.893836      36.893836    
    760000   0.55975415    -7.6870056     -6.8473863      4.6727987      50218.233      36.893836      36.893836      36.893836    
    770000   0.55872791    -7.6797339     -6.8416539      4.7335715      50218.233      36.893836      36.893836      36.893836    
    780000   0.55938919    -7.6809017     -6.8418299      4.73809        50218.233      36.893836      36.893836      36.893836    
    790000   0.56164018    -7.6798723     -6.837424       4.7443771      50218.233      36.893836      36.893836      36.893836    
    800000   0.5615491     -7.6823355     -6.8400238      4.7201692      50218.233      36.893836      36.893836      36.893836    
    810000   0.56034665    -7.6817591     -6.8412511      4.7156278      50218.233      36.893836      36.893836      36.893836    
    820000   0.56153922    -7.685856      -6.8435592      4.6920752      50218.233      36.893836      36.893836      36.893836    
    830000   0.55913571    -7.6839269     -6.8452353      4.7092342      50218.233      36.893836      36.893836      36.893836    
    840000   0.55897402    -7.6809811     -6.842532       4.7177459      50218.233      36.893836      36.893836      36.893836    
    850000   0.55659735    -7.6820562     -6.8471721      4.7311363      50218.233      36.893836      36.893836      36.893836    
    860000   0.55927814    -7.6834677     -6.8445624      4.7010344      50218.233      36.893836      36.893836      36.893836    
    870000   0.56028464    -7.6863539     -6.8459389      4.6880842      50218.233      36.893836      36.893836      36.893836    
    880000   0.56237924    -7.6801706     -6.8366138      4.7442529      50218.233      36.893836      36.893836      36.893836    
    890000   0.55998786    -7.6851714     -6.8452016      4.7002794      50218.233      36.893836      36.893836      36.893836    
    900000   0.5606696     -7.6848626     -6.8438701      4.7049254      50218.233      36.893836      36.893836      36.893836    
    910000   0.56115406    -7.6792424     -6.8375233      4.7303752      50218.233      36.893836      36.893836      36.893836    
    920000   0.56148088    -7.6775994     -6.83539        4.7574634      50218.233      36.893836      36.893836      36.893836    
    930000   0.56030375    -7.6780044     -6.8375607      4.7523018      50218.233      36.893836      36.893836      36.893836    
    940000   0.56254247    -7.6809437     -6.837142       4.7278704      50218.233      36.893836      36.893836      36.893836    
    950000   0.56366566    -7.674039      -6.8285525      4.7779397      50218.233      36.893836      36.893836      36.893836    
    960000   0.56232651    -7.681258      -6.8377802      4.7265329      50218.233      36.893836      36.893836      36.893836    
    970000   0.55860308    -7.6812969     -6.8434042      4.7202447      50218.233      36.893836      36.893836      36.893836    
    980000   0.55857282    -7.6785044     -6.8406571      4.7475349      50218.233      36.893836      36.893836      36.893836    
    990000   0.56121643    -7.6759213     -6.8341086      4.7475143      50218.233      36.893836      36.893836      36.893836    
   1000000   0.55988109    -7.6778036     -6.8379939      4.7472465      50218.233      36.893836      36.893836      36.893836    
   1010000   0.5611143     -7.6836371     -6.8419776      4.7261057      50218.233      36.893836      36.893836      36.893836    
   1020000   0.55894461    -7.6837285     -6.8453235      4.7134218      50218.233      36.893836      36.893836      36.893836    
   1030000   0.5596147     -7.682193      -6.8427828      4.7227902      50218.233      36.893836      36.893836      36.893836    
   1040000   0.56111503    -7.6828586     -6.8411981      4.721105       50218.233      36.893836      36.893836      36.893836    
   1050000   0.55829306    -7.6869358     -6.8495081      4.6880766      50218.233      36.893836      36.893836      36.893836    
   1060000   0.55556532    -7.6843037     -6.8509676      4.6891831      50218.233      36.893836      36.893836      36.893836    
   1070000   0.55979082    -7.6800224     -6.8403481      4.7407426      50218.233      36.893836      36.893836      36.893836    
   1080000   0.56140308    -7.6829921     -6.8408995      4.7186626      50218.233      36.893836      36.893836      36.893836    
   1090000   0.56192842    -7.6837744     -6.8408937      4.7220583      50218.233      36.893836      36.893836      36.893836    
   1100000   0.55885893    -7.680796      -6.8425196      4.7257946      50218.233      36.893836      36.893836      36.893836    
   1110000   0.56081178    -7.6812559     -6.8400502      4.7194857      50218.233      36.893836      36.893836      36.893836    
   1120000   0.56231278    -7.6763127     -6.8328555      4.7681692      50218.233      36.893836      36.893836      36.893836    
   1130000   0.56034985    -7.6794743     -6.8389615      4.7529956      50218.233      36.893836      36.893836      36.893836    
   1140000   0.56189529    -7.6784839     -6.835653       4.7460815      50218.233      36.893836      36.893836      36.893836    
   1150000   0.55785305    -7.682086      -6.8453183      4.7179563      50218.233      36.893836      36.893836      36.893836    
   1160000   0.55976605    -7.6799329     -6.8402957      4.7258441      50218.233      36.893836      36.893836      36.893836    
   1170000   0.55906799    -7.6835349     -6.8449448      4.7105335      50218.233      36.893836      36.893836      36.893836    
   1180000   0.55855417    -7.6789693     -6.84115        4.7459621      50218.233      36.893836      36.893836      36.893836    
   1190000   0.55972537    -7.6807576     -6.8411815      4.7258068      50218.233      36.893836      36.893836      36.893836    
   1200000   0.56214335    -7.6838103     -6.8406072      4.713611       50218.233      36.893836      36.893836      36.893836    
   1210000   0.56402472    -7.682152      -6.8361269      4.7401221      50218.233      36.893836      36.893836      36.893836    
   1220000   0.55717625    -7.6808145     -6.845062       4.7170406      50218.233      36.893836      36.893836      36.893836    
   1230000   0.56129162    -7.6790741     -6.8371487      4.7561228      50218.233      36.893836      36.893836      36.893836    
   1240000   0.56064402    -7.6835378     -6.8425837      4.6960414      50218.233      36.893836      36.893836      36.893836    
   1250000   0.55951937    -7.6867541     -6.847487       4.684833       50218.233      36.893836      36.893836      36.893836    
   1260000   0.55743336    -7.6827112     -6.8465731      4.7155919      50218.233      36.893836      36.893836      36.893836    
   1270000   0.55951593    -7.6808585     -6.8415966      4.7248991      50218.233      36.893836      36.893836      36.893836    
   1280000   0.55941634    -7.683356      -6.8442435      4.7064795      50218.233      36.893836      36.893836      36.893836    
   1290000   0.56183916    -7.6844896     -6.8417428      4.7156694      50218.233      36.893836      36.893836      36.893836    
   1300000   0.55733371    -7.680861      -6.8448723      4.7303201      50218.233      36.893836      36.893836      36.893836    
   1310000   0.56021192    -7.6808048     -6.8404989      4.7353409      50218.233      36.893836      36.893836      36.893836    
   1320000   0.55970536    -7.6871888     -6.8476427      4.6847531      50218.233      36.893836      36.893836      36.893836    
   1330000   0.55939643    -7.6862624     -6.8471797      4.6928358      50218.233      36.893836      36.893836      36.893836    
   1340000   0.56162897    -7.6788363     -6.8364048      4.7405542      50218.233      36.893836      36.893836      36.893836    
   1350000   0.55820681    -7.6845093     -6.8472109      4.7072025      50218.233      36.893836      36.893836      36.893836    
   1360000   0.56208925    -7.6888772     -6.8457554      4.6838256      50218.233      36.893836      36.893836      36.893836    
   1370000   0.55804685    -7.6867256     -6.8496672      4.6882833      50218.233      36.893836      36.893836      36.893836    
   1380000   0.55879823    -7.6817899     -6.8436045      4.7396727      50218.233      36.893836      36.893836      36.893836    
   1390000   0.55748686    -7.6781007     -6.8418823      4.752169       50218.233      36.893836      36.893836      36.893836    
   1400000   0.56079579    -7.6814677     -6.840286       4.7266038      50218.233      36.893836      36.893836      36.893836    
   1410000   0.55936411    -7.678918      -6.8398838      4.7411778      50218.233      36.893836      36.893836      36.893836    
   1420000   0.55667745    -7.6824022     -6.8473979      4.7011734      50218.233      36.893836      36.893836      36.893836    
   1430000   0.55936526    -7.6828686     -6.8438326      4.7185087      50218.233      36.893836      36.893836      36.893836    
   1440000   0.55837311    -7.6837816     -6.8462338      4.7096762      50218.233      36.893836      36.893836      36.893836    
   1450000   0.56101098    -7.6855525     -6.844048       4.6983429      50218.233      36.893836      36.893836      36.893836    
   1460000   0.55850805    -7.6858278     -6.8480776      4.6983292      50218.233      36.893836      36.893836      36.893836    
   1470000   0.56232813    -7.6844006     -6.8409204      4.7080892      50218.233      36.893836      36.893836      36.893836    
   1480000   0.56140588    -7.68581       -6.8437132      4.700167       50218.233      36.893836      36.893836      36.893836    
   1490000   0.56246677    -7.6801687     -6.8364806      4.7460407      50218.233      36.893836      36.893836      36.893836    
   1500000   0.56121439    -7.6899702     -6.8481605      4.6684826      50218.233      36.893836      36.893836      36.893836    
   1510000   0.55830561    -7.6792908     -6.8418443      4.7357303      50218.233      36.893836      36.893836      36.893836    
   1520000   0.56288424    -7.6825802     -6.8382658      4.7210864      50218.233      36.893836      36.893836      36.893836    
   1530000   0.56121745    -7.6771647     -6.8353505      4.7557868      50218.233      36.893836      36.893836      36.893836    
   1540000   0.55899638    -7.6884457     -6.849963       4.6743647      50218.233      36.893836      36.893836      36.893836    
   1550000   0.55999205    -7.6862501     -6.846274       4.6841817      50218.233      36.893836      36.893836      36.893836    
   1560000   0.55987904    -7.6856034     -6.8457968      4.6884702      50218.233      36.893836      36.893836      36.893836    
   1570000   0.55945362    -7.6788105     -6.839642       4.7377968      50218.233      36.893836      36.893836      36.893836    
   1580000   0.5574985     -7.6865741     -6.8503383      4.688237       50218.233      36.893836      36.893836      36.893836    
   1590000   0.56070085    -7.6871885     -6.8461492      4.6831916      50218.233      36.893836      36.893836      36.893836    
   1600000   0.56103962    -7.6817341     -6.8401866      4.7178446      50218.233      36.893836      36.893836      36.893836    
   1610000   0.55710096    -7.6840514     -6.8484118      4.708347       50218.233      36.893836      36.893836      36.893836    
   1620000   0.5632916     -7.6912308     -6.8463054      4.6757692      50218.233      36.893836      36.893836      36.893836    
   1630000   0.55956122    -7.685873      -6.8465431      4.7018845      50218.233      36.893836      36.893836      36.893836    
   1640000   0.55915132    -7.6861991     -6.847484       4.6875548      50218.233      36.893836      36.893836      36.893836    
   1650000   0.55998953    -7.684181      -6.8442086      4.7056676      50218.233      36.893836      36.893836      36.893836    
   1660000   0.56101858    -7.6839069     -6.842391       4.7018839      50218.233      36.893836      36.893836      36.893836    
   1670000   0.56146424    -7.6818392     -6.8396548      4.7257863      50218.233      36.893836      36.893836      36.893836    
   1680000   0.56062901    -7.68282       -6.8418884      4.7238646      50218.233      36.893836      36.893836      36.893836    
   1690000   0.56105375    -7.6842347     -6.8426661      4.7014322      50218.233      36.893836      36.893836      36.893836    
   1700000   0.55999607    -7.68054       -6.8405579      4.7299549      50218.233      36.893836      36.893836      36.893836    
   1710000   0.56204795    -7.6837465     -6.8406866      4.7093794      50218.233      36.893836      36.893836      36.893836    
   1720000   0.55687664    -7.6833099     -6.8480069      4.7130605      50218.233      36.893836      36.893836      36.893836    
   1730000   0.55947469    -7.6867661     -6.847566       4.6895908      50218.233      36.893836      36.893836      36.893836    
   1740000   0.55773258    -7.6856775     -6.8490905      4.6942245      50218.233      36.893836      36.893836      36.893836    
   1750000   0.55898711    -7.6797905     -6.8413217      4.7399499      50218.233      36.893836      36.893836      36.893836    
   1760000   0.55951882    -7.6853675     -6.8461012      4.6970624      50218.233      36.893836      36.893836      36.893836    
   1770000   0.55848325    -7.6855722     -6.8478592      4.6860601      50218.233      36.893836      36.893836      36.893836    
   1780000   0.55940246    -7.6838135     -6.8447217      4.7151075      50218.233      36.893836      36.893836      36.893836    
   1790000   0.56125832    -7.6797263     -6.8378508      4.7404837      50218.233      36.893836      36.893836      36.893836    
   1800000   0.55823741    -7.6865368     -6.8491926      4.6733598      50218.233      36.893836      36.893836      36.893836    
   1810000   0.55788171    -7.6800061     -6.8431954      4.7367031      50218.233      36.893836      36.893836      36.893836    
   1820000   0.56077603    -7.6834322     -6.8422801      4.7069759      50218.233      36.893836      36.893836      36.893836    
   1830000   0.56145761    -7.6838555     -6.8416811      4.6978685      50218.233      36.893836      36.893836      36.893836    
   1840000   0.55884197    -7.6831139     -6.8448629      4.715269       50218.233      36.893836      36.893836      36.893836    
   1850000   0.55973596    -7.6849872     -6.8453952      4.6986735      50218.233      36.893836      36.893836      36.893836    
   1860000   0.5586669     -7.6853716     -6.8473832      4.6984133      50218.233      36.893836      36.893836      36.893836    
   1870000   0.56212737    -7.6864711     -6.843292       4.6908506      50218.233      36.893836      36.893836      36.893836    
   1880000   0.5564888     -7.6846221     -6.8499008      4.6889786      50218.233      36.893836      36.893836      36.893836    
   1890000   0.56003105    -7.6832102     -6.8431756      4.7132673      50218.233      36.893836      36.893836      36.893836    
   1900000   0.55832159    -7.6859222     -6.8484518      4.6992511      50218.233      36.893836      36.893836      36.893836    
   1910000   0.56300228    -7.6793847     -6.8348933      4.7407877      50218.233      36.893836      36.893836      36.893836    
   1920000   0.56159101    -7.6849396     -6.8425651      4.6952586      50218.233      36.893836      36.893836      36.893836    
   1930000   0.56136933    -7.6855262     -6.8434842      4.7023402      50218.233      36.893836      36.893836      36.893836    
   1940000   0.56020675    -7.6803469     -6.8400487      4.732786       50218.233      36.893836      36.893836      36.893836    
   1950000   0.56083503    -7.6900429     -6.8488023      4.6657595      50218.233      36.893836      36.893836      36.893836    
   1960000   0.55840139    -7.6932949     -6.8557048      4.6408773      50218.233      36.893836      36.893836      36.893836    
   1970000   0.56288062    -7.6860348     -6.8417259      4.6945816      50218.233      36.893836      36.893836      36.893836    
   1980000   0.55792705    -7.6822239     -6.8453452      4.7284074      50218.233      36.893836      36.893836      36.893836    
   1990000   0.5592263     -7.6821757     -6.8433482      4.7173493      50218.233      36.893836      36.893836      36.893836    
   2000000   0.56158746    -7.6806908     -6.8383216      4.7201186      50218.233      36.893836      36.893836      36.893836    
   2010000   0.55902603    -7.6851059     -6.8465788      4.7018016      50218.233      36.893836      36.893836      36.893836    
   2020000   0.56156368    -7.6798928     -6.8375593      4.7331495      50218.233      36.893836      36.893836      36.893836    
   2030000   0.55803303    -7.6876602     -6.8506226      4.6662026      50218.233      36.893836      36.893836      36.893836    
   2040000   0.56133321    -7.6839557     -6.8419678      4.7073601      50218.233      36.893836      36.893836      36.893836    
   2050000   0.56174694    -7.6838581     -6.8412497      4.7009347      50218.233      36.893836      36.893836      36.893836    
   2060000   0.55963712    -7.6829132     -6.8434694      4.7123792      50218.233      36.893836      36.893836      36.893836    
   2070000   0.56112081    -7.6833381     -6.8416689      4.7278072      50218.233      36.893836      36.893836      36.893836    
   2080000   0.56041711    -7.6828996     -6.8422859      4.7027226      50218.233      36.893836      36.893836      36.893836    
   2090000   0.56014208    -7.6838269     -6.8436257      4.7070839      50218.233      36.893836      36.893836      36.893836    
   2100000   0.56130635    -7.6843384     -6.8423908      4.6909068      50218.233      36.893836      36.893836      36.893836    
   2110000   0.5601843     -7.6782591     -6.8379946      4.7507884      50218.233      36.893836      36.893836      36.893836    
   2120000   0.56016848    -7.6822662     -6.8420254      4.7194929      50218.233      36.893836      36.893836      36.893836    
   2130000   0.55917272    -7.6759903     -6.8372432      4.7567847      50218.233      36.893836      36.893836      36.893836    
   2140000   0.56209096    -7.684276      -6.8411516      4.7039119      50218.233      36.893836      36.893836      36.893836    
   2150000   0.5593019     -7.6841047     -6.8451638      4.6914888      50218.233      36.893836      36.893836      36.893836    
   2160000   0.56066424    -7.6817273     -6.8407429      4.736025       50218.233      36.893836      36.893836      36.893836    
   2170000   0.55950682    -7.6831704     -6.8439221      4.7087714      50218.233      36.893836      36.893836      36.893836    
   2180000   0.55930281    -7.6832024     -6.8442601      4.7141725      50218.233      36.893836      36.893836      36.893836    
   2190000   0.56233813    -7.6791327     -6.8356375      4.7561602      50218.233      36.893836      36.893836      36.893836    
   2200000   0.55996247    -7.6835303     -6.8435986      4.6982201      50218.233      36.893836      36.893836      36.893836    
   2210000   0.56006316    -7.684606      -6.8445232      4.6875391      50218.233      36.893836      36.893836      36.893836    
   2220000   0.55750001    -7.6827772     -6.846539       4.7133484      50218.233      36.893836      36.893836      36.893836    
   2230000   0.55775454    -7.6819359     -6.845316       4.7145378      50218.233      36.893836      36.893836      36.893836    
   2240000   0.55890471    -7.6809788     -6.8426336      4.7200801      50218.233      36.893836      36.893836      36.893836    
   2250000   0.56035478    -7.686559      -6.8460388      4.6906284      50218.233      36.893836      36.893836      36.893836    
   2260000   0.55900742    -7.6800527     -6.8415535      4.7334332      50218.233      36.893836      36.893836      36.893836    
   2270000   0.56066299    -7.6837132     -6.8427306      4.7082862      50218.233      36.893836      36.893836      36.893836    
   2280000   0.5579116     -7.6778313     -6.8409759      4.7434636      50218.233      36.893836      36.893836      36.893836    
   2290000   0.55871683    -7.6805168     -6.8424535      4.7327628      50218.233      36.893836      36.893836      36.893836    
   2300000   0.56055373    -7.6775592     -6.8367405      4.7536123      50218.233      36.893836      36.893836      36.893836    
   2310000   0.56056845    -7.6809794     -6.8401386      4.7411153      50218.233      36.893836      36.893836      36.893836    
   2320000   0.55577155    -7.6794129     -6.8457674      4.7329622      50218.233      36.893836      36.893836      36.893836    
   2330000   0.56120403    -7.6761525     -6.8343584      4.766652       50218.233      36.893836      36.893836      36.893836    
   2340000   0.56041488    -7.68744       -6.8468296      4.6829585      50218.233      36.893836      36.893836      36.893836    
   2350000   0.56134555    -7.6768544     -6.8348481      4.7664681      50218.233      36.893836      36.893836      36.893836    
   2360000   0.55918081    -7.6828869     -6.8441276      4.7179542      50218.233      36.893836      36.893836      36.893836    
   2370000   0.55886902    -7.6824634     -6.8441718      4.7122894      50218.233      36.893836      36.893836      36.893836    
   2380000   0.56208834    -7.6823806     -6.8392601      4.7168564      50218.233      36.893836      36.893836      36.893836    
   2390000   0.56002191    -7.681895      -6.841874       4.7259872      50218.233      36.893836      36.893836      36.893836    
   2400000   0.56110553    -7.6868241     -6.8451778      4.6854048      50218.233      36.893836      36.893836      36.893836    
   2410000   0.56097678    -7.6852376     -6.8437844      4.6912957      50218.233      36.893836      36.893836      36.893836    
   2420000   0.55953634    -7.6780925     -6.8387999      4.760909       50218.233      36.893836      36.893836      36.893836    
   2430000   0.56047798    -7.6880795     -6.8473745      4.6812645      50218.233      36.893836      36.893836      36.893836    
   2440000   0.56147145    -7.6852128     -6.8430176      4.7060165      50218.233      36.893836      36.893836      36.893836    
   2450000   0.55746236    -7.6799711     -6.8437895      4.7205741      50218.233      36.893836      36.893836      36.893836    
   2460000   0.55733976    -7.6824882     -6.8464904      4.7101527      50218.233      36.893836      36.893836      36.893836    
   2470000   0.55981888    -7.685792      -6.8460756      4.6970534      50218.233      36.893836      36.893836      36.893836    
   2480000   0.56184531    -7.6842308     -6.8414748      4.693898       50218.233      36.893836      36.893836      36.893836    
   2490000   0.55998882    -7.6833372     -6.8433659      4.7091347      50218.233      36.893836      36.893836      36.893836    
   2500000   0.55991826    -7.6872822     -6.8474167      4.6809415      50218.233      36.893836      36.893836      36.893836    
   2510000   0.55923942    -7.6842843     -6.8454371      4.7028601      50218.233      36.893836      36.893836      36.893836    
   2520000   0.55998582    -7.6806689     -6.8407021      4.7262484      50218.233      36.893836      36.893836      36.893836    
   2530000   0.5605699     -7.6851809     -6.844338       4.6925026      50218.233      36.893836      36.893836      36.893836    
   2540000   0.55886615    -7.6806852     -6.8423979      4.7388799      50218.233      36.893836      36.893836      36.893836    
   2550000   0.56090168    -7.6815004     -6.8401598      4.725969       50218.233      36.893836      36.893836      36.893836    
   2560000   0.56230291    -7.6838899     -6.8404475      4.7191633      50218.233      36.893836      36.893836      36.893836    
   2570000   0.559339      -7.6865639     -6.8475673      4.6837908      50218.233      36.893836      36.893836      36.893836    
   2580000   0.56007419    -7.6854002     -6.8453009      4.6984654      50218.233      36.893836      36.893836      36.893836    
   2590000   0.5598398     -7.6811965     -6.8414488      4.7178601      50218.233      36.893836      36.893836      36.893836    
   2600000   0.56072117    -7.6791316     -6.8380618      4.7366912      50218.233      36.893836      36.893836      36.893836    
   2610000   0.55921199    -7.682138      -6.843332       4.7210977      50218.233      36.893836      36.893836      36.893836    
   2620000   0.56217551    -7.6781        -6.8348487      4.7482374      50218.233      36.893836      36.893836      36.893836    
   2630000   0.55791766    -7.6803317     -6.8434671      4.7280791      50218.233      36.893836      36.893836      36.893836    
   2640000   0.55996333    -7.679421      -6.839488       4.7462131      50218.233      36.893836      36.893836      36.893836    
   2650000   0.55835662    -7.6823503     -6.8448273      4.7221118      50218.233      36.893836      36.893836      36.893836    
   2660000   0.56033155    -7.6815788     -6.8410935      4.7227292      50218.233      36.893836      36.893836      36.893836    
   2670000   0.56146199    -7.6785687     -6.8363877      4.7542365      50218.233      36.893836      36.893836      36.893836    
   2680000   0.56077474    -7.6843925     -6.8432424      4.7164874      50218.233      36.893836      36.893836      36.893836    
   2690000   0.56276325    -7.6759576     -6.8318247      4.7692391      50218.233      36.893836      36.893836      36.893836    
   2700000   0.56306907    -7.680373      -6.8357814      4.7251188      50218.233      36.893836      36.893836      36.893836    
   2710000   0.5604893     -7.6739974     -6.8332754      4.7745737      50218.233      36.893836      36.893836      36.893836    
   2720000   0.55896139    -7.6829038     -6.8444736      4.7108393      50218.233      36.893836      36.893836      36.893836    
   2730000   0.56036149    -7.6856192     -6.845089       4.701963       50218.233      36.893836      36.893836      36.893836    
   2740000   0.5622203     -7.6823507     -6.8390322      4.7215046      50218.233      36.893836      36.893836      36.893836    
   2750000   0.56148549    -7.6804686     -6.8382523      4.7352676      50218.233      36.893836      36.893836      36.893836    
   2760000   0.55823337    -7.6821213     -6.8447831      4.7159322      50218.233      36.893836      36.893836      36.893836    
   2770000   0.56101923    -7.6817071     -6.8401902      4.7371761      50218.233      36.893836      36.893836      36.893836    
   2780000   0.56090124    -7.677498      -6.8361582      4.7603262      50218.233      36.893836      36.893836      36.893836    
   2790000   0.56079674    -7.6775101     -6.8363269      4.7639365      50218.233      36.893836      36.893836      36.893836    
   2800000   0.56117655    -7.6814234     -6.8396705      4.7340154      50218.233      36.893836      36.893836      36.893836    
   2810000   0.55797015    -7.6881853     -6.851242       4.669783       50218.233      36.893836      36.893836      36.893836    
   2820000   0.5602692     -7.6824724     -6.8420805      4.7199798      50218.233      36.893836      36.893836      36.893836    
   2830000   0.56192728    -7.6844153     -6.8415364      4.7071339      50218.233      36.893836      36.893836      36.893836    
   2840000   0.55919145    -7.6866392     -6.847864       4.6940372      50218.233      36.893836      36.893836      36.893836    
   2850000   0.56110705    -7.6827255     -6.8410769      4.7316356      50218.233      36.893836      36.893836      36.893836    
   2860000   0.562807      -7.6879478     -6.8437493      4.6936613      50218.233      36.893836      36.893836      36.893836    
   2870000   0.55835582    -7.6839411     -6.8464193      4.6952071      50218.233      36.893836      36.893836      36.893836    
   2880000   0.56079822    -7.681151      -6.8399656      4.7262854      50218.233      36.893836      36.893836      36.893836    
   2890000   0.55981164    -7.6860675     -6.846362       4.6952612      50218.233      36.893836      36.893836      36.893836    
   2900000   0.56066948    -7.6876568     -6.8466645      4.674926       50218.233      36.893836      36.893836      36.893836    
   2910000   0.56182505    -7.6817848     -6.8390592      4.7231645      50218.233      36.893836      36.893836      36.893836    
   2920000   0.55719062    -7.6873472     -6.8515732      4.6746501      50218.233      36.893836      36.893836      36.893836    
   2930000   0.56115016    -7.6829901     -6.8412769      4.7177564      50218.233      36.893836      36.893836      36.893836    
   2940000   0.56123924    -7.6782014     -6.8363545      4.7487409      50218.233      36.893836      36.893836      36.893836    
   2950000   0.55867376    -7.6867314     -6.8487326      4.6814871      50218.233      36.893836      36.893836      36.893836    
   2960000   0.56171043    -7.6863388     -6.8437852      4.6913539      50218.233      36.893836      36.893836      36.893836    
   2970000   0.55929809    -7.6809911     -6.8420559      4.7239179      50218.233      36.893836      36.893836      36.893836    
   2980000   0.5609128     -7.6787482     -6.837391       4.7459062      50218.233      36.893836      36.893836      36.893836    
   2990000   0.55941279    -7.684803      -6.8456957      4.6947836      50218.233      36.893836      36.893836      36.893836    
   3000000   0.55481721    -7.6863053     -6.8540913      4.6760568      50218.233      36.893836      36.893836      36.893836    
   3010000   0.559922      -7.6840701     -6.844199       4.7100835      50218.233      36.893836      36.893836      36.893836    
   3020000   0.55840907    -7.6758397     -6.838238       4.7723575      50218.233      36.893836      36.893836      36.893836    
   3030000   0.56016325    -7.6860126     -6.8457797      4.7064904      50218.233      36.893836      36.893836      36.893836    
   3040000   0.56157865    -7.6756482     -6.8332922      4.7897233      50218.233      36.893836      36.893836      36.893836    
   3050000   0.55957733    -7.6819831     -6.8426291      4.7100659      50218.233      36.893836      36.893836      36.893836    
   3060000   0.55690674    -7.6802494     -6.8449011      4.7352648      50218.233      36.893836      36.893836      36.893836    
   3070000   0.56211438    -7.682679      -6.8395194      4.7156713      50218.233      36.893836      36.893836      36.893836    
   3080000   0.56061988    -7.6797169     -6.838799       4.7377446      50218.233      36.893836      36.893836      36.893836    
   3090000   0.56108675    -7.6843357     -6.8427176      4.6972451      50218.233      36.893836      36.893836      36.893836    
   3100000   0.56064446    -7.6876012     -6.8466464      4.6897058      50218.233      36.893836      36.893836      36.893836    
   3110000   0.56082485    -7.6829702     -6.8417449      4.7090464      50218.233      36.893836      36.893836      36.893836    
   3120000   0.55967839    -7.683817      -6.8443114      4.7098386      50218.233      36.893836      36.893836      36.893836    
   3130000   0.56090841    -7.6839065     -6.8425558      4.7069478      50218.233      36.893836      36.893836      36.893836    
   3140000   0.56139831    -7.6801581     -6.8380726      4.7287734      50218.233      36.893836      36.893836      36.893836    
   3150000   0.55920331    -7.6836181     -6.844825       4.7032875      50218.233      36.893836      36.893836      36.893836    
   3160000   0.5601211     -7.6880248     -6.8478551      4.6729607      50218.233      36.893836      36.893836      36.893836    
   3170000   0.56285697    -7.6828218     -6.8385483      4.7214728      50218.233      36.893836      36.893836      36.893836    
   3180000   0.56168414    -7.6834674     -6.8409532      4.7015152      50218.233      36.893836      36.893836      36.893836    
   3190000   0.55908815    -7.6870038     -6.8483835      4.6801316      50218.233      36.893836      36.893836      36.893836    
   3200000   0.5606335     -7.6856015     -6.8446632      4.6868401      50218.233      36.893836      36.893836      36.893836    
   3210000   0.56001782    -7.6863334     -6.8463187      4.677196       50218.233      36.893836      36.893836      36.893836    
   3220000   0.5591072     -7.6824817     -6.8438328      4.7112382      50218.233      36.893836      36.893836      36.893836    
   3230000   0.55741171    -7.6886592     -6.8525535      4.6657264      50218.233      36.893836      36.893836      36.893836    
   3240000   0.55881671    -7.6828881     -6.844675       4.708273       50218.233      36.893836      36.893836      36.893836    
   3250000   0.55818943    -7.6814096     -6.8441374      4.7118351      50218.233      36.893836      36.893836      36.893836    
   3260000   0.56033986    -7.6819866     -6.8414887      4.7257255      50218.233      36.893836      36.893836      36.893836    
   3270000   0.55846537    -7.6808591     -6.843173       4.7164176      50218.233      36.893836      36.893836      36.893836    
   3280000   0.56249886    -7.6846913     -6.8409551      4.688725       50218.233      36.893836      36.893836      36.893836    
   3290000   0.55664846    -7.6815112     -6.8465503      4.7080696      50218.233      36.893836      36.893836      36.893836    
   3300000   0.55760542    -7.6810783     -6.8446821      4.7214889      50218.233      36.893836      36.893836      36.893836    
   3310000   0.56192601    -7.6810973     -6.8382203      4.7244062      50218.233      36.893836      36.893836      36.893836    
   3320000   0.56062612    -7.6844088     -6.8434816      4.6956392      50218.233      36.893836      36.893836      36.893836    
   3330000   0.56119531    -7.681262      -6.839481       4.7264377      50218.233      36.893836      36.893836      36.893836    
   3340000   0.5593859     -7.6845977     -6.8455308      4.7056943      50218.233      36.893836      36.893836      36.893836    
   3350000   0.5602575     -7.6856188     -6.8452445      4.6931841      50218.233      36.893836      36.893836      36.893836    
   3360000   0.56085462    -7.6832887     -6.8420187      4.7212448      50218.233      36.893836      36.893836      36.893836    
   3370000   0.56037313    -7.6806316     -6.8400838      4.7375681      50218.233      36.893836      36.893836      36.893836    
   3380000   0.56130988    -7.6828641     -6.8409112      4.7240424      50218.233      36.893836      36.893836      36.893836    
   3390000   0.56107446    -7.6874027     -6.845803       4.6831515      50218.233      36.893836      36.893836      36.893836    
   3400000   0.56360791    -7.682545      -6.8371452      4.7283979      50218.233      36.893836      36.893836      36.893836    
   3410000   0.56114077    -7.6791509     -6.8374517      4.7468856      50218.233      36.893836      36.893836      36.893836    
   3420000   0.55783349    -7.6845434     -6.8478051      4.6990229      50218.233      36.893836      36.893836      36.893836    
   3430000   0.55897632    -7.6852205     -6.8467679      4.6914944      50218.233      36.893836      36.893836      36.893836    
   3440000   0.56083763    -7.6856108     -6.8443663      4.6938617      50218.233      36.893836      36.893836      36.893836    
   3450000   0.56249956    -7.6783664     -6.834629       4.7464173      50218.233      36.893836      36.893836      36.893836    
   3460000   0.56130978    -7.6829915     -6.8410388      4.6965981      50218.233      36.893836      36.893836      36.893836    
   3470000   0.55857487    -7.6875732     -6.8497228      4.6770098      50218.233      36.893836      36.893836      36.893836    
   3480000   0.5598996     -7.685864      -6.8460265      4.6898308      50218.233      36.893836      36.893836      36.893836    
   3490000   0.55616884    -7.6836445     -6.8494031      4.7036526      50218.233      36.893836      36.893836      36.893836    
   3500000   0.55914604    -7.6833703     -6.8446632      4.7118767      50218.233      36.893836      36.893836      36.893836    
   3510000   0.56066833    -7.6851489     -6.8441584      4.692367       50218.233      36.893836      36.893836      36.893836    
   3520000   0.5603218     -7.6851583     -6.8446875      4.701967       50218.233      36.893836      36.893836      36.893836    
   3530000   0.56135347    -7.6842057     -6.8421875      4.6982538      50218.233      36.893836      36.893836      36.893836    
   3540000   0.55703673    -7.6827983     -6.847255       4.7181396      50218.233      36.893836      36.893836      36.893836    
   3550000   0.55930658    -7.6779831     -6.8390352      4.73625        50218.233      36.893836      36.893836      36.893836    
   3560000   0.558507      -7.6846048     -6.8468562      4.6969416      50218.233      36.893836      36.893836      36.893836    
   3570000   0.56036621    -7.6842639     -6.8437266      4.6995898      50218.233      36.893836      36.893836      36.893836    
   3580000   0.56223526    -7.6812099     -6.837869       4.736476       50218.233      36.893836      36.893836      36.893836    
   3590000   0.56160061    -7.6870834     -6.8446945      4.6865576      50218.233      36.893836      36.893836      36.893836    
   3600000   0.56230452    -7.6830165     -6.8395717      4.7094003      50218.233      36.893836      36.893836      36.893836    
   3610000   0.55905429    -7.6881137     -6.8495441      4.6671709      50218.233      36.893836      36.893836      36.893836    
   3620000   0.56098819    -7.6822845     -6.8408142      4.7121252      50218.233      36.893836      36.893836      36.893836    
   3630000   0.560446      -7.6785577     -6.8379006      4.7485085      50218.233      36.893836      36.893836      36.893836    
   3640000   0.56026416    -7.6813967     -6.8410124      4.7272332      50218.233      36.893836      36.893836      36.893836    
   3650000   0.56288749    -7.6849727     -6.8406535      4.6862749      50218.233      36.893836      36.893836      36.893836    
   3660000   0.56086838    -7.6810161     -6.8397255      4.725783       50218.233      36.893836      36.893836      36.893836    
   3670000   0.55965904    -7.676298      -6.8368213      4.7720712      50218.233      36.893836      36.893836      36.893836    
   3680000   0.56616532    -7.682147      -6.8329111      4.7197106      50218.233      36.893836      36.893836      36.893836    
   3690000   0.55918955    -7.6831808     -6.8444084      4.7227754      50218.233      36.893836      36.893836      36.893836    
   3700000   0.563567      -7.6826651     -6.8373267      4.7275917      50218.233      36.893836      36.893836      36.893836    
   3710000   0.56064152    -7.6817327     -6.8407824      4.7304905      50218.233      36.893836      36.893836      36.893836    
   3720000   0.55741631    -7.6857763     -6.8496637      4.6845506      50218.233      36.893836      36.893836      36.893836    
   3730000   0.55908373    -7.6864423     -6.8478286      4.6849673      50218.233      36.893836      36.893836      36.893836    
   3740000   0.56084543    -7.6785629     -6.8373067      4.7513547      50218.233      36.893836      36.893836      36.893836    
   3750000   0.55940435    -7.682279      -6.8431844      4.7169717      50218.233      36.893836      36.893836      36.893836    
   3760000   0.55956992    -7.6863034     -6.8469605      4.6821868      50218.233      36.893836      36.893836      36.893836    
   3770000   0.56082102    -7.6857875     -6.8445679      4.6906279      50218.233      36.893836      36.893836      36.893836    
   3780000   0.56081424    -7.6808295     -6.8396201      4.7296451      50218.233      36.893836      36.893836      36.893836    
   3790000   0.56136184    -7.6841141     -6.8420833      4.7194596      50218.233      36.893836      36.893836      36.893836    
   3800000   0.56117247    -7.6811091     -6.8393624      4.7334091      50218.233      36.893836      36.893836      36.893836    
   3810000   0.5600784     -7.6785783     -6.8384726      4.7451536      50218.233      36.893836      36.893836      36.893836    
   3820000   0.55733633    -7.6802767     -6.8442841      4.723672       50218.233      36.893836      36.893836      36.893836    
   3830000   0.56278965    -7.6874918     -6.8433193      4.6912407      50218.233      36.893836      36.893836      36.893836    
   3840000   0.55885416    -7.6835509     -6.8452816      4.7193213      50218.233      36.893836      36.893836      36.893836    
   3850000   0.5594876     -7.6860111     -6.8467916      4.6876374      50218.233      36.893836      36.893836      36.893836    
   3860000   0.55847771    -7.6795522     -6.8418476      4.7275186      50218.233      36.893836      36.893836      36.893836    
   3870000   0.55960477    -7.6816401     -6.8422449      4.7111811      50218.233      36.893836      36.893836      36.893836    
   3880000   0.55767671    -7.6798888     -6.8433856      4.7331031      50218.233      36.893836      36.893836      36.893836    
   3890000   0.56206965    -7.6856343     -6.8425418      4.7016385      50218.233      36.893836      36.893836      36.893836    
   3900000   0.56166823    -7.6786426     -6.8361522      4.7509642      50218.233      36.893836      36.893836      36.893836    
   3910000   0.55770353    -7.6823931     -6.8458497      4.7128792      50218.233      36.893836      36.893836      36.893836    
   3920000   0.56115353    -7.6819873     -6.840269       4.722559       50218.233      36.893836      36.893836      36.893836    
   3930000   0.55852508    -7.6739515     -6.8361758      4.7721484      50218.233      36.893836      36.893836      36.893836    
   3940000   0.56161539    -7.6846105     -6.8421994      4.7118427      50218.233      36.893836      36.893836      36.893836    
   3950000   0.56008875    -7.6824161     -6.842295       4.7178922      50218.233      36.893836      36.893836      36.893836    
   3960000   0.5621628     -7.6750248     -6.8317926      4.7786173      50218.233      36.893836      36.893836      36.893836    
   3970000   0.56011671    -7.6848332     -6.8446701      4.6893794      50218.233      36.893836      36.893836      36.893836    
   3980000   0.55878868    -7.6797085     -6.8415374      4.740327       50218.233      36.893836      36.893836      36.893836    
   3990000   0.56033597    -7.6813961     -6.8409041      4.7211389      50218.233      36.893836      36.893836      36.893836    
   4000000   0.55978507    -7.6820245     -6.8423589      4.7174369      50218.233      36.893836      36.893836      36.893836    
   4010000   0.56148114    -7.6780256     -6.8358158      4.7509574      50218.233      36.893836      36.893836      36.893836    
   4020000   0.56259088    -7.6789528     -6.8350785      4.7478752      50218.233      36.893836      36.893836      36.893836    
   4030000   0.56227714    -7.6835687     -6.840165       4.7146963      50218.233      36.893836      36.893836      36.893836    
   4040000   0.55776527    -7.6806253     -6.8439893      4.7177655      50218.233      36.893836      36.893836      36.893836    
   4050000   0.56142475    -7.684763      -6.8426379      4.7017039      50218.233      36.893836      36.893836      36.893836    
   4060000   0.56172184    -7.6801721     -6.8376014      4.7305731      50218.233      36.893836      36.893836      36.893836    
   4070000   0.55864389    -7.6799443     -6.8419903      4.7340309      50218.233      36.893836      36.893836      36.893836    
   4080000   0.55800603    -7.6831512     -6.8461541      4.7214854      50218.233      36.893836      36.893836      36.893836    
   4090000   0.56191191    -7.6814527     -6.8385968      4.7221102      50218.233      36.893836      36.893836      36.893836    
   4100000   0.55932965    -7.6837146     -6.8447321      4.7120385      50218.233      36.893836      36.893836      36.893836    
   4110000   0.56000109    -7.6813892     -6.8413996      4.7303498      50218.233      36.893836      36.893836      36.893836    
   4120000   0.55779629    -7.6788504     -6.8421679      4.7440689      50218.233      36.893836      36.893836      36.893836    
   4130000   0.55900224    -7.6818484     -6.8433569      4.7149604      50218.233      36.893836      36.893836      36.893836    
   4140000   0.56132677    -7.6800936     -6.8381154      4.7514267      50218.233      36.893836      36.893836      36.893836    
   4150000   0.5588768     -7.6780173     -6.839714       4.7586448      50218.233      36.893836      36.893836      36.893836    
   4160000   0.55910332    -7.6801683     -6.8415253      4.7249602      50218.233      36.893836      36.893836      36.893836    
   4170000   0.55856203    -7.6773032     -6.8394721      4.7512609      50218.233      36.893836      36.893836      36.893836    
   4180000   0.5604631     -7.6790078     -6.8383251      4.7458361      50218.233      36.893836      36.893836      36.893836    
   4190000   0.56001602    -7.6772612     -6.8372491      4.7495875      50218.233      36.893836      36.893836      36.893836    
   4200000   0.56190653    -7.6772539     -6.8344061      4.7568126      50218.233      36.893836      36.893836      36.893836    
   4210000   0.56078613    -7.6782263     -6.8370591      4.7468588      50218.233      36.893836      36.893836      36.893836    
   4220000   0.55938888    -7.6774843     -6.8384129      4.765138       50218.233      36.893836      36.893836      36.893836    
   4230000   0.56041886    -7.6796549     -6.8390386      4.7483299      50218.233      36.893836      36.893836      36.893836    
   4240000   0.55835736    -7.6841287     -6.8466046      4.6908229      50218.233      36.893836      36.893836      36.893836    
   4250000   0.55880843    -7.6777558     -6.8395551      4.7555337      50218.233      36.893836      36.893836      36.893836    
   4260000   0.56032579    -7.6750387     -6.834562       4.7642076      50218.233      36.893836      36.893836      36.893836    
   4270000   0.55972118    -7.6859289     -6.8463591      4.6899508      50218.233      36.893836      36.893836      36.893836    
   4280000   0.56101919    -7.6774055     -6.8358886      4.7671509      50218.233      36.893836      36.893836      36.893836    
   4290000   0.56024171    -7.6759808     -6.8356302      4.7658961      50218.233      36.893836      36.893836      36.893836    
   4300000   0.56010782    -7.6731914     -6.8330416      4.7924788      50218.233      36.893836      36.893836      36.893836    
   4310000   0.55851494    -7.6796769     -6.8419164      4.7271967      50218.233      36.893836      36.893836      36.893836    
   4320000   0.5596624     -7.6836893     -6.8442077      4.7037437      50218.233      36.893836      36.893836      36.893836    
   4330000   0.55921108    -7.67848       -6.8396753      4.7437178      50218.233      36.893836      36.893836      36.893836    
   4340000   0.561439      -7.6802142     -6.8380677      4.7306393      50218.233      36.893836      36.893836      36.893836    
   4350000   0.5602575     -7.6832517     -6.8428775      4.7075023      50218.233      36.893836      36.893836      36.893836    
   4360000   0.55959188    -7.6809978     -6.841622       4.7230539      50218.233      36.893836      36.893836      36.893836    
   4370000   0.56219093    -7.6852006     -6.8419262      4.6963701      50218.233      36.893836      36.893836      36.893836    
   4380000   0.55894467    -7.6816447     -6.8432396      4.7156221      50218.233      36.893836      36.893836      36.893836    
   4390000   0.55962348    -7.6777233     -6.8383         4.749315       50218.233      36.893836      36.893836      36.893836    
   4400000   0.55652945    -7.682994      -6.8482117      4.6968262      50218.233      36.893836      36.893836      36.893836    
   4410000   0.56082125    -7.6802032     -6.8389833      4.7372385      50218.233      36.893836      36.893836      36.893836    
   4420000   0.55931733    -7.6867778     -6.8478138      4.6799809      50218.233      36.893836      36.893836      36.893836    
   4430000   0.5626308     -7.6805847     -6.8366505      4.7347218      50218.233      36.893836      36.893836      36.893836    
   4440000   0.55703414    -7.6799611     -6.8444218      4.7148812      50218.233      36.893836      36.893836      36.893836    
   4450000   0.55823812    -7.6776576     -6.8403123      4.7461814      50218.233      36.893836      36.893836      36.893836    
   4460000   0.56028466    -7.6786201     -6.8382051      4.7550449      50218.233      36.893836      36.893836      36.893836    
   4470000   0.56076744    -7.6835322     -6.842393       4.715309       50218.233      36.893836      36.893836      36.893836    
   4480000   0.56347713    -7.6830755     -6.8378718      4.7067113      50218.233      36.893836      36.893836      36.893836    
   4490000   0.5607451     -7.6813141     -6.8402084      4.7243949      50218.233      36.893836      36.893836      36.893836    
   4500000   0.56081882    -7.6853696     -6.8441534      4.7078117      50218.233      36.893836      36.893836      36.893836    
   4510000   0.56280122    -7.6847476     -6.8405578      4.7085405      50218.233      36.893836      36.893836      36.893836    
   4520000   0.56003649    -7.688768      -6.8487252      4.6700969      50218.233      36.893836      36.893836      36.893836    
   4530000   0.55747324    -7.6825126     -6.8463146      4.7184366      50218.233      36.893836      36.893836      36.893836    
   4540000   0.56134891    -7.6856032     -6.8435918      4.7053165      50218.233      36.893836      36.893836      36.893836    
   4550000   0.56273805    -7.6834583     -6.8393632      4.719655       50218.233      36.893836      36.893836      36.893836    
   4560000   0.55762891    -7.6874857     -6.8510542      4.6722214      50218.233      36.893836      36.893836      36.893836    
   4570000   0.56029854    -7.6851987     -6.8447628      4.7003947      50218.233      36.893836      36.893836      36.893836    
   4580000   0.55908776    -7.6844029     -6.8457832      4.7076329      50218.233      36.893836      36.893836      36.893836    
   4590000   0.56032396    -7.6857961     -6.8453221      4.6959573      50218.233      36.893836      36.893836      36.893836    
   4600000   0.55479973    -7.6791769     -6.8469892      4.7309386      50218.233      36.893836      36.893836      36.893836    
   4610000   0.55964802    -7.6880087     -6.8485486      4.673966       50218.233      36.893836      36.893836      36.893836    
   4620000   0.55851456    -7.6858591     -6.8480991      4.7001525      50218.233      36.893836      36.893836      36.893836    
   4630000   0.56042383    -7.6824455     -6.8418217      4.7114333      50218.233      36.893836      36.893836      36.893836    
   4640000   0.56095967    -7.6854293     -6.8440018      4.7093188      50218.233      36.893836      36.893836      36.893836    
   4650000   0.5598248     -7.6794296     -6.8397043      4.7372687      50218.233      36.893836      36.893836      36.893836    
   4660000   0.56009634    -7.6785107     -6.8383781      4.7625091      50218.233      36.893836      36.893836      36.893836    
   4670000   0.56090919    -7.683287      -6.8419352      4.7055039      50218.233      36.893836      36.893836      36.893836    
   4680000   0.56117391    -7.6830962     -6.8413473      4.703888       50218.233      36.893836      36.893836      36.893836    
   4690000   0.56288442    -7.6776397     -6.8333251      4.7628819      50218.233      36.893836      36.893836      36.893836    
   4700000   0.56363737    -7.6839502     -6.8385062      4.7181648      50218.233      36.893836      36.893836      36.893836    
   4710000   0.5596021     -7.6795744     -6.8401832      4.7386298      50218.233      36.893836      36.893836      36.893836    
   4720000   0.5568391     -7.6799146     -6.8446678      4.7247281      50218.233      36.893836      36.893836      36.893836    
   4730000   0.55937523    -7.6783619     -6.839311       4.7437317      50218.233      36.893836      36.893836      36.893836    
   4740000   0.56224084    -7.6832683     -6.839919       4.7199645      50218.233      36.893836      36.893836      36.893836    
   4750000   0.56395458    -7.6806941     -6.8347743      4.7334375      50218.233      36.893836      36.893836      36.893836    
   4760000   0.5592617     -7.6839478     -6.8450672      4.7039999      50218.233      36.893836      36.893836      36.893836    
   4770000   0.55742973    -7.6862554     -6.8501227      4.6884966      50218.233      36.893836      36.893836      36.893836    
   4780000   0.55835622    -7.6853713     -6.8478489      4.6957768      50218.233      36.893836      36.893836      36.893836    
   4790000   0.5605705     -7.683154      -6.8423102      4.721457       50218.233      36.893836      36.893836      36.893836    
   4800000   0.55908946    -7.6867089     -6.8480866      4.687062       50218.233      36.893836      36.893836      36.893836    
   4810000   0.55891876    -7.6881322     -6.849766       4.6781481      50218.233      36.893836      36.893836      36.893836    
   4820000   0.55598255    -7.6803937     -6.8464317      4.7303045      50218.233      36.893836      36.893836      36.893836    
   4830000   0.55969929    -7.6786105     -6.8390735      4.7452235      50218.233      36.893836      36.893836      36.893836    
   4840000   0.55945531    -7.6801472     -6.8409761      4.7240901      50218.233      36.893836      36.893836      36.893836    
   4850000   0.55985111    -7.6827841     -6.8430194      4.7136953      50218.233      36.893836      36.893836      36.893836    
   4860000   0.56111594    -7.6810237     -6.8393618      4.7186227      50218.233      36.893836      36.893836      36.893836    
   4870000   0.55854178    -7.6844285     -6.8466278      4.6873537      50218.233      36.893836      36.893836      36.893836    
   4880000   0.56122865    -7.6872784     -6.8454474      4.6761179      50218.233      36.893836      36.893836      36.893836    
   4890000   0.56267985    -7.6887608     -6.8447531      4.6644041      50218.233      36.893836      36.893836      36.893836    
   4900000   0.55913042    -7.684687      -6.8460033      4.6908713      50218.233      36.893836      36.893836      36.893836    
   4910000   0.55658012    -7.6797314     -6.8448731      4.7296195      50218.233      36.893836      36.893836      36.893836    
   4920000   0.56019982    -7.6826671     -6.8423793      4.7138892      50218.233      36.893836      36.893836      36.893836    
   4930000   0.5599058     -7.6847195     -6.8448727      4.6936218      50218.233      36.893836      36.893836      36.893836    
   4940000   0.5580112     -7.6779424     -6.8409375      4.7429124      50218.233      36.893836      36.893836      36.893836    
   4950000   0.55901393    -7.6818705     -6.8433615      4.7129231      50218.233      36.893836      36.893836      36.893836    
   4960000   0.56015989    -7.681923      -6.8416951      4.7212034      50218.233      36.893836      36.893836      36.893836    
   4970000   0.55996284    -7.6851845     -6.8452522      4.6928586      50218.233      36.893836      36.893836      36.893836    
   4980000   0.55720453    -7.6869316     -6.8511367      4.6676956      50218.233      36.893836      36.893836      36.893836    
   4990000   0.56214581    -7.6789577     -6.835751       4.7480324      50218.233      36.893836      36.893836      36.893836    
   5000000   0.55747907    -7.6810834     -6.8448767      4.7220622      50218.233      36.893836      36.893836      36.893836    
   5010000   0.55877252    -7.6815249     -6.843378       4.7275488      50218.233      36.893836      36.893836      36.893836    
   5020000   0.56019186    -7.6787623     -6.8384864      4.7577141      50218.233      36.893836      36.893836      36.893836    
   5030000   0.55780364    -7.6787662     -6.8420727      4.7457875      50218.233      36.893836      36.893836      36.893836    
   5040000   0.55967139    -7.685132      -6.8456369      4.7021658      50218.233      36.893836      36.893836      36.893836    
   5050000   0.56449256    -7.6789373     -6.8322105      4.7455511      50218.233      36.893836      36.893836      36.893836    
   5060000   0.56071894    -7.6795537     -6.8384872      4.741382       50218.233      36.893836      36.893836      36.893836    
   5070000   0.56024039    -7.6847825     -6.8444339      4.7089613      50218.233      36.893836      36.893836      36.893836    
   5080000   0.55878018    -7.6806941     -6.8425357      4.7290532      50218.233      36.893836      36.893836      36.893836    
   5090000   0.55876424    -7.6805587     -6.8424243      4.7230299      50218.233      36.893836      36.893836      36.893836    
   5100000   0.56064213    -7.681824      -6.8408728      4.7295938      50218.233      36.893836      36.893836      36.893836    
   5110000   0.55913511    -7.6849369     -6.8462461      4.7057548      50218.233      36.893836      36.893836      36.893836    
   5120000   0.55800453    -7.6830031     -6.8460082      4.7138298      50218.233      36.893836      36.893836      36.893836    
   5130000   0.55912559    -7.6804533     -6.8417769      4.7289481      50218.233      36.893836      36.893836      36.893836    
   5140000   0.55763408    -7.6854373     -6.848998       4.7026798      50218.233      36.893836      36.893836      36.893836    
   5150000   0.5604186     -7.6869843     -6.8463684      4.6872906      50218.233      36.893836      36.893836      36.893836    
   5160000   0.56183546    -7.6806853     -6.8379441      4.7408825      50218.233      36.893836      36.893836      36.893836    
   5170000   0.56513456    -7.6843527     -6.8366629      4.7037476      50218.233      36.893836      36.893836      36.893836    
   5180000   0.55868908    -7.6792987     -6.841277       4.7335588      50218.233      36.893836      36.893836      36.893836    
   5190000   0.55806979    -7.6760812     -6.8389885      4.750149       50218.233      36.893836      36.893836      36.893836    
   5200000   0.56141876    -7.6780034     -6.8358872      4.7466784      50218.233      36.893836      36.893836      36.893836    
   5210000   0.55959547    -7.6777401     -6.8383588      4.7597966      50218.233      36.893836      36.893836      36.893836    
   5220000   0.55842064    -7.6813949     -6.8437759      4.7138913      50218.233      36.893836      36.893836      36.893836    
   5230000   0.55938336    -7.6804642     -6.8414011      4.7193665      50218.233      36.893836      36.893836      36.893836    
   5240000   0.55802775    -7.6822679     -6.8452382      4.7018743      50218.233      36.893836      36.893836      36.893836    
   5250000   0.56091543    -7.6847243     -6.8433631      4.7068002      50218.233      36.893836      36.893836      36.893836    
   5260000   0.55875563    -7.6857712     -6.8476496      4.6833599      50218.233      36.893836      36.893836      36.893836    
   5270000   0.56330794    -7.6814832     -6.8365333      4.7209327      50218.233      36.893836      36.893836      36.893836    
   5280000   0.56203752    -7.6819377     -6.8388934      4.7229841      50218.233      36.893836      36.893836      36.893836    
   5290000   0.55620307    -7.6790354     -6.8447426      4.7399896      50218.233      36.893836      36.893836      36.893836    
   5300000   0.56103112    -7.682914      -6.8413792      4.7259601      50218.233      36.893836      36.893836      36.893836    
   5310000   0.56002394    -7.6785299     -6.838506       4.7420558      50218.233      36.893836      36.893836      36.893836    
   5320000   0.56177903    -7.6835259     -6.8408694      4.7103403      50218.233      36.893836      36.893836      36.893836    
   5330000   0.5584545     -7.6852613     -6.8475915      4.673155       50218.233      36.893836      36.893836      36.893836    
   5340000   0.5605758     -7.6844726     -6.8436208      4.7063398      50218.233      36.893836      36.893836      36.893836    
   5350000   0.56161142    -7.6823848     -6.8399797      4.7149088      50218.233      36.893836      36.893836      36.893836    
   5360000   0.55969246    -7.6819577     -6.842431       4.7164088      50218.233      36.893836      36.893836      36.893836    
   5370000   0.56058996    -7.6819185     -6.8410455      4.7242408      50218.233      36.893836      36.893836      36.893836    
   5380000   0.55729354    -7.6830626     -6.8471342      4.7097396      50218.233      36.893836      36.893836      36.893836    
   5390000   0.56140664    -7.6849039     -6.8428059      4.7005281      50218.233      36.893836      36.893836      36.893836    
   5400000   0.56132317    -7.6780326     -6.8360598      4.7484658      50218.233      36.893836      36.893836      36.893836    
   5410000   0.56268285    -7.6831514     -6.8391391      4.7169591      50218.233      36.893836      36.893836      36.893836    
   5420000   0.55953998    -7.6830472     -6.8437492      4.7091868      50218.233      36.893836      36.893836      36.893836    
   5430000   0.55992525    -7.682984      -6.8431081      4.7044428      50218.233      36.893836      36.893836      36.893836    
   5440000   0.56133362    -7.683201      -6.8412126      4.7127758      50218.233      36.893836      36.893836      36.893836    
   5450000   0.55919419    -7.682197      -6.8434177      4.7281443      50218.233      36.893836      36.893836      36.893836    
   5460000   0.56068021    -7.6839912     -6.8429829      4.711329       50218.233      36.893836      36.893836      36.893836    
   5470000   0.55757309    -7.6834519     -6.8471041      4.7125041      50218.233      36.893836      36.893836      36.893836    
   5480000   0.56123282    -7.6829385     -6.8411013      4.7149125      50218.233      36.893836      36.893836      36.893836    
   5490000   0.56070627    -7.6865983     -6.8455509      4.6998259      50218.233      36.893836      36.893836      36.893836    
   5500000   0.56047333    -7.6886084     -6.8479104      4.6746311      50218.233      36.893836      36.893836      36.893836    
   5510000   0.55948707    -7.6865134     -6.8472947      4.6816637      50218.233      36.893836      36.893836      36.893836    
   5520000   0.56083501    -7.6859897     -6.8447491      4.6980778      50218.233      36.893836      36.893836      36.893836    
   5530000   0.56256569    -7.6835756     -6.8397391      4.7015986      50218.233      36.893836      36.893836      36.893836    
   5540000   0.55720382    -7.6856921     -6.8498982      4.6835539      50218.233      36.893836      36.893836      36.893836    
   5550000   0.55931398    -7.6844693     -6.8455102      4.7065759      50218.233      36.893836      36.893836      36.893836    
   5560000   0.55862874    -7.6932004     -6.8552692      4.6454982      50218.233      36.893836      36.893836      36.893836    
   5570000   0.55620029    -7.6866369     -6.8523484      4.6872606      50218.233      36.893836      36.893836      36.893836    
   5580000   0.56281168    -7.6873623     -6.8431568      4.6908038      50218.233      36.893836      36.893836      36.893836    
   5590000   0.55982596    -7.6781031     -6.8383761      4.7455758      50218.233      36.893836      36.893836      36.893836    
   5600000   0.5608529     -7.6812616     -6.8399942      4.7312091      50218.233      36.893836      36.893836      36.893836    
   5610000   0.56109589    -7.684269      -6.8426371      4.7042418      50218.233      36.893836      36.893836      36.893836    
   5620000   0.56177749    -7.6870118     -6.8443576      4.6927134      50218.233      36.893836      36.893836      36.893836    
   5630000   0.56069751    -7.6852491     -6.8442148      4.6926631      50218.233      36.893836      36.893836      36.893836    
   5640000   0.56040865    -7.6900682     -6.8494672      4.673545       50218.233      36.893836      36.893836      36.893836    
   5650000   0.55939883    -7.6817408     -6.8426545      4.717499       50218.233      36.893836      36.893836      36.893836    
   5660000   0.56068113    -7.684963      -6.8439532      4.7016665      50218.233      36.893836      36.893836      36.893836    
   5670000   0.55882546    -7.6823751     -6.8441488      4.724321       50218.233      36.893836      36.893836      36.893836    
   5680000   0.55743246    -7.6805002     -6.8443634      4.7273743      50218.233      36.893836      36.893836      36.893836    
   5690000   0.55964332    -7.680899      -6.841446       4.7239031      50218.233      36.893836      36.893836      36.893836    
   5700000   0.55928741    -7.6759128     -6.8369936      4.7700914      50218.233      36.893836      36.893836      36.893836    
   5710000   0.56133289    -7.6845874     -6.8426         4.7027388      50218.233      36.893836      36.893836      36.893836    
   5720000   0.55890126    -7.6835885     -6.8452486      4.7062486      50218.233      36.893836      36.893836      36.893836    
   5730000   0.55901444    -7.6842852     -6.8457755      4.6946013      50218.233      36.893836      36.893836      36.893836    
   5740000   0.56172705    -7.6831533     -6.8405747      4.7210124      50218.233      36.893836      36.893836      36.893836    
   5750000   0.56187909    -7.6873273     -6.8445206      4.6842251      50218.233      36.893836      36.893836      36.893836    
   5760000   0.56081316    -7.6840951     -6.8428873      4.7107167      50218.233      36.893836      36.893836      36.893836    
   5770000   0.56101869    -7.6878523     -6.8463362      4.6738989      50218.233      36.893836      36.893836      36.893836    
   5780000   0.56272614    -7.6850351     -6.8409579      4.7039311      50218.233      36.893836      36.893836      36.893836    
   5790000   0.56203474    -7.677736      -6.8346959      4.758331       50218.233      36.893836      36.893836      36.893836    
   5800000   0.55950822    -7.6810978     -6.8418474      4.7169656      50218.233      36.893836      36.893836      36.893836    
   5810000   0.56036703    -7.6826601     -6.8421215      4.7111099      50218.233      36.893836      36.893836      36.893836    
   5820000   0.56220312    -7.6806443     -6.8373516      4.7373173      50218.233      36.893836      36.893836      36.893836    
   5830000   0.55920415    -7.6824366     -6.8436423      4.7145998      50218.233      36.893836      36.893836      36.893836    
   5840000   0.56060504    -7.6849757     -6.8440801      4.7034191      50218.233      36.893836      36.893836      36.893836    
   5850000   0.5581158     -7.6845777     -6.8474159      4.6954436      50218.233      36.893836      36.893836      36.893836    
   5860000   0.55790401    -7.6823827     -6.8455386      4.7201762      50218.233      36.893836      36.893836      36.893836    
   5870000   0.56121435    -7.6807721     -6.8389625      4.7292047      50218.233      36.893836      36.893836      36.893836    
   5880000   0.55892554    -7.6840993     -6.8457229      4.7081787      50218.233      36.893836      36.893836      36.893836    
   5890000   0.55626659    -7.6787623     -6.8443743      4.739255       50218.233      36.893836      36.893836      36.893836    
   5900000   0.56158665    -7.6805971     -6.8382291      4.7410475      50218.233      36.893836      36.893836      36.893836    
   5910000   0.56030545    -7.6836505     -6.8432043      4.7126712      50218.233      36.893836      36.893836      36.893836    
   5920000   0.5609283     -7.6885212     -6.8471407      4.6779702      50218.233      36.893836      36.893836      36.893836    
   5930000   0.56082914    -7.6827094     -6.8414777      4.7267575      50218.233      36.893836      36.893836      36.893836    
   5940000   0.55648223    -7.6857208     -6.8510093      4.6853836      50218.233      36.893836      36.893836      36.893836    
   5950000   0.55995265    -7.6822491     -6.8423321      4.7333162      50218.233      36.893836      36.893836      36.893836    
   5960000   0.55933656    -7.6844499     -6.845457       4.6988846      50218.233      36.893836      36.893836      36.893836    
   5970000   0.55974641    -7.684335      -6.8447273      4.7008925      50218.233      36.893836      36.893836      36.893836    
   5980000   0.55789115    -7.6845094     -6.8476846      4.6970194      50218.233      36.893836      36.893836      36.893836    
   5990000   0.55931415    -7.6857779     -6.8468186      4.6840137      50218.233      36.893836      36.893836      36.893836    
   6000000   0.55761378    -7.6806671     -6.8442583      4.7456995      50218.233      36.893836      36.893836      36.893836    
   6010000   0.56130168    -7.6848245     -6.8428839      4.7005262      50218.233      36.893836      36.893836      36.893836    
   6020000   0.5608412     -7.6824082     -6.8411583      4.7091182      50218.233      36.893836      36.893836      36.893836    
   6030000   0.55701437    -7.6853203     -6.8498107      4.6914445      50218.233      36.893836      36.893836      36.893836    
   6040000   0.55781316    -7.6785553     -6.8418474      4.7424283      50218.233      36.893836      36.893836      36.893836    
   6050000   0.55974958    -7.6795802     -6.8399678      4.750237       50218.233      36.893836      36.893836      36.893836    
   6060000   0.56131306    -7.6828227     -6.8408651      4.7176545      50218.233      36.893836      36.893836      36.893836    
   6070000   0.55777963    -7.6794747     -6.8428172      4.7384105      50218.233      36.893836      36.893836      36.893836    
   6080000   0.5606447     -7.681245      -6.8402899      4.7341332      50218.233      36.893836      36.893836      36.893836    
   6090000   0.5595627     -7.6828732     -6.8435411      4.7267192      50218.233      36.893836      36.893836      36.893836    
   6100000   0.55958946    -7.6809718     -6.8415996      4.7393113      50218.233      36.893836      36.893836      36.893836    
   6110000   0.55955409    -7.6804882     -6.841169       4.741972       50218.233      36.893836      36.893836      36.893836    
   6120000   0.5593503     -7.6791664     -6.8401528      4.7501838      50218.233      36.893836      36.893836      36.893836    
   6130000   0.5621968     -7.6820103     -6.8387271      4.7332535      50218.233      36.893836      36.893836      36.893836    
   6140000   0.56131243    -7.6745471     -6.8325905      4.7863263      50218.233      36.893836      36.893836      36.893836    
   6150000   0.56324633    -7.6784481     -6.8335906      4.7441716      50218.233      36.893836      36.893836      36.893836    
   6160000   0.56201369    -7.6798232     -6.8368146      4.7407827      50218.233      36.893836      36.893836      36.893836    
   6170000   0.55824339    -7.6782268     -6.8408737      4.7553609      50218.233      36.893836      36.893836      36.893836    
   6180000   0.56016106    -7.6824471     -6.8422175      4.722711       50218.233      36.893836      36.893836      36.893836    
   6190000   0.56128662    -7.6828954     -6.8409774      4.719365       50218.233      36.893836      36.893836      36.893836    
   6200000   0.56009226    -7.6850686     -6.8449422      4.6902871      50218.233      36.893836      36.893836      36.893836    
   6210000   0.5562377     -7.6832792     -6.8489345      4.7038431      50218.233      36.893836      36.893836      36.893836    
   6220000   0.55970007    -7.6873987     -6.8478606      4.6914375      50218.233      36.893836      36.893836      36.893836    
   6230000   0.56153255    -7.6823303     -6.8400435      4.7266799      50218.233      36.893836      36.893836      36.893836    
   6240000   0.55910228    -7.6811377     -6.8424962      4.7218862      50218.233      36.893836      36.893836      36.893836    
   6250000   0.55884739    -7.6795331     -6.841274       4.7349079      50218.233      36.893836      36.893836      36.893836    
   6260000   0.56086818    -7.6795474     -6.8382571      4.7532148      50218.233      36.893836      36.893836      36.893836    
   6270000   0.55826707    -7.6796287     -6.84224        4.7392753      50218.233      36.893836      36.893836      36.893836    
   6280000   0.56197642    -7.6834719     -6.8405192      4.7117486      50218.233      36.893836      36.893836      36.893836    
   6290000   0.56064914    -7.6881747     -6.847213       4.6759323      50218.233      36.893836      36.893836      36.893836    
   6300000   0.56051126    -7.6814383     -6.8406834      4.7357653      50218.233      36.893836      36.893836      36.893836    
   6310000   0.55647695    -7.6799403     -6.8452368      4.7345347      50218.233      36.893836      36.893836      36.893836    
   6320000   0.56078358    -7.6799862     -6.8388228      4.7322099      50218.233      36.893836      36.893836      36.893836    
   6330000   0.56299519    -7.6868732     -6.8423924      4.6850084      50218.233      36.893836      36.893836      36.893836    
   6340000   0.56054223    -7.6777385     -6.8369372      4.7452886      50218.233      36.893836      36.893836      36.893836    
   6350000   0.56184492    -7.6774807     -6.8347253      4.764314       50218.233      36.893836      36.893836      36.893836    
   6360000   0.55877469    -7.6787511     -6.840601       4.7465611      50218.233      36.893836      36.893836      36.893836    
   6370000   0.55935304    -7.6813011     -6.8422834      4.7233746      50218.233      36.893836      36.893836      36.893836    
   6380000   0.56035946    -7.6792353     -6.8387081      4.7456919      50218.233      36.893836      36.893836      36.893836    
   6390000   0.56032511    -7.6800992     -6.8396235      4.7372835      50218.233      36.893836      36.893836      36.893836    
   6400000   0.55982821    -7.6792653     -6.8395349      4.7436506      50218.233      36.893836      36.893836      36.893836    
   6410000   0.56113702    -7.6806602     -6.8389666      4.7397069      50218.233      36.893836      36.893836      36.893836    
   6420000   0.56054553    -7.6799119     -6.8391056      4.749203       50218.233      36.893836      36.893836      36.893836    
   6430000   0.56364077    -7.6825235     -6.8370744      4.7215861      50218.233      36.893836      36.893836      36.893836    
   6440000   0.56299097    -7.6831026     -6.8386282      4.7118547      50218.233      36.893836      36.893836      36.893836    
   6450000   0.55893556    -7.6842684     -6.845877       4.6997398      50218.233      36.893836      36.893836      36.893836    
   6460000   0.56027772    -7.6806531     -6.8402485      4.7407783      50218.233      36.893836      36.893836      36.893836    
   6470000   0.55873969    -7.6852339     -6.8471363      4.7049241      50218.233      36.893836      36.893836      36.893836    
   6480000   0.55891415    -7.6830122     -6.8446529      4.7087963      50218.233      36.893836      36.893836      36.893836    
   6490000   0.56124197    -7.6863208     -6.8444698      4.6944903      50218.233      36.893836      36.893836      36.893836    
   6500000   0.56075665    -7.6848357     -6.8437127      4.7001038      50218.233      36.893836      36.893836      36.893836    
   6510000   0.56020961    -7.6802487     -6.8399462      4.7298886      50218.233      36.893836      36.893836      36.893836    
   6520000   0.56173418    -7.6792621     -6.8366729      4.737411       50218.233      36.893836      36.893836      36.893836    
   6530000   0.56101484    -7.6778003     -6.83629        4.7454576      50218.233      36.893836      36.893836      36.893836    
   6540000   0.56018197    -7.6868186     -6.8465576      4.6835191      50218.233      36.893836      36.893836      36.893836    
   6550000   0.56077193    -7.6796899     -6.838544       4.7401928      50218.233      36.893836      36.893836      36.893836    
   6560000   0.56365058    -7.6833947     -6.8379308      4.7286342      50218.233      36.893836      36.893836      36.893836    
   6570000   0.55801434    -7.6784101     -6.8414005      4.7457524      50218.233      36.893836      36.893836      36.893836    
   6580000   0.56253007    -7.6807721     -6.836989       4.7399804      50218.233      36.893836      36.893836      36.893836    
   6590000   0.55947366    -7.678215      -6.8390164      4.7553968      50218.233      36.893836      36.893836      36.893836    
   6600000   0.55737578    -7.6794414     -6.8433897      4.7321083      50218.233      36.893836      36.893836      36.893836    
   6610000   0.55829313    -7.6839185     -6.8464907      4.6954448      50218.233      36.893836      36.893836      36.893836    
   6620000   0.55965008    -7.6836851     -6.8442219      4.7082362      50218.233      36.893836      36.893836      36.893836    
   6630000   0.56264609    -7.6815029     -6.8375457      4.7182121      50218.233      36.893836      36.893836      36.893836    
   6640000   0.55865359    -7.6836785     -6.84571        4.7036451      50218.233      36.893836      36.893836      36.893836    
   6650000   0.56085845    -7.6823199     -6.8410442      4.7210895      50218.233      36.893836      36.893836      36.893836    
   6660000   0.56107379    -7.684494      -6.8428953      4.7199554      50218.233      36.893836      36.893836      36.893836    
   6670000   0.55984435    -7.6842788     -6.8445242      4.6963812      50218.233      36.893836      36.893836      36.893836    
   6680000   0.56211258    -7.6825687     -6.8394118      4.7214309      50218.233      36.893836      36.893836      36.893836    
   6690000   0.56069971    -7.6834316     -6.842394       4.7166624      50218.233      36.893836      36.893836      36.893836    
   6700000   0.55961164    -7.6807316     -6.8413261      4.7234937      50218.233      36.893836      36.893836      36.893836    
   6710000   0.56255215    -7.6873481     -6.8435318      4.6814617      50218.233      36.893836      36.893836      36.893836    
   6720000   0.56108941    -7.6784423     -6.8368202      4.7559615      50218.233      36.893836      36.893836      36.893836    
   6730000   0.55984982    -7.6798141     -6.8400513      4.7475391      50218.233      36.893836      36.893836      36.893836    
   6740000   0.55974273    -7.6782487     -6.8386466      4.7558828      50218.233      36.893836      36.893836      36.893836    
   6750000   0.55725296    -7.6834483     -6.8475808      4.7165006      50218.233      36.893836      36.893836      36.893836    
   6760000   0.56068506    -7.6824699     -6.8414543      4.7167408      50218.233      36.893836      36.893836      36.893836    
   6770000   0.55830073    -7.6857031     -6.8482639      4.6872652      50218.233      36.893836      36.893836      36.893836    
   6780000   0.55957151    -7.6842663     -6.844921       4.7163517      50218.233      36.893836      36.893836      36.893836    
   6790000   0.55712986    -7.6837892     -6.8481063      4.6994577      50218.233      36.893836      36.893836      36.893836    
   6800000   0.56001397    -7.6846508     -6.8446418      4.7061415      50218.233      36.893836      36.893836      36.893836    
   6810000   0.5622869     -7.6831706     -6.8397523      4.7238814      50218.233      36.893836      36.893836      36.893836    
   6820000   0.55815919    -7.681572      -6.8443452      4.714301       50218.233      36.893836      36.893836      36.893836    
   6830000   0.56200835    -7.681524      -6.8385234      4.7195625      50218.233      36.893836      36.893836      36.893836    
   6840000   0.56300749    -7.6800389     -6.8355397      4.7378985      50218.233      36.893836      36.893836      36.893836    
   6850000   0.55875233    -7.6807605     -6.8426439      4.7317198      50218.233      36.893836      36.893836      36.893836    
   6860000   0.56072431    -7.6837931     -6.8427186      4.7135284      50218.233      36.893836      36.893836      36.893836    
   6870000   0.55957587    -7.679474      -6.8401221      4.7435596      50218.233      36.893836      36.893836      36.893836    
   6880000   0.5582309     -7.6811143     -6.8437798      4.719759       50218.233      36.893836      36.893836      36.893836    
   6890000   0.56204821    -7.6805948     -6.8375345      4.736904       50218.233      36.893836      36.893836      36.893836    
   6900000   0.56091967    -7.6851088     -6.8437413      4.6988843      50218.233      36.893836      36.893836      36.893836    
   6910000   0.56070213    -7.6774521     -6.8364108      4.7481476      50218.233      36.893836      36.893836      36.893836    
   6920000   0.56064461    -7.6827592     -6.8418042      4.7189233      50218.233      36.893836      36.893836      36.893836    
   6930000   0.56078151    -7.6861212     -6.8449609      4.7008058      50218.233      36.893836      36.893836      36.893836    
   6940000   0.5608616     -7.6854363     -6.8441559      4.7049438      50218.233      36.893836      36.893836      36.893836    
   6950000   0.56156399    -7.6791539     -6.8368199      4.7480722      50218.233      36.893836      36.893836      36.893836    
   6960000   0.56029588    -7.6786199     -6.838188       4.741286       50218.233      36.893836      36.893836      36.893836    
   6970000   0.55936347    -7.6868139     -6.8477806      4.6752622      50218.233      36.893836      36.893836      36.893836    
   6980000   0.56160971    -7.6875393     -6.8451367      4.6790679      50218.233      36.893836      36.893836      36.893836    
   6990000   0.55866206    -7.6814166     -6.8434355      4.7261214      50218.233      36.893836      36.893836      36.893836    
   7000000   0.56141572    -7.6898797     -6.847768       4.6609213      50218.233      36.893836      36.893836      36.893836    
   7010000   0.56123684    -7.6811939     -6.8393506      4.7355381      50218.233      36.893836      36.893836      36.893836    
   7020000   0.55877507    -7.6783091     -6.8401584      4.7513987      50218.233      36.893836      36.893836      36.893836    
   7030000   0.56049204    -7.6779787     -6.8372526      4.7403472      50218.233      36.893836      36.893836      36.893836    
   7040000   0.56321645    -7.6770352     -6.8322225      4.7568921      50218.233      36.893836      36.893836      36.893836    
   7050000   0.56173843    -7.6787907     -6.836195       4.7467377      50218.233      36.893836      36.893836      36.893836    
   7060000   0.56277675    -7.6815336     -6.8373805      4.7209085      50218.233      36.893836      36.893836      36.893836    
   7070000   0.55890243    -7.6834977     -6.845156       4.7159248      50218.233      36.893836      36.893836      36.893836    
   7080000   0.55988938    -7.6874575     -6.8476353      4.6850664      50218.233      36.893836      36.893836      36.893836    
   7090000   0.55991299    -7.6834295     -6.843572       4.7032097      50218.233      36.893836      36.893836      36.893836    
   7100000   0.56311531    -7.6798376     -6.8351766      4.7418285      50218.233      36.893836      36.893836      36.893836    
   7110000   0.5613077     -7.6814617     -6.8395121      4.7271929      50218.233      36.893836      36.893836      36.893836    
   7120000   0.5624793     -7.6828766     -6.8391696      4.7035018      50218.233      36.893836      36.893836      36.893836    
   7130000   0.56153993    -7.683577      -6.841279       4.7112212      50218.233      36.893836      36.893836      36.893836    
   7140000   0.55851908    -7.6826669     -6.8449002      4.7011528      50218.233      36.893836      36.893836      36.893836    
   7150000   0.55658608    -7.6820726     -6.8472054      4.6962119      50218.233      36.893836      36.893836      36.893836    
   7160000   0.56076381    -7.6786034     -6.8374696      4.7287016      50218.233      36.893836      36.893836      36.893836    
   7170000   0.56057619    -7.681646      -6.8407937      4.7192962      50218.233      36.893836      36.893836      36.893836    
   7180000   0.55600919    -7.6821234     -6.8481215      4.7107023      50218.233      36.893836      36.893836      36.893836    
   7190000   0.56016527    -7.6852341     -6.8449981      4.6988273      50218.233      36.893836      36.893836      36.893836    
   7200000   0.56048004    -7.6824881     -6.84178        4.7255507      50218.233      36.893836      36.893836      36.893836    
   7210000   0.56165994    -7.6831585     -6.8406806      4.7022871      50218.233      36.893836      36.893836      36.893836    
   7220000   0.55608242    -7.6809287     -6.846817       4.7257869      50218.233      36.893836      36.893836      36.893836    
   7230000   0.56026565    -7.681657      -6.8412705      4.7160477      50218.233      36.893836      36.893836      36.893836    
   7240000   0.5588904     -7.6798158     -6.8414921      4.7296795      50218.233      36.893836      36.893836      36.893836    
   7250000   0.55914542    -7.6850453     -6.846339       4.6918136      50218.233      36.893836      36.893836      36.893836    
   7260000   0.55847843    -7.6829126     -6.8452069      4.710703       50218.233      36.893836      36.893836      36.893836    
   7270000   0.55910162    -7.6808551     -6.8422146      4.7295419      50218.233      36.893836      36.893836      36.893836    
   7280000   0.55941917    -7.6857166     -6.8465998      4.6918322      50218.233      36.893836      36.893836      36.893836    
   7290000   0.55931187    -7.6845276     -6.8455717      4.7020978      50218.233      36.893836      36.893836      36.893836    
   7300000   0.56080693    -7.6813257     -6.8401273      4.7186136      50218.233      36.893836      36.893836      36.893836    
   7310000   0.55832494    -7.6832819     -6.8458065      4.6995635      50218.233      36.893836      36.893836      36.893836    
   7320000   0.55952875    -7.6823854     -6.8431042      4.7129043      50218.233      36.893836      36.893836      36.893836    
   7330000   0.55771203    -7.685904      -6.8493479      4.6889442      50218.233      36.893836      36.893836      36.893836    
   7340000   0.55829077    -7.6784127     -6.8409884      4.7384366      50218.233      36.893836      36.893836      36.893836    
   7350000   0.56134433    -7.6791899     -6.8371854      4.7477607      50218.233      36.893836      36.893836      36.893836    
   7360000   0.56130843    -7.6828862     -6.8409355      4.7192637      50218.233      36.893836      36.893836      36.893836    
   7370000   0.5599858     -7.680514      -6.8405472      4.7372591      50218.233      36.893836      36.893836      36.893836    
   7380000   0.5585474     -7.6802599     -6.8424507      4.7302684      50218.233      36.893836      36.893836      36.893836    
   7390000   0.55676384    -7.683448      -6.8483141      4.693538       50218.233      36.893836      36.893836      36.893836    
   7400000   0.55684261    -7.6861899     -6.8509379      4.6834013      50218.233      36.893836      36.893836      36.893836    
   7410000   0.56004347    -7.6804578     -6.8404045      4.7224982      50218.233      36.893836      36.893836      36.893836    
   7420000   0.55701263    -7.6779937     -6.8424867      4.7501292      50218.233      36.893836      36.893836      36.893836    
   7430000   0.5602089     -7.6783056     -6.8380042      4.7491434      50218.233      36.893836      36.893836      36.893836    
   7440000   0.56035452    -7.6798876     -6.8393678      4.7406608      50218.233      36.893836      36.893836      36.893836    
   7450000   0.56006257    -7.6798416     -6.8397597      4.7401258      50218.233      36.893836      36.893836      36.893836    
   7460000   0.56092594    -7.679598      -6.8382211      4.7447832      50218.233      36.893836      36.893836      36.893836    
   7470000   0.55723372    -7.6813607     -6.8455221      4.721308       50218.233      36.893836      36.893836      36.893836    
   7480000   0.56106802    -7.6762725     -6.8346825      4.7816086      50218.233      36.893836      36.893836      36.893836    
   7490000   0.56096028    -7.6813404     -6.8399119      4.730603       50218.233      36.893836      36.893836      36.893836    
   7500000   0.55713291    -7.6808432     -6.8451557      4.7261715      50218.233      36.893836      36.893836      36.893836    
   7510000   0.55627911    -7.6750914     -6.8406846      4.7797569      50218.233      36.893836      36.893836      36.893836    
   7520000   0.55872238    -7.6809938     -6.8429221      4.7316316      50218.233      36.893836      36.893836      36.893836    
   7530000   0.55579948    -7.6788385     -6.8451511      4.7400744      50218.233      36.893836      36.893836      36.893836    
   7540000   0.56044384    -7.6751203     -6.8344665      4.7733749      50218.233      36.893836      36.893836      36.893836    
   7550000   0.55842121    -7.6786699     -6.84105        4.7353173      50218.233      36.893836      36.893836      36.893836    
   7560000   0.559571      -7.683935      -6.8445905      4.7038846      50218.233      36.893836      36.893836      36.893836    
   7570000   0.55791848    -7.6834518     -6.846586       4.707294       50218.233      36.893836      36.893836      36.893836    
   7580000   0.56083475    -7.6800188     -6.8387787      4.7428629      50218.233      36.893836      36.893836      36.893836    
   7590000   0.55951576    -7.682323      -6.8430613      4.7226837      50218.233      36.893836      36.893836      36.893836    
   7600000   0.56036929    -7.6852714     -6.8447294      4.7048123      50218.233      36.893836      36.893836      36.893836    
   7610000   0.56019805    -7.6819601     -6.841675       4.7212628      50218.233      36.893836      36.893836      36.893836    
   7620000   0.55970994    -7.6834995     -6.8439465      4.7160529      50218.233      36.893836      36.893836      36.893836    
   7630000   0.56153121    -7.6771438     -6.8348589      4.7587243      50218.233      36.893836      36.893836      36.893836    
   7640000   0.56328169    -7.6876624     -6.8427519      4.6961734      50218.233      36.893836      36.893836      36.893836    
   7650000   0.55766086    -7.6752574     -6.838778       4.7751783      50218.233      36.893836      36.893836      36.893836    
   7660000   0.55993081    -7.6788687     -6.8389845      4.7416137      50218.233      36.893836      36.893836      36.893836    
   7670000   0.55659975    -7.6833581     -6.8484703      4.7175226      50218.233      36.893836      36.893836      36.893836    
   7680000   0.55978974    -7.6839163     -6.8442436      4.7081841      50218.233      36.893836      36.893836      36.893836    
   7690000   0.55812455    -7.6846747     -6.8474997      4.7107936      50218.233      36.893836      36.893836      36.893836    
   7700000   0.55852382    -7.6858216     -6.8480478      4.692808       50218.233      36.893836      36.893836      36.893836    
   7710000   0.55948002    -7.6829386     -6.8437305      4.7188042      50218.233      36.893836      36.893836      36.893836    
   7720000   0.55811595    -7.681496      -6.844334       4.7207093      50218.233      36.893836      36.893836      36.893836    
   7730000   0.55834776    -7.6840483     -6.8465386      4.7080903      50218.233      36.893836      36.893836      36.893836    
   7740000   0.55793342    -7.6836894     -6.8468011      4.7036796      50218.233      36.893836      36.893836      36.893836    
   7750000   0.55916713    -7.6852123     -6.8464736      4.6924277      50218.233      36.893836      36.893836      36.893836    
   7760000   0.55676947    -7.6828047     -6.8476624      4.7196674      50218.233      36.893836      36.893836      36.893836    
   7770000   0.55788723    -7.6823014     -6.8454824      4.7090042      50218.233      36.893836      36.893836      36.893836    
   7780000   0.5633263     -7.6852199     -6.8402425      4.697746       50218.233      36.893836      36.893836      36.893836    
   7790000   0.55589213    -7.6884847     -6.8546583      4.659941       50218.233      36.893836      36.893836      36.893836    
   7800000   0.56276419    -7.6811841     -6.8370498      4.7350109      50218.233      36.893836      36.893836      36.893836    
   7810000   0.55886599    -7.6820832     -6.8437961      4.7138677      50218.233      36.893836      36.893836      36.893836    
   7820000   0.56073005    -7.679253      -6.8381699      4.7392397      50218.233      36.893836      36.893836      36.893836    
   7830000   0.55755453    -7.6820786     -6.8457587      4.7238494      50218.233      36.893836      36.893836      36.893836    
   7840000   0.55700596    -7.6791927     -6.8436956      4.7383253      50218.233      36.893836      36.893836      36.893836    
   7850000   0.55829322    -7.6812175     -6.8437896      4.7207617      50218.233      36.893836      36.893836      36.893836    
   7860000   0.55900196    -7.6824348     -6.8439438      4.7196992      50218.233      36.893836      36.893836      36.893836    
   7870000   0.5639412     -7.6817504     -6.8358507      4.7192736      50218.233      36.893836      36.893836      36.893836    
   7880000   0.55945774    -7.6833383     -6.8441636      4.7046983      50218.233      36.893836      36.893836      36.893836    
   7890000   0.56036591    -7.6845123     -6.8439754      4.7044855      50218.233      36.893836      36.893836      36.893836    
   7900000   0.56304664    -7.6857692     -6.8412113      4.7016533      50218.233      36.893836      36.893836      36.893836    
   7910000   0.55823244    -7.6871961     -6.8498594      4.6872654      50218.233      36.893836      36.893836      36.893836    
   7920000   0.56196211    -7.6898101     -6.8468789      4.6722425      50218.233      36.893836      36.893836      36.893836    
   7930000   0.55937382    -7.6846959     -6.8456471      4.7005583      50218.233      36.893836      36.893836      36.893836    
   7940000   0.56132682    -7.6850819     -6.8431037      4.6993072      50218.233      36.893836      36.893836      36.893836    
   7950000   0.56429326    -7.6822619     -6.835834       4.7285398      50218.233      36.893836      36.893836      36.893836    
   7960000   0.55767537    -7.6844875     -6.8479864      4.7006175      50218.233      36.893836      36.893836      36.893836    
   7970000   0.55992963    -7.6810452     -6.8411627      4.7336851      50218.233      36.893836      36.893836      36.893836    
   7980000   0.5586871     -7.6820507     -6.8440319      4.7228597      50218.233      36.893836      36.893836      36.893836    
   7990000   0.56056785    -7.6802928     -6.839453       4.7353542      50218.233      36.893836      36.893836      36.893836    
   8000000   0.56120267    -7.6829718     -6.8411798      4.711579       50218.233      36.893836      36.893836      36.893836    
   8010000   0.55991763    -7.6839833     -6.8441188      4.7029401      50218.233      36.893836      36.893836      36.893836    
   8020000   0.56125018    -7.6846481     -6.8427848      4.703796       50218.233      36.893836      36.893836      36.893836    
   8030000   0.55552238    -7.6819615     -6.8486898      4.7184357      50218.233      36.893836      36.893836      36.893836    
   8040000   0.55993558    -7.6835481     -6.8436566      4.7141101      50218.233      36.893836      36.893836      36.893836    
   8050000   0.55973803    -7.6828238     -6.8432287      4.7199491      50218.233      36.893836      36.893836      36.893836    
   8060000   0.56302255    -7.6866248     -6.842103       4.6937851      50218.233      36.893836      36.893836      36.893836    
   8070000   0.55817677    -7.6815862     -6.8443329      4.7247766      50218.233      36.893836      36.893836      36.893836    
   8080000   0.55734015    -7.6836944     -6.8476961      4.7117238      50218.233      36.893836      36.893836      36.893836    
   8090000   0.56033267    -7.6830861     -6.8425991      4.70358        50218.233      36.893836      36.893836      36.893836    
   8100000   0.55742918    -7.6790791     -6.8429472      4.7443821      50218.233      36.893836      36.893836      36.893836    
   8110000   0.55982334    -7.6833046     -6.8435816      4.724409       50218.233      36.893836      36.893836      36.893836    
   8120000   0.56139149    -7.6810472     -6.8389719      4.7326247      50218.233      36.893836      36.893836      36.893836    
   8130000   0.55973958    -7.6851228     -6.8455254      4.7025986      50218.233      36.893836      36.893836      36.893836    
   8140000   0.5604574     -7.6852028     -6.8445287      4.6966589      50218.233      36.893836      36.893836      36.893836    
   8150000   0.55694916    -7.6884969     -6.8530851      4.6729428      50218.233      36.893836      36.893836      36.893836    
   8160000   0.56026381    -7.6855446     -6.8451609      4.6908481      50218.233      36.893836      36.893836      36.893836    
   8170000   0.56053448    -7.6875473     -6.8467575      4.6708461      50218.233      36.893836      36.893836      36.893836    
   8180000   0.56152484    -7.6874836     -6.8452083      4.6894877      50218.233      36.893836      36.893836      36.893836    
   8190000   0.55807951    -7.6846139     -6.8475066      4.6805787      50218.233      36.893836      36.893836      36.893836    
   8200000   0.56047212    -7.6878471     -6.8471509      4.6753794      50218.233      36.893836      36.893836      36.893836    
   8210000   0.56068819    -7.685094      -6.8440737      4.7097866      50218.233      36.893836      36.893836      36.893836    
   8220000   0.56237193    -7.6805684     -6.8370225      4.7280835      50218.233      36.893836      36.893836      36.893836    
   8230000   0.56190525    -7.684827      -6.8419811      4.6968332      50218.233      36.893836      36.893836      36.893836    
   8240000   0.55922711    -7.6883452     -6.8495165      4.6698411      50218.233      36.893836      36.893836      36.893836    
   8250000   0.55941962    -7.6842757     -6.8451582      4.6947331      50218.233      36.893836      36.893836      36.893836    
   8260000   0.56018804    -7.6804806     -6.8402105      4.7270245      50218.233      36.893836      36.893836      36.893836    
   8270000   0.55849033    -7.684089      -6.8463655      4.6998851      50218.233      36.893836      36.893836      36.893836    
   8280000   0.56061164    -7.6826662     -6.8417607      4.7277596      50218.233      36.893836      36.893836      36.893836    
   8290000   0.55911983    -7.6833874     -6.8447196      4.716852       50218.233      36.893836      36.893836      36.893836    
   8300000   0.56252157    -7.680042      -6.8362717      4.739089       50218.233      36.893836      36.893836      36.893836    
   8310000   0.56339429    -7.6850499     -6.8399705      4.7029436      50218.233      36.893836      36.893836      36.893836    
   8320000   0.55876808    -7.6807973     -6.8426571      4.729196       50218.233      36.893836      36.893836      36.893836    
   8330000   0.56045129    -7.6826005     -6.8419356      4.7189287      50218.233      36.893836      36.893836      36.893836    
   8340000   0.56150549    -7.6825456     -6.8402993      4.7181239      50218.233      36.893836      36.893836      36.893836    
   8350000   0.55802068    -7.6772902     -6.8402711      4.7491817      50218.233      36.893836      36.893836      36.893836    
   8360000   0.56164881    -7.6851066     -6.8426454      4.6996044      50218.233      36.893836      36.893836      36.893836    
   8370000   0.56209424    -7.6818426     -6.8387133      4.7265946      50218.233      36.893836      36.893836      36.893836    
   8380000   0.56018996    -7.6789703     -6.8386973      4.7325273      50218.233      36.893836      36.893836      36.893836    
   8390000   0.56205305    -7.6801968     -6.8371292      4.7384678      50218.233      36.893836      36.893836      36.893836    
   8400000   0.55745234    -7.6796199     -6.8434533      4.7208498      50218.233      36.893836      36.893836      36.893836    
   8410000   0.56253903    -7.6759677     -6.8321712      4.7708207      50218.233      36.893836      36.893836      36.893836    
   8420000   0.5614088     -7.6839946     -6.8418934      4.7042052      50218.233      36.893836      36.893836      36.893836    
   8430000   0.55929742    -7.6819609     -6.8430266      4.7249009      50218.233      36.893836      36.893836      36.893836    
   8440000   0.55909209    -7.676001      -6.8373748      4.7524585      50218.233      36.893836      36.893836      36.893836    
   8450000   0.56143547    -7.6779947     -6.8358535      4.744589       50218.233      36.893836      36.893836      36.893836    
   8460000   0.5605158     -7.6837304     -6.8429687      4.7005722      50218.233      36.893836      36.893836      36.893836    
   8470000   0.55879372    -7.6784524     -6.8402737      4.7459236      50218.233      36.893836      36.893836      36.893836    
   8480000   0.55616939    -7.6805273     -6.8462851      4.7327987      50218.233      36.893836      36.893836      36.893836    
   8490000   0.55977965    -7.6784848     -6.8388273      4.742203       50218.233      36.893836      36.893836      36.893836    
   8500000   0.55969544    -7.6797827     -6.8402514      4.7364414      50218.233      36.893836      36.893836      36.893836    
   8510000   0.56215264    -7.6790755     -6.8358586      4.7413046      50218.233      36.893836      36.893836      36.893836    
   8520000   0.56112315    -7.6784561     -6.8367833      4.7499694      50218.233      36.893836      36.893836      36.893836    
   8530000   0.5590179     -7.6786834     -6.8401685      4.7468904      50218.233      36.893836      36.893836      36.893836    
   8540000   0.5608344     -7.6781593     -6.8369197      4.7469088      50218.233      36.893836      36.893836      36.893836    
   8550000   0.5605476     -7.6729517     -6.8321423      4.7908507      50218.233      36.893836      36.893836      36.893836    
   8560000   0.55748853    -7.6764718     -6.8402509      4.7515322      50218.233      36.893836      36.893836      36.893836    
   8570000   0.56216939    -7.6781528     -6.8349107      4.7534684      50218.233      36.893836      36.893836      36.893836    
   8580000   0.55987303    -7.6759025     -6.8361049      4.7577846      50218.233      36.893836      36.893836      36.893836    
   8590000   0.56047199    -7.6733006     -6.8326046      4.7741957      50218.233      36.893836      36.893836      36.893836    
   8600000   0.56199347    -7.6832946     -6.8403164      4.7189785      50218.233      36.893836      36.893836      36.893836    
   8610000   0.56167533    -7.6790773     -6.8365763      4.7352846      50218.233      36.893836      36.893836      36.893836    
   8620000   0.56059737    -7.6828001     -6.841916       4.7188694      50218.233      36.893836      36.893836      36.893836    
   8630000   0.55926013    -7.6881414     -6.8492631      4.6657418      50218.233      36.893836      36.893836      36.893836    
   8640000   0.55893769    -7.6854348     -6.8470402      4.6856931      50218.233      36.893836      36.893836      36.893836    
   8650000   0.56120706    -7.6826485     -6.8408499      4.7122308      50218.233      36.893836      36.893836      36.893836    
   8660000   0.55996537    -7.6748993     -6.8349632      4.773047       50218.233      36.893836      36.893836      36.893836    
   8670000   0.56154184    -7.6798813     -6.8375805      4.7388099      50218.233      36.893836      36.893836      36.893836    
   8680000   0.56151946    -7.6802624     -6.8379952      4.7397459      50218.233      36.893836      36.893836      36.893836    
   8690000   0.56067633    -7.6797336     -6.8387311      4.7299269      50218.233      36.893836      36.893836      36.893836    
   8700000   0.55849924    -7.6805682     -6.8428312      4.7232548      50218.233      36.893836      36.893836      36.893836    
   8710000   0.55936036    -7.6795722     -6.8405436      4.7294464      50218.233      36.893836      36.893836      36.893836    
   8720000   0.56082347    -7.6776678     -6.8364445      4.7511355      50218.233      36.893836      36.893836      36.893836    
   8730000   0.56051751    -7.6845665     -6.8438022      4.6974808      50218.233      36.893836      36.893836      36.893836    
   8740000   0.55944563    -7.6812932     -6.8421366      4.7229704      50218.233      36.893836      36.893836      36.893836    
   8750000   0.55986053    -7.6782326     -6.8384538      4.7506354      50218.233      36.893836      36.893836      36.893836    
   8760000   0.55940622    -7.6804494     -6.841352       4.7288709      50218.233      36.893836      36.893836      36.893836    
   8770000   0.55748919    -7.6790293     -6.8428075      4.7462362      50218.233      36.893836      36.893836      36.893836    
   8780000   0.55583228    -7.6783733     -6.8446367      4.7560173      50218.233      36.893836      36.893836      36.893836    
   8790000   0.55985715    -7.6779039     -6.8381301      4.7539978      50218.233      36.893836      36.893836      36.893836    
   8800000   0.56200644    -7.6808984     -6.8379008      4.7320185      50218.233      36.893836      36.893836      36.893836    
   8810000   0.56156961    -7.6852327     -6.8428903      4.7063218      50218.233      36.893836      36.893836      36.893836    
   8820000   0.55808741    -7.6800626     -6.8429434      4.716736       50218.233      36.893836      36.893836      36.893836    
   8830000   0.55987946    -7.674793      -6.8349858      4.7756765      50218.233      36.893836      36.893836      36.893836    
   8840000   0.55565797    -7.6794299     -6.8459548      4.7447791      50218.233      36.893836      36.893836      36.893836    
   8850000   0.55896169    -7.6771581     -6.8387275      4.7556474      50218.233      36.893836      36.893836      36.893836    
   8860000   0.56013471    -7.6822649     -6.8420747      4.7226688      50218.233      36.893836      36.893836      36.893836    
   8870000   0.55734903    -7.6781256     -6.842114       4.7342393      50218.233      36.893836      36.893836      36.893836    
   8880000   0.55878565    -7.6792079     -6.8410414      4.7381429      50218.233      36.893836      36.893836      36.893836    
   8890000   0.55875619    -7.6806803     -6.842558       4.7306673      50218.233      36.893836      36.893836      36.893836    
   8900000   0.56125951    -7.6755656     -6.8336883      4.7631261      50218.233      36.893836      36.893836      36.893836    
   8910000   0.55737507    -7.6777322     -6.8416815      4.7476188      50218.233      36.893836      36.893836      36.893836    
   8920000   0.55882183    -7.6779126     -6.8396918      4.7534009      50218.233      36.893836      36.893836      36.893836    
   8930000   0.55998683    -7.6773623     -6.837394       4.7537289      50218.233      36.893836      36.893836      36.893836    
   8940000   0.5567686     -7.6799562     -6.8448152      4.7291159      50218.233      36.893836      36.893836      36.893836    
   8950000   0.55992896    -7.6798206     -6.8399391      4.7327994      50218.233      36.893836      36.893836      36.893836    
   8960000   0.55924553    -7.684639      -6.8457827      4.6986073      50218.233      36.893836      36.893836      36.893836    
   8970000   0.56180517    -7.6828619     -6.8401661      4.7169907      50218.233      36.893836      36.893836      36.893836    
   8980000   0.56291204    -7.6805357     -6.8361796      4.7345588      50218.233      36.893836      36.893836      36.893836    
   8990000   0.559126      -7.6801212     -6.8414442      4.7224031      50218.233      36.893836      36.893836      36.893836    
   9000000   0.56013898    -7.6817164     -6.8415199      4.7299127      50218.233      36.893836      36.893836      36.893836    
   9010000   0.5622893     -7.6742993     -6.8308773      4.7906928      50218.233      36.893836      36.893836      36.893836    
   9020000   0.55901719    -7.6798358     -6.841322       4.7292274      50218.233      36.893836      36.893836      36.893836    
   9030000   0.56224485    -7.6806044     -6.8372491      4.7389402      50218.233      36.893836      36.893836      36.893836    
   9040000   0.56037009    -7.6797446     -6.8392014      4.7399677      50218.233      36.893836      36.893836      36.893836    
   9050000   0.55916459    -7.6795523     -6.8408173      4.7336229      50218.233      36.893836      36.893836      36.893836    
   9060000   0.56103456    -7.6867797     -6.8452398      4.6853635      50218.233      36.893836      36.893836      36.893836    
   9070000   0.56228871    -7.6848707     -6.8414497      4.6989756      50218.233      36.893836      36.893836      36.893836    
   9080000   0.5592327     -7.6820217     -6.8431845      4.7056089      50218.233      36.893836      36.893836      36.893836    
   9090000   0.5582085     -7.6796394     -6.8423385      4.729612       50218.233      36.893836      36.893836      36.893836    
   9100000   0.56026362    -7.6843705     -6.843987       4.7090673      50218.233      36.893836      36.893836      36.893836    
   9110000   0.55720945    -7.6843549     -6.8485527      4.6959122      50218.233      36.893836      36.893836      36.893836    
   9120000   0.56069565    -7.6888932     -6.8478617      4.6675044      50218.233      36.893836      36.893836      36.893836    
   9130000   0.5601041     -7.6844931     -6.8443489      4.6981198      50218.233      36.893836      36.893836      36.893836    
   9140000   0.56005813    -7.6817406     -6.8416653      4.7207728      50218.233      36.893836      36.893836      36.893836    
   9150000   0.56303471    -7.6800627     -6.8355226      4.7593305      50218.233      36.893836      36.893836      36.893836    
   9160000   0.5582909     -7.6813957     -6.8439713      4.7283336      50218.233      36.893836      36.893836      36.893836    
   9170000   0.56071409    -7.6752533     -6.8341942      4.775237       50218.233      36.893836      36.893836      36.893836    
   9180000   0.55811914    -7.689884      -6.8527172      4.6581979      50218.233      36.893836      36.893836      36.893836    
   9190000   0.55767782    -7.6843785     -6.8478736      4.6964819      50218.233      36.893836      36.893836      36.893836    
   9200000   0.56264276    -7.6841058     -6.8401537      4.7156942      50218.233      36.893836      36.893836      36.893836    
   9210000   0.56028788    -7.6863173     -6.8458975      4.6903002      50218.233      36.893836      36.893836      36.893836    
   9220000   0.56045651    -7.6776262     -6.8369534      4.7455886      50218.233      36.893836      36.893836      36.893836    
   9230000   0.56074522    -7.6819586     -6.8408527      4.7303403      50218.233      36.893836      36.893836      36.893836    
   9240000   0.56055462    -7.6796235     -6.8388035      4.7330555      50218.233      36.893836      36.893836      36.893836    
   9250000   0.56173189    -7.6839899     -6.841404       4.7165717      50218.233      36.893836      36.893836      36.893836    
   9260000   0.56005416    -7.6798019     -6.8397326      4.7163801      50218.233      36.893836      36.893836      36.893836    
   9270000   0.55904223    -7.6850579     -6.8465065      4.6848637      50218.233      36.893836      36.893836      36.893836    
   9280000   0.5633269     -7.6838112     -6.8388329      4.7147473      50218.233      36.893836      36.893836      36.893836    
   9290000   0.55939505    -7.6851322     -6.8460515      4.6912574      50218.233      36.893836      36.893836      36.893836    
   9300000   0.55895316    -7.6807264     -6.8423086      4.7273897      50218.233      36.893836      36.893836      36.893836    
   9310000   0.55756189    -7.6838086     -6.8474776      4.7003011      50218.233      36.893836      36.893836      36.893836    
   9320000   0.56144714    -7.6795452     -6.8373865      4.7330622      50218.233      36.893836      36.893836      36.893836    
   9330000   0.55893127    -7.6863033     -6.8479183      4.6709134      50218.233      36.893836      36.893836      36.893836    
   9340000   0.55897617    -7.6806442     -6.8421919      4.740786       50218.233      36.893836      36.893836      36.893836    
   9350000   0.56203544    -7.6809321     -6.837891       4.7276306      50218.233      36.893836      36.893836      36.893836    
   9360000   0.56265295    -7.6824208     -6.8384534      4.717666       50218.233      36.893836      36.893836      36.893836    
   9370000   0.55878579    -7.6815307     -6.8433639      4.7315865      50218.233      36.893836      36.893836      36.893836    
   9380000   0.56113075    -7.6816828     -6.8399987      4.7264207      50218.233      36.893836      36.893836      36.893836    
   9390000   0.55951807    -7.6823776     -6.8431124      4.7114077      50218.233      36.893836      36.893836      36.893836    
   9400000   0.56136377    -7.6854151     -6.8433815      4.7017133      50218.233      36.893836      36.893836      36.893836    
   9410000   0.56116877    -7.6827749     -6.8410337      4.7176419      50218.233      36.893836      36.893836      36.893836    
   9420000   0.56095141    -7.6845619     -6.8431468      4.7117239      50218.233      36.893836      36.893836      36.893836    
   9430000   0.55924996    -7.6814361     -6.8425731      4.7207012      50218.233      36.893836      36.893836      36.893836    
   9440000   0.55917811    -7.6834398     -6.8446846      4.7044055      50218.233      36.893836      36.893836      36.893836    
   9450000   0.5608333     -7.6837438     -6.8425058      4.709791       50218.233      36.893836      36.893836      36.893836    
   9460000   0.56138853    -7.6806523     -6.8385814      4.7256413      50218.233      36.893836      36.893836      36.893836    
   9470000   0.55776842    -7.68349       -6.8468493      4.6958323      50218.233      36.893836      36.893836      36.893836    
   9480000   0.55762488    -7.6850625     -6.848637       4.6799597      50218.233      36.893836      36.893836      36.893836    
   9490000   0.56039792    -7.6825622     -6.8419773      4.7273471      50218.233      36.893836      36.893836      36.893836    
   9500000   0.56118913    -7.6771023     -6.8353305      4.7477815      50218.233      36.893836      36.893836      36.893836    
   9510000   0.56083273    -7.6818231     -6.840586       4.7196754      50218.233      36.893836      36.893836      36.893836    
   9520000   0.56066374    -7.6816439     -6.8406603      4.7212481      50218.233      36.893836      36.893836      36.893836    
   9530000   0.56060685    -7.6822327     -6.8413344      4.7056818      50218.233      36.893836      36.893836      36.893836    
   9540000   0.55970859    -7.6832581     -6.8437071      4.7114196      50218.233      36.893836      36.893836      36.893836    
   9550000   0.56250601    -7.6829991     -6.8392521      4.7166354      50218.233      36.893836      36.893836      36.893836    
   9560000   0.55748435    -7.6849615     -6.8487469      4.6951247      50218.233      36.893836      36.893836      36.893836    
   9570000   0.55917999    -7.6831234     -6.8443654      4.7163857      50218.233      36.893836      36.893836      36.893836    
   9580000   0.55874858    -7.6831047     -6.8449938      4.7064421      50218.233      36.893836      36.893836      36.893836    
   9590000   0.56030887    -7.6851147     -6.8446634      4.6885987      50218.233      36.893836      36.893836      36.893836    
   9600000   0.5604458     -7.6881678     -6.8475111      4.6776943      50218.233      36.893836      36.893836      36.893836    
   9610000   0.56070833    -7.6842415     -6.843191       4.702888       50218.233      36.893836      36.893836      36.893836    
   9620000   0.55959509    -7.6840889     -6.8447082      4.6973319      50218.233      36.893836      36.893836      36.893836    
   9630000   0.56103472    -7.6764674     -6.8349273      4.7608311      50218.233      36.893836      36.893836      36.893836    
   9640000   0.55990283    -7.6853655     -6.8455232      4.6945777      50218.233      36.893836      36.893836      36.893836    
   9650000   0.55731064    -7.6861856     -6.8502315      4.6716207      50218.233      36.893836      36.893836      36.893836    
   9660000   0.56136397    -7.6799396     -6.8379057      4.7341989      50218.233      36.893836      36.893836      36.893836    
   9670000   0.56267219    -7.6833864     -6.8393901      4.7003495      50218.233      36.893836      36.893836      36.893836    
   9680000   0.55946137    -7.6847123     -6.8455322      4.7040878      50218.233      36.893836      36.893836      36.893836    
   9690000   0.55996893    -7.6862897     -6.8463482      4.6805826      50218.233      36.893836      36.893836      36.893836    
   9700000   0.56174416    -7.6838555     -6.8412512      4.7005954      50218.233      36.893836      36.893836      36.893836    
   9710000   0.55850185    -7.6857942     -6.8480534      4.6894849      50218.233      36.893836      36.893836      36.893836    
   9720000   0.56253935    -7.6873762     -6.8435792      4.6831283      50218.233      36.893836      36.893836      36.893836    
   9730000   0.56090287    -7.6835208     -6.8421785      4.7023021      50218.233      36.893836      36.893836      36.893836    
   9740000   0.56160758    -7.6889274     -6.846528       4.66967        50218.233      36.893836      36.893836      36.893836    
   9750000   0.56141048    -7.6829256     -6.8408219      4.7200098      50218.233      36.893836      36.893836      36.893836    
   9760000   0.55894183    -7.6833704     -6.8449696      4.6944937      50218.233      36.893836      36.893836      36.893836    
   9770000   0.55971887    -7.6855891     -6.8460227      4.6970207      50218.233      36.893836      36.893836      36.893836    
   9780000   0.56127827    -7.6833954     -6.84149        4.6961613      50218.233      36.893836      36.893836      36.893836    
   9790000   0.56267495    -7.6880665     -6.8440661      4.6754122      50218.233      36.893836      36.893836      36.893836    
   9800000   0.55970702    -7.6846197     -6.8450711      4.7062658      50218.233      36.893836      36.893836      36.893836    
   9810000   0.55924839    -7.6829335     -6.8440729      4.7224907      50218.233      36.893836      36.893836      36.893836    
   9820000   0.55707246    -7.6819315     -6.8463347      4.7057248      50218.233      36.893836      36.893836      36.893836    
   9830000   0.56064107    -7.6792114     -6.8382618      4.7387099      50218.233      36.893836      36.893836      36.893836    
   9840000   0.5591963     -7.6828041     -6.8440216      4.7091855      50218.233      36.893836      36.893836      36.893836    
   9850000   0.55773953    -7.684282      -6.8476846      4.6977962      50218.233      36.893836      36.893836      36.893836    
   9860000   0.56159827    -7.6878327     -6.8454473      4.6872885      50218.233      36.893836      36.893836      36.893836    
   9870000   0.56082101    -7.6803368     -6.8391172      4.7213206      50218.233      36.893836      36.893836      36.893836    
   9880000   0.56285386    -7.6806309     -6.8363621      4.7340498      50218.233      36.893836      36.893836      36.893836    
   9890000   0.55859183    -7.6710136     -6.8331378      4.7989303      50218.233      36.893836      36.893836      36.893836    
   9900000   0.55973109    -7.6771912     -6.8376065      4.754384       50218.233      36.893836      36.893836      36.893836    
   9910000   0.56095168    -7.679002      -6.8375864      4.7439161      50218.233      36.893836      36.893836      36.893836    
   9920000   0.56100054    -7.6844371     -6.8429483      4.7031098      50218.233      36.893836      36.893836      36.893836    
   9930000   0.56176739    -7.6830756     -6.8404365      4.7169412      50218.233      36.893836      36.893836      36.893836    
   9940000   0.55735551    -7.6789288     -6.8429074      4.7277076      50218.233      36.893836      36.893836      36.893836    
   9950000   0.56071193    -7.6820698     -6.8410138      4.7180439      50218.233      36.893836      36.893836      36.893836    
   9960000   0.56140914    -7.6828254     -6.8407237      4.7079983      50218.233      36.893836      36.893836      36.893836    
   9970000   0.55810535    -7.6804766     -6.8433305      4.7298727      50218.233      36.893836      36.893836      36.893836    
   9980000   0.56099923    -7.6810526     -6.8395657      4.7238772      50218.233      36.893836      36.893836      36.893836    
   9990000   0.56178228    -7.6797458     -6.8370844      4.7373501      50218.233      36.893836      36.893836      36.893836    
  10000000   0.56170968    -7.6801503     -6.8375977      4.7243437      50218.233      36.893836      36.893836      36.893836    
Loop time of 14811.5 on 5 procs for 10000000 steps with 70304 atoms

Performance: 583329.802 tau/day, 675.150 timesteps/s, 47.466 Matom-step/s
95.2% CPU use with 5 MPI tasks x 1 OpenMP threads

MPI task timing breakdown:
Section |  min time  |  avg time  |  max time  |%varavg| %total
---------------------------------------------------------------
Pair    | 4747.9     | 5752.5     | 6501.3     | 819.0 | 38.84
Neigh   | 50.833     | 52.677     | 54.008     |  16.6 |  0.36
Comm    | 2349.9     | 2376       | 2395.2     |  36.9 | 16.04
Output  | 0.1775     | 0.18513    | 0.20085    |   1.9 |  0.00
Modify  | 5112.7     | 5876.7     | 6907.7     | 825.6 | 39.68
Other   |            | 753.5      |            |       |  5.09

Nlocal:        14060.8 ave       14087 max       14034 min
Histogram: 1 0 0 1 1 0 0 1 0 1
Nghost:        18772.6 ave       18831 max       18733 min
Histogram: 1 0 1 1 1 0 0 0 0 1
Neighs:              0 ave           0 max           0 min
Histogram: 5 0 0 0 0 0 0 0 0 0

Total # of neighbors = 0
Ave neighs/atom = 0
Neighbor list builds = 2182308
Dangerous builds = 0
clear
OMP_NUM_THREADS environment is not set. Defaulting to 1 thread. (src/comm.cpp:98)
  using 1 OpenMP thread(s) per MPI task
package gpu 0
jump dms540.lmp

variable T equal 540
# T = 1000* (temp in LJ unit)
variable f equal 10000
log log.${T}
log log.540
