variable TLJ equal (${T}/1000)
variable TLJ equal (300/1000)
variable NCyle equal 10
variable iStep equal (${f})
variable iStep equal (10000)
variable dumpStep equal (${f}*100)
variable dumpStep equal (10000*100)
variable runStep equal (${f}*100*${NCyle})
variable runStep equal (10000*100*${NCyle})
variable runStep equal (10000*100*10)

units       lj
atom_style  atomic
dimension 3
boundary     p p p
pair_style  lj/cut 2.5
read_data  ../data/T${T}.dat
read_data  ../data/T300.dat
Reading data file ...
  orthogonal box = (0.97250269 0.97250269 0.97250269) to (37.866338 37.866338 37.866338)
  1 by 1 by 5 MPI processor grid
  reading atoms ...
  70304 atoms
  reading velocities ...
  70304 velocities
  read_data CPU = 0.209 seconds
change_box all triclinic
Changing box ...
  triclinic box = (0.97250269 0.97250269 0.97250269) to (37.866338 37.866338 37.866338) with tilt (0 0 0)
mass 1 1
mass 2 1
pair_modify shift yes
pair_coeff  1 1 1 1
pair_coeff  1 2 1.5 0.8
pair_coeff  2 2 0.5 0.88


timestep 0.01
thermo ${iStep}
thermo 10000
reset_timestep 0
thermo_style custom step temp pe etotal press vol lx ly lz
fix             1 all nvt temp ${TLJ}  ${TLJ}  0.1
fix             1 all nvt temp 0.3  ${TLJ}  0.1
fix             1 all nvt temp 0.3  0.3  0.1
thermo_modify flush yes

fix dsf all deform 1 xy  wiggle 0.5  ${f}   units box
fix dsf all deform 1 xy  wiggle 0.5  10000   units box
fix ps1 all ave/time 1 1 ${iStep} c_thermo_press[1] c_thermo_press[2]  c_thermo_press[3] c_thermo_press[4]  c_thermo_press[5] c_thermo_press[6]  file  stress.${T}
fix ps1 all ave/time 1 1 10000 c_thermo_press[1] c_thermo_press[2]  c_thermo_press[3] c_thermo_press[4]  c_thermo_press[5] c_thermo_press[6]  file  stress.${T}
fix ps1 all ave/time 1 1 10000 c_thermo_press[1] c_thermo_press[2]  c_thermo_press[3] c_thermo_press[4]  c_thermo_press[5] c_thermo_press[6]  file  stress.300
dump            1 all custom ${dumpStep} dump.${T} id type x y z
dump            1 all custom 1000000 dump.${T} id type x y z
dump            1 all custom 1000000 dump.300 id type x y z
dump_modify 1 sort id
fix nodrift all momentum 1  linear 1 1 1
fix com_seed all recenter INIT INIT INIT shift all
run ${runStep}
run 10000000
Generated 0 of 1 mixed pair_coeff terms from geometric mixing rule
Per MPI rank memory allocation (min/avg/max) = 8.915 | 8.918 | 8.921 Mbytes
   Step          Temp          PotEng         TotEng         Press          Volume           Lx             Ly             Lz      
         0   0.30034515    -8.1416212     -7.6911099      0.95878446     50218.233      36.893836      36.893836      36.893836    
     10000   0.30003976    -8.13559       -7.6855368      1.0108416      50218.233      36.893836      36.893836      36.893836    
     20000   0.2989676     -8.136331      -7.687886       0.99014192     50218.233      36.893836      36.893836      36.893836    
     30000   0.29928515    -8.1359077     -7.6869863      0.99694499     50218.233      36.893836      36.893836      36.893836    
     40000   0.29866405    -8.1358771     -7.6878874      1.0035943      50218.233      36.893836      36.893836      36.893836    
     50000   0.29970626    -8.1362182     -7.6866652      0.99325974     50218.233      36.893836      36.893836      36.893836    
     60000   0.29960252    -8.1359224     -7.686525       1.003501       50218.233      36.893836      36.893836      36.893836    
     70000   0.30120235    -8.1365334     -7.6847363      1.0003773      50218.233      36.893836      36.893836      36.893836    
     80000   0.29972666    -8.135141      -7.6855574      1.0080873      50218.233      36.893836      36.893836      36.893836    
     90000   0.30076682    -8.137309      -7.6861652      0.98996348     50218.233      36.893836      36.893836      36.893836    
    100000   0.29976962    -8.1342644     -7.6846163      1.0126111      50218.233      36.893836      36.893836      36.893836    
    110000   0.30009216    -8.1355226     -7.6853908      1.0053536      50218.233      36.893836      36.893836      36.893836    
    120000   0.29938607    -8.1374891     -7.6884164      0.98699033     50218.233      36.893836      36.893836      36.893836    
    130000   0.30076925    -8.1351551     -7.6840077      1.0058398      50218.233      36.893836      36.893836      36.893836    
    140000   0.3000674     -8.1365842     -7.6864895      0.99277547     50218.233      36.893836      36.893836      36.893836    
    150000   0.29971302    -8.1336551     -7.684092       1.0229366      50218.233      36.893836      36.893836      36.893836    
    160000   0.30061948    -8.133823      -7.6829002      1.0058145      50218.233      36.893836      36.893836      36.893836    
    170000   0.29962058    -8.1354154     -7.6859909      1.007708       50218.233      36.893836      36.893836      36.893836    
    180000   0.30087522    -8.1359636     -7.6846572      0.99811558     50218.233      36.893836      36.893836      36.893836    
    190000   0.30058361    -8.1372459     -7.6863769      0.98561829     50218.233      36.893836      36.893836      36.893836    
    200000   0.29984415    -8.1363572     -7.6865974      0.99930952     50218.233      36.893836      36.893836      36.893836    
    210000   0.29964168    -8.1350096     -7.6855535      1.0053819      50218.233      36.893836      36.893836      36.893836    
    220000   0.30062003    -8.1375125     -7.6865889      0.98445845     50218.233      36.893836      36.893836      36.893836    
    230000   0.29864477    -8.1374611     -7.6895004      0.98392024     50218.233      36.893836      36.893836      36.893836    
    240000   0.30149311    -8.1364803     -7.684247       1.0020243      50218.233      36.893836      36.893836      36.893836    
    250000   0.30025443    -8.135483      -7.6851077      1.0106429      50218.233      36.893836      36.893836      36.893836    
    260000   0.3005183     -8.1362804     -7.6855093      1.0027373      50218.233      36.893836      36.893836      36.893836    
    270000   0.29998548    -8.1342955     -7.6843237      1.0053513      50218.233      36.893836      36.893836      36.893836    
    280000   0.29907749    -8.1345793     -7.6859695      1.0128404      50218.233      36.893836      36.893836      36.893836    
    290000   0.2993113     -8.1357734     -7.6868128      1.0033085      50218.233      36.893836      36.893836      36.893836    
    300000   0.29933679    -8.1359901     -7.6869913      1.0014973      50218.233      36.893836      36.893836      36.893836    
    310000   0.29988774    -8.1376948     -7.6878696      0.98734587     50218.233      36.893836      36.893836      36.893836    
    320000   0.29984739    -8.13557       -7.6858053      1.0022241      50218.233      36.893836      36.893836      36.893836    
    330000   0.29937241    -8.1360171     -7.6869649      0.99580541     50218.233      36.893836      36.893836      36.893836    
    340000   0.30120996    -8.134204      -7.6823955      1.0172918      50218.233      36.893836      36.893836      36.893836    
    350000   0.29989037    -8.1372107     -7.6873816      0.99802231     50218.233      36.893836      36.893836      36.893836    
    360000   0.30105088    -8.1357906     -7.6842207      1.0019018      50218.233      36.893836      36.893836      36.893836    
    370000   0.29960435    -8.1366957     -7.6872956      0.98765035     50218.233      36.893836      36.893836      36.893836    
    380000   0.29840271    -8.135514      -7.6879163      0.99967992     50218.233      36.893836      36.893836      36.893836    
    390000   0.30036688    -8.1369566     -7.6864127      0.99390126     50218.233      36.893836      36.893836      36.893836    
    400000   0.30198653    -8.136076      -7.6831027      1.0001242      50218.233      36.893836      36.893836      36.893836    
    410000   0.29978286    -8.1337322     -7.6840643      1.0154813      50218.233      36.893836      36.893836      36.893836    
    420000   0.29928661    -8.137745      -7.6888214      0.99278238     50218.233      36.893836      36.893836      36.893836    
    430000   0.29961255    -8.1353758     -7.6859634      1.0088299      50218.233      36.893836      36.893836      36.893836    
    440000   0.30051907    -8.1373247     -7.6865525      0.98769529     50218.233      36.893836      36.893836      36.893836    
    450000   0.30053836    -8.1368507     -7.6860495      0.99634776     50218.233      36.893836      36.893836      36.893836    
    460000   0.29957633    -8.138027      -7.6886689      0.98427108     50218.233      36.893836      36.893836      36.893836    
    470000   0.30153786    -8.1340022     -7.6817019      1.0160015      50218.233      36.893836      36.893836      36.893836    
    480000   0.30166515    -8.1354544     -7.6829631      1.0083432      50218.233      36.893836      36.893836      36.893836    
    490000   0.30106834    -8.1339581     -7.682362       1.011389       50218.233      36.893836      36.893836      36.893836    
    500000   0.30188937    -8.1380191     -7.6851915      0.99542595     50218.233      36.893836      36.893836      36.893836    
    510000   0.29999402    -8.1362797     -7.6862951      0.99565974     50218.233      36.893836      36.893836      36.893836    
    520000   0.30055575    -8.1353092     -7.684482       1.0060158      50218.233      36.893836      36.893836      36.893836    
    530000   0.29875543    -8.1399534     -7.6918266      0.97381414     50218.233      36.893836      36.893836      36.893836    
    540000   0.29990082    -8.137488      -7.6876432      0.99064821     50218.233      36.893836      36.893836      36.893836    
    550000   0.30051347    -8.137129      -7.6863652      0.99473565     50218.233      36.893836      36.893836      36.893836    
    560000   0.29784138    -8.1390672     -7.6923115      0.97406801     50218.233      36.893836      36.893836      36.893836    
    570000   0.29915673    -8.1370887     -7.68836        0.98856902     50218.233      36.893836      36.893836      36.893836    
    580000   0.29915408    -8.1361299     -7.6874051      0.99540556     50218.233      36.893836      36.893836      36.893836    
    590000   0.29877206    -8.1323076     -7.6841559      1.0283629      50218.233      36.893836      36.893836      36.893836    
    600000   0.29999656    -8.1347698     -7.6847813      1.0044708      50218.233      36.893836      36.893836      36.893836    
    610000   0.29962941    -8.1351487     -7.685711       1.0076669      50218.233      36.893836      36.893836      36.893836    
    620000   0.301255      -8.1359629     -7.6840868      1.002907       50218.233      36.893836      36.893836      36.893836    
    630000   0.3000729     -8.1351179     -7.6850149      1.0085435      50218.233      36.893836      36.893836      36.893836    
    640000   0.30078396    -8.1360957     -7.6849261      1.0014606      50218.233      36.893836      36.893836      36.893836    
    650000   0.29780342    -8.1350914     -7.6883926      1.0069936      50218.233      36.893836      36.893836      36.893836    
    660000   0.29921367    -8.1354107     -7.6865966      1.0019857      50218.233      36.893836      36.893836      36.893836    
    670000   0.29868964    -8.1355796     -7.6875515      1.000143       50218.233      36.893836      36.893836      36.893836    
    680000   0.30055916    -8.1343619     -7.6835296      1.0136695      50218.233      36.893836      36.893836      36.893836    
    690000   0.29899348    -8.1352506     -7.6867668      0.99947894     50218.233      36.893836      36.893836      36.893836    
    700000   0.30035319    -8.1351172     -7.6845939      1.0140956      50218.233      36.893836      36.893836      36.893836    
    710000   0.30090944    -8.137209      -7.6858512      1.0001475      50218.233      36.893836      36.893836      36.893836    
    720000   0.30186925    -8.1332511     -7.6804537      1.0261019      50218.233      36.893836      36.893836      36.893836    
    730000   0.29922375    -8.136391      -7.6875617      0.993996       50218.233      36.893836      36.893836      36.893836    
    740000   0.30041398    -8.1360513     -7.6854368      1.0014307      50218.233      36.893836      36.893836      36.893836    
    750000   0.29848533    -8.1363006     -7.688579       0.99455072     50218.233      36.893836      36.893836      36.893836    
    760000   0.2974912     -8.13547       -7.6892396      0.99907543     50218.233      36.893836      36.893836      36.893836    
    770000   0.30069329    -8.1351057     -7.6840722      1.0076655      50218.233      36.893836      36.893836      36.893836    
    780000   0.29955114    -8.1344406     -7.6851203      1.0061956      50218.233      36.893836      36.893836      36.893836    
    790000   0.30065957    -8.1328767     -7.6818938      1.0169592      50218.233      36.893836      36.893836      36.893836    
    800000   0.29865663    -8.1336637     -7.6856852      1.0146264      50218.233      36.893836      36.893836      36.893836    
    810000   0.29976595    -8.1350136     -7.6853711      1.0107164      50218.233      36.893836      36.893836      36.893836    
    820000   0.29953079    -8.1357088     -7.686419       0.99535308     50218.233      36.893836      36.893836      36.893836    
    830000   0.29894627    -8.1381012     -7.6896882      0.98550755     50218.233      36.893836      36.893836      36.893836    
    840000   0.30011044    -8.1365314     -7.6863722      0.99757046     50218.233      36.893836      36.893836      36.893836    
    850000   0.29843356    -8.1350746     -7.6874306      1.0030523      50218.233      36.893836      36.893836      36.893836    
    860000   0.29901819    -8.137899      -7.6893781      0.9840082      50218.233      36.893836      36.893836      36.893836    
    870000   0.30037063    -8.1374303     -7.6868807      0.99182859     50218.233      36.893836      36.893836      36.893836    
    880000   0.30094478    -8.1361474     -7.6847367      1.0027662      50218.233      36.893836      36.893836      36.893836    
    890000   0.29970064    -8.1368646     -7.68732        0.99440823     50218.233      36.893836      36.893836      36.893836    
    900000   0.30152633    -8.1357497     -7.6834666      1.0095611      50218.233      36.893836      36.893836      36.893836    
    910000   0.29898451    -8.137096      -7.6886256      0.99205361     50218.233      36.893836      36.893836      36.893836    
    920000   0.29912081    -8.137296      -7.6886212      0.9899323      50218.233      36.893836      36.893836      36.893836    
    930000   0.29986089    -8.1369723     -7.6871874      1.0018068      50218.233      36.893836      36.893836      36.893836    
    940000   0.3008432     -8.136482      -7.6852236      0.98982137     50218.233      36.893836      36.893836      36.893836    
    950000   0.29909896    -8.1362978     -7.6876558      0.99219692     50218.233      36.893836      36.893836      36.893836    
    960000   0.29976434    -8.1365815     -7.6869414      0.99444763     50218.233      36.893836      36.893836      36.893836    
    970000   0.30035472    -8.1357543     -7.6852286      1.0067308      50218.233      36.893836      36.893836      36.893836    
    980000   0.3001864     -8.1365363     -7.6862631      0.99958553     50218.233      36.893836      36.893836      36.893836    
    990000   0.29983984    -8.1361392     -7.6863859      1.0020959      50218.233      36.893836      36.893836      36.893836    
   1000000   0.29956521    -8.1393253     -7.6899839      0.97406411     50218.233      36.893836      36.893836      36.893836    
   1010000   0.2992436     -8.1339372     -7.6850782      1.0146592      50218.233      36.893836      36.893836      36.893836    
   1020000   0.29916009    -8.1377704     -7.6890366      0.9800411      50218.233      36.893836      36.893836      36.893836    
   1030000   0.30056903    -8.134973      -7.6841258      1.0136007      50218.233      36.893836      36.893836      36.893836    
   1040000   0.29863367    -8.1349938     -7.6870497      1.0015282      50218.233      36.893836      36.893836      36.893836    
   1050000   0.2983227     -8.135885      -7.6884073      1.00018        50218.233      36.893836      36.893836      36.893836    
   1060000   0.29921223    -8.1361944     -7.6873824      0.99787117     50218.233      36.893836      36.893836      36.893836    
   1070000   0.30089167    -8.1370015     -7.6856704      0.99358414     50218.233      36.893836      36.893836      36.893836    
   1080000   0.30044726    -8.1363238     -7.6856593      0.99350844     50218.233      36.893836      36.893836      36.893836    
   1090000   0.30170829    -8.135346      -7.68279        1.0148045      50218.233      36.893836      36.893836      36.893836    
   1100000   0.29890196    -8.1378589     -7.6895123      0.97576048     50218.233      36.893836      36.893836      36.893836    
   1110000   0.29889807    -8.1379637     -7.689623       0.98493036     50218.233      36.893836      36.893836      36.893836    
   1120000   0.29881448    -8.1342397     -7.6860244      1.0040873      50218.233      36.893836      36.893836      36.893836    
   1130000   0.29962272    -8.1337529     -7.6843252      1.007402       50218.233      36.893836      36.893836      36.893836    
   1140000   0.30024158    -8.13652       -7.686164       0.99731793     50218.233      36.893836      36.893836      36.893836    
   1150000   0.29905805    -8.1356672     -7.6870865      1.0054488      50218.233      36.893836      36.893836      36.893836    
   1160000   0.29799209    -8.135174      -7.6881922      0.9984333      50218.233      36.893836      36.893836      36.893836    
   1170000   0.29956916    -8.1358947     -7.6865474      0.99742357     50218.233      36.893836      36.893836      36.893836    
   1180000   0.3001202     -8.1332156     -7.6830417      1.0227947      50218.233      36.893836      36.893836      36.893836    
   1190000   0.30019707    -8.1361048     -7.6858156      0.99645164     50218.233      36.893836      36.893836      36.893836    
   1200000   0.29925854    -8.1344991     -7.6856177      1.0093767      50218.233      36.893836      36.893836      36.893836    
   1210000   0.29985065    -8.1333822     -7.6836126      1.0129292      50218.233      36.893836      36.893836      36.893836    
   1220000   0.30046598    -8.1336476     -7.682955       1.0171397      50218.233      36.893836      36.893836      36.893836    
   1230000   0.30025199    -8.1343388     -7.6839672      1.0117931      50218.233      36.893836      36.893836      36.893836    
   1240000   0.29964063    -8.1354911     -7.6860365      0.99977006     50218.233      36.893836      36.893836      36.893836    
   1250000   0.30007891    -8.1307137     -7.6806018      1.0413511      50218.233      36.893836      36.893836      36.893836    
   1260000   0.29955339    -8.1330398     -7.6837161      1.017804       50218.233      36.893836      36.893836      36.893836    
   1270000   0.30139161    -8.1331596     -7.6810786      1.0213671      50218.233      36.893836      36.893836      36.893836    
   1280000   0.29870676    -8.1353747     -7.6873209      1.0019159      50218.233      36.893836      36.893836      36.893836    
   1290000   0.30127296    -8.1352888     -7.6833857      1.0021079      50218.233      36.893836      36.893836      36.893836    
   1300000   0.29939595    -8.1345932     -7.6855057      1.0145272      50218.233      36.893836      36.893836      36.893836    
   1310000   0.29924488    -8.1345739     -7.685713       1.0087624      50218.233      36.893836      36.893836      36.893836    
   1320000   0.29970038    -8.1349955     -7.6854513      1.0046846      50218.233      36.893836      36.893836      36.893836    
   1330000   0.29929915    -8.1351432     -7.6862009      1.007752       50218.233      36.893836      36.893836      36.893836    
   1340000   0.29997701    -8.1340842     -7.6841251      1.0162355      50218.233      36.893836      36.893836      36.893836    
   1350000   0.29891338    -8.1353115     -7.6869478      0.99655311     50218.233      36.893836      36.893836      36.893836    
   1360000   0.3003734     -8.1353667     -7.684813       1.0075397      50218.233      36.893836      36.893836      36.893836    
   1370000   0.29974511    -8.13548       -7.6858687      1.0061338      50218.233      36.893836      36.893836      36.893836    
   1380000   0.30014057    -8.1356526     -7.6854482      1.0032109      50218.233      36.893836      36.893836      36.893836    
   1390000   0.30102094    -8.1355207     -7.6839957      1.001765       50218.233      36.893836      36.893836      36.893836    
   1400000   0.29894369    -8.1400465     -7.6916373      0.96815405     50218.233      36.893836      36.893836      36.893836    
   1410000   0.30116205    -8.1360101     -7.6842735      0.99913871     50218.233      36.893836      36.893836      36.893836    
   1420000   0.29987811    -8.1349802     -7.6851694      1.0154112      50218.233      36.893836      36.893836      36.893836    
   1430000   0.2994147     -8.1368858     -7.6877701      0.98478811     50218.233      36.893836      36.893836      36.893836    
   1440000   0.2998776     -8.1350537     -7.6852437      1.006356       50218.233      36.893836      36.893836      36.893836    
   1450000   0.29886678    -8.1351552     -7.6868614      1.003362       50218.233      36.893836      36.893836      36.893836    
   1460000   0.30080082    -8.1372922     -7.6860974      0.98170209     50218.233      36.893836      36.893836      36.893836    
   1470000   0.2993697     -8.1369552     -7.6879071      0.99230178     50218.233      36.893836      36.893836      36.893836    
   1480000   0.30006896    -8.135788      -7.685691       1.0054387      50218.233      36.893836      36.893836      36.893836    
   1490000   0.2994889     -8.135309      -7.686082       1.0127383      50218.233      36.893836      36.893836      36.893836    
   1500000   0.29999398    -8.1351976     -7.6852131      0.99994292     50218.233      36.893836      36.893836      36.893836    
   1510000   0.29905466    -8.1350154     -7.6864398      1.003279       50218.233      36.893836      36.893836      36.893836    
   1520000   0.29937619    -8.1370616     -7.6880037      0.99644207     50218.233      36.893836      36.893836      36.893836    
   1530000   0.29917037    -8.1368461     -7.6880969      0.99615578     50218.233      36.893836      36.893836      36.893836    
   1540000   0.29960903    -8.1350556     -7.6856484      1.0083708      50218.233      36.893836      36.893836      36.893836    
   1550000   0.29931279    -8.1353828     -7.68642        1.0031474      50218.233      36.893836      36.893836      36.893836    
   1560000   0.29960928    -8.1327833     -7.6833758      1.0174004      50218.233      36.893836      36.893836      36.893836    
   1570000   0.30143848    -8.1362085     -7.6840572      0.99559162     50218.233      36.893836      36.893836      36.893836    
   1580000   0.29943768    -8.1364837     -7.6873336      0.99800031     50218.233      36.893836      36.893836      36.893836    
   1590000   0.29743896    -8.1371763     -7.6910242      0.98265273     50218.233      36.893836      36.893836      36.893836    
   1600000   0.30131342    -8.1353261     -7.6833624      1.0124357      50218.233      36.893836      36.893836      36.893836    
   1610000   0.30103539    -8.1356503     -7.6841037      1.009435       50218.233      36.893836      36.893836      36.893836    
   1620000   0.29967367    -8.1358434     -7.6863393      1.004431       50218.233      36.893836      36.893836      36.893836    
   1630000   0.29888655    -8.1369224     -7.6885989      0.99557671     50218.233      36.893836      36.893836      36.893836    
   1640000   0.29969013    -8.1359995     -7.6864707      0.99993769     50218.233      36.893836      36.893836      36.893836    
   1650000   0.29979065    -8.1374206     -7.687741       0.99057847     50218.233      36.893836      36.893836      36.893836    
   1660000   0.30126271    -8.1350551     -7.6831675      1.0179137      50218.233      36.893836      36.893836      36.893836    
   1670000   0.29802048    -8.1390812     -7.6920568      0.97249179     50218.233      36.893836      36.893836      36.893836    
   1680000   0.29931763    -8.132457      -7.683487       1.0254878      50218.233      36.893836      36.893836      36.893836    
   1690000   0.30042381    -8.1342964     -7.6836671      1.0154791      50218.233      36.893836      36.893836      36.893836    
   1700000   0.29875262    -8.1360773     -7.6879548      1.0058712      50218.233      36.893836      36.893836      36.893836    
   1710000   0.3009426     -8.1360147     -7.6846072      0.99023094     50218.233      36.893836      36.893836      36.893836    
   1720000   0.29988834    -8.1349211     -7.685095       1.0181655      50218.233      36.893836      36.893836      36.893836    
   1730000   0.29938589    -8.1345705     -7.685498       1.0168172      50218.233      36.893836      36.893836      36.893836    
   1740000   0.29940651    -8.1327996     -7.6836962      1.0236137      50218.233      36.893836      36.893836      36.893836    
   1750000   0.30072232    -8.1351328     -7.6840558      1.0038136      50218.233      36.893836      36.893836      36.893836    
   1760000   0.30072606    -8.1336492     -7.6825665      1.0119694      50218.233      36.893836      36.893836      36.893836    
   1770000   0.30031522    -8.1345905     -7.684124       1.0142379      50218.233      36.893836      36.893836      36.893836    
   1780000   0.30031913    -8.1360794     -7.6856071      1.001101       50218.233      36.893836      36.893836      36.893836    
   1790000   0.29941093    -8.1363948     -7.6872848      0.99408937     50218.233      36.893836      36.893836      36.893836    
   1800000   0.29846609    -8.1345697     -7.686877       1.0074763      50218.233      36.893836      36.893836      36.893836    
   1810000   0.30043538    -8.1338742     -7.6832276      1.0184029      50218.233      36.893836      36.893836      36.893836    
   1820000   0.30136254    -8.1337465     -7.6817091      1.0242993      50218.233      36.893836      36.893836      36.893836    
   1830000   0.30070128    -8.136104      -7.6850585      1.0058712      50218.233      36.893836      36.893836      36.893836    
   1840000   0.29885448    -8.1351458     -7.6868705      1.002547       50218.233      36.893836      36.893836      36.893836    
   1850000   0.29919382    -8.1366766     -7.6878922      0.99930099     50218.233      36.893836      36.893836      36.893836    
   1860000   0.30046119    -8.1353348     -7.6846495      1.0126777      50218.233      36.893836      36.893836      36.893836    
   1870000   0.3005584     -8.134793      -7.6839618      1.0111399      50218.233      36.893836      36.893836      36.893836    
   1880000   0.29832848    -8.1361221     -7.6886357      0.99947634     50218.233      36.893836      36.893836      36.893836    
   1890000   0.29977858    -8.1354728     -7.6858113      0.99798752     50218.233      36.893836      36.893836      36.893836    
   1900000   0.30006658    -8.135622      -7.6855285      1.0008495      50218.233      36.893836      36.893836      36.893836    
   1910000   0.30090324    -8.1380067     -7.6866582      0.9858942      50218.233      36.893836      36.893836      36.893836    
   1920000   0.30042009    -8.1359051     -7.6852814      1.003623       50218.233      36.893836      36.893836      36.893836    
   1930000   0.30113648    -8.1369533     -7.685255       0.99101261     50218.233      36.893836      36.893836      36.893836    
   1940000   0.29996503    -8.1356545     -7.6857134      1.0047734      50218.233      36.893836      36.893836      36.893836    
   1950000   0.29983113    -8.1353691     -7.6856288      1.000548       50218.233      36.893836      36.893836      36.893836    
   1960000   0.29950218    -8.1330875     -7.6838406      1.0285251      50218.233      36.893836      36.893836      36.893836    
   1970000   0.29994475    -8.135816      -7.6859052      1.003545       50218.233      36.893836      36.893836      36.893836    
   1980000   0.29971785    -8.1357636     -7.6861932      0.99746453     50218.233      36.893836      36.893836      36.893836    
   1990000   0.30029132    -8.1372596     -7.686829       0.99134421     50218.233      36.893836      36.893836      36.893836    
   2000000   0.30075313    -8.1340051     -7.6828818      1.0180194      50218.233      36.893836      36.893836      36.893836    
   2010000   0.2999298     -8.1356589     -7.6857706      0.99884212     50218.233      36.893836      36.893836      36.893836    
   2020000   0.30073673    -8.1375931     -7.6864944      0.99093144     50218.233      36.893836      36.893836      36.893836    
   2030000   0.30199762    -8.138785      -7.685795       0.98642101     50218.233      36.893836      36.893836      36.893836    
   2040000   0.30041729    -8.1381585     -7.687539       0.98828788     50218.233      36.893836      36.893836      36.893836    
   2050000   0.2974511     -8.1354711     -7.6893008      1.0074181      50218.233      36.893836      36.893836      36.893836    
   2060000   0.29967033    -8.1367468     -7.6872477      0.99154231     50218.233      36.893836      36.893836      36.893836    
   2070000   0.30032971    -8.1380806     -7.6875925      0.99382565     50218.233      36.893836      36.893836      36.893836    
   2080000   0.30079647    -8.1356014     -7.6844131      1.0027838      50218.233      36.893836      36.893836      36.893836    
   2090000   0.30038761    -8.1350457     -7.6844707      0.99976883     50218.233      36.893836      36.893836      36.893836    
   2100000   0.30021966    -8.1360616     -7.6857385      1.0005294      50218.233      36.893836      36.893836      36.893836    
   2110000   0.29938757    -8.1364291     -7.6873541      0.99491585     50218.233      36.893836      36.893836      36.893836    
   2120000   0.30013916    -8.137435      -7.6872327      0.98885418     50218.233      36.893836      36.893836      36.893836    
   2130000   0.30080542    -8.1348424     -7.6836407      1.0083727      50218.233      36.893836      36.893836      36.893836    
   2140000   0.30147007    -8.1344186     -7.68222        1.0133284      50218.233      36.893836      36.893836      36.893836    
   2150000   0.30056488    -8.1350832     -7.6842423      1.0094338      50218.233      36.893836      36.893836      36.893836    
   2160000   0.30135176    -8.1374375     -7.6854163      0.98900861     50218.233      36.893836      36.893836      36.893836    
   2170000   0.29999274    -8.1391156     -7.6891329      0.98042806     50218.233      36.893836      36.893836      36.893836    
   2180000   0.30033333    -8.135082      -7.6845885      1.011312       50218.233      36.893836      36.893836      36.893836    
   2190000   0.29987034    -8.1336369     -7.6838378      1.0155408      50218.233      36.893836      36.893836      36.893836    
   2200000   0.29999365    -8.1347797     -7.6847956      1.0052535      50218.233      36.893836      36.893836      36.893836    
   2210000   0.29988339    -8.132116      -7.6822973      1.0348918      50218.233      36.893836      36.893836      36.893836    
   2220000   0.29949655    -8.1359297     -7.6866912      0.99244134     50218.233      36.893836      36.893836      36.893836    
   2230000   0.30089845    -8.1350255     -7.6836842      1.0033198      50218.233      36.893836      36.893836      36.893836    
   2240000   0.30015055    -8.1340832     -7.6838638      1.0160399      50218.233      36.893836      36.893836      36.893836    
   2250000   0.2995144     -8.1352328     -7.6859676      1.0021353      50218.233      36.893836      36.893836      36.893836    
   2260000   0.29914655    -8.1348631     -7.6861497      1.0064962      50218.233      36.893836      36.893836      36.893836    
   2270000   0.3005759     -8.1354591     -7.6846017      1.0135512      50218.233      36.893836      36.893836      36.893836    
   2280000   0.29869822    -8.1351604     -7.6871195      0.99874238     50218.233      36.893836      36.893836      36.893836    
   2290000   0.29947992    -8.1352094     -7.6859959      1.0130971      50218.233      36.893836      36.893836      36.893836    
   2300000   0.30037337    -8.1343959     -7.6838423      1.0169934      50218.233      36.893836      36.893836      36.893836    
   2310000   0.3000873     -8.136368      -7.6862434      0.99803575     50218.233      36.893836      36.893836      36.893836    
   2320000   0.30032993    -8.136191      -7.6857025      1.000013       50218.233      36.893836      36.893836      36.893836    
   2330000   0.30015553    -8.1361036     -7.6858767      1.0045295      50218.233      36.893836      36.893836      36.893836    
   2340000   0.29983637    -8.134821      -7.6850728      1.0057633      50218.233      36.893836      36.893836      36.893836    
   2350000   0.29955717    -8.1359657     -7.6866363      0.99835532     50218.233      36.893836      36.893836      36.893836    
   2360000   0.29928876    -8.1365391     -7.6876124      0.99883567     50218.233      36.893836      36.893836      36.893836    
   2370000   0.29917398    -8.1354994     -7.6867449      0.99624405     50218.233      36.893836      36.893836      36.893836    
   2380000   0.30048123    -8.1365248     -7.6858094      0.99336038     50218.233      36.893836      36.893836      36.893836    
   2390000   0.30092894    -8.1362551     -7.6848681      1.001741       50218.233      36.893836      36.893836      36.893836    
   2400000   0.29863839    -8.1340866     -7.6861354      1.0101457      50218.233      36.893836      36.893836      36.893836    
   2410000   0.29974273    -8.1361354     -7.6865277      0.99673813     50218.233      36.893836      36.893836      36.893836    
   2420000   0.30024736    -8.1347593     -7.6843946      1.0079601      50218.233      36.893836      36.893836      36.893836    
   2430000   0.29990258    -8.135639      -7.6857915      1.000855       50218.233      36.893836      36.893836      36.893836    
   2440000   0.29962144    -8.1351803     -7.6857546      1.0074872      50218.233      36.893836      36.893836      36.893836    
   2450000   0.29997619    -8.1364032     -7.6864453      1.0071679      50218.233      36.893836      36.893836      36.893836    
   2460000   0.30134029    -8.1377027     -7.6856987      0.98963192     50218.233      36.893836      36.893836      36.893836    
   2470000   0.30040845    -8.1359703     -7.685364       1.0040721      50218.233      36.893836      36.893836      36.893836    
   2480000   0.30132298    -8.1376454     -7.6856673      0.98692442     50218.233      36.893836      36.893836      36.893836    
   2490000   0.29983629    -8.1352143     -7.6854662      1.0045291      50218.233      36.893836      36.893836      36.893836    
   2500000   0.29932593    -8.1404204     -7.6914379      0.96373603     50218.233      36.893836      36.893836      36.893836    
   2510000   0.29940096    -8.139627      -7.6905319      0.97650451     50218.233      36.893836      36.893836      36.893836    
   2520000   0.29979494    -8.1381744     -7.6884883      0.98711158     50218.233      36.893836      36.893836      36.893836    
   2530000   0.29879881    -8.1374641     -7.6892723      0.99092767     50218.233      36.893836      36.893836      36.893836    
   2540000   0.2983023     -8.1355745     -7.6881275      1.0035799      50218.233      36.893836      36.893836      36.893836    
   2550000   0.30023118    -8.1359939     -7.6856535      1.001463       50218.233      36.893836      36.893836      36.893836    
   2560000   0.30042106    -8.1358793     -7.6852541      0.99708129     50218.233      36.893836      36.893836      36.893836    
   2570000   0.29941992    -8.1358581     -7.6867346      1.0038163      50218.233      36.893836      36.893836      36.893836    
   2580000   0.29958097    -8.1382879     -7.6889228      0.9806738      50218.233      36.893836      36.893836      36.893836    
   2590000   0.3001385     -8.1373183     -7.687117       0.99467734     50218.233      36.893836      36.893836      36.893836    
   2600000   0.29918789    -8.1366404     -7.6878649      0.99635267     50218.233      36.893836      36.893836      36.893836    
   2610000   0.30109266    -8.1357997     -7.6841672      1.0032133      50218.233      36.893836      36.893836      36.893836    
   2620000   0.29884391    -8.1365029     -7.6882434      1.0007688      50218.233      36.893836      36.893836      36.893836    
   2630000   0.30001946    -8.1376273     -7.6876045      0.99509861     50218.233      36.893836      36.893836      36.893836    
   2640000   0.29792324    -8.1354787     -7.6886002      0.99624744     50218.233      36.893836      36.893836      36.893836    
   2650000   0.29994879    -8.1347524     -7.6848356      1.0128922      50218.233      36.893836      36.893836      36.893836    
   2660000   0.29993221    -8.1372591     -7.6873671      0.99064923     50218.233      36.893836      36.893836      36.893836    
   2670000   0.29978935    -8.1358397     -7.686162       1.0033419      50218.233      36.893836      36.893836      36.893836    
   2680000   0.29972162    -8.1353374     -7.6857614      0.99658104     50218.233      36.893836      36.893836      36.893836    
   2690000   0.29881826    -8.1368375     -7.6886165      0.98664705     50218.233      36.893836      36.893836      36.893836    
   2700000   0.2979635     -8.1344688     -7.6875299      1.0104454      50218.233      36.893836      36.893836      36.893836    
   2710000   0.30070723    -8.1375603     -7.6865058      0.99423212     50218.233      36.893836      36.893836      36.893836    
   2720000   0.30020738    -8.1358777     -7.685573       1.0079529      50218.233      36.893836      36.893836      36.893836    
   2730000   0.30070553    -8.134619      -7.6835671      1.0064524      50218.233      36.893836      36.893836      36.893836    
   2740000   0.3014932     -8.1350139     -7.6827806      1.0092153      50218.233      36.893836      36.893836      36.893836    
   2750000   0.29896445    -8.1361261     -7.6876858      1.0059188      50218.233      36.893836      36.893836      36.893836    
   2760000   0.29959012    -8.1386132     -7.6892345      0.98167785     50218.233      36.893836      36.893836      36.893836    
   2770000   0.30050911    -8.1339608     -7.6832036      1.0180268      50218.233      36.893836      36.893836      36.893836    
   2780000   0.29902507    -8.1346643     -7.6861331      1.0149428      50218.233      36.893836      36.893836      36.893836    
   2790000   0.29737687    -8.1360482     -7.6899892      0.99583993     50218.233      36.893836      36.893836      36.893836    
   2800000   0.30130388    -8.1331935     -7.6812441      1.0191711      50218.233      36.893836      36.893836      36.893836    
   2810000   0.29911842    -8.1341799     -7.6855086      1.0123969      50218.233      36.893836      36.893836      36.893836    
   2820000   0.30007725    -8.1361647     -7.6860552      1.0009994      50218.233      36.893836      36.893836      36.893836    
   2830000   0.29996306    -8.1339574     -7.6840192      1.0142994      50218.233      36.893836      36.893836      36.893836    
   2840000   0.30076738    -8.1384047     -7.6872601      0.98542854     50218.233      36.893836      36.893836      36.893836    
   2850000   0.30010149    -8.1345372     -7.6843914      1.0117974      50218.233      36.893836      36.893836      36.893836    
   2860000   0.30077442    -8.1341414     -7.6829862      1.0157426      50218.233      36.893836      36.893836      36.893836    
   2870000   0.29979107    -8.1383496     -7.6886694      0.97960522     50218.233      36.893836      36.893836      36.893836    
   2880000   0.30023553    -8.1369301     -7.6865832      0.98853099     50218.233      36.893836      36.893836      36.893836    
   2890000   0.29933601    -8.1367644     -7.6877667      0.98268932     50218.233      36.893836      36.893836      36.893836    
   2900000   0.29875646    -8.1372472     -7.6891189      0.98788366     50218.233      36.893836      36.893836      36.893836    
   2910000   0.30055601    -8.136788      -7.6859604      0.99511983     50218.233      36.893836      36.893836      36.893836    
   2920000   0.29916051    -8.1351303     -7.6863959      1.0065834      50218.233      36.893836      36.893836      36.893836    
   2930000   0.30024545    -8.1350655     -7.6847038      0.99698189     50218.233      36.893836      36.893836      36.893836    
   2940000   0.29995007    -8.1366218     -7.6867031      0.98539189     50218.233      36.893836      36.893836      36.893836    
   2950000   0.30188681    -8.1373271     -7.6845034      0.99167417     50218.233      36.893836      36.893836      36.893836    
   2960000   0.29960353    -8.1357143     -7.6863154      0.99535554     50218.233      36.893836      36.893836      36.893836    
   2970000   0.30018996    -8.1375666     -7.6872881      0.99261169     50218.233      36.893836      36.893836      36.893836    
   2980000   0.29900082    -8.1369275     -7.6884326      0.99334352     50218.233      36.893836      36.893836      36.893836    
   2990000   0.30085765    -8.1374077     -7.6861276      0.98586075     50218.233      36.893836      36.893836      36.893836    
   3000000   0.29981488    -8.1369689     -7.687253       0.98717232     50218.233      36.893836      36.893836      36.893836    
   3010000   0.30178575    -8.1387378     -7.6860656      0.98514702     50218.233      36.893836      36.893836      36.893836    
   3020000   0.29936848    -8.1346142     -7.6855679      1.0075189      50218.233      36.893836      36.893836      36.893836    
   3030000   0.30110034    -8.1386358     -7.6869917      0.98406296     50218.233      36.893836      36.893836      36.893836    
   3040000   0.30004624    -8.1348933     -7.6848303      1.0020273      50218.233      36.893836      36.893836      36.893836    
   3050000   0.30149891    -8.1360004     -7.6837585      1.0029873      50218.233      36.893836      36.893836      36.893836    
   3060000   0.3014414     -8.1370463     -7.6848906      0.99481593     50218.233      36.893836      36.893836      36.893836    
   3070000   0.30085104    -8.1348622     -7.683592       1.0048588      50218.233      36.893836      36.893836      36.893836    
   3080000   0.29869163    -8.1369119     -7.6888808      0.98749396     50218.233      36.893836      36.893836      36.893836    
   3090000   0.30022088    -8.1362059     -7.685881       0.99755608     50218.233      36.893836      36.893836      36.893836    
   3100000   0.30212826    -8.1371425     -7.6839566      0.99551629     50218.233      36.893836      36.893836      36.893836    
   3110000   0.30058016    -8.1360946     -7.6852308      1.0071445      50218.233      36.893836      36.893836      36.893836    
   3120000   0.29930635    -8.1351115     -7.6861583      0.99998132     50218.233      36.893836      36.893836      36.893836    
   3130000   0.29866458    -8.1364506     -7.6884601      1.0023662      50218.233      36.893836      36.893836      36.893836    
   3140000   0.29838954    -8.1370562     -7.6894783      0.98586661     50218.233      36.893836      36.893836      36.893836    
   3150000   0.29882372    -8.1362479     -7.6880187      1.0017658      50218.233      36.893836      36.893836      36.893836    
   3160000   0.29994824    -8.1373739     -7.6874579      0.9916351      50218.233      36.893836      36.893836      36.893836    
   3170000   0.30011525    -8.1339238     -7.6837573      1.0129321      50218.233      36.893836      36.893836      36.893836    
   3180000   0.29892065    -8.1343394     -7.6859648      1.0105403      50218.233      36.893836      36.893836      36.893836    
   3190000   0.29892629    -8.1356013     -7.6872183      1.0055879      50218.233      36.893836      36.893836      36.893836    
   3200000   0.29997634    -8.1357874     -7.6858293      0.99843553     50218.233      36.893836      36.893836      36.893836    
   3210000   0.30137404    -8.1323731     -7.6803185      1.0302784      50218.233      36.893836      36.893836      36.893836    
   3220000   0.29967191    -8.1336637     -7.6841622      1.0131156      50218.233      36.893836      36.893836      36.893836    
   3230000   0.30071374    -8.1346178     -7.6835536      1.0073699      50218.233      36.893836      36.893836      36.893836    
   3240000   0.29916035    -8.1349124     -7.6861783      1.0095944      50218.233      36.893836      36.893836      36.893836    
   3250000   0.29965233    -8.1354728     -7.6860007      1.0012865      50218.233      36.893836      36.893836      36.893836    
   3260000   0.29950201    -8.1344087     -7.6851621      1.0122068      50218.233      36.893836      36.893836      36.893836    
   3270000   0.29997803    -8.1353277     -7.685367       1.0023712      50218.233      36.893836      36.893836      36.893836    
   3280000   0.29993419    -8.1368962     -7.6870013      0.99031118     50218.233      36.893836      36.893836      36.893836    
   3290000   0.30247588    -8.1352781     -7.6815708      1.009751       50218.233      36.893836      36.893836      36.893836    
   3300000   0.3009356     -8.1369369     -7.68554        0.99168251     50218.233      36.893836      36.893836      36.893836    
   3310000   0.30128834    -8.1340913     -7.6821652      1.009237       50218.233      36.893836      36.893836      36.893836    
   3320000   0.30139144    -8.1372006     -7.6851199      0.9948545      50218.233      36.893836      36.893836      36.893836    
   3330000   0.30064012    -8.1368261     -7.6858723      0.99668138     50218.233      36.893836      36.893836      36.893836    
   3340000   0.29998891    -8.1334396     -7.6834626      1.017256       50218.233      36.893836      36.893836      36.893836    
   3350000   0.30001752    -8.1347784     -7.6847585      1.0096124      50218.233      36.893836      36.893836      36.893836    
   3360000   0.30032985    -8.134261      -7.6837726      1.0140061      50218.233      36.893836      36.893836      36.893836    
   3370000   0.30086223    -8.1369637     -7.6856768      0.99493938     50218.233      36.893836      36.893836      36.893836    
   3380000   0.29818424    -8.1343724     -7.6871024      1.0120421      50218.233      36.893836      36.893836      36.893836    
   3390000   0.29978656    -8.1364673     -7.6867939      0.99323892     50218.233      36.893836      36.893836      36.893836    
   3400000   0.30054879    -8.1378032     -7.6869865      0.9923919      50218.233      36.893836      36.893836      36.893836    
   3410000   0.29997682    -8.1362286     -7.6862698      0.99743699     50218.233      36.893836      36.893836      36.893836    
   3420000   0.29954314    -8.136083      -7.6867747      0.99171348     50218.233      36.893836      36.893836      36.893836    
   3430000   0.29844988    -8.1386257     -7.6909573      0.97833763     50218.233      36.893836      36.893836      36.893836    
   3440000   0.29984591    -8.1358826     -7.6861201      0.99906604     50218.233      36.893836      36.893836      36.893836    
   3450000   0.30043967    -8.1382388     -7.6875858      0.98211629     50218.233      36.893836      36.893836      36.893836    
   3460000   0.30150623    -8.1379718     -7.6857188      0.98707106     50218.233      36.893836      36.893836      36.893836    
   3470000   0.29972558    -8.1377124     -7.6881304      0.98299144     50218.233      36.893836      36.893836      36.893836    
   3480000   0.29912828    -8.1379874     -7.6893014      0.98484109     50218.233      36.893836      36.893836      36.893836    
   3490000   0.30011632    -8.1355695     -7.6854015      1.0058079      50218.233      36.893836      36.893836      36.893836    
   3500000   0.30079623    -8.1349225     -7.6837345      1.010519       50218.233      36.893836      36.893836      36.893836    
   3510000   0.29917015    -8.1369171     -7.6881682      0.98981563     50218.233      36.893836      36.893836      36.893836    
   3520000   0.30023189    -8.1352919     -7.6849504      0.99796642     50218.233      36.893836      36.893836      36.893836    
   3530000   0.30149847    -8.135434      -7.6831927      1.0092325      50218.233      36.893836      36.893836      36.893836    
   3540000   0.299182      -8.1372546     -7.688488       0.98930168     50218.233      36.893836      36.893836      36.893836    
   3550000   0.30155842    -8.135848      -7.6835168      0.99767758     50218.233      36.893836      36.893836      36.893836    
   3560000   0.29885181    -8.1329704     -7.6846991      1.0192433      50218.233      36.893836      36.893836      36.893836    
   3570000   0.29873668    -8.1360785     -7.6879798      0.99372109     50218.233      36.893836      36.893836      36.893836    
   3580000   0.29774095    -8.1361895     -7.6895844      0.99729017     50218.233      36.893836      36.893836      36.893836    
   3590000   0.30119717    -8.1347177     -7.6829284      1.0145683      50218.233      36.893836      36.893836      36.893836    
   3600000   0.29993864    -8.1362346     -7.6863331      0.9971519      50218.233      36.893836      36.893836      36.893836    
   3610000   0.29935305    -8.1352338     -7.6862106      1.0087033      50218.233      36.893836      36.893836      36.893836    
   3620000   0.30216966    -8.1371192     -7.6838712      0.99735147     50218.233      36.893836      36.893836      36.893836    
   3630000   0.3001474     -8.1373798     -7.6871651      0.98618879     50218.233      36.893836      36.893836      36.893836    
   3640000   0.30058446    -8.1370304     -7.6861601      0.98524351     50218.233      36.893836      36.893836      36.893836    
   3650000   0.30038133    -8.1358046     -7.685239       1.0032637      50218.233      36.893836      36.893836      36.893836    
   3660000   0.30120689    -8.1338751     -7.6820712      1.0111428      50218.233      36.893836      36.893836      36.893836    
   3670000   0.30163074    -8.1379085     -7.6854688      0.98007715     50218.233      36.893836      36.893836      36.893836    
   3680000   0.3001259     -8.1351672     -7.6849848      1.0105895      50218.233      36.893836      36.893836      36.893836    
   3690000   0.29968951    -8.1357952     -7.6862673      1.0008187      50218.233      36.893836      36.893836      36.893836    
   3700000   0.30127366    -8.1368342     -7.6849301      0.99210684     50218.233      36.893836      36.893836      36.893836    
   3710000   0.30159738    -8.132337      -7.6799474      1.030489       50218.233      36.893836      36.893836      36.893836    
   3720000   0.29820857    -8.1354215     -7.688115       1.0071917      50218.233      36.893836      36.893836      36.893836    
   3730000   0.299103      -8.1345151     -7.685867       1.0019902      50218.233      36.893836      36.893836      36.893836    
   3740000   0.30040738    -8.1362541     -7.6856495      0.99541504     50218.233      36.893836      36.893836      36.893836    
   3750000   0.30063879    -8.1342826     -7.6833308      1.0032392      50218.233      36.893836      36.893836      36.893836    
   3760000   0.29932485    -8.1351725     -7.6861916      1.0030927      50218.233      36.893836      36.893836      36.893836    
   3770000   0.29959229    -8.136057      -7.686675       0.99385067     50218.233      36.893836      36.893836      36.893836    
   3780000   0.29989213    -8.1339418     -7.68411        1.0197391      50218.233      36.893836      36.893836      36.893836    
   3790000   0.30109599    -8.1321966     -7.680559       1.0328961      50218.233      36.893836      36.893836      36.893836    
   3800000   0.3006476     -8.1361278     -7.6851628      0.98862632     50218.233      36.893836      36.893836      36.893836    
   3810000   0.29966389    -8.1354388     -7.6859494      1.0098272      50218.233      36.893836      36.893836      36.893836    
   3820000   0.30087675    -8.1345206     -7.6832119      1.0145309      50218.233      36.893836      36.893836      36.893836    
   3830000   0.29946266    -8.1358943     -7.6867067      0.9984948      50218.233      36.893836      36.893836      36.893836    
   3840000   0.299766      -8.1344851     -7.6848425      1.004687       50218.233      36.893836      36.893836      36.893836    
   3850000   0.30018773    -8.1348411     -7.6845659      1.0155484      50218.233      36.893836      36.893836      36.893836    
   3860000   0.30082215    -8.1364478     -7.685221       0.99061229     50218.233      36.893836      36.893836      36.893836    
   3870000   0.30073831    -8.13307       -7.681969       1.0168216      50218.233      36.893836      36.893836      36.893836    
   3880000   0.29982754    -8.1381655     -7.6884306      0.98218067     50218.233      36.893836      36.893836      36.893836    
   3890000   0.3015349     -8.1362957     -7.6839997      1.0004879      50218.233      36.893836      36.893836      36.893836    
   3900000   0.2999435     -8.1372968     -7.687388       0.98093891     50218.233      36.893836      36.893836      36.893836    
   3910000   0.29961981    -8.1355951     -7.6861718      0.99706092     50218.233      36.893836      36.893836      36.893836    
   3920000   0.30195189    -8.1349951     -7.6820737      0.99397859     50218.233      36.893836      36.893836      36.893836    
   3930000   0.29971395    -8.1369672     -7.6874027      0.98968046     50218.233      36.893836      36.893836      36.893836    
   3940000   0.29954695    -8.1353696     -7.6860556      1.0114679      50218.233      36.893836      36.893836      36.893836    
   3950000   0.29927812    -8.1340239     -7.6851131      1.0076855      50218.233      36.893836      36.893836      36.893836    
   3960000   0.2993962     -8.1372812     -7.6881933      0.98773865     50218.233      36.893836      36.893836      36.893836    
   3970000   0.30123643    -8.1367679     -7.6849197      0.98842974     50218.233      36.893836      36.893836      36.893836    
   3980000   0.29905723    -8.1367914     -7.688212       0.9884623      50218.233      36.893836      36.893836      36.893836    
   3990000   0.29900463    -8.1373072     -7.6888066      0.98778782     50218.233      36.893836      36.893836      36.893836    
   4000000   0.29882415    -8.136933      -7.6887032      0.99049378     50218.233      36.893836      36.893836      36.893836    
   4010000   0.29831717    -8.1371505     -7.6896811      0.98520423     50218.233      36.893836      36.893836      36.893836    
   4020000   0.30071501    -8.1385769     -7.6875108      0.98643245     50218.233      36.893836      36.893836      36.893836    
   4030000   0.29978456    -8.1376518     -7.6879813      0.98303129     50218.233      36.893836      36.893836      36.893836    
   4040000   0.30022139    -8.1378848     -7.6875591      0.99067304     50218.233      36.893836      36.893836      36.893836    
   4050000   0.30058347    -8.1362313     -7.6853625      0.98927843     50218.233      36.893836      36.893836      36.893836    
   4060000   0.29968662    -8.1367586     -7.687235       0.99506812     50218.233      36.893836      36.893836      36.893836    
   4070000   0.3008601     -8.1348226     -7.6835389      1.0155073      50218.233      36.893836      36.893836      36.893836    
   4080000   0.29975089    -8.1366935     -7.6870736      0.99819437     50218.233      36.893836      36.893836      36.893836    
   4090000   0.29876861    -8.1373294     -7.6891829      0.98492118     50218.233      36.893836      36.893836      36.893836    
   4100000   0.29944719    -8.1381243     -7.6889599      0.98728918     50218.233      36.893836      36.893836      36.893836    
   4110000   0.29880159    -8.1374951     -7.689299       0.98108414     50218.233      36.893836      36.893836      36.893836    
   4120000   0.29944891    -8.13659       -7.6874231      0.99481154     50218.233      36.893836      36.893836      36.893836    
   4130000   0.30092939    -8.1341168     -7.6827291      1.0133851      50218.233      36.893836      36.893836      36.893836    
   4140000   0.29878901    -8.1357417     -7.6875645      0.99814688     50218.233      36.893836      36.893836      36.893836    
   4150000   0.29703942    -8.1336762     -7.6881234      1.0048538      50218.233      36.893836      36.893836      36.893836    
   4160000   0.30022248    -8.1367158     -7.6863885      0.99605072     50218.233      36.893836      36.893836      36.893836    
   4170000   0.30041647    -8.1355015     -7.6848832      1.0091271      50218.233      36.893836      36.893836      36.893836    
   4180000   0.30078233    -8.1343234     -7.6831563      1.0163627      50218.233      36.893836      36.893836      36.893836    
   4190000   0.29954192    -8.1368986     -7.6875921      0.99357186     50218.233      36.893836      36.893836      36.893836    
   4200000   0.30037798    -8.1329336     -7.682373       1.0230015      50218.233      36.893836      36.893836      36.893836    
   4210000   0.29992876    -8.1344765     -7.6845898      1.0053334      50218.233      36.893836      36.893836      36.893836    
   4220000   0.30008309    -8.1376293     -7.687511       0.98746403     50218.233      36.893836      36.893836      36.893836    
   4230000   0.29955094    -8.1347307     -7.6854107      1.0033554      50218.233      36.893836      36.893836      36.893836    
   4240000   0.30081769    -8.1381309     -7.6869107      0.98637024     50218.233      36.893836      36.893836      36.893836    
   4250000   0.30043817    -8.1349161     -7.6842653      1.0111153      50218.233      36.893836      36.893836      36.893836    
   4260000   0.29952122    -8.1349152     -7.6856398      1.0052119      50218.233      36.893836      36.893836      36.893836    
   4270000   0.29972151    -8.1360172     -7.6864414      1.0004116      50218.233      36.893836      36.893836      36.893836    
   4280000   0.30020693    -8.136108      -7.685804       0.9976363      50218.233      36.893836      36.893836      36.893836    
   4290000   0.30027315    -8.1349462     -7.6845429      1.0097132      50218.233      36.893836      36.893836      36.893836    
   4300000   0.30073848    -8.1355237     -7.6844224      1.0081281      50218.233      36.893836      36.893836      36.893836    
   4310000   0.30052246    -8.1367147     -7.6859374      0.98557842     50218.233      36.893836      36.893836      36.893836    
   4320000   0.29974527    -8.1355994     -7.6859878      0.99726957     50218.233      36.893836      36.893836      36.893836    
   4330000   0.30034356    -8.1377438     -7.6872349      0.98571844     50218.233      36.893836      36.893836      36.893836    
   4340000   0.3013297     -8.1371167     -7.6851286      0.99457687     50218.233      36.893836      36.893836      36.893836    
   4350000   0.30123028    -8.1339296     -7.6820906      1.0236422      50218.233      36.893836      36.893836      36.893836    
   4360000   0.3008202     -8.1372403     -7.6860164      0.99619205     50218.233      36.893836      36.893836      36.893836    
   4370000   0.30042369    -8.1343441     -7.6837149      1.0129167      50218.233      36.893836      36.893836      36.893836    
   4380000   0.2995804     -8.1334335     -7.6840693      1.017026       50218.233      36.893836      36.893836      36.893836    
   4390000   0.30096448    -8.1390218     -7.6875815      0.97926574     50218.233      36.893836      36.893836      36.893836    
   4400000   0.29969565    -8.1353912     -7.6858541      1.0127458      50218.233      36.893836      36.893836      36.893836    
   4410000   0.30028092    -8.1364243     -7.6860093      0.99764622     50218.233      36.893836      36.893836      36.893836    
   4420000   0.29894281    -8.1368432     -7.6884354      0.98378702     50218.233      36.893836      36.893836      36.893836    
   4430000   0.29908007    -8.1367899     -7.6881762      0.99346534     50218.233      36.893836      36.893836      36.893836    
   4440000   0.29968815    -8.1358878     -7.686362       0.9934583      50218.233      36.893836      36.893836      36.893836    
   4450000   0.29915297    -8.1368551     -7.688132       0.98347909     50218.233      36.893836      36.893836      36.893836    
   4460000   0.2974411     -8.1366971     -7.6905418      0.99985638     50218.233      36.893836      36.893836      36.893836    
   4470000   0.30069864    -8.1352154     -7.6841739      1.0155876      50218.233      36.893836      36.893836      36.893836    
   4480000   0.29996255    -8.1376254     -7.6876879      0.98494042     50218.233      36.893836      36.893836      36.893836    
   4490000   0.29885713    -8.1374011     -7.6891218      0.98983842     50218.233      36.893836      36.893836      36.893836    
   4500000   0.30022314    -8.13752       -7.6871917      0.98235854     50218.233      36.893836      36.893836      36.893836    
   4510000   0.29869262    -8.1369136     -7.6888811      0.99276166     50218.233      36.893836      36.893836      36.893836    
   4520000   0.3005885     -8.1371186     -7.6862422      0.99178013     50218.233      36.893836      36.893836      36.893836    
   4530000   0.30025874    -8.1363163     -7.6859346      0.99910979     50218.233      36.893836      36.893836      36.893836    
   4540000   0.3005453     -8.135631      -7.6848194      1.0048577      50218.233      36.893836      36.893836      36.893836    
   4550000   0.30004253    -8.1381292     -7.6880718      0.98591018     50218.233      36.893836      36.893836      36.893836    
   4560000   0.30107973    -8.1366689     -7.6850557      0.99416594     50218.233      36.893836      36.893836      36.893836    
   4570000   0.30027124    -8.1361895     -7.685789       0.99576956     50218.233      36.893836      36.893836      36.893836    
   4580000   0.29971614    -8.1343408     -7.684773       1.0142722      50218.233      36.893836      36.893836      36.893836    
   4590000   0.29998093    -8.1376085     -7.6876435      0.99012455     50218.233      36.893836      36.893836      36.893836    
   4600000   0.30044648    -8.1367013     -7.686038       1.0015693      50218.233      36.893836      36.893836      36.893836    
   4610000   0.30197785    -8.1371305     -7.6841702      0.99032963     50218.233      36.893836      36.893836      36.893836    
   4620000   0.3002916     -8.1348023     -7.6843713      1.0105157      50218.233      36.893836      36.893836      36.893836    
   4630000   0.30104243    -8.1322101     -7.6806529      1.0281627      50218.233      36.893836      36.893836      36.893836    
   4640000   0.30038261    -8.1352262     -7.6846587      0.9913093      50218.233      36.893836      36.893836      36.893836    
   4650000   0.29988553    -8.1392566     -7.6894347      0.97758412     50218.233      36.893836      36.893836      36.893836    
   4660000   0.29859317    -8.136312      -7.6884287      0.99811903     50218.233      36.893836      36.893836      36.893836    
   4670000   0.2996846     -8.1357533     -7.6862328      0.99796233     50218.233      36.893836      36.893836      36.893836    
   4680000   0.30190996    -8.1348641     -7.6820056      1.0062545      50218.233      36.893836      36.893836      36.893836    
   4690000   0.30122254    -8.1377745     -7.6859472      0.9924042      50218.233      36.893836      36.893836      36.893836    
   4700000   0.29941363    -8.1366638     -7.6875498      0.99738747     50218.233      36.893836      36.893836      36.893836    
   4710000   0.29920106    -8.1352413     -7.6864461      0.9995921      50218.233      36.893836      36.893836      36.893836    
   4720000   0.30022037    -8.1353857     -7.6850615      1.0039978      50218.233      36.893836      36.893836      36.893836    
   4730000   0.29997564    -8.1340027     -7.6840456      1.0165075      50218.233      36.893836      36.893836      36.893836    
   4740000   0.2988779     -8.1342949     -7.6859844      1.0169065      50218.233      36.893836      36.893836      36.893836    
   4750000   0.30054155    -8.1375982     -7.6867923      0.99790337     50218.233      36.893836      36.893836      36.893836    
   4760000   0.29957248    -8.1370497     -7.6876973      0.99193788     50218.233      36.893836      36.893836      36.893836    
   4770000   0.3000045     -8.1340174     -7.6840171      1.0236484      50218.233      36.893836      36.893836      36.893836    
   4780000   0.2995242     -8.1332965     -7.6840166      1.0230793      50218.233      36.893836      36.893836      36.893836    
   4790000   0.29877887    -8.1383795     -7.6902175      0.97735857     50218.233      36.893836      36.893836      36.893836    
   4800000   0.29985105    -8.1375874     -7.6878173      0.99327599     50218.233      36.893836      36.893836      36.893836    
   4810000   0.29912407    -8.1374635     -7.6887838      0.985592       50218.233      36.893836      36.893836      36.893836    
   4820000   0.30018384    -8.132746      -7.6824767      1.0245411      50218.233      36.893836      36.893836      36.893836    
   4830000   0.30046226    -8.1357292     -7.6850423      1.0088013      50218.233      36.893836      36.893836      36.893836    
   4840000   0.29983918    -8.1367556     -7.6870032      0.99180586     50218.233      36.893836      36.893836      36.893836    
   4850000   0.30156677    -8.1367333     -7.6843895      0.99523395     50218.233      36.893836      36.893836      36.893836    
   4860000   0.30068759    -8.1329387     -7.6819138      1.0311628      50218.233      36.893836      36.893836      36.893836    
   4870000   0.29843031    -8.1373001     -7.689661       0.98729955     50218.233      36.893836      36.893836      36.893836    
   4880000   0.29992169    -8.1361098     -7.6862336      1.0021587      50218.233      36.893836      36.893836      36.893836    
   4890000   0.2996653     -8.1350091     -7.6855175      1.0067733      50218.233      36.893836      36.893836      36.893836    
   4900000   0.29936164    -8.1377684     -7.6887323      0.98959141     50218.233      36.893836      36.893836      36.893836    
   4910000   0.29918236    -8.1357434     -7.6869763      0.99441881     50218.233      36.893836      36.893836      36.893836    
   4920000   0.29981448    -8.1353153     -7.6856         1.0055129      50218.233      36.893836      36.893836      36.893836    
   4930000   0.30061692    -8.1373784     -7.6864595      0.98613109     50218.233      36.893836      36.893836      36.893836    
   4940000   0.29928895    -8.1370659     -7.6881389      0.99587062     50218.233      36.893836      36.893836      36.893836    
   4950000   0.29994046    -8.136401      -7.6864967      0.9878264      50218.233      36.893836      36.893836      36.893836    
   4960000   0.29952799    -8.1359595     -7.6866739      1.0044132      50218.233      36.893836      36.893836      36.893836    
   4970000   0.29954746    -8.1371135     -7.6877987      0.99532173     50218.233      36.893836      36.893836      36.893836    
   4980000   0.30013833    -8.1378479     -7.6876468      0.99033372     50218.233      36.893836      36.893836      36.893836    
   4990000   0.29933442    -8.1398844     -7.6908892      0.97412355     50218.233      36.893836      36.893836      36.893836    
   5000000   0.29940738    -8.1361063     -7.6870016      0.99264399     50218.233      36.893836      36.893836      36.893836    
   5010000   0.30049187    -8.1383611     -7.6876298      0.97877751     50218.233      36.893836      36.893836      36.893836    
   5020000   0.30046326    -8.1368346     -7.6861461      0.99120899     50218.233      36.893836      36.893836      36.893836    
   5030000   0.30002668    -8.1352765     -7.6852429      1.0010254      50218.233      36.893836      36.893836      36.893836    
   5040000   0.29896225    -8.132836      -7.684399       1.0194142      50218.233      36.893836      36.893836      36.893836    
   5050000   0.29954377    -8.1366016     -7.6872923      0.99485758     50218.233      36.893836      36.893836      36.893836    
   5060000   0.30002206    -8.1355699     -7.6855432      0.999225       50218.233      36.893836      36.893836      36.893836    
   5070000   0.29995107    -8.1351041     -7.6851839      1.0045719      50218.233      36.893836      36.893836      36.893836    
   5080000   0.29991195    -8.1363026     -7.6864411      0.99987472     50218.233      36.893836      36.893836      36.893836    
   5090000   0.30114332    -8.1382012     -7.6864926      0.98281712     50218.233      36.893836      36.893836      36.893836    
   5100000   0.30035104    -8.1361446     -7.6856244      0.99724612     50218.233      36.893836      36.893836      36.893836    
   5110000   0.2991594     -8.1336209     -7.6848882      1.0189807      50218.233      36.893836      36.893836      36.893836    
   5120000   0.30108517    -8.1363375     -7.6847161      0.99522431     50218.233      36.893836      36.893836      36.893836    
   5130000   0.30048886    -8.1355312     -7.6848043      1.0052277      50218.233      36.893836      36.893836      36.893836    
   5140000   0.3008521     -8.1373175     -7.6860458      0.98091083     50218.233      36.893836      36.893836      36.893836    
   5150000   0.3004207     -8.1369763     -7.6863517      0.99364663     50218.233      36.893836      36.893836      36.893836    
   5160000   0.30229789    -8.1365507     -7.6831103      0.99539768     50218.233      36.893836      36.893836      36.893836    
   5170000   0.30037944    -8.1344492     -7.6838864      1.0093865      50218.233      36.893836      36.893836      36.893836    
   5180000   0.30187955    -8.1344413     -7.6816284      1.0050611      50218.233      36.893836      36.893836      36.893836    
   5190000   0.29936755    -8.137474      -7.688429       0.98947116     50218.233      36.893836      36.893836      36.893836    
   5200000   0.30004132    -8.1367807     -7.6867251      0.99336141     50218.233      36.893836      36.893836      36.893836    
   5210000   0.30085053    -8.1350485     -7.6837791      1.0086909      50218.233      36.893836      36.893836      36.893836    
   5220000   0.30008806    -8.1352972     -7.6851715      0.9994881      50218.233      36.893836      36.893836      36.893836    
   5230000   0.29979894    -8.1365007     -7.6868086      0.9982428      50218.233      36.893836      36.893836      36.893836    
   5240000   0.30048382    -8.1346062     -7.6838868      1.0139655      50218.233      36.893836      36.893836      36.893836    
   5250000   0.29916671    -8.1350084     -7.6862647      1.0024312      50218.233      36.893836      36.893836      36.893836    
   5260000   0.29826135    -8.1344797     -7.687094       1.0080187      50218.233      36.893836      36.893836      36.893836    
   5270000   0.29959456    -8.1355931     -7.6862076      0.99987337     50218.233      36.893836      36.893836      36.893836    
   5280000   0.30034011    -8.1354892     -7.6849854      1.0097515      50218.233      36.893836      36.893836      36.893836    
   5290000   0.2984747     -8.1355472     -7.6878415      1.0050101      50218.233      36.893836      36.893836      36.893836    
   5300000   0.3000266     -8.1363865     -7.686353       0.99361773     50218.233      36.893836      36.893836      36.893836    
   5310000   0.30111057    -8.1323186     -7.6806592      1.028821       50218.233      36.893836      36.893836      36.893836    
   5320000   0.2979965     -8.1347257     -7.6877373      1.0012715      50218.233      36.893836      36.893836      36.893836    
   5330000   0.30010821    -8.1367786     -7.6866227      0.99720248     50218.233      36.893836      36.893836      36.893836    
   5340000   0.30106218    -8.1356585     -7.6840717      0.99925808     50218.233      36.893836      36.893836      36.893836    
   5350000   0.29899893    -8.1341643     -7.6856723      1.0138596      50218.233      36.893836      36.893836      36.893836    
   5360000   0.2996923     -8.1357376     -7.6862056      1.0084298      50218.233      36.893836      36.893836      36.893836    
   5370000   0.29859232    -8.1369329     -7.6890508      0.99089113     50218.233      36.893836      36.893836      36.893836    
   5380000   0.29881245    -8.1362609     -7.6880486      0.99919115     50218.233      36.893836      36.893836      36.893836    
   5390000   0.30140775    -8.1370607     -7.6849555      0.99482572     50218.233      36.893836      36.893836      36.893836    
   5400000   0.30195612    -8.1367037     -7.683776       0.99983813     50218.233      36.893836      36.893836      36.893836    
   5410000   0.30015121    -8.1375738     -7.6873534      0.9813357      50218.233      36.893836      36.893836      36.893836    
   5420000   0.3020275     -8.1367992     -7.6837644      0.99833959     50218.233      36.893836      36.893836      36.893836    
   5430000   0.2991283     -8.1391662     -7.6904802      0.9789228      50218.233      36.893836      36.893836      36.893836    
   5440000   0.30098142    -8.1365355     -7.6850698      0.99703045     50218.233      36.893836      36.893836      36.893836    
   5450000   0.29888871    -8.1377665     -7.6894398      0.98632571     50218.233      36.893836      36.893836      36.893836    
   5460000   0.29869534    -8.1343448     -7.6863081      1.0152361      50218.233      36.893836      36.893836      36.893836    
   5470000   0.29930523    -8.1374389     -7.6884874      0.98593604     50218.233      36.893836      36.893836      36.893836    
   5480000   0.29907324    -8.1366809     -7.6880775      0.9924125      50218.233      36.893836      36.893836      36.893836    
   5490000   0.29948526    -8.1389388     -7.6897173      0.98341369     50218.233      36.893836      36.893836      36.893836    
   5500000   0.3003217     -8.1379699     -7.6874938      0.98294909     50218.233      36.893836      36.893836      36.893836    
   5510000   0.29907252    -8.1365842     -7.6879818      0.99212934     50218.233      36.893836      36.893836      36.893836    
   5520000   0.30002006    -8.1361979     -7.6861742      0.99358462     50218.233      36.893836      36.893836      36.893836    
   5530000   0.30124593    -8.1354534     -7.683591       1.0081459      50218.233      36.893836      36.893836      36.893836    
   5540000   0.30051322    -8.137574      -7.6868106      0.98672436     50218.233      36.893836      36.893836      36.893836    
   5550000   0.30129621    -8.1374045     -7.6854666      0.98744097     50218.233      36.893836      36.893836      36.893836    
   5560000   0.29998492    -8.1374618     -7.6874908      0.99057321     50218.233      36.893836      36.893836      36.893836    
   5570000   0.29845398    -8.137463      -7.6897884      0.98511305     50218.233      36.893836      36.893836      36.893836    
   5580000   0.3000732     -8.1335357     -7.6834323      1.0263949      50218.233      36.893836      36.893836      36.893836    
   5590000   0.29950939    -8.1338081     -7.6845504      1.0137132      50218.233      36.893836      36.893836      36.893836    
   5600000   0.30054541    -8.1385187     -7.687707       0.98110471     50218.233      36.893836      36.893836      36.893836    
   5610000   0.30072663    -8.13667       -7.6855865      0.98925107     50218.233      36.893836      36.893836      36.893836    
   5620000   0.30059865    -8.1361338     -7.6852423      1.0012123      50218.233      36.893836      36.893836      36.893836    
   5630000   0.29998074    -8.137757      -7.6877922      0.98825541     50218.233      36.893836      36.893836      36.893836    
   5640000   0.30067296    -8.1349139     -7.6839109      1.0038202      50218.233      36.893836      36.893836      36.893836    
   5650000   0.30041772    -8.1364971     -7.685877       1.0040215      50218.233      36.893836      36.893836      36.893836    
   5660000   0.30076807    -8.1336957     -7.68255        1.0150862      50218.233      36.893836      36.893836      36.893836    
   5670000   0.29889925    -8.1347664     -7.6864239      1.007725       50218.233      36.893836      36.893836      36.893836    
   5680000   0.30153237    -8.1353098     -7.6830177      1.0003837      50218.233      36.893836      36.893836      36.893836    
   5690000   0.29966599    -8.1346276     -7.685135       1.014388       50218.233      36.893836      36.893836      36.893836    
   5700000   0.30006525    -8.1348706     -7.6847792      1.0032674      50218.233      36.893836      36.893836      36.893836    
   5710000   0.3004538     -8.1369257     -7.6862514      0.9966207      50218.233      36.893836      36.893836      36.893836    
   5720000   0.30079691    -8.1350891     -7.6839001      1.0120144      50218.233      36.893836      36.893836      36.893836    
   5730000   0.30070432    -8.135293      -7.6842429      1.0129843      50218.233      36.893836      36.893836      36.893836    
   5740000   0.29911929    -8.1358168     -7.6871443      1.0033467      50218.233      36.893836      36.893836      36.893836    
   5750000   0.29953357    -8.1351389     -7.6858449      1.0086613      50218.233      36.893836      36.893836      36.893836    
   5760000   0.29998157    -8.1342291     -7.6842631      1.0059031      50218.233      36.893836      36.893836      36.893836    
   5770000   0.29939399    -8.1366287     -7.6875441      0.99533678     50218.233      36.893836      36.893836      36.893836    
   5780000   0.30004762    -8.133594      -7.6835289      1.0082151      50218.233      36.893836      36.893836      36.893836    
   5790000   0.29954389    -8.1339196     -7.6846101      1.0167837      50218.233      36.893836      36.893836      36.893836    
   5800000   0.29855293    -8.1340611     -7.6862381      1.0144805      50218.233      36.893836      36.893836      36.893836    
   5810000   0.29941842    -8.1353603     -7.6862391      1.0052058      50218.233      36.893836      36.893836      36.893836    
   5820000   0.30046426    -8.1332982     -7.6826082      1.0209408      50218.233      36.893836      36.893836      36.893836    
   5830000   0.2995919     -8.1351177     -7.6857363      1.0050477      50218.233      36.893836      36.893836      36.893836    
   5840000   0.30021763    -8.1359217     -7.6856017      1.0023751      50218.233      36.893836      36.893836      36.893836    
   5850000   0.2994123     -8.136569      -7.6874569      0.9952142      50218.233      36.893836      36.893836      36.893836    
   5860000   0.29964378    -8.1390388     -7.6895796      0.97835627     50218.233      36.893836      36.893836      36.893836    
   5870000   0.29886565    -8.132729      -7.6844369      1.0222593      50218.233      36.893836      36.893836      36.893836    
   5880000   0.30087779    -8.1360976     -7.6847873      0.99891561     50218.233      36.893836      36.893836      36.893836    
   5890000   0.29909273    -8.1353377     -7.686705       1.0064179      50218.233      36.893836      36.893836      36.893836    
   5900000   0.30136359    -8.1356875     -7.6836486      1.0072187      50218.233      36.893836      36.893836      36.893836    
   5910000   0.29984171    -8.1366175     -7.6868613      1.0040178      50218.233      36.893836      36.893836      36.893836    
   5920000   0.30096598    -8.136704      -7.6852615      0.9985778      50218.233      36.893836      36.893836      36.893836    
   5930000   0.30046218    -8.1354482     -7.6847613      1.0045251      50218.233      36.893836      36.893836      36.893836    
   5940000   0.29812536    -8.136054      -7.6888723      0.99390428     50218.233      36.893836      36.893836      36.893836    
   5950000   0.29891427    -8.1394034     -7.6910384      0.97490924     50218.233      36.893836      36.893836      36.893836    
   5960000   0.30093101    -8.1368058     -7.6854157      0.99412341     50218.233      36.893836      36.893836      36.893836    
   5970000   0.29940716    -8.1375084     -7.6884041      0.9905534      50218.233      36.893836      36.893836      36.893836    
   5980000   0.30134869    -8.1364596     -7.684443       0.9970279      50218.233      36.893836      36.893836      36.893836    
   5990000   0.29921344    -8.1371927     -7.6883789      0.99075761     50218.233      36.893836      36.893836      36.893836    
   6000000   0.30087044    -8.1358591     -7.6845599      1.0003936      50218.233      36.893836      36.893836      36.893836    
   6010000   0.29911684    -8.1373328     -7.6886639      0.99028946     50218.233      36.893836      36.893836      36.893836    
   6020000   0.30077782    -8.1357759     -7.6846156      1.0064784      50218.233      36.893836      36.893836      36.893836    
   6030000   0.29977411    -8.1354386     -7.6857839      1.0026512      50218.233      36.893836      36.893836      36.893836    
   6040000   0.29789744    -8.1387183     -7.6918784      0.9738066      50218.233      36.893836      36.893836      36.893836    
   6050000   0.29858262    -8.1377339     -7.6898663      0.98878745     50218.233      36.893836      36.893836      36.893836    
   6060000   0.30082125    -8.1369968     -7.6857714      0.99680341     50218.233      36.893836      36.893836      36.893836    
   6070000   0.30030799    -8.1385691     -7.6881135      0.97487297     50218.233      36.893836      36.893836      36.893836    
   6080000   0.3001061     -8.1388323     -7.6886796      0.97583286     50218.233      36.893836      36.893836      36.893836    
   6090000   0.30031474    -8.1338796     -7.6834139      1.017032       50218.233      36.893836      36.893836      36.893836    
   6100000   0.29987674    -8.1383014     -7.6884927      0.97091795     50218.233      36.893836      36.893836      36.893836    
   6110000   0.30068156    -8.1388792     -7.6878633      0.9860002      50218.233      36.893836      36.893836      36.893836    
   6120000   0.29957249    -8.1359425     -7.6865902      0.99635648     50218.233      36.893836      36.893836      36.893836    
   6130000   0.29850281    -8.1350372     -7.6872893      1.004865       50218.233      36.893836      36.893836      36.893836    
   6140000   0.3021452     -8.1335293     -7.680318       1.020681       50218.233      36.893836      36.893836      36.893836    
   6150000   0.30187112    -8.1360954     -7.6832952      1.0024966      50218.233      36.893836      36.893836      36.893836    
   6160000   0.29915942    -8.1359512     -7.6872184      1.0003718      50218.233      36.893836      36.893836      36.893836    
   6170000   0.29881306    -8.1369714     -7.6887582      0.99191471     50218.233      36.893836      36.893836      36.893836    
   6180000   0.30142259    -8.1327312     -7.6806037      1.0231152      50218.233      36.893836      36.893836      36.893836    
   6190000   0.30103873    -8.1352635     -7.6837119      1.0107097      50218.233      36.893836      36.893836      36.893836    
   6200000   0.30036464    -8.136006      -7.6854654      1.0011393      50218.233      36.893836      36.893836      36.893836    
   6210000   0.30015318    -8.1350095     -7.6847862      1.0079647      50218.233      36.893836      36.893836      36.893836    
   6220000   0.30029104    -8.1365903     -7.6861601      0.99966878     50218.233      36.893836      36.893836      36.893836    
   6230000   0.30030503    -8.1349412     -7.6844901      1.0091625      50218.233      36.893836      36.893836      36.893836    
   6240000   0.30088538    -8.1336837     -7.6823621      1.0202007      50218.233      36.893836      36.893836      36.893836    
   6250000   0.3005091     -8.1368514     -7.6860941      0.98634122     50218.233      36.893836      36.893836      36.893836    
   6260000   0.29996153    -8.1343139     -7.684378       1.0100301      50218.233      36.893836      36.893836      36.893836    
   6270000   0.29973401    -8.1364511     -7.6868565      1.0038062      50218.233      36.893836      36.893836      36.893836    
   6280000   0.30003095    -8.1353808     -7.6853408      1.0093356      50218.233      36.893836      36.893836      36.893836    
   6290000   0.30036923    -8.1364936     -7.6859462      0.99894484     50218.233      36.893836      36.893836      36.893836    
   6300000   0.29936858    -8.1359678     -7.6869214      1.0010071      50218.233      36.893836      36.893836      36.893836    
   6310000   0.29955091    -8.1343792     -7.6850592      1.0155674      50218.233      36.893836      36.893836      36.893836    
   6320000   0.30040317    -8.1354602     -7.6848618      1.0023703      50218.233      36.893836      36.893836      36.893836    
   6330000   0.30016785    -8.1388127     -7.6885673      0.98048627     50218.233      36.893836      36.893836      36.893836    
   6340000   0.30083154    -8.1351957     -7.6839548      1.0110493      50218.233      36.893836      36.893836      36.893836    
   6350000   0.2997866     -8.1388314     -7.6891578      0.96927551     50218.233      36.893836      36.893836      36.893836    
   6360000   0.30077694    -8.1353376     -7.6841786      1.0082946      50218.233      36.893836      36.893836      36.893836    
   6370000   0.2978717     -8.1358965     -7.6890953      0.99780132     50218.233      36.893836      36.893836      36.893836    
   6380000   0.30071825    -8.1347817     -7.6837107      1.0048492      50218.233      36.893836      36.893836      36.893836    
   6390000   0.29934272    -8.133989      -7.6849813      1.0055032      50218.233      36.893836      36.893836      36.893836    
   6400000   0.30145664    -8.1359655     -7.6837869      1.0090483      50218.233      36.893836      36.893836      36.893836    
   6410000   0.29931971    -8.1375299     -7.6885568      0.98561145     50218.233      36.893836      36.893836      36.893836    
   6420000   0.29992427    -8.1359519     -7.6860719      0.99624778     50218.233      36.893836      36.893836      36.893836    
   6430000   0.29801624    -8.1378995     -7.6908815      0.98253386     50218.233      36.893836      36.893836      36.893836    
   6440000   0.30054461    -8.1367235     -7.685913       0.99309911     50218.233      36.893836      36.893836      36.893836    
   6450000   0.30056395    -8.1362492     -7.6854097      0.99745888     50218.233      36.893836      36.893836      36.893836    
   6460000   0.30141967    -8.1360998     -7.6839768      0.99261491     50218.233      36.893836      36.893836      36.893836    
   6470000   0.29948549    -8.1352428     -7.686021       0.99907397     50218.233      36.893836      36.893836      36.893836    
   6480000   0.30085114    -8.1367923     -7.685522       0.98758695     50218.233      36.893836      36.893836      36.893836    
   6490000   0.2975251     -8.1370785     -7.6907972      0.99170605     50218.233      36.893836      36.893836      36.893836    
   6500000   0.29905942    -8.1392913     -7.6907086      0.96827113     50218.233      36.893836      36.893836      36.893836    
   6510000   0.30064404    -8.1361982     -7.6852385      1.0000133      50218.233      36.893836      36.893836      36.893836    
   6520000   0.29933613    -8.1366525     -7.6876547      0.99757132     50218.233      36.893836      36.893836      36.893836    
   6530000   0.30110239    -8.1395294     -7.6878823      0.97996123     50218.233      36.893836      36.893836      36.893836    
   6540000   0.29851221    -8.1388085     -7.6910465      0.98028356     50218.233      36.893836      36.893836      36.893836    
   6550000   0.30083976    -8.1359451     -7.6846919      0.99339946     50218.233      36.893836      36.893836      36.893836    
   6560000   0.29924234    -8.1379782     -7.689121       0.98263922     50218.233      36.893836      36.893836      36.893836    
   6570000   0.30131403    -8.1343875     -7.6824229      1.0096213      50218.233      36.893836      36.893836      36.893836    
   6580000   0.29909521    -8.1366414     -7.6880049      1.0059669      50218.233      36.893836      36.893836      36.893836    
   6590000   0.30042846    -8.1359946     -7.6853583      0.99797178     50218.233      36.893836      36.893836      36.893836    
   6600000   0.29998611    -8.1368272     -7.6868544      0.99367767     50218.233      36.893836      36.893836      36.893836    
   6610000   0.3007237     -8.1361964     -7.6851172      1.0009066      50218.233      36.893836      36.893836      36.893836    
   6620000   0.30036857    -8.1351371     -7.6845907      1.0094976      50218.233      36.893836      36.893836      36.893836    
   6630000   0.2997069     -8.1367648     -7.6872109      0.99418663     50218.233      36.893836      36.893836      36.893836    
   6640000   0.29942903    -8.13432       -7.6851828      1.0129838      50218.233      36.893836      36.893836      36.893836    
   6650000   0.30010277    -8.1348239     -7.6846761      1.0066608      50218.233      36.893836      36.893836      36.893836    
   6660000   0.29976744    -8.1354411     -7.6857963      1.004279       50218.233      36.893836      36.893836      36.893836    
   6670000   0.2990893     -8.1335852     -7.6849576      1.0238748      50218.233      36.893836      36.893836      36.893836    
   6680000   0.29927255    -8.1346571     -7.6857547      1.0059454      50218.233      36.893836      36.893836      36.893836    
   6690000   0.29861226    -8.1353739     -7.6874619      0.99926609     50218.233      36.893836      36.893836      36.893836    
   6700000   0.29889917    -8.1354067     -7.6870643      1.0035277      50218.233      36.893836      36.893836      36.893836    
   6710000   0.29980428    -8.1362791     -7.6865791      0.99735896     50218.233      36.893836      36.893836      36.893836    
   6720000   0.3007137     -8.1355327     -7.6844686      1.003367       50218.233      36.893836      36.893836      36.893836    
   6730000   0.30085857    -8.1357826     -7.6845012      1.0038263      50218.233      36.893836      36.893836      36.893836    
   6740000   0.30057684    -8.1357466     -7.6848878      0.99529704     50218.233      36.893836      36.893836      36.893836    
   6750000   0.29990662    -8.1365036     -7.6866501      0.99950528     50218.233      36.893836      36.893836      36.893836    
   6760000   0.29941095    -8.1321647     -7.6830546      1.028293       50218.233      36.893836      36.893836      36.893836    
   6770000   0.30083419    -8.1328583     -7.6816134      1.0225755      50218.233      36.893836      36.893836      36.893836    
   6780000   0.29936462    -8.1345721     -7.6855316      1.0098315      50218.233      36.893836      36.893836      36.893836    
   6790000   0.29995861    -8.1361646     -7.6862331      1.0002118      50218.233      36.893836      36.893836      36.893836    
   6800000   0.3010053     -8.1357696     -7.6842681      1.0078266      50218.233      36.893836      36.893836      36.893836    
   6810000   0.30046464    -8.133616      -7.6829255      1.0196124      50218.233      36.893836      36.893836      36.893836    
   6820000   0.30105088    -8.137954      -7.6863841      0.98330914     50218.233      36.893836      36.893836      36.893836    
   6830000   0.29911857    -8.1353002     -7.6866288      0.99793245     50218.233      36.893836      36.893836      36.893836    
   6840000   0.29862159    -8.137489      -7.689563       0.99283334     50218.233      36.893836      36.893836      36.893836    
   6850000   0.30039459    -8.1348347     -7.6842492      1.0066261      50218.233      36.893836      36.893836      36.893836    
   6860000   0.30008117    -8.1362278     -7.6861125      0.99857819     50218.233      36.893836      36.893836      36.893836    
   6870000   0.30074788    -8.134491      -7.6833756      1.012278       50218.233      36.893836      36.893836      36.893836    
   6880000   0.30041377    -8.1371562     -7.686542       0.99828656     50218.233      36.893836      36.893836      36.893836    
   6890000   0.30005038    -8.1372313     -7.6871621      0.99282256     50218.233      36.893836      36.893836      36.893836    
   6900000   0.29822344    -8.1361926     -7.6888639      0.99841242     50218.233      36.893836      36.893836      36.893836    
   6910000   0.30067178    -8.1350849     -7.6840837      1.0068771      50218.233      36.893836      36.893836      36.893836    
   6920000   0.2999099     -8.1367991     -7.6869407      0.99376726     50218.233      36.893836      36.893836      36.893836    
   6930000   0.29854504    -8.1361425     -7.6883313      0.9931704      50218.233      36.893836      36.893836      36.893836    
   6940000   0.29818185    -8.1367755     -7.6895091      0.9920124      50218.233      36.893836      36.893836      36.893836    
   6950000   0.2987731     -8.1356853     -7.687532       0.9908618      50218.233      36.893836      36.893836      36.893836    
   6960000   0.2992662     -8.1378835     -7.6889905      0.98741117     50218.233      36.893836      36.893836      36.893836    
   6970000   0.30075808    -8.1366531     -7.6855224      1.0017857      50218.233      36.893836      36.893836      36.893836    
   6980000   0.29976777    -8.1367503     -7.687105       0.988669       50218.233      36.893836      36.893836      36.893836    
   6990000   0.29854161    -8.1355962     -7.6877902      0.99549202     50218.233      36.893836      36.893836      36.893836    
   7000000   0.2998007     -8.1372635     -7.6875688      0.98872868     50218.233      36.893836      36.893836      36.893836    
   7010000   0.29835266    -8.1381212     -7.6905986      0.97601958     50218.233      36.893836      36.893836      36.893836    
   7020000   0.29998426    -8.1336449     -7.6836749      1.0222571      50218.233      36.893836      36.893836      36.893836    
   7030000   0.30122254    -8.137888      -7.6860606      0.98671266     50218.233      36.893836      36.893836      36.893836    
   7040000   0.30102783    -8.1338774     -7.682342       1.0295646      50218.233      36.893836      36.893836      36.893836    
   7050000   0.30106369    -8.1359173     -7.6843282      1.0042006      50218.233      36.893836      36.893836      36.893836    
   7060000   0.29833382    -8.1362001     -7.6887057      0.99342038     50218.233      36.893836      36.893836      36.893836    
   7070000   0.29905766    -8.1381457     -7.6895656      0.97569012     50218.233      36.893836      36.893836      36.893836    
   7080000   0.3003574     -8.1382046     -7.6876749      0.97514563     50218.233      36.893836      36.893836      36.893836    
   7090000   0.30038584    -8.1351145     -7.6845421      0.99864032     50218.233      36.893836      36.893836      36.893836    
   7100000   0.29889498    -8.1380548     -7.6897187      0.9848251      50218.233      36.893836      36.893836      36.893836    
   7110000   0.29942486    -8.1357069     -7.686576       1.0120412      50218.233      36.893836      36.893836      36.893836    
   7120000   0.30061815    -8.1378608     -7.68694        0.99231296     50218.233      36.893836      36.893836      36.893836    
   7130000   0.29962553    -8.1356318     -7.6861999      0.99303384     50218.233      36.893836      36.893836      36.893836    
   7140000   0.30119338    -8.1360559     -7.6842723      1.0057284      50218.233      36.893836      36.893836      36.893836    
   7150000   0.29950178    -8.1372634     -7.6880171      0.98868731     50218.233      36.893836      36.893836      36.893836    
   7160000   0.30024892    -8.1334286     -7.6830616      1.0081524      50218.233      36.893836      36.893836      36.893836    
   7170000   0.30025101    -8.1328138     -7.6824437      1.0228658      50218.233      36.893836      36.893836      36.893836    
   7180000   0.30043109    -8.133586      -7.6829458      1.0150355      50218.233      36.893836      36.893836      36.893836    
   7190000   0.30081362    -8.1360807     -7.6848667      0.99374304     50218.233      36.893836      36.893836      36.893836    
   7200000   0.29973595    -8.135616      -7.6860185      1.0035221      50218.233      36.893836      36.893836      36.893836    
   7210000   0.3007222     -8.1348046     -7.6837277      1.0249334      50218.233      36.893836      36.893836      36.893836    
   7220000   0.29920902    -8.131812      -7.6830049      1.0232495      50218.233      36.893836      36.893836      36.893836    
   7230000   0.30099809    -8.1347987     -7.683308       1.0103244      50218.233      36.893836      36.893836      36.893836    
   7240000   0.29816985    -8.134602      -7.6873536      1.0098738      50218.233      36.893836      36.893836      36.893836    
   7250000   0.30001754    -8.1336901     -7.6836702      1.0270049      50218.233      36.893836      36.893836      36.893836    
   7260000   0.29796695    -8.1347647     -7.6878206      1.0158135      50218.233      36.893836      36.893836      36.893836    
   7270000   0.29902712    -8.1340539     -7.6855196      1.0124218      50218.233      36.893836      36.893836      36.893836    
   7280000   0.30089276    -8.1366529     -7.6853201      0.99540671     50218.233      36.893836      36.893836      36.893836    
   7290000   0.29967393    -8.1364367     -7.6869322      0.99565643     50218.233      36.893836      36.893836      36.893836    
   7300000   0.2990099     -8.1363338     -7.6878254      0.99050917     50218.233      36.893836      36.893836      36.893836    
   7310000   0.30054406    -8.1385176     -7.6877079      0.9851829      50218.233      36.893836      36.893836      36.893836    
   7320000   0.29957139    -8.1349859     -7.6856352      1.0071198      50218.233      36.893836      36.893836      36.893836    
   7330000   0.30250539    -8.1371338     -7.6833821      0.99581634     50218.233      36.893836      36.893836      36.893836    
   7340000   0.3006928     -8.1343949     -7.6833621      1.0026897      50218.233      36.893836      36.893836      36.893836    
   7350000   0.30007549    -8.1378157     -7.6877089      0.99263105     50218.233      36.893836      36.893836      36.893836    
   7360000   0.29975587    -8.1373713     -7.6877439      0.9854057      50218.233      36.893836      36.893836      36.893836    
   7370000   0.29890314    -8.1365207     -7.6881724      0.99446066     50218.233      36.893836      36.893836      36.893836    
   7380000   0.30118557    -8.1367236     -7.6849516      1.003314       50218.233      36.893836      36.893836      36.893836    
   7390000   0.30093108    -8.1375765     -7.6861863      0.98475587     50218.233      36.893836      36.893836      36.893836    
   7400000   0.30016675    -8.1371754     -7.6869316      0.98960218     50218.233      36.893836      36.893836      36.893836    
   7410000   0.29811991    -8.1378598     -7.6906863      0.97326608     50218.233      36.893836      36.893836      36.893836    
   7420000   0.30074568    -8.1377178     -7.6866057      0.97969289     50218.233      36.893836      36.893836      36.893836    
   7430000   0.29967295    -8.1378443     -7.6883413      0.98527539     50218.233      36.893836      36.893836      36.893836    
   7440000   0.30129234    -8.1370083     -7.6850762      0.98980021     50218.233      36.893836      36.893836      36.893836    
   7450000   0.30106164    -8.1362776     -7.6846915      0.99389934     50218.233      36.893836      36.893836      36.893836    
   7460000   0.29983146    -8.1381975     -7.6884567      0.97751115     50218.233      36.893836      36.893836      36.893836    
   7470000   0.30077133    -8.1337652     -7.6826146      1.0226538      50218.233      36.893836      36.893836      36.893836    
   7480000   0.29936217    -8.1364841     -7.6874473      1.0046176      50218.233      36.893836      36.893836      36.893836    
   7490000   0.29922993    -8.136591      -7.6877525      0.99536059     50218.233      36.893836      36.893836      36.893836    
   7500000   0.30057561    -8.1369843     -7.6861273      0.99791159     50218.233      36.893836      36.893836      36.893836    
   7510000   0.29838502    -8.137925      -7.6903539      0.98272591     50218.233      36.893836      36.893836      36.893836    
   7520000   0.30030337    -8.1377952     -7.6873466      0.9911291      50218.233      36.893836      36.893836      36.893836    
   7530000   0.29995104    -8.1371211     -7.687201       0.99076751     50218.233      36.893836      36.893836      36.893836    
   7540000   0.30039477    -8.1379374     -7.6873516      0.9845806      50218.233      36.893836      36.893836      36.893836    
   7550000   0.29972141    -8.1341611     -7.6845853      1.0056025      50218.233      36.893836      36.893836      36.893836    
   7560000   0.30028819    -8.1372281     -7.6868023      0.99040738     50218.233      36.893836      36.893836      36.893836    
   7570000   0.29979831    -8.1363358     -7.6866447      1.000528       50218.233      36.893836      36.893836      36.893836    
   7580000   0.30028986    -8.1376305     -7.6872022      0.98086649     50218.233      36.893836      36.893836      36.893836    
   7590000   0.30076987    -8.1365201     -7.6853717      1.0007143      50218.233      36.893836      36.893836      36.893836    
   7600000   0.30100135    -8.1360209     -7.6845253      0.99969013     50218.233      36.893836      36.893836      36.893836    
   7610000   0.29996345    -8.1330254     -7.6830866      1.0196768      50218.233      36.893836      36.893836      36.893836    
   7620000   0.30067921    -8.1378512     -7.6868388      0.9834233      50218.233      36.893836      36.893836      36.893836    
   7630000   0.30000818    -8.1378682     -7.6878623      0.98940169     50218.233      36.893836      36.893836      36.893836    
   7640000   0.30024348    -8.1373404     -7.6869815      0.98907677     50218.233      36.893836      36.893836      36.893836    
   7650000   0.30050694    -8.1351286     -7.6843746      1.0135724      50218.233      36.893836      36.893836      36.893836    
   7660000   0.30016149    -8.1363224     -7.6860866      0.9990881      50218.233      36.893836      36.893836      36.893836    
   7670000   0.29996865    -8.1355788     -7.6856322      1.0021167      50218.233      36.893836      36.893836      36.893836    
   7680000   0.29950315    -8.134438      -7.6851897      1.0174062      50218.233      36.893836      36.893836      36.893836    
   7690000   0.29857026    -8.1369467     -7.6890977      0.99966545     50218.233      36.893836      36.893836      36.893836    
   7700000   0.2998637     -8.1355112     -7.685722       1.0032051      50218.233      36.893836      36.893836      36.893836    
   7710000   0.29999876    -8.1350048     -7.6850131      1.0093208      50218.233      36.893836      36.893836      36.893836    
   7720000   0.29899531    -8.1348679     -7.6863813      0.99947769     50218.233      36.893836      36.893836      36.893836    
   7730000   0.30031496    -8.1367297     -7.6862637      0.99383251     50218.233      36.893836      36.893836      36.893836    
   7740000   0.2982524     -8.1349747     -7.6876024      0.99796418     50218.233      36.893836      36.893836      36.893836    
   7750000   0.29949265    -8.1335759     -7.6843433      1.0161392      50218.233      36.893836      36.893836      36.893836    
   7760000   0.3026924     -8.1366874     -7.6826553      1.0009559      50218.233      36.893836      36.893836      36.893836    
   7770000   0.29975956    -8.136554      -7.6869211      0.99326324     50218.233      36.893836      36.893836      36.893836    
   7780000   0.30065504    -8.1351435     -7.6841674      1.0060922      50218.233      36.893836      36.893836      36.893836    
   7790000   0.29860218    -8.1356863     -7.6877894      0.99472949     50218.233      36.893836      36.893836      36.893836    
   7800000   0.29920798    -8.1360232     -7.6872177      0.99390466     50218.233      36.893836      36.893836      36.893836    
   7810000   0.29899071    -8.1375312     -7.6890515      0.99144004     50218.233      36.893836      36.893836      36.893836    
   7820000   0.30053024    -8.1354462     -7.6846573      1.0056039      50218.233      36.893836      36.893836      36.893836    
   7830000   0.30027885    -8.1348612     -7.6844493      1.0066258      50218.233      36.893836      36.893836      36.893836    
   7840000   0.29942067    -8.1346471     -7.6855225      1.0068713      50218.233      36.893836      36.893836      36.893836    
   7850000   0.2993717     -8.136105      -7.6870538      0.99315254     50218.233      36.893836      36.893836      36.893836    
   7860000   0.29984743    -8.1366229     -7.6868581      0.9904763      50218.233      36.893836      36.893836      36.893836    
   7870000   0.30041458    -8.1364682     -7.6858527      1.0014841      50218.233      36.893836      36.893836      36.893836    
   7880000   0.30138519    -8.1366063     -7.684535       1.000865       50218.233      36.893836      36.893836      36.893836    
   7890000   0.29964932    -8.1341364     -7.6846689      1.0136121      50218.233      36.893836      36.893836      36.893836    
   7900000   0.30010946    -8.136855      -7.6866972      0.99606906     50218.233      36.893836      36.893836      36.893836    
   7910000   0.30081724    -8.1368136     -7.6855941      0.99387936     50218.233      36.893836      36.893836      36.893836    
   7920000   0.29944824    -8.1364185     -7.6872525      1.00171        50218.233      36.893836      36.893836      36.893836    
   7930000   0.29869685    -8.1366016     -7.6885627      0.99518504     50218.233      36.893836      36.893836      36.893836    
   7940000   0.29997893    -8.1354217     -7.6854597      0.995917       50218.233      36.893836      36.893836      36.893836    
   7950000   0.30029897    -8.1345536     -7.6841115      1.0051358      50218.233      36.893836      36.893836      36.893836    
   7960000   0.30019015    -8.1380756     -7.6877968      0.98529828     50218.233      36.893836      36.893836      36.893836    
   7970000   0.29849211    -8.1368247     -7.6890929      0.99011673     50218.233      36.893836      36.893836      36.893836    
   7980000   0.29892725    -8.139657      -7.6912725      0.97416536     50218.233      36.893836      36.893836      36.893836    
   7990000   0.30018608    -8.1350383     -7.6847656      1.0056682      50218.233      36.893836      36.893836      36.893836    
   8000000   0.30146401    -8.1361584     -7.6839688      0.9936228      50218.233      36.893836      36.893836      36.893836    
   8010000   0.29910397    -8.137427      -7.6887774      0.98167363     50218.233      36.893836      36.893836      36.893836    
   8020000   0.30105263    -8.1352286     -7.6836561      1.0053869      50218.233      36.893836      36.893836      36.893836    
   8030000   0.29961328    -8.1356344     -7.6862208      1.0009567      50218.233      36.893836      36.893836      36.893836    
   8040000   0.30071659    -8.1374195     -7.686351       0.98927492     50218.233      36.893836      36.893836      36.893836    
   8050000   0.30033742    -8.13475       -7.6842502      1.0095442      50218.233      36.893836      36.893836      36.893836    
   8060000   0.29964474    -8.1352757     -7.685815       1.0062169      50218.233      36.893836      36.893836      36.893836    
   8070000   0.30095268    -8.1355726     -7.68415        1.0057891      50218.233      36.893836      36.893836      36.893836    
   8080000   0.29938324    -8.1361769     -7.6871085      1.002641       50218.233      36.893836      36.893836      36.893836    
   8090000   0.30088258    -8.1370622     -7.6857448      0.99628819     50218.233      36.893836      36.893836      36.893836    
   8100000   0.30040907    -8.1367165     -7.6861093      0.99487302     50218.233      36.893836      36.893836      36.893836    
   8110000   0.30075416    -8.1367676     -7.6856428      0.99610176     50218.233      36.893836      36.893836      36.893836    
   8120000   0.3001301     -8.1376596     -7.6874709      0.99144055     50218.233      36.893836      36.893836      36.893836    
   8130000   0.29947334    -8.1339222     -7.6847186      1.0074075      50218.233      36.893836      36.893836      36.893836    
   8140000   0.29997051    -8.1368542     -7.6869048      0.99492873     50218.233      36.893836      36.893836      36.893836    
   8150000   0.29949822    -8.1351066     -7.6858656      1.0100449      50218.233      36.893836      36.893836      36.893836    
   8160000   0.29738131    -8.1365993     -7.6905337      0.9811977      50218.233      36.893836      36.893836      36.893836    
   8170000   0.2983089     -8.1356977     -7.6882408      0.99675419     50218.233      36.893836      36.893836      36.893836    
   8180000   0.29968618    -8.1337363     -7.6842135      1.0135291      50218.233      36.893836      36.893836      36.893836    
   8190000   0.29934346    -8.1375579     -7.6885491      0.98687027     50218.233      36.893836      36.893836      36.893836    
   8200000   0.29977429    -8.1367581     -7.687103       0.99454564     50218.233      36.893836      36.893836      36.893836    
   8210000   0.30069741    -8.1340272     -7.6829875      1.0146761      50218.233      36.893836      36.893836      36.893836    
   8220000   0.30034378    -8.1326524     -7.6821432      1.029757       50218.233      36.893836      36.893836      36.893836    
   8230000   0.29993155    -8.1353699     -7.685479       0.99900195     50218.233      36.893836      36.893836      36.893836    
   8240000   0.29977101    -8.1346289     -7.6849788      1.005247       50218.233      36.893836      36.893836      36.893836    
   8250000   0.299283      -8.132177      -7.6832589      1.0281332      50218.233      36.893836      36.893836      36.893836    
   8260000   0.29899214    -8.1357677     -7.6872858      0.99561572     50218.233      36.893836      36.893836      36.893836    
   8270000   0.30081248    -8.1323107     -7.6810984      1.0358773      50218.233      36.893836      36.893836      36.893836    
   8280000   0.298527      -8.1374424     -7.6896583      0.98707668     50218.233      36.893836      36.893836      36.893836    
   8290000   0.29954569    -8.1363014     -7.6869893      0.99608409     50218.233      36.893836      36.893836      36.893836    
   8300000   0.30019639    -8.1353027     -7.6850145      1.0071499      50218.233      36.893836      36.893836      36.893836    
   8310000   0.30181209    -8.1363497     -7.683638       0.9986438      50218.233      36.893836      36.893836      36.893836    
   8320000   0.30141551    -8.1360216     -7.6839048      1.0060305      50218.233      36.893836      36.893836      36.893836    
   8330000   0.30048896    -8.1338909     -7.6831639      1.0169834      50218.233      36.893836      36.893836      36.893836    
   8340000   0.29848573    -8.1358546     -7.6881324      1.0010032      50218.233      36.893836      36.893836      36.893836    
   8350000   0.3004748     -8.1363375     -7.6856317      1.0075975      50218.233      36.893836      36.893836      36.893836    
   8360000   0.29730643    -8.1371908     -7.6912375      0.98650699     50218.233      36.893836      36.893836      36.893836    
   8370000   0.30033543    -8.1364771     -7.6859804      0.98942381     50218.233      36.893836      36.893836      36.893836    
   8380000   0.2991619     -8.1353695     -7.6866331      1.0017537      50218.233      36.893836      36.893836      36.893836    
   8390000   0.2995785     -8.1355708     -7.6862095      0.99926507     50218.233      36.893836      36.893836      36.893836    
   8400000   0.29995823    -8.137924      -7.687993       0.98254582     50218.233      36.893836      36.893836      36.893836    
   8410000   0.30017581    -8.1382976     -7.6880402      0.97956261     50218.233      36.893836      36.893836      36.893836    
   8420000   0.30125074    -8.1346658     -7.6827961      1.0137407      50218.233      36.893836      36.893836      36.893836    
   8430000   0.29983916    -8.1367208     -7.6869684      0.99462997     50218.233      36.893836      36.893836      36.893836    
   8440000   0.30240277    -8.1363739     -7.6827762      1.0034381      50218.233      36.893836      36.893836      36.893836    
   8450000   0.29924553    -8.1375908     -7.6887289      0.98394557     50218.233      36.893836      36.893836      36.893836    
   8460000   0.30178477    -8.1364249     -7.6837542      0.99231809     50218.233      36.893836      36.893836      36.893836    
   8470000   0.30007658    -8.1372374     -7.6871289      0.99021375     50218.233      36.893836      36.893836      36.893836    
   8480000   0.30112863    -8.1367486     -7.685062       0.99028713     50218.233      36.893836      36.893836      36.893836    
   8490000   0.29990088    -8.1383352     -7.6884903      0.98710635     50218.233      36.893836      36.893836      36.893836    
   8500000   0.29992048    -8.1370074     -7.6871331      0.98813178     50218.233      36.893836      36.893836      36.893836    
   8510000   0.29909371    -8.139593      -7.6909588      0.9754197      50218.233      36.893836      36.893836      36.893836    
   8520000   0.30028667    -8.1353289     -7.6849053      1.0074129      50218.233      36.893836      36.893836      36.893836    
   8530000   0.30044055    -8.1379147     -7.6872603      0.98499466     50218.233      36.893836      36.893836      36.893836    
   8540000   0.30016907    -8.1360186     -7.6857714      0.99781408     50218.233      36.893836      36.893836      36.893836    
   8550000   0.29958962    -8.1365305     -7.6871525      0.99485375     50218.233      36.893836      36.893836      36.893836    
   8560000   0.29963035    -8.1365979     -7.6871588      0.99170426     50218.233      36.893836      36.893836      36.893836    
   8570000   0.29950366    -8.137574      -7.6883249      0.98411165     50218.233      36.893836      36.893836      36.893836    
   8580000   0.29954678    -8.1351086     -7.6857948      1.0160678      50218.233      36.893836      36.893836      36.893836    
   8590000   0.3005976     -8.1381366     -7.6872466      0.98690472     50218.233      36.893836      36.893836      36.893836    
   8600000   0.30028819    -8.1367434     -7.6863176      0.99078961     50218.233      36.893836      36.893836      36.893836    
   8610000   0.30073145    -8.1349564     -7.6838656      1.0037691      50218.233      36.893836      36.893836      36.893836    
   8620000   0.29987675    -8.1332637     -7.683455       1.0157425      50218.233      36.893836      36.893836      36.893836    
   8630000   0.29907161    -8.1359951     -7.6873941      0.99698954     50218.233      36.893836      36.893836      36.893836    
   8640000   0.30069814    -8.135613      -7.6845722      1.0071197      50218.233      36.893836      36.893836      36.893836    
   8650000   0.29770713    -8.1341373     -7.687583       1.0049162      50218.233      36.893836      36.893836      36.893836    
   8660000   0.30028786    -8.1364394     -7.6860141      0.99741439     50218.233      36.893836      36.893836      36.893836    
   8670000   0.30110675    -8.1380075     -7.6863538      0.98798102     50218.233      36.893836      36.893836      36.893836    
   8680000   0.30121188    -8.1349128     -7.6831014      1.019649       50218.233      36.893836      36.893836      36.893836    
   8690000   0.30046131    -8.1357225     -7.685037       1.0071987      50218.233      36.893836      36.893836      36.893836    
   8700000   0.29952817    -8.1335683     -7.6842824      1.0084105      50218.233      36.893836      36.893836      36.893836    
   8710000   0.30081622    -8.1319741     -7.6807561      1.0242747      50218.233      36.893836      36.893836      36.893836    
   8720000   0.29972263    -8.1361322     -7.6865547      1.0022252      50218.233      36.893836      36.893836      36.893836    
   8730000   0.30124657    -8.1348047     -7.6829413      1.0063909      50218.233      36.893836      36.893836      36.893836    
   8740000   0.30017194    -8.1362751     -7.6860236      0.9918844      50218.233      36.893836      36.893836      36.893836    
   8750000   0.30123914    -8.134602      -7.6827497      1.0148727      50218.233      36.893836      36.893836      36.893836    
   8760000   0.29904775    -8.1348947     -7.6863294      1.007615       50218.233      36.893836      36.893836      36.893836    
   8770000   0.2987298     -8.1381472     -7.6900589      0.98478549     50218.233      36.893836      36.893836      36.893836    
   8780000   0.29953167    -8.136288      -7.6869969      0.99467064     50218.233      36.893836      36.893836      36.893836    
   8790000   0.30018312    -8.135488      -7.6852197      1.0075529      50218.233      36.893836      36.893836      36.893836    
   8800000   0.30001353    -8.1356049     -7.6855911      1.0016889      50218.233      36.893836      36.893836      36.893836    
   8810000   0.30011118    -8.1354952     -7.6853349      1.0019683      50218.233      36.893836      36.893836      36.893836    
   8820000   0.30064874    -8.1353987     -7.684432       1.0115896      50218.233      36.893836      36.893836      36.893836    
   8830000   0.30032932    -8.1370374     -7.6865499      0.98827828     50218.233      36.893836      36.893836      36.893836    
   8840000   0.29904429    -8.1343022     -7.6857421      1.012567       50218.233      36.893836      36.893836      36.893836    
   8850000   0.29977383    -8.1366287     -7.6869744      0.99076934     50218.233      36.893836      36.893836      36.893836    
   8860000   0.29850653    -8.1345616     -7.6868082      1.0086828      50218.233      36.893836      36.893836      36.893836    
   8870000   0.30017396    -8.1355302     -7.6852757      1.0097525      50218.233      36.893836      36.893836      36.893836    
   8880000   0.29878689    -8.1362255     -7.6880515      0.99749033     50218.233      36.893836      36.893836      36.893836    
   8890000   0.30044489    -8.1362585     -7.6855975      1.0021483      50218.233      36.893836      36.893836      36.893836    
   8900000   0.29788446    -8.1376558     -7.6908355      0.98057122     50218.233      36.893836      36.893836      36.893836    
   8910000   0.29910232    -8.1363077     -7.6876606      0.99486725     50218.233      36.893836      36.893836      36.893836    
   8920000   0.2999658     -8.1360528     -7.6861105      0.99975195     50218.233      36.893836      36.893836      36.893836    
   8930000   0.29929131    -8.138965      -7.6900344      0.97059628     50218.233      36.893836      36.893836      36.893836    
   8940000   0.30038776    -8.1379769     -7.6874017      0.98772833     50218.233      36.893836      36.893836      36.893836    
   8950000   0.29871354    -8.1371392     -7.6890752      0.98470916     50218.233      36.893836      36.893836      36.893836    
   8960000   0.30026903    -8.135412      -7.6850149      1.0116297      50218.233      36.893836      36.893836      36.893836    
   8970000   0.29950851    -8.1371825     -7.6879261      0.99588434     50218.233      36.893836      36.893836      36.893836    
   8980000   0.30153544    -8.1362934     -7.6839967      1.0002335      50218.233      36.893836      36.893836      36.893836    
   8990000   0.30074666    -8.1379145     -7.6868009      0.99276873     50218.233      36.893836      36.893836      36.893836    
   9000000   0.2992477     -8.1371443     -7.6882791      0.9863252      50218.233      36.893836      36.893836      36.893836    
   9010000   0.29927532    -8.1368967     -7.6879901      0.98539477     50218.233      36.893836      36.893836      36.893836    
   9020000   0.30161407    -8.1368145     -7.6843999      0.99286953     50218.233      36.893836      36.893836      36.893836    
   9030000   0.29886848    -8.1369909     -7.6886946      0.99424424     50218.233      36.893836      36.893836      36.893836    
   9040000   0.30025125    -8.1361639     -7.6857934      1.0094362      50218.233      36.893836      36.893836      36.893836    
   9050000   0.30014462    -8.1398779     -7.6896674      0.97113066     50218.233      36.893836      36.893836      36.893836    
   9060000   0.29970122    -8.1368135     -7.6872681      0.97850231     50218.233      36.893836      36.893836      36.893836    
   9070000   0.30124415    -8.1357286     -7.6838688      1.0053959      50218.233      36.893836      36.893836      36.893836    
   9080000   0.30145676    -8.1355913     -7.6834126      1.0006721      50218.233      36.893836      36.893836      36.893836    
   9090000   0.29926672    -8.1371616     -7.6882679      0.98952518     50218.233      36.893836      36.893836      36.893836    
   9100000   0.30190738    -8.1377299     -7.6848753      0.99360676     50218.233      36.893836      36.893836      36.893836    
   9110000   0.29915795    -8.138186      -7.6894555      0.99213359     50218.233      36.893836      36.893836      36.893836    
   9120000   0.29969142    -8.1381688     -7.6886381      0.980396       50218.233      36.893836      36.893836      36.893836    
   9130000   0.3000098     -8.1357553     -7.685747       1.0017377      50218.233      36.893836      36.893836      36.893836    
   9140000   0.29997904    -8.1351185     -7.6851563      1.0035372      50218.233      36.893836      36.893836      36.893836    
   9150000   0.29819876    -8.1375278     -7.690236       0.9840685      50218.233      36.893836      36.893836      36.893836    
   9160000   0.30084769    -8.1332882     -7.6820231      1.0263301      50218.233      36.893836      36.893836      36.893836    
   9170000   0.30113964    -8.1368387     -7.6851357      0.99648339     50218.233      36.893836      36.893836      36.893836    
   9180000   0.29989008    -8.1362482     -7.6864195      0.98891517     50218.233      36.893836      36.893836      36.893836    
   9190000   0.29941508    -8.1354281     -7.6863119      0.99541608     50218.233      36.893836      36.893836      36.893836    
   9200000   0.30091551    -8.1339476     -7.6825808      1.0157146      50218.233      36.893836      36.893836      36.893836    
   9210000   0.30116469    -8.1366086     -7.6848679      1.0045302      50218.233      36.893836      36.893836      36.893836    
   9220000   0.30015843    -8.1342527     -7.6840214      1.0119158      50218.233      36.893836      36.893836      36.893836    
   9230000   0.3001637     -8.1375009     -7.6872617      0.98614642     50218.233      36.893836      36.893836      36.893836    
   9240000   0.30029587    -8.1325509     -7.6821135      1.0189561      50218.233      36.893836      36.893836      36.893836    
   9250000   0.29921925    -8.1351958     -7.6863733      0.99900036     50218.233      36.893836      36.893836      36.893836    
   9260000   0.29957425    -8.1360105     -7.6866555      1.0022778      50218.233      36.893836      36.893836      36.893836    
   9270000   0.29848814    -8.1337747     -7.6860489      1.00637        50218.233      36.893836      36.893836      36.893836    
   9280000   0.30038751    -8.1354785     -7.6849037      0.99782033     50218.233      36.893836      36.893836      36.893836    
   9290000   0.30154384    -8.1341945     -7.6818852      1.0123891      50218.233      36.893836      36.893836      36.893836    
   9300000   0.29832252    -8.1356387     -7.6881613      0.99627333     50218.233      36.893836      36.893836      36.893836    
   9310000   0.30304886    -8.135821      -7.6812542      1.0019607      50218.233      36.893836      36.893836      36.893836    
   9320000   0.29956611    -8.1370807     -7.6877379      0.99432433     50218.233      36.893836      36.893836      36.893836    
   9330000   0.29797995    -8.1364135     -7.68945        0.99155605     50218.233      36.893836      36.893836      36.893836    
   9340000   0.30162508    -8.1358182     -7.683387       1.0029816      50218.233      36.893836      36.893836      36.893836    
   9350000   0.29976183    -8.1360607     -7.6864243      1.0096233      50218.233      36.893836      36.893836      36.893836    
   9360000   0.29863648    -8.1372356     -7.6892873      0.98589177     50218.233      36.893836      36.893836      36.893836    
   9370000   0.3000513     -8.1343709     -7.6843003      1.0194228      50218.233      36.893836      36.893836      36.893836    
   9380000   0.29938477    -8.1360658     -7.6869951      1.0016428      50218.233      36.893836      36.893836      36.893836    
   9390000   0.301247      -8.1360941     -7.68423        0.99793809     50218.233      36.893836      36.893836      36.893836    
   9400000   0.30035993    -8.1357883     -7.6852548      1.0022201      50218.233      36.893836      36.893836      36.893836    
   9410000   0.30067271    -8.1374864     -7.6864838      0.98757815     50218.233      36.893836      36.893836      36.893836    
   9420000   0.30127351    -8.1377733     -7.6858694      0.97901394     50218.233      36.893836      36.893836      36.893836    
   9430000   0.29970764    -8.1367878     -7.6872327      0.99343862     50218.233      36.893836      36.893836      36.893836    
   9440000   0.30113538    -8.1378115     -7.6861149      0.99045229     50218.233      36.893836      36.893836      36.893836    
   9450000   0.30024606    -8.1382822     -7.6879195      0.98370605     50218.233      36.893836      36.893836      36.893836    
   9460000   0.29913196    -8.1372456     -7.6885541      0.98228521     50218.233      36.893836      36.893836      36.893836    
   9470000   0.30102168    -8.1337491     -7.682223       1.010194       50218.233      36.893836      36.893836      36.893836    
   9480000   0.2992243     -8.1391122     -7.6902822      0.97211981     50218.233      36.893836      36.893836      36.893836    
   9490000   0.29996978    -8.1388564     -7.6889082      0.97458316     50218.233      36.893836      36.893836      36.893836    
   9500000   0.29995922    -8.1384223     -7.6884899      0.98383263     50218.233      36.893836      36.893836      36.893836    
   9510000   0.30034566    -8.1366172     -7.6861051      0.99733688     50218.233      36.893836      36.893836      36.893836    
   9520000   0.29897927    -8.1373861     -7.6889236      0.98043047     50218.233      36.893836      36.893836      36.893836    
   9530000   0.29980873    -8.1366681     -7.6869614      0.98449155     50218.233      36.893836      36.893836      36.893836    
   9540000   0.30089776    -8.1372309     -7.6858907      0.99147489     50218.233      36.893836      36.893836      36.893836    
   9550000   0.29886641    -8.1352295     -7.6869363      1.0060141      50218.233      36.893836      36.893836      36.893836    
   9560000   0.30085958    -8.1379749     -7.686692       0.98407818     50218.233      36.893836      36.893836      36.893836    
   9570000   0.30025889    -8.1370257     -7.6866438      0.98694986     50218.233      36.893836      36.893836      36.893836    
   9580000   0.29879696    -8.1355973     -7.6874083      0.99483298     50218.233      36.893836      36.893836      36.893836    
   9590000   0.30069236    -8.1368469     -7.6858148      0.99248502     50218.233      36.893836      36.893836      36.893836    
   9600000   0.29968097    -8.1361518     -7.6866367      0.99888139     50218.233      36.893836      36.893836      36.893836    
   9610000   0.29908666    -8.1355044     -7.6868808      0.99870027     50218.233      36.893836      36.893836      36.893836    
   9620000   0.30074673    -8.1360152     -7.6849015      0.99928485     50218.233      36.893836      36.893836      36.893836    
   9630000   0.29937089    -8.1343289     -7.685279       1.0048737      50218.233      36.893836      36.893836      36.893836    
   9640000   0.30056919    -8.1371557     -7.6863083      0.99156856     50218.233      36.893836      36.893836      36.893836    
   9650000   0.29989785    -8.1367174     -7.6868771      0.99128815     50218.233      36.893836      36.893836      36.893836    
   9660000   0.29944842    -8.1384225     -7.6892562      0.97869716     50218.233      36.893836      36.893836      36.893836    
   9670000   0.30055839    -8.1366268     -7.6857956      0.99956435     50218.233      36.893836      36.893836      36.893836    
   9680000   0.29918638    -8.1363234     -7.6875502      0.99475111     50218.233      36.893836      36.893836      36.893836    
   9690000   0.30078123    -8.1345988     -7.6834334      1.0014568      50218.233      36.893836      36.893836      36.893836    
   9700000   0.30058236    -8.1370054     -7.6861383      0.98853471     50218.233      36.893836      36.893836      36.893836    
   9710000   0.30026731    -8.1369422     -7.6865476      0.99159485     50218.233      36.893836      36.893836      36.893836    
   9720000   0.30155498    -8.1350119     -7.6826859      1.0223456      50218.233      36.893836      36.893836      36.893836    
   9730000   0.30057022    -8.1344844     -7.6836355      1.0044022      50218.233      36.893836      36.893836      36.893836    
   9740000   0.29918154    -8.1376183     -7.6888524      0.98383373     50218.233      36.893836      36.893836      36.893836    
   9750000   0.29967203    -8.1351492     -7.6856475      1.0022628      50218.233      36.893836      36.893836      36.893836    
   9760000   0.3015957     -8.1350126     -7.6826254      1.0052608      50218.233      36.893836      36.893836      36.893836    
   9770000   0.29999047    -8.1370966     -7.6871173      0.99705571     50218.233      36.893836      36.893836      36.893836    
   9780000   0.30185787    -8.1349161     -7.6821358      1.016864       50218.233      36.893836      36.893836      36.893836    
   9790000   0.29972691    -8.1358585     -7.6862745      1.0023932      50218.233      36.893836      36.893836      36.893836    
   9800000   0.2994384     -8.1369175     -7.6877663      0.99096532     50218.233      36.893836      36.893836      36.893836    
   9810000   0.29942081    -8.1356815     -7.6865567      1.0064018      50218.233      36.893836      36.893836      36.893836    
   9820000   0.29921148    -8.1361151     -7.6873042      0.99514549     50218.233      36.893836      36.893836      36.893836    
   9830000   0.30107443    -8.1350921     -7.6834869      1.0096348      50218.233      36.893836      36.893836      36.893836    
   9840000   0.29819176    -8.1352449     -7.6879636      1.0002165      50218.233      36.893836      36.893836      36.893836    
   9850000   0.30109335    -8.1367814     -7.6851478      0.99260053     50218.233      36.893836      36.893836      36.893836    
   9860000   0.29923651    -8.1369269     -7.6880785      0.98162273     50218.233      36.893836      36.893836      36.893836    
   9870000   0.30181749    -8.1345676     -7.6818478      1.0126339      50218.233      36.893836      36.893836      36.893836    
   9880000   0.29987235    -8.1342629     -7.6844608      1.0152423      50218.233      36.893836      36.893836      36.893836    
   9890000   0.30001491    -8.1330267     -7.6830108      1.0290666      50218.233      36.893836      36.893836      36.893836    
   9900000   0.29974746    -8.1348193     -7.6852045      1.0074561      50218.233      36.893836      36.893836      36.893836    
   9910000   0.30005167    -8.1355281     -7.685457       1.0014692      50218.233      36.893836      36.893836      36.893836    
   9920000   0.30030701    -8.1376794     -7.6872253      0.98424542     50218.233      36.893836      36.893836      36.893836    
   9930000   0.29912345    -8.1359835     -7.6873047      0.99948464     50218.233      36.893836      36.893836      36.893836    
   9940000   0.29912811    -8.1344688     -7.685783       1.0091236      50218.233      36.893836      36.893836      36.893836    
   9950000   0.30078451    -8.1361887     -7.6850183      0.99381635     50218.233      36.893836      36.893836      36.893836    
   9960000   0.30083699    -8.1357884     -7.6845393      1.003364       50218.233      36.893836      36.893836      36.893836    
   9970000   0.29956912    -8.1370661     -7.6877188      0.99203805     50218.233      36.893836      36.893836      36.893836    
   9980000   0.30027028    -8.1392634     -7.6888644      0.97389512     50218.233      36.893836      36.893836      36.893836    
   9990000   0.29900274    -8.1375327     -7.6890349      0.98645161     50218.233      36.893836      36.893836      36.893836    
  10000000   0.29931918    -8.1378676     -7.6888952      0.98416496     50218.233      36.893836      36.893836      36.893836    
Loop time of 15642.7 on 5 procs for 10000000 steps with 70304 atoms

Performance: 552335.923 tau/day, 639.278 timesteps/s, 44.944 Matom-step/s
94.4% CPU use with 5 MPI tasks x 1 OpenMP threads

MPI task timing breakdown:
Section |  min time  |  avg time  |  max time  |%varavg| %total
---------------------------------------------------------------
Pair    | 5649.8     | 6038.9     | 6403.4     | 383.7 | 38.61
Neigh   | 41.724     | 43.425     | 45.742     |  20.2 |  0.28
Comm    | 2264.7     | 2285.1     | 2307.5     |  39.2 | 14.61
Output  | 0.18034    | 0.18654    | 0.19849    |   1.5 |  0.00
Modify  | 6089       | 6457.3     | 6868.1     | 377.3 | 41.28
Other   |            | 817.8      |            |       |  5.23

Nlocal:        14060.8 ave       14112 max       14023 min
Histogram: 2 0 0 0 1 0 1 0 0 1
Nghost:        18758.8 ave       18810 max       18711 min
Histogram: 1 0 0 0 2 1 0 0 0 1
Neighs:              0 ave           0 max           0 min
Histogram: 5 0 0 0 0 0 0 0 0 0

Total # of neighbors = 0
Ave neighs/atom = 0
Neighbor list builds = 1647610
Dangerous builds = 0
clear
OMP_NUM_THREADS environment is not set. Defaulting to 1 thread. (src/comm.cpp:98)
  using 1 OpenMP thread(s) per MPI task
package gpu 0
jump dms280.lmp

variable T equal 280
# T = 1000* (temp in LJ unit)
variable f equal 10000
log log.${T}
log log.280
