variable TLJ equal (${T}/1000)
variable TLJ equal (320/1000)
variable NCyle equal 10
variable iStep equal (${f})
variable iStep equal (10000)
variable dumpStep equal (${f}*100)
variable dumpStep equal (10000*100)
variable runStep equal (${f}*100*${NCyle})
variable runStep equal (10000*100*${NCyle})
variable runStep equal (10000*100*10)

units       lj
atom_style  atomic
dimension 3
boundary     p p p
pair_style  lj/cut 2.5
read_data  ../data/T${T}.dat
read_data  ../data/T320.dat
Reading data file ...
  orthogonal box = (0.97250269 0.97250269 0.97250269) to (37.866338 37.866338 37.866338)
  1 by 1 by 5 MPI processor grid
  reading atoms ...
  70304 atoms
  reading velocities ...
  70304 velocities
  read_data CPU = 0.209 seconds
change_box all triclinic
Changing box ...
  triclinic box = (0.97250269 0.97250269 0.97250269) to (37.866338 37.866338 37.866338) with tilt (0 0 0)
mass 1 1
mass 2 1
pair_modify shift yes
pair_coeff  1 1 1 1
pair_coeff  1 2 1.5 0.8
pair_coeff  2 2 0.5 0.88


timestep 0.01
thermo ${iStep}
thermo 10000
reset_timestep 0
thermo_style custom step temp pe etotal press vol lx ly lz
fix             1 all nvt temp ${TLJ}  ${TLJ}  0.1
fix             1 all nvt temp 0.32  ${TLJ}  0.1
fix             1 all nvt temp 0.32  0.32  0.1
thermo_modify flush yes

fix dsf all deform 1 xy  wiggle 0.5  ${f}   units box
fix dsf all deform 1 xy  wiggle 0.5  10000   units box
fix ps1 all ave/time 1 1 ${iStep} c_thermo_press[1] c_thermo_press[2]  c_thermo_press[3] c_thermo_press[4]  c_thermo_press[5] c_thermo_press[6]  file  stress.${T}
fix ps1 all ave/time 1 1 10000 c_thermo_press[1] c_thermo_press[2]  c_thermo_press[3] c_thermo_press[4]  c_thermo_press[5] c_thermo_press[6]  file  stress.${T}
fix ps1 all ave/time 1 1 10000 c_thermo_press[1] c_thermo_press[2]  c_thermo_press[3] c_thermo_press[4]  c_thermo_press[5] c_thermo_press[6]  file  stress.320
dump            1 all custom ${dumpStep} dump.${T} id type x y z
dump            1 all custom 1000000 dump.${T} id type x y z
dump            1 all custom 1000000 dump.320 id type x y z
dump_modify 1 sort id
fix nodrift all momentum 1  linear 1 1 1
fix com_seed all recenter INIT INIT INIT shift all
run ${runStep}
run 10000000
Generated 0 of 1 mixed pair_coeff terms from geometric mixing rule
Per MPI rank memory allocation (min/avg/max) = 6.663 | 8.017 | 8.92 Mbytes
   Step          Temp          PotEng         TotEng         Press          Volume           Lx             Ly             Lz      
         0   0.32020808    -8.1136423     -7.633337       1.1960806      50218.233      36.893836      36.893836      36.893836    
     10000   0.32030466    -8.1081345     -7.6276843      1.2347725      50218.233      36.893836      36.893836      36.893836    
     20000   0.31937868    -8.1063325     -7.6272713      1.2536881      50218.233      36.893836      36.893836      36.893836    
     30000   0.32024142    -8.106701      -7.6263457      1.2463818      50218.233      36.893836      36.893836      36.893836    
     40000   0.32128449    -8.1067817     -7.6248618      1.2628484      50218.233      36.893836      36.893836      36.893836    
     50000   0.31956477    -8.107885      -7.6285447      1.2382099      50218.233      36.893836      36.893836      36.893836    
     60000   0.31995217    -8.1093827     -7.6294613      1.2221594      50218.233      36.893836      36.893836      36.893836    
     70000   0.31804478    -8.1089237     -7.6318634      1.2355045      50218.233      36.893836      36.893836      36.893836    
     80000   0.31896078    -8.1074722     -7.6290379      1.2422825      50218.233      36.893836      36.893836      36.893836    
     90000   0.32023193    -8.1089396     -7.6285986      1.228472       50218.233      36.893836      36.893836      36.893836    
    100000   0.31980604    -8.1049197     -7.6252174      1.2616565      50218.233      36.893836      36.893836      36.893836    
    110000   0.31986553    -8.1074458     -7.6276543      1.2375973      50218.233      36.893836      36.893836      36.893836    
    120000   0.31935646    -8.1066584     -7.6276305      1.246184       50218.233      36.893836      36.893836      36.893836    
    130000   0.32016587    -8.1084668     -7.6282248      1.2366443      50218.233      36.893836      36.893836      36.893836    
    140000   0.32100099    -8.1058343     -7.6243397      1.2474564      50218.233      36.893836      36.893836      36.893836    
    150000   0.31925535    -8.1101841     -7.6313079      1.2104254      50218.233      36.893836      36.893836      36.893836    
    160000   0.3207043     -8.1064614     -7.6254118      1.2521149      50218.233      36.893836      36.893836      36.893836    
    170000   0.32052535    -8.1054136     -7.6246325      1.2612991      50218.233      36.893836      36.893836      36.893836    
    180000   0.3206136     -8.1088657     -7.6279521      1.2331773      50218.233      36.893836      36.893836      36.893836    
    190000   0.3193283     -8.1059648     -7.6269792      1.2506496      50218.233      36.893836      36.893836      36.893836    
    200000   0.31918453    -8.1084661     -7.6296961      1.234621       50218.233      36.893836      36.893836      36.893836    
    210000   0.3193517     -8.1081305     -7.6291098      1.247358       50218.233      36.893836      36.893836      36.893836    
    220000   0.32161252    -8.1048724     -7.6224605      1.261805       50218.233      36.893836      36.893836      36.893836    
    230000   0.31916496    -8.1036617     -7.6249211      1.2701083      50218.233      36.893836      36.893836      36.893836    
    240000   0.31977321    -8.1070749     -7.6274219      1.2515636      50218.233      36.893836      36.893836      36.893836    
    250000   0.32099059    -8.1073489     -7.6258698      1.2386998      50218.233      36.893836      36.893836      36.893836    
    260000   0.31829298    -8.106756      -7.6293233      1.2388209      50218.233      36.893836      36.893836      36.893836    
    270000   0.32127991    -8.1034047     -7.6214917      1.2695543      50218.233      36.893836      36.893836      36.893836    
    280000   0.3200866     -8.1051886     -7.6250656      1.2550105      50218.233      36.893836      36.893836      36.893836    
    290000   0.32146878    -8.1067926     -7.6245963      1.2494517      50218.233      36.893836      36.893836      36.893836    
    300000   0.3189908     -8.102411      -7.6239316      1.2811278      50218.233      36.893836      36.893836      36.893836    
    310000   0.32100363    -8.1065918     -7.6250932      1.2536493      50218.233      36.893836      36.893836      36.893836    
    320000   0.32015436    -8.1073587     -7.627134       1.2491498      50218.233      36.893836      36.893836      36.893836    
    330000   0.31950452    -8.1067568     -7.6275069      1.2387652      50218.233      36.893836      36.893836      36.893836    
    340000   0.32045504    -8.1093477     -7.628672       1.2296908      50218.233      36.893836      36.893836      36.893836    
    350000   0.31923091    -8.1041963     -7.6253567      1.2700377      50218.233      36.893836      36.893836      36.893836    
    360000   0.32079242    -8.1056693     -7.6244875      1.2590802      50218.233      36.893836      36.893836      36.893836    
    370000   0.32025194    -8.1058822     -7.6255112      1.2518087      50218.233      36.893836      36.893836      36.893836    
    380000   0.31888704    -8.1087602     -7.6304364      1.2306572      50218.233      36.893836      36.893836      36.893836    
    390000   0.31968023    -8.1087516     -7.6292381      1.2311845      50218.233      36.893836      36.893836      36.893836    
    400000   0.32035997    -8.1068117     -7.6262786      1.2464449      50218.233      36.893836      36.893836      36.893836    
    410000   0.319871      -8.1116789     -7.6318792      1.2115605      50218.233      36.893836      36.893836      36.893836    
    420000   0.32060651    -8.1064401     -7.6255372      1.2502585      50218.233      36.893836      36.893836      36.893836    
    430000   0.32048671    -8.1066069     -7.6258837      1.2520885      50218.233      36.893836      36.893836      36.893836    
    440000   0.31905991    -8.107649      -7.6290659      1.2421331      50218.233      36.893836      36.893836      36.893836    
    450000   0.32099853    -8.1066394     -7.6251485      1.2526599      50218.233      36.893836      36.893836      36.893836    
    460000   0.32071485    -8.1094475     -7.6283821      1.2236435      50218.233      36.893836      36.893836      36.893836    
    470000   0.32050479    -8.1080185     -7.6272682      1.2439632      50218.233      36.893836      36.893836      36.893836    
    480000   0.32021657    -8.1063888     -7.6260707      1.241808       50218.233      36.893836      36.893836      36.893836    
    490000   0.31777165    -8.1074498     -7.6307991      1.2318055      50218.233      36.893836      36.893836      36.893836    
    500000   0.31892802    -8.1055545     -7.6271693      1.2634506      50218.233      36.893836      36.893836      36.893836    
    510000   0.31792616    -8.1074559     -7.6305735      1.2370289      50218.233      36.893836      36.893836      36.893836    
    520000   0.32039548    -8.1059771     -7.6253907      1.2504144      50218.233      36.893836      36.893836      36.893836    
    530000   0.31928048    -8.1075257     -7.6286117      1.2493286      50218.233      36.893836      36.893836      36.893836    
    540000   0.31917665    -8.1094131     -7.6306549      1.2253664      50218.233      36.893836      36.893836      36.893836    
    550000   0.320622      -8.1085322     -7.627606       1.2377214      50218.233      36.893836      36.893836      36.893836    
    560000   0.32000061    -8.1081105     -7.6281164      1.2399789      50218.233      36.893836      36.893836      36.893836    
    570000   0.31962356    -8.1076792     -7.6282507      1.2295633      50218.233      36.893836      36.893836      36.893836    
    580000   0.31869848    -8.1084256     -7.6303847      1.2329634      50218.233      36.893836      36.893836      36.893836    
    590000   0.32057365    -8.1078729     -7.6270193      1.2466832      50218.233      36.893836      36.893836      36.893836    
    600000   0.31826893    -8.1082953     -7.6308987      1.2353084      50218.233      36.893836      36.893836      36.893836    
    610000   0.31998382    -8.1074658     -7.6274969      1.2473704      50218.233      36.893836      36.893836      36.893836    
    620000   0.3187872     -8.1087994     -7.6306254      1.2267146      50218.233      36.893836      36.893836      36.893836    
    630000   0.319279      -8.1058993     -7.6269876      1.2519328      50218.233      36.893836      36.893836      36.893836    
    640000   0.32031604    -8.1070548     -7.6265876      1.2474654      50218.233      36.893836      36.893836      36.893836    
    650000   0.31950228    -8.1065796     -7.627333       1.2512132      50218.233      36.893836      36.893836      36.893836    
    660000   0.31924571    -8.1062479     -7.6273862      1.2540761      50218.233      36.893836      36.893836      36.893836    
    670000   0.31880865    -8.104557      -7.6263509      1.2604428      50218.233      36.893836      36.893836      36.893836    
    680000   0.3219244     -8.106409      -7.6235293      1.247952       50218.233      36.893836      36.893836      36.893836    
    690000   0.32132096    -8.1099915     -7.6280169      1.2318046      50218.233      36.893836      36.893836      36.893836    
    700000   0.31877485    -8.105527      -7.6273716      1.2529332      50218.233      36.893836      36.893836      36.893836    
    710000   0.31909545    -8.1047881     -7.6261517      1.2628925      50218.233      36.893836      36.893836      36.893836    
    720000   0.31860511    -8.108231      -7.6303301      1.2366622      50218.233      36.893836      36.893836      36.893836    
    730000   0.31991128    -8.1076581     -7.627798       1.2441207      50218.233      36.893836      36.893836      36.893836    
    740000   0.32032004    -8.1051702     -7.6246969      1.2535958      50218.233      36.893836      36.893836      36.893836    
    750000   0.31868666    -8.103061      -7.6250378      1.2740779      50218.233      36.893836      36.893836      36.893836    
    760000   0.31968989    -8.1065514     -7.6270234      1.2532002      50218.233      36.893836      36.893836      36.893836    
    770000   0.31997005    -8.1077421     -7.6277939      1.2399829      50218.233      36.893836      36.893836      36.893836    
    780000   0.32006931    -8.1053543     -7.6252572      1.2548195      50218.233      36.893836      36.893836      36.893836    
    790000   0.31925528    -8.1075256     -7.6286495      1.2400645      50218.233      36.893836      36.893836      36.893836    
    800000   0.32002593    -8.1076854     -7.6276534      1.2508911      50218.233      36.893836      36.893836      36.893836    
    810000   0.32095799    -8.1054018     -7.6239717      1.2562653      50218.233      36.893836      36.893836      36.893836    
    820000   0.32111126    -8.1049866     -7.6233265      1.2575169      50218.233      36.893836      36.893836      36.893836    
    830000   0.31902464    -8.1050407     -7.6265105      1.2638527      50218.233      36.893836      36.893836      36.893836    
    840000   0.3190544     -8.1082747     -7.6296999      1.2313225      50218.233      36.893836      36.893836      36.893836    
    850000   0.32074717    -8.1052601     -7.6241462      1.258515       50218.233      36.893836      36.893836      36.893836    
    860000   0.32084107    -8.1053466     -7.6240919      1.2534228      50218.233      36.893836      36.893836      36.893836    
    870000   0.32000278    -8.1050633     -7.6250659      1.2624849      50218.233      36.893836      36.893836      36.893836    
    880000   0.31997774    -8.1067091     -7.6267493      1.2387192      50218.233      36.893836      36.893836      36.893836    
    890000   0.32051064    -8.1057792     -7.6250201      1.2490339      50218.233      36.893836      36.893836      36.893836    
    900000   0.31898578    -8.1071278     -7.628656       1.2404612      50218.233      36.893836      36.893836      36.893836    
    910000   0.32220559    -8.1085768     -7.6252752      1.2307691      50218.233      36.893836      36.893836      36.893836    
    920000   0.32026932    -8.1063157     -7.6259186      1.2461389      50218.233      36.893836      36.893836      36.893836    
    930000   0.31987645    -8.1041289     -7.6243211      1.2682169      50218.233      36.893836      36.893836      36.893836    
    940000   0.32057099    -8.1083073     -7.6274576      1.2305315      50218.233      36.893836      36.893836      36.893836    
    950000   0.31976038    -8.1077167     -7.6280829      1.2417358      50218.233      36.893836      36.893836      36.893836    
    960000   0.31993318    -8.1084713     -7.6285784      1.2283044      50218.233      36.893836      36.893836      36.893836    
    970000   0.31937425    -8.1047156     -7.625661       1.2561118      50218.233      36.893836      36.893836      36.893836    
    980000   0.31975347    -8.1081187     -7.6284954      1.2486402      50218.233      36.893836      36.893836      36.893836    
    990000   0.32018689    -8.1086082     -7.6283347      1.2380696      50218.233      36.893836      36.893836      36.893836    
   1000000   0.32013073    -8.1090085     -7.6288192      1.2237823      50218.233      36.893836      36.893836      36.893836    
   1010000   0.31862594    -8.1062959     -7.6283638      1.2459409      50218.233      36.893836      36.893836      36.893836    
   1020000   0.32078729    -8.1058002     -7.6246261      1.2577623      50218.233      36.893836      36.893836      36.893836    
   1030000   0.32256558    -8.1056244     -7.6217829      1.2512628      50218.233      36.893836      36.893836      36.893836    
   1040000   0.32025322    -8.1053748     -7.6250018      1.2529076      50218.233      36.893836      36.893836      36.893836    
   1050000   0.32073615    -8.1079956     -7.6268982      1.2471955      50218.233      36.893836      36.893836      36.893836    
   1060000   0.32084092    -8.1058246     -7.62457        1.2494273      50218.233      36.893836      36.893836      36.893836    
   1070000   0.3194456     -8.1069207     -7.6277591      1.2504739      50218.233      36.893836      36.893836      36.893836    
   1080000   0.32071627    -8.1060598     -7.6249922      1.2538137      50218.233      36.893836      36.893836      36.893836    
   1090000   0.31867032    -8.1065096     -7.6285109      1.2464237      50218.233      36.893836      36.893836      36.893836    
   1100000   0.31809116    -8.1094876     -7.6323576      1.2165259      50218.233      36.893836      36.893836      36.893836    
   1110000   0.32001652    -8.1058471     -7.6258291      1.2566103      50218.233      36.893836      36.893836      36.893836    
   1120000   0.31973335    -8.107368      -7.6277748      1.2367162      50218.233      36.893836      36.893836      36.893836    
   1130000   0.31996847    -8.1069498     -7.6270039      1.247163       50218.233      36.893836      36.893836      36.893836    
   1140000   0.32135124    -8.1099262     -7.6279062      1.2184369      50218.233      36.893836      36.893836      36.893836    
   1150000   0.32180767    -8.1049481     -7.6222435      1.2669835      50218.233      36.893836      36.893836      36.893836    
   1160000   0.31969882    -8.1067095     -7.6271681      1.2455211      50218.233      36.893836      36.893836      36.893836    
   1170000   0.32139024    -8.1041907     -7.6221122      1.2697721      50218.233      36.893836      36.893836      36.893836    
   1180000   0.31736066    -8.1048911     -7.6288568      1.2663793      50218.233      36.893836      36.893836      36.893836    
   1190000   0.31991411    -8.1068767     -7.6270123      1.2404286      50218.233      36.893836      36.893836      36.893836    
   1200000   0.32034322    -8.1064376     -7.6259296      1.2578472      50218.233      36.893836      36.893836      36.893836    
   1210000   0.3204306     -8.1050302     -7.6243911      1.2562178      50218.233      36.893836      36.893836      36.893836    
   1220000   0.3195564     -8.1046303     -7.6253025      1.2663254      50218.233      36.893836      36.893836      36.893836    
   1230000   0.32013806    -8.10666       -7.6264598      1.2497725      50218.233      36.893836      36.893836      36.893836    
   1240000   0.31923162    -8.1088034     -7.6299628      1.2331358      50218.233      36.893836      36.893836      36.893836    
   1250000   0.3198551     -8.1068263     -7.6270505      1.2550968      50218.233      36.893836      36.893836      36.893836    
   1260000   0.31930129    -8.1044167     -7.6254716      1.2602428      50218.233      36.893836      36.893836      36.893836    
   1270000   0.31992596    -8.1055964     -7.6257143      1.2556394      50218.233      36.893836      36.893836      36.893836    
   1280000   0.31946705    -8.1066122     -7.6274185      1.2489551      50218.233      36.893836      36.893836      36.893836    
   1290000   0.31913403    -8.1051051     -7.6264109      1.2538779      50218.233      36.893836      36.893836      36.893836    
   1300000   0.31988278    -8.1068259     -7.6270085      1.2376898      50218.233      36.893836      36.893836      36.893836    
   1310000   0.32154922    -8.1059638     -7.6236469      1.2521064      50218.233      36.893836      36.893836      36.893836    
   1320000   0.32152836    -8.1040385     -7.6217528      1.2712305      50218.233      36.893836      36.893836      36.893836    
   1330000   0.32010846    -8.1077331     -7.6275772      1.250082       50218.233      36.893836      36.893836      36.893836    
   1340000   0.32001902    -8.1071361     -7.6271144      1.2473319      50218.233      36.893836      36.893836      36.893836    
   1350000   0.32037627    -8.1079751     -7.6274175      1.2482753      50218.233      36.893836      36.893836      36.893836    
   1360000   0.32064622    -8.1059526     -7.6249901      1.2562028      50218.233      36.893836      36.893836      36.893836    
   1370000   0.3197177     -8.1089237     -7.629354       1.2368377      50218.233      36.893836      36.893836      36.893836    
   1380000   0.32191293    -8.1068641     -7.6240015      1.2502958      50218.233      36.893836      36.893836      36.893836    
   1390000   0.31962825    -8.1066519     -7.6272164      1.2435688      50218.233      36.893836      36.893836      36.893836    
   1400000   0.31924653    -8.1066171     -7.6277541      1.2461168      50218.233      36.893836      36.893836      36.893836    
   1410000   0.31887892    -8.107974      -7.6296624      1.2312787      50218.233      36.893836      36.893836      36.893836    
   1420000   0.32061757    -8.1060189     -7.6250994      1.257803       50218.233      36.893836      36.893836      36.893836    
   1430000   0.31962109    -8.1057148     -7.62629        1.2554359      50218.233      36.893836      36.893836      36.893836    
   1440000   0.3191617     -8.1082506     -7.6295148      1.2321462      50218.233      36.893836      36.893836      36.893836    
   1450000   0.31937223    -8.1072511     -7.6281996      1.2327924      50218.233      36.893836      36.893836      36.893836    
   1460000   0.31945257    -8.1040057     -7.6248337      1.266751       50218.233      36.893836      36.893836      36.893836    
   1470000   0.31952013    -8.107875      -7.6286017      1.2434171      50218.233      36.893836      36.893836      36.893836    
   1480000   0.31995367    -8.1075148     -7.6275911      1.2450381      50218.233      36.893836      36.893836      36.893836    
   1490000   0.31948551    -8.1064841     -7.6272626      1.2411426      50218.233      36.893836      36.893836      36.893836    
   1500000   0.31979009    -8.1077653     -7.628087       1.2363203      50218.233      36.893836      36.893836      36.893836    
   1510000   0.32165213    -8.1051875     -7.6227162      1.2610239      50218.233      36.893836      36.893836      36.893836    
   1520000   0.31996777    -8.1042187     -7.6242738      1.2694662      50218.233      36.893836      36.893836      36.893836    
   1530000   0.32113408    -8.1043342     -7.6226399      1.2669419      50218.233      36.893836      36.893836      36.893836    
   1540000   0.31982029    -8.1078372     -7.6281136      1.2371012      50218.233      36.893836      36.893836      36.893836    
   1550000   0.31973674    -8.1083102     -7.6287119      1.2336908      50218.233      36.893836      36.893836      36.893836    
   1560000   0.32072971    -8.107878      -7.6267903      1.2434608      50218.233      36.893836      36.893836      36.893836    
   1570000   0.31907821    -8.106948      -7.6283375      1.2426376      50218.233      36.893836      36.893836      36.893836    
   1580000   0.32016001    -8.1053043     -7.6250711      1.2586195      50218.233      36.893836      36.893836      36.893836    
   1590000   0.32088976    -8.1029118     -7.6215841      1.2726652      50218.233      36.893836      36.893836      36.893836    
   1600000   0.32042462    -8.1062787     -7.6256486      1.247791       50218.233      36.893836      36.893836      36.893836    
   1610000   0.32000136    -8.1078369     -7.6278417      1.2440948      50218.233      36.893836      36.893836      36.893836    
   1620000   0.3193917     -8.1071443     -7.6280636      1.2448898      50218.233      36.893836      36.893836      36.893836    
   1630000   0.3198487     -8.1070607     -7.6272945      1.2416078      50218.233      36.893836      36.893836      36.893836    
   1640000   0.31847852    -8.107709      -7.629998       1.2365066      50218.233      36.893836      36.893836      36.893836    
   1650000   0.31892633    -8.1045226     -7.6261399      1.26206        50218.233      36.893836      36.893836      36.893836    
   1660000   0.32055613    -8.1062117     -7.6253844      1.2416991      50218.233      36.893836      36.893836      36.893836    
   1670000   0.31971127    -8.107477      -7.6279169      1.2442042      50218.233      36.893836      36.893836      36.893836    
   1680000   0.32179351    -8.1070974     -7.624414       1.2534001      50218.233      36.893836      36.893836      36.893836    
   1690000   0.32052729    -8.105545      -7.6247609      1.257414       50218.233      36.893836      36.893836      36.893836    
   1700000   0.32065126    -8.1081398     -7.6271698      1.2421222      50218.233      36.893836      36.893836      36.893836    
   1710000   0.31913052    -8.1070298     -7.6283408      1.2338328      50218.233      36.893836      36.893836      36.893836    
   1720000   0.32051416    -8.107319      -7.6265546      1.2444112      50218.233      36.893836      36.893836      36.893836    
   1730000   0.32037218    -8.1078817     -7.6273302      1.2399761      50218.233      36.893836      36.893836      36.893836    
   1740000   0.3180622     -8.1047078     -7.6276213      1.2599848      50218.233      36.893836      36.893836      36.893836    
   1750000   0.32017876    -8.1060809     -7.6258195      1.2531485      50218.233      36.893836      36.893836      36.893836    
   1760000   0.31963287    -8.1064048     -7.6269623      1.251487       50218.233      36.893836      36.893836      36.893836    
   1770000   0.32005782    -8.1066017     -7.6265218      1.25104        50218.233      36.893836      36.893836      36.893836    
   1780000   0.3222846     -8.1059788     -7.6225587      1.2494119      50218.233      36.893836      36.893836      36.893836    
   1790000   0.32091111    -8.1032901     -7.6219303      1.270066       50218.233      36.893836      36.893836      36.893836    
   1800000   0.3185045     -8.1068244     -7.6290744      1.2420088      50218.233      36.893836      36.893836      36.893836    
   1810000   0.32221909    -8.1048863     -7.6215645      1.2583466      50218.233      36.893836      36.893836      36.893836    
   1820000   0.31873254    -8.1069669     -7.6288749      1.2482368      50218.233      36.893836      36.893836      36.893836    
   1830000   0.31981382    -8.1084852     -7.6287713      1.2466652      50218.233      36.893836      36.893836      36.893836    
   1840000   0.31951498    -8.1079473     -7.6286816      1.2402991      50218.233      36.893836      36.893836      36.893836    
   1850000   0.32062851    -8.1078273     -7.6268914      1.2428022      50218.233      36.893836      36.893836      36.893836    
   1860000   0.3211723     -8.1050761     -7.6233245      1.2631068      50218.233      36.893836      36.893836      36.893836    
   1870000   0.3199587     -8.1056579     -7.6257267      1.259629       50218.233      36.893836      36.893836      36.893836    
   1880000   0.32175711    -8.1078963     -7.6252675      1.2433428      50218.233      36.893836      36.893836      36.893836    
   1890000   0.32025833    -8.1089409     -7.6285602      1.2306597      50218.233      36.893836      36.893836      36.893836    
   1900000   0.32010449    -8.1064934     -7.6263435      1.2512204      50218.233      36.893836      36.893836      36.893836    
   1910000   0.32105003    -8.1076358     -7.6260676      1.2446327      50218.233      36.893836      36.893836      36.893836    
   1920000   0.32011621    -8.1098551     -7.6296876      1.2280296      50218.233      36.893836      36.893836      36.893836    
   1930000   0.31965972    -8.1058978     -7.626415       1.2483629      50218.233      36.893836      36.893836      36.893836    
   1940000   0.31806768    -8.1066876     -7.6295928      1.2420263      50218.233      36.893836      36.893836      36.893836    
   1950000   0.32014005    -8.1071984     -7.6269951      1.2456019      50218.233      36.893836      36.893836      36.893836    
   1960000   0.32157349    -8.1085848     -7.6262315      1.2384027      50218.233      36.893836      36.893836      36.893836    
   1970000   0.31871999    -8.1075067     -7.6294335      1.2372545      50218.233      36.893836      36.893836      36.893836    
   1980000   0.32031586    -8.106202      -7.6257351      1.2532868      50218.233      36.893836      36.893836      36.893836    
   1990000   0.31829286    -8.1074902     -7.6300577      1.2389542      50218.233      36.893836      36.893836      36.893836    
   2000000   0.32106998    -8.1058261     -7.6242279      1.2507575      50218.233      36.893836      36.893836      36.893836    
   2010000   0.3182662     -8.1069342     -7.6295417      1.2525031      50218.233      36.893836      36.893836      36.893836    
   2020000   0.32129185    -8.1073403     -7.6254094      1.2534588      50218.233      36.893836      36.893836      36.893836    
   2030000   0.31882929    -8.1100538     -7.6318166      1.2201479      50218.233      36.893836      36.893836      36.893836    
   2040000   0.32012669    -8.107074      -7.6268908      1.2590806      50218.233      36.893836      36.893836      36.893836    
   2050000   0.31889724    -8.1066729     -7.6283339      1.2549025      50218.233      36.893836      36.893836      36.893836    
   2060000   0.31980322    -8.1083852     -7.6286872      1.2347663      50218.233      36.893836      36.893836      36.893836    
   2070000   0.32071404    -8.1082273     -7.6271631      1.2321778      50218.233      36.893836      36.893836      36.893836    
   2080000   0.32139944    -8.108828      -7.6267357      1.2455563      50218.233      36.893836      36.893836      36.893836    
   2090000   0.3188409     -8.1086558     -7.6304013      1.232214       50218.233      36.893836      36.893836      36.893836    
   2100000   0.32112309    -8.106564      -7.6248862      1.2521989      50218.233      36.893836      36.893836      36.893836    
   2110000   0.31934602    -8.1079391     -7.6289268      1.2469016      50218.233      36.893836      36.893836      36.893836    
   2120000   0.32176538    -8.1083373     -7.6256961      1.243017       50218.233      36.893836      36.893836      36.893836    
   2130000   0.3202022     -8.1034798     -7.6231833      1.2706662      50218.233      36.893836      36.893836      36.893836    
   2140000   0.32064403    -8.107553      -7.6265938      1.2481276      50218.233      36.893836      36.893836      36.893836    
   2150000   0.31879084    -8.1076066     -7.6294271      1.2351575      50218.233      36.893836      36.893836      36.893836    
   2160000   0.31937033    -8.1080768     -7.6290281      1.2334799      50218.233      36.893836      36.893836      36.893836    
   2170000   0.3197962     -8.1031561     -7.6234686      1.2785925      50218.233      36.893836      36.893836      36.893836    
   2180000   0.31959466    -8.105853      -7.6264679      1.2521745      50218.233      36.893836      36.893836      36.893836    
   2190000   0.31963017    -8.1085585     -7.6291201      1.2355162      50218.233      36.893836      36.893836      36.893836    
   2200000   0.3198811     -8.1069087     -7.6270939      1.2504056      50218.233      36.893836      36.893836      36.893836    
   2210000   0.32199743    -8.1044371     -7.6214479      1.2686608      50218.233      36.893836      36.893836      36.893836    
   2220000   0.32006631    -8.1054761     -7.6253834      1.2513172      50218.233      36.893836      36.893836      36.893836    
   2230000   0.3194783     -8.1036206     -7.6244099      1.2804279      50218.233      36.893836      36.893836      36.893836    
   2240000   0.31847583    -8.1058189     -7.6281119      1.2500452      50218.233      36.893836      36.893836      36.893836    
   2250000   0.32091983    -8.1042594     -7.6228865      1.2711342      50218.233      36.893836      36.893836      36.893836    
   2260000   0.3193091     -8.1071218     -7.628165       1.2471427      50218.233      36.893836      36.893836      36.893836    
   2270000   0.32062008    -8.1065357     -7.6256125      1.2608338      50218.233      36.893836      36.893836      36.893836    
   2280000   0.32050735    -8.1063866     -7.6256325      1.2467887      50218.233      36.893836      36.893836      36.893836    
   2290000   0.32012231    -8.1068115     -7.6266349      1.2530737      50218.233      36.893836      36.893836      36.893836    
   2300000   0.32058527    -8.1045972     -7.6237261      1.2647897      50218.233      36.893836      36.893836      36.893836    
   2310000   0.31991403    -8.1071207     -7.6272565      1.2401186      50218.233      36.893836      36.893836      36.893836    
   2320000   0.32008653    -8.1030289     -7.622906       1.2789712      50218.233      36.893836      36.893836      36.893836    
   2330000   0.31981886    -8.1074575     -7.6277361      1.2406514      50218.233      36.893836      36.893836      36.893836    
   2340000   0.32017526    -8.1075238     -7.6272677      1.2431209      50218.233      36.893836      36.893836      36.893836    
   2350000   0.3204508     -8.1057544     -7.625085       1.2620532      50218.233      36.893836      36.893836      36.893836    
   2360000   0.32064245    -8.1071037     -7.6261469      1.2441518      50218.233      36.893836      36.893836      36.893836    
   2370000   0.32071019    -8.1074828     -7.6264244      1.2443474      50218.233      36.893836      36.893836      36.893836    
   2380000   0.31848329    -8.105918      -7.6281999      1.2541504      50218.233      36.893836      36.893836      36.893836    
   2390000   0.32004585    -8.1042456     -7.6241837      1.2672405      50218.233      36.893836      36.893836      36.893836    
   2400000   0.31890728    -8.1095394     -7.6311853      1.231551       50218.233      36.893836      36.893836      36.893836    
   2410000   0.32080789    -8.1087225     -7.6275175      1.2329597      50218.233      36.893836      36.893836      36.893836    
   2420000   0.31968275    -8.107496      -7.6279787      1.2435688      50218.233      36.893836      36.893836      36.893836    
   2430000   0.31960443    -8.1062864     -7.6268866      1.2528584      50218.233      36.893836      36.893836      36.893836    
   2440000   0.32075429    -8.1088608     -7.6277362      1.2378224      50218.233      36.893836      36.893836      36.893836    
   2450000   0.32133445    -8.1091394     -7.6271446      1.2235554      50218.233      36.893836      36.893836      36.893836    
   2460000   0.32046534    -8.1047118     -7.6240206      1.2595115      50218.233      36.893836      36.893836      36.893836    
   2470000   0.31975169    -8.1057079     -7.6260872      1.2535974      50218.233      36.893836      36.893836      36.893836    
   2480000   0.32173016    -8.1035543     -7.620966       1.2742701      50218.233      36.893836      36.893836      36.893836    
   2490000   0.3197        -8.1086538     -7.6291106      1.2404753      50218.233      36.893836      36.893836      36.893836    
   2500000   0.3192679     -8.1098072     -7.6309122      1.2263788      50218.233      36.893836      36.893836      36.893836    
   2510000   0.31945127    -8.1079248     -7.6287547      1.2422637      50218.233      36.893836      36.893836      36.893836    
   2520000   0.32179944    -8.1070036     -7.6243113      1.2485198      50218.233      36.893836      36.893836      36.893836    
   2530000   0.3194741     -8.1064501     -7.6272458      1.2398061      50218.233      36.893836      36.893836      36.893836    
   2540000   0.32104178    -8.1066326     -7.6250767      1.2525145      50218.233      36.893836      36.893836      36.893836    
   2550000   0.32128872    -8.1061391     -7.6242129      1.2588835      50218.233      36.893836      36.893836      36.893836    
   2560000   0.32152694    -8.1101568     -7.6278732      1.2292848      50218.233      36.893836      36.893836      36.893836    
   2570000   0.32068835    -8.1069328     -7.6259071      1.2474022      50218.233      36.893836      36.893836      36.893836    
   2580000   0.31999546    -8.108046      -7.6280596      1.238455       50218.233      36.893836      36.893836      36.893836    
   2590000   0.32025112    -8.1105701     -7.6302002      1.2266471      50218.233      36.893836      36.893836      36.893836    
   2600000   0.31961331    -8.1077252     -7.6283121      1.2427195      50218.233      36.893836      36.893836      36.893836    
   2610000   0.31981559    -8.1065645     -7.626848       1.2498712      50218.233      36.893836      36.893836      36.893836    
   2620000   0.32097053    -8.1065589     -7.62511        1.2551499      50218.233      36.893836      36.893836      36.893836    
   2630000   0.32078717    -8.1058033     -7.6246294      1.2622475      50218.233      36.893836      36.893836      36.893836    
   2640000   0.31916367    -8.1045418     -7.6258031      1.2595346      50218.233      36.893836      36.893836      36.893836    
   2650000   0.31814163    -8.105201      -7.6279954      1.25764        50218.233      36.893836      36.893836      36.893836    
   2660000   0.32072331    -8.1075688     -7.6264907      1.242106       50218.233      36.893836      36.893836      36.893836    
   2670000   0.32068664    -8.1061206     -7.6250975      1.2508013      50218.233      36.893836      36.893836      36.893836    
   2680000   0.32028734    -8.1068373     -7.6264131      1.2467266      50218.233      36.893836      36.893836      36.893836    
   2690000   0.31969053    -8.1094827     -7.6299537      1.230291       50218.233      36.893836      36.893836      36.893836    
   2700000   0.3204673     -8.1060891     -7.625395       1.2555172      50218.233      36.893836      36.893836      36.893836    
   2710000   0.31847465    -8.1086996     -7.6309944      1.2256638      50218.233      36.893836      36.893836      36.893836    
   2720000   0.31966325    -8.1062418     -7.6267538      1.2453393      50218.233      36.893836      36.893836      36.893836    
   2730000   0.31867858    -8.1066454     -7.6286343      1.2522597      50218.233      36.893836      36.893836      36.893836    
   2740000   0.31958344    -8.1067124     -7.627344       1.2540088      50218.233      36.893836      36.893836      36.893836    
   2750000   0.31856713    -8.1078373     -7.6299934      1.2413162      50218.233      36.893836      36.893836      36.893836    
   2760000   0.31922123    -8.1054054     -7.6265804      1.2655517      50218.233      36.893836      36.893836      36.893836    
   2770000   0.31925182    -8.1041033     -7.6252323      1.2626136      50218.233      36.893836      36.893836      36.893836    
   2780000   0.31964473    -8.1063348     -7.6268745      1.2553295      50218.233      36.893836      36.893836      36.893836    
   2790000   0.32088804    -8.1063811     -7.6250559      1.2707006      50218.233      36.893836      36.893836      36.893836    
   2800000   0.31964892    -8.1086683     -7.6292017      1.2361344      50218.233      36.893836      36.893836      36.893836    
   2810000   0.3197306     -8.1083661     -7.628777       1.2464665      50218.233      36.893836      36.893836      36.893836    
   2820000   0.3180878     -8.1068474     -7.6297225      1.2521479      50218.233      36.893836      36.893836      36.893836    
   2830000   0.31828046    -8.1046713     -7.6272574      1.2595732      50218.233      36.893836      36.893836      36.893836    
   2840000   0.31987078    -8.1077381     -7.6279388      1.2385368      50218.233      36.893836      36.893836      36.893836    
   2850000   0.32039359    -8.1088704     -7.6282869      1.2381384      50218.233      36.893836      36.893836      36.893836    
   2860000   0.32003297    -8.1064706     -7.626428       1.2521599      50218.233      36.893836      36.893836      36.893836    
   2870000   0.32015224    -8.1076074     -7.6273859      1.2377886      50218.233      36.893836      36.893836      36.893836    
   2880000   0.31995777    -8.1057641     -7.6258342      1.2627856      50218.233      36.893836      36.893836      36.893836    
   2890000   0.31920387    -8.105526      -7.626727       1.2496772      50218.233      36.893836      36.893836      36.893836    
   2900000   0.32053497    -8.1080094     -7.6272138      1.2398418      50218.233      36.893836      36.893836      36.893836    
   2910000   0.32141966    -8.1068638     -7.6247412      1.246408       50218.233      36.893836      36.893836      36.893836    
   2920000   0.31987507    -8.1094608     -7.629655       1.2280117      50218.233      36.893836      36.893836      36.893836    
   2930000   0.3197203     -8.1078554     -7.6282818      1.2462357      50218.233      36.893836      36.893836      36.893836    
   2940000   0.3216012     -8.1083523     -7.6259574      1.2404982      50218.233      36.893836      36.893836      36.893836    
   2950000   0.32093976    -8.1074211     -7.6260183      1.2417502      50218.233      36.893836      36.893836      36.893836    
   2960000   0.31965284    -8.1085261     -7.6290537      1.2304313      50218.233      36.893836      36.893836      36.893836    
   2970000   0.32088324    -8.1062538     -7.6249358      1.2528267      50218.233      36.893836      36.893836      36.893836    
   2980000   0.31924681    -8.1069693     -7.6281059      1.2395383      50218.233      36.893836      36.893836      36.893836    
   2990000   0.31983622    -8.1099213     -7.6301738      1.2250519      50218.233      36.893836      36.893836      36.893836    
   3000000   0.32071615    -8.1051529     -7.6240855      1.2510569      50218.233      36.893836      36.893836      36.893836    
   3010000   0.31821787    -8.1092342     -7.6319142      1.2239493      50218.233      36.893836      36.893836      36.893836    
   3020000   0.3204553     -8.1060827     -7.6254066      1.2495138      50218.233      36.893836      36.893836      36.893836    
   3030000   0.31904011    -8.1096988     -7.6311455      1.2197612      50218.233      36.893836      36.893836      36.893836    
   3040000   0.3185929     -8.1078843     -7.6300017      1.2427359      50218.233      36.893836      36.893836      36.893836    
   3050000   0.3200162     -8.1053004     -7.6252829      1.2624745      50218.233      36.893836      36.893836      36.893836    
   3060000   0.32005086    -8.108006      -7.6279365      1.2420215      50218.233      36.893836      36.893836      36.893836    
   3070000   0.32069717    -8.1078239     -7.626785       1.2424749      50218.233      36.893836      36.893836      36.893836    
   3080000   0.32016993    -8.1083883     -7.6281402      1.2488872      50218.233      36.893836      36.893836      36.893836    
   3090000   0.32059931    -8.1067926     -7.6259005      1.2433682      50218.233      36.893836      36.893836      36.893836    
   3100000   0.31883426    -8.1095375     -7.6312929      1.2302711      50218.233      36.893836      36.893836      36.893836    
   3110000   0.32104311    -8.1072572     -7.6256994      1.2441798      50218.233      36.893836      36.893836      36.893836    
   3120000   0.32012019    -8.1093422     -7.6291688      1.238223       50218.233      36.893836      36.893836      36.893836    
   3130000   0.31946008    -8.1059293     -7.626746       1.2561654      50218.233      36.893836      36.893836      36.893836    
   3140000   0.3185744     -8.1079862     -7.6301314      1.2310937      50218.233      36.893836      36.893836      36.893836    
   3150000   0.32135752    -8.1050544     -7.623025       1.2496028      50218.233      36.893836      36.893836      36.893836    
   3160000   0.32128321    -8.1084268     -7.6265088      1.242285       50218.233      36.893836      36.893836      36.893836    
   3170000   0.31897926    -8.1062037     -7.6277417      1.2520004      50218.233      36.893836      36.893836      36.893836    
   3180000   0.32077576    -8.1084251     -7.6272683      1.24461        50218.233      36.893836      36.893836      36.893836    
   3190000   0.31954396    -8.1077411     -7.628432       1.240722       50218.233      36.893836      36.893836      36.893836    
   3200000   0.32123874    -8.1051368     -7.6232855      1.2634898      50218.233      36.893836      36.893836      36.893836    
   3210000   0.31934381    -8.1081185     -7.6291096      1.2342729      50218.233      36.893836      36.893836      36.893836    
   3220000   0.31921395    -8.1102593     -7.6314452      1.2202758      50218.233      36.893836      36.893836      36.893836    
   3230000   0.32027274    -8.1055456     -7.6251433      1.2576309      50218.233      36.893836      36.893836      36.893836    
   3240000   0.31938903    -8.1067012     -7.6276245      1.2556114      50218.233      36.893836      36.893836      36.893836    
   3250000   0.32067219    -8.1042895     -7.6232881      1.2654365      50218.233      36.893836      36.893836      36.893836    
   3260000   0.31990931    -8.1057276     -7.6258705      1.264707       50218.233      36.893836      36.893836      36.893836    
   3270000   0.31967571    -8.1056863     -7.6261796      1.2511012      50218.233      36.893836      36.893836      36.893836    
   3280000   0.31749846    -8.1057561     -7.6295152      1.2439053      50218.233      36.893836      36.893836      36.893836    
   3290000   0.31941172    -8.1073986     -7.6282878      1.2396427      50218.233      36.893836      36.893836      36.893836    
   3300000   0.3198517     -8.1063897     -7.626619       1.2440338      50218.233      36.893836      36.893836      36.893836    
   3310000   0.32178838    -8.1067471     -7.6240714      1.2538259      50218.233      36.893836      36.893836      36.893836    
   3320000   0.31971631    -8.107119      -7.6275513      1.2426577      50218.233      36.893836      36.893836      36.893836    
   3330000   0.31845829    -8.1046693     -7.6269887      1.264529       50218.233      36.893836      36.893836      36.893836    
   3340000   0.31894242    -8.1070034     -7.6285966      1.2416122      50218.233      36.893836      36.893836      36.893836    
   3350000   0.31893923    -8.1083072     -7.6299051      1.2409082      50218.233      36.893836      36.893836      36.893836    
   3360000   0.31905785    -8.1077276     -7.6291477      1.2400412      50218.233      36.893836      36.893836      36.893836    
   3370000   0.31889791    -8.1055403     -7.6272003      1.2596736      50218.233      36.893836      36.893836      36.893836    
   3380000   0.32006124    -8.1082291     -7.6281441      1.2405917      50218.233      36.893836      36.893836      36.893836    
   3390000   0.32139722    -8.1096928     -7.6276038      1.2287874      50218.233      36.893836      36.893836      36.893836    
   3400000   0.3204911     -8.1055306     -7.6248008      1.2602569      50218.233      36.893836      36.893836      36.893836    
   3410000   0.31911592    -8.1065654     -7.6278983      1.2544914      50218.233      36.893836      36.893836      36.893836    
   3420000   0.32059826    -8.1085105     -7.62762        1.2359125      50218.233      36.893836      36.893836      36.893836    
   3430000   0.31899904    -8.1064606     -7.6279688      1.2467381      50218.233      36.893836      36.893836      36.893836    
   3440000   0.31858318    -8.108807      -7.630939       1.2288184      50218.233      36.893836      36.893836      36.893836    
   3450000   0.32003713    -8.107482      -7.6274332      1.2412901      50218.233      36.893836      36.893836      36.893836    
   3460000   0.31902197    -8.1061995     -7.6276733      1.2408632      50218.233      36.893836      36.893836      36.893836    
   3470000   0.31977767    -8.1093808     -7.6297211      1.2220731      50218.233      36.893836      36.893836      36.893836    
   3480000   0.32097887    -8.1090698     -7.6276084      1.232796       50218.233      36.893836      36.893836      36.893836    
   3490000   0.31953118    -8.1079686     -7.6286786      1.2315538      50218.233      36.893836      36.893836      36.893836    
   3500000   0.3191291     -8.1083984     -7.6297116      1.233662       50218.233      36.893836      36.893836      36.893836    
   3510000   0.3193754     -8.1093523     -7.630296       1.2309939      50218.233      36.893836      36.893836      36.893836    
   3520000   0.32032761    -8.1094502     -7.6289657      1.227994       50218.233      36.893836      36.893836      36.893836    
   3530000   0.31953199    -8.1067548     -7.6274636      1.2442976      50218.233      36.893836      36.893836      36.893836    
   3540000   0.32168893    -8.1074519     -7.6249253      1.2418234      50218.233      36.893836      36.893836      36.893836    
   3550000   0.32005462    -8.1067198     -7.6266447      1.250526       50218.233      36.893836      36.893836      36.893836    
   3560000   0.31997391    -8.1095794     -7.6296254      1.2217359      50218.233      36.893836      36.893836      36.893836    
   3570000   0.3185704     -8.1066111     -7.6287623      1.256215       50218.233      36.893836      36.893836      36.893836    
   3580000   0.31990307    -8.1072244     -7.6273766      1.2374598      50218.233      36.893836      36.893836      36.893836    
   3590000   0.31899541    -8.1053403     -7.626854       1.254438       50218.233      36.893836      36.893836      36.893836    
   3600000   0.32025613    -8.1070189     -7.6266415      1.2410722      50218.233      36.893836      36.893836      36.893836    
   3610000   0.31857674    -8.1074855     -7.6296272      1.2421618      50218.233      36.893836      36.893836      36.893836    
   3620000   0.32000072    -8.1082146     -7.6282204      1.2335385      50218.233      36.893836      36.893836      36.893836    
   3630000   0.32024924    -8.1097124     -7.6293454      1.2165152      50218.233      36.893836      36.893836      36.893836    
   3640000   0.318982      -8.1057954     -7.6273292      1.2563437      50218.233      36.893836      36.893836      36.893836    
   3650000   0.31985364    -8.1070818     -7.6273082      1.2386904      50218.233      36.893836      36.893836      36.893836    
   3660000   0.31927388    -8.1031603     -7.6242563      1.2706638      50218.233      36.893836      36.893836      36.893836    
   3670000   0.31935225    -8.1068833     -7.6278617      1.2508742      50218.233      36.893836      36.893836      36.893836    
   3680000   0.32122241    -8.1064351     -7.6246083      1.2561163      50218.233      36.893836      36.893836      36.893836    
   3690000   0.31972114    -8.1052414     -7.6256665      1.255555       50218.233      36.893836      36.893836      36.893836    
   3700000   0.32174092    -8.1036889     -7.6210844      1.2760239      50218.233      36.893836      36.893836      36.893836    
   3710000   0.31778389    -8.1082591     -7.6315901      1.2305322      50218.233      36.893836      36.893836      36.893836    
   3720000   0.32039131    -8.1037676     -7.6231875      1.2753524      50218.233      36.893836      36.893836      36.893836    
   3730000   0.32104537    -8.1085403     -7.6269791      1.2278315      50218.233      36.893836      36.893836      36.893836    
   3740000   0.32164083    -8.1047031     -7.6222487      1.254002       50218.233      36.893836      36.893836      36.893836    
   3750000   0.32132671    -8.1046608     -7.6226776      1.2698484      50218.233      36.893836      36.893836      36.893836    
   3760000   0.32036842    -8.1048961     -7.6243503      1.259689       50218.233      36.893836      36.893836      36.893836    
   3770000   0.31990509    -8.1054085     -7.6255577      1.264059       50218.233      36.893836      36.893836      36.893836    
   3780000   0.32027016    -8.1057955     -7.6253971      1.2609307      50218.233      36.893836      36.893836      36.893836    
   3790000   0.32050385    -8.106355      -7.625606       1.2497986      50218.233      36.893836      36.893836      36.893836    
   3800000   0.31929588    -8.107873      -7.628936       1.2385464      50218.233      36.893836      36.893836      36.893836    
   3810000   0.32078451    -8.1074682     -7.6262983      1.2528479      50218.233      36.893836      36.893836      36.893836    
   3820000   0.31888677    -8.1069244     -7.628601       1.2482062      50218.233      36.893836      36.893836      36.893836    
   3830000   0.32153265    -8.1080606     -7.6257685      1.2434278      50218.233      36.893836      36.893836      36.893836    
   3840000   0.32038389    -8.106167      -7.625598       1.2497975      50218.233      36.893836      36.893836      36.893836    
   3850000   0.32008525    -8.1034344     -7.6233134      1.2734712      50218.233      36.893836      36.893836      36.893836    
   3860000   0.32136747    -8.1093804     -7.6273361      1.2359003      50218.233      36.893836      36.893836      36.893836    
   3870000   0.32010608    -8.1057231     -7.6255708      1.2602815      50218.233      36.893836      36.893836      36.893836    
   3880000   0.31977711    -8.1057766     -7.6261177      1.2495787      50218.233      36.893836      36.893836      36.893836    
   3890000   0.31898347    -8.1035704     -7.625102       1.2684448      50218.233      36.893836      36.893836      36.893836    
   3900000   0.32116436    -8.106251      -7.6245113      1.2466967      50218.233      36.893836      36.893836      36.893836    
   3910000   0.31939161    -8.1076129     -7.6285322      1.2340094      50218.233      36.893836      36.893836      36.893836    
   3920000   0.31947542    -8.1063337     -7.6271274      1.2433127      50218.233      36.893836      36.893836      36.893836    
   3930000   0.32006492    -8.1081064     -7.6280159      1.2336959      50218.233      36.893836      36.893836      36.893836    
   3940000   0.31957389    -8.1079285     -7.6285744      1.2383665      50218.233      36.893836      36.893836      36.893836    
   3950000   0.32145426    -8.1063136     -7.624139       1.2601205      50218.233      36.893836      36.893836      36.893836    
   3960000   0.32000056    -8.1062871     -7.6262931      1.2471734      50218.233      36.893836      36.893836      36.893836    
   3970000   0.31955204    -8.1069547     -7.6276334      1.2491317      50218.233      36.893836      36.893836      36.893836    
   3980000   0.3195571     -8.1074979     -7.628169       1.2415845      50218.233      36.893836      36.893836      36.893836    
   3990000   0.32045938    -8.106606      -7.6259238      1.2507577      50218.233      36.893836      36.893836      36.893836    
   4000000   0.31950486    -8.1074307     -7.6281803      1.2383635      50218.233      36.893836      36.893836      36.893836    
   4010000   0.31857035    -8.1087111     -7.6308624      1.227661       50218.233      36.893836      36.893836      36.893836    
   4020000   0.32010602    -8.107343      -7.6271908      1.2448822      50218.233      36.893836      36.893836      36.893836    
   4030000   0.31839272    -8.1078344     -7.6302521      1.2417107      50218.233      36.893836      36.893836      36.893836    
   4040000   0.31986717    -8.1070915     -7.6272976      1.2522429      50218.233      36.893836      36.893836      36.893836    
   4050000   0.31947821    -8.1090738     -7.6298633      1.2223632      50218.233      36.893836      36.893836      36.893836    
   4060000   0.32017144    -8.1069354     -7.6266851      1.2464637      50218.233      36.893836      36.893836      36.893836    
   4070000   0.3209277     -8.1088551     -7.6274704      1.2308098      50218.233      36.893836      36.893836      36.893836    
   4080000   0.32072355    -8.1064465     -7.625368       1.2457101      50218.233      36.893836      36.893836      36.893836    
   4090000   0.3195346     -8.1096319     -7.6303368      1.2288089      50218.233      36.893836      36.893836      36.893836    
   4100000   0.32110291    -8.1053644     -7.6237169      1.2527903      50218.233      36.893836      36.893836      36.893836    
   4110000   0.31948769    -8.1089626     -7.6297379      1.2235966      50218.233      36.893836      36.893836      36.893836    
   4120000   0.31967688    -8.104943      -7.6254345      1.2633024      50218.233      36.893836      36.893836      36.893836    
   4130000   0.32069159    -8.1094458     -7.6284152      1.2301089      50218.233      36.893836      36.893836      36.893836    
   4140000   0.3204763     -8.1041608     -7.6234532      1.2579254      50218.233      36.893836      36.893836      36.893836    
   4150000   0.31916187    -8.1023988     -7.6236628      1.2754466      50218.233      36.893836      36.893836      36.893836    
   4160000   0.32019517    -8.1079939     -7.627708       1.2417406      50218.233      36.893836      36.893836      36.893836    
   4170000   0.31971866    -8.1071424     -7.6275713      1.242888       50218.233      36.893836      36.893836      36.893836    
   4180000   0.31989998    -8.1055378     -7.6256946      1.2580189      50218.233      36.893836      36.893836      36.893836    
   4190000   0.31996121    -8.1047101     -7.6247751      1.2572749      50218.233      36.893836      36.893836      36.893836    
   4200000   0.31934647    -8.1045747     -7.6255618      1.2668396      50218.233      36.893836      36.893836      36.893836    
   4210000   0.32054197    -8.1047908     -7.6239847      1.2595716      50218.233      36.893836      36.893836      36.893836    
   4220000   0.32112293    -8.1077079     -7.6260303      1.2409486      50218.233      36.893836      36.893836      36.893836    
   4230000   0.32052897    -8.106728      -7.6259414      1.2465908      50218.233      36.893836      36.893836      36.893836    
   4240000   0.31898621    -8.1061997     -7.6277272      1.2501301      50218.233      36.893836      36.893836      36.893836    
   4250000   0.32224688    -8.10545       -7.6220866      1.2559927      50218.233      36.893836      36.893836      36.893836    
   4260000   0.32155721    -8.1060719     -7.6237429      1.2601001      50218.233      36.893836      36.893836      36.893836    
   4270000   0.32057092    -8.1058162     -7.6249667      1.2527932      50218.233      36.893836      36.893836      36.893836    
   4280000   0.3197675     -8.1063286     -7.6266842      1.2556838      50218.233      36.893836      36.893836      36.893836    
   4290000   0.32052912    -8.1062366     -7.6254497      1.254585       50218.233      36.893836      36.893836      36.893836    
   4300000   0.32139989    -8.1060947     -7.6240018      1.2566317      50218.233      36.893836      36.893836      36.893836    
   4310000   0.32056648    -8.1044698     -7.6236269      1.256875       50218.233      36.893836      36.893836      36.893836    
   4320000   0.31851466    -8.1045885     -7.6268233      1.2579349      50218.233      36.893836      36.893836      36.893836    
   4330000   0.32011853    -8.10704       -7.6268691      1.2530557      50218.233      36.893836      36.893836      36.893836    
   4340000   0.32022868    -8.1099291     -7.6295929      1.2315197      50218.233      36.893836      36.893836      36.893836    
   4350000   0.32041803    -8.1050502     -7.62443        1.2584545      50218.233      36.893836      36.893836      36.893836    
   4360000   0.32162997    -8.1054408     -7.6230027      1.2503288      50218.233      36.893836      36.893836      36.893836    
   4370000   0.31898971    -8.106554      -7.6280763      1.2491911      50218.233      36.893836      36.893836      36.893836    
   4380000   0.31861981    -8.1033967     -7.6254738      1.2730976      50218.233      36.893836      36.893836      36.893836    
   4390000   0.31803474    -8.108206      -7.6311607      1.2315563      50218.233      36.893836      36.893836      36.893836    
   4400000   0.31989022    -8.1068874     -7.6270589      1.2519831      50218.233      36.893836      36.893836      36.893836    
   4410000   0.32037666    -8.1089179     -7.6283598      1.228706       50218.233      36.893836      36.893836      36.893836    
   4420000   0.31975705    -8.107479      -7.6278502      1.2407643      50218.233      36.893836      36.893836      36.893836    
   4430000   0.32047976    -8.106481      -7.6257682      1.2468562      50218.233      36.893836      36.893836      36.893836    
   4440000   0.32162225    -8.1086247     -7.6261982      1.2367664      50218.233      36.893836      36.893836      36.893836    
   4450000   0.31974503    -8.1082297     -7.6286189      1.2256268      50218.233      36.893836      36.893836      36.893836    
   4460000   0.32044851    -8.1087958     -7.6281299      1.2313206      50218.233      36.893836      36.893836      36.893836    
   4470000   0.32380196    -8.1060626     -7.6203666      1.2591102      50218.233      36.893836      36.893836      36.893836    
   4480000   0.3188794     -8.1080337     -7.6297214      1.2368168      50218.233      36.893836      36.893836      36.893836    
   4490000   0.32074233    -8.1094593     -7.6283527      1.2283261      50218.233      36.893836      36.893836      36.893836    
   4500000   0.31993007    -8.107752      -7.6278637      1.2400665      50218.233      36.893836      36.893836      36.893836    
   4510000   0.32000632    -8.1087441     -7.6287414      1.2312026      50218.233      36.893836      36.893836      36.893836    
   4520000   0.32182172    -8.1094345     -7.6267088      1.2258362      50218.233      36.893836      36.893836      36.893836    
   4530000   0.32071521    -8.1078656     -7.6267996      1.2432642      50218.233      36.893836      36.893836      36.893836    
   4540000   0.31999955    -8.1111559     -7.6311634      1.2214457      50218.233      36.893836      36.893836      36.893836    
   4550000   0.31949513    -8.1082193     -7.6289835      1.23315        50218.233      36.893836      36.893836      36.893836    
   4560000   0.31994053    -8.1063496     -7.6264456      1.2526414      50218.233      36.893836      36.893836      36.893836    
   4570000   0.31944268    -8.1076962     -7.628539       1.2413591      50218.233      36.893836      36.893836      36.893836    
   4580000   0.32035883    -8.1055973     -7.6250659      1.2524774      50218.233      36.893836      36.893836      36.893836    
   4590000   0.31895104    -8.1076641     -7.6292443      1.2370134      50218.233      36.893836      36.893836      36.893836    
   4600000   0.31975979    -8.1101359     -7.630503       1.221186       50218.233      36.893836      36.893836      36.893836    
   4610000   0.31940607    -8.1044673     -7.625365       1.2617286      50218.233      36.893836      36.893836      36.893836    
   4620000   0.32040732    -8.1079792     -7.6273751      1.240687       50218.233      36.893836      36.893836      36.893836    
   4630000   0.31892964    -8.107727      -7.6293394      1.2398916      50218.233      36.893836      36.893836      36.893836    
   4640000   0.32113395    -8.1060864     -7.6243923      1.2447362      50218.233      36.893836      36.893836      36.893836    
   4650000   0.31904627    -8.1055024     -7.6269398      1.256957       50218.233      36.893836      36.893836      36.893836    
   4660000   0.3209166     -8.1070109     -7.6256429      1.2493658      50218.233      36.893836      36.893836      36.893836    
   4670000   0.31948196    -8.1055901     -7.626374       1.2585869      50218.233      36.893836      36.893836      36.893836    
   4680000   0.3214083     -8.1043784     -7.6222728      1.2695667      50218.233      36.893836      36.893836      36.893836    
   4690000   0.32037063    -8.1047407     -7.6241916      1.2612478      50218.233      36.893836      36.893836      36.893836    
   4700000   0.31993599    -8.1061445     -7.6262474      1.2584481      50218.233      36.893836      36.893836      36.893836    
   4710000   0.31928866    -8.1083774     -7.6294512      1.2409212      50218.233      36.893836      36.893836      36.893836    
   4720000   0.31900914    -8.1039348     -7.6254279      1.2701866      50218.233      36.893836      36.893836      36.893836    
   4730000   0.32141635    -8.1071581     -7.6250404      1.24666        50218.233      36.893836      36.893836      36.893836    
   4740000   0.32124317    -8.1059438     -7.6240859      1.2564482      50218.233      36.893836      36.893836      36.893836    
   4750000   0.321089      -8.1054103     -7.6237837      1.2571915      50218.233      36.893836      36.893836      36.893836    
   4760000   0.31925992    -8.1054163     -7.6265332      1.2535114      50218.233      36.893836      36.893836      36.893836    
   4770000   0.31903699    -8.1053946     -7.6268459      1.254639       50218.233      36.893836      36.893836      36.893836    
   4780000   0.32040128    -8.1051798     -7.6245848      1.2680353      50218.233      36.893836      36.893836      36.893836    
   4790000   0.32115725    -8.1067112     -7.6249822      1.2463482      50218.233      36.893836      36.893836      36.893836    
   4800000   0.31831284    -8.1060544     -7.628592       1.2533304      50218.233      36.893836      36.893836      36.893836    
   4810000   0.32001726    -8.1082228     -7.6282037      1.2483456      50218.233      36.893836      36.893836      36.893836    
   4820000   0.31983255    -8.1068573     -7.6271153      1.2451657      50218.233      36.893836      36.893836      36.893836    
   4830000   0.32050577    -8.1056279     -7.6248761      1.2522726      50218.233      36.893836      36.893836      36.893836    
   4840000   0.31983827    -8.1047597     -7.6250092      1.2675691      50218.233      36.893836      36.893836      36.893836    
   4850000   0.32034531    -8.1054768     -7.6249656      1.2548361      50218.233      36.893836      36.893836      36.893836    
   4860000   0.31975522    -8.1045099     -7.6248839      1.2665598      50218.233      36.893836      36.893836      36.893836    
   4870000   0.318229      -8.1057018     -7.6283651      1.2541572      50218.233      36.893836      36.893836      36.893836    
   4880000   0.31823251    -8.1064341     -7.6290921      1.2511446      50218.233      36.893836      36.893836      36.893836    
   4890000   0.32016431    -8.1097883     -7.6295487      1.2272688      50218.233      36.893836      36.893836      36.893836    
   4900000   0.32074407    -8.1096326     -7.6285234      1.2301604      50218.233      36.893836      36.893836      36.893836    
   4910000   0.32035623    -8.1097574     -7.6292299      1.2200288      50218.233      36.893836      36.893836      36.893836    
   4920000   0.31975871    -8.1084044     -7.6287731      1.240712       50218.233      36.893836      36.893836      36.893836    
   4930000   0.32063765    -8.1067881     -7.6258385      1.2478501      50218.233      36.893836      36.893836      36.893836    
   4940000   0.32039231    -8.1063892     -7.6258076      1.2513583      50218.233      36.893836      36.893836      36.893836    
   4950000   0.32023542    -8.1072645     -7.6269182      1.2528299      50218.233      36.893836      36.893836      36.893836    
   4960000   0.31934288    -8.1076844     -7.6286769      1.2378749      50218.233      36.893836      36.893836      36.893836    
   4970000   0.32051082    -8.1065667     -7.6258073      1.241044       50218.233      36.893836      36.893836      36.893836    
   4980000   0.31795415    -8.1101882     -7.6332638      1.2203697      50218.233      36.893836      36.893836      36.893836    
   4990000   0.32030923    -8.1073148     -7.6268578      1.2395167      50218.233      36.893836      36.893836      36.893836    
   5000000   0.3190019     -8.1072206     -7.6287245      1.2390902      50218.233      36.893836      36.893836      36.893836    
   5010000   0.31908302    -8.1049363     -7.6263186      1.2577702      50218.233      36.893836      36.893836      36.893836    
   5020000   0.32078554    -8.1072799     -7.6261084      1.242433       50218.233      36.893836      36.893836      36.893836    
   5030000   0.32208709    -8.108138      -7.6250143      1.2411095      50218.233      36.893836      36.893836      36.893836    
   5040000   0.31925724    -8.1096206     -7.6307416      1.224          50218.233      36.893836      36.893836      36.893836    
   5050000   0.31970058    -8.1067823     -7.6272383      1.2504084      50218.233      36.893836      36.893836      36.893836    
   5060000   0.32061228    -8.1062628     -7.6253513      1.2519361      50218.233      36.893836      36.893836      36.893836    
   5070000   0.32078665    -8.1090105     -7.6278373      1.2238632      50218.233      36.893836      36.893836      36.893836    
   5080000   0.31969692    -8.1091249     -7.6295864      1.233799       50218.233      36.893836      36.893836      36.893836    
   5090000   0.32057597    -8.1104937     -7.6296366      1.2171998      50218.233      36.893836      36.893836      36.893836    
   5100000   0.31938572    -8.1059357     -7.6268639      1.2595203      50218.233      36.893836      36.893836      36.893836    
   5110000   0.31985915    -8.1082477     -7.6284658      1.2420041      50218.233      36.893836      36.893836      36.893836    
   5120000   0.32058666    -8.1062854     -7.6254123      1.2491188      50218.233      36.893836      36.893836      36.893836    
   5130000   0.32028004    -8.1074849     -7.6270716      1.2465433      50218.233      36.893836      36.893836      36.893836    
   5140000   0.31973419    -8.1063817     -7.6267872      1.24591        50218.233      36.893836      36.893836      36.893836    
   5150000   0.319771      -8.1046076     -7.624958       1.2626095      50218.233      36.893836      36.893836      36.893836    
   5160000   0.32067894    -8.1059083     -7.6248967      1.2614757      50218.233      36.893836      36.893836      36.893836    
   5170000   0.32152753    -8.1048844     -7.6226         1.2624747      50218.233      36.893836      36.893836      36.893836    
   5180000   0.31986853    -8.1051273     -7.6253313      1.2602897      50218.233      36.893836      36.893836      36.893836    
   5190000   0.32120219    -8.1055347     -7.6237383      1.2594643      50218.233      36.893836      36.893836      36.893836    
   5200000   0.32161214    -8.1089845     -7.6265731      1.2210685      50218.233      36.893836      36.893836      36.893836    
   5210000   0.31924133    -8.1071536     -7.6282985      1.2412895      50218.233      36.893836      36.893836      36.893836    
   5220000   0.32014421    -8.107731      -7.6275215      1.2452698      50218.233      36.893836      36.893836      36.893836    
   5230000   0.31996099    -8.1072584     -7.6273238      1.2512814      50218.233      36.893836      36.893836      36.893836    
   5240000   0.32008329    -8.1050939     -7.6249758      1.2622274      50218.233      36.893836      36.893836      36.893836    
   5250000   0.3215436     -8.1056383     -7.6233298      1.2497332      50218.233      36.893836      36.893836      36.893836    
   5260000   0.3207014     -8.106203      -7.6251577      1.2562244      50218.233      36.893836      36.893836      36.893836    
   5270000   0.31829418    -8.1046475     -7.627213       1.2672087      50218.233      36.893836      36.893836      36.893836    
   5280000   0.32061253    -8.1075623     -7.6266504      1.2470241      50218.233      36.893836      36.893836      36.893836    
   5290000   0.32072345    -8.1072297     -7.6261514      1.2507288      50218.233      36.893836      36.893836      36.893836    
   5300000   0.32121783    -8.108598      -7.6267781      1.2375123      50218.233      36.893836      36.893836      36.893836    
   5310000   0.32124367    -8.1059555     -7.6240968      1.2582487      50218.233      36.893836      36.893836      36.893836    
   5320000   0.31971425    -8.1062254     -7.6266609      1.2480539      50218.233      36.893836      36.893836      36.893836    
   5330000   0.32054458    -8.1060792     -7.6252692      1.2573333      50218.233      36.893836      36.893836      36.893836    
   5340000   0.31988225    -8.1056883     -7.6258718      1.2565141      50218.233      36.893836      36.893836      36.893836    
   5350000   0.31997762    -8.1053272     -7.6253676      1.2627788      50218.233      36.893836      36.893836      36.893836    
   5360000   0.32111498    -8.1062039     -7.6245383      1.2507851      50218.233      36.893836      36.893836      36.893836    
   5370000   0.3204227     -8.1080906     -7.6274633      1.233522       50218.233      36.893836      36.893836      36.893836    
   5380000   0.32140244    -8.105005      -7.6229082      1.2571214      50218.233      36.893836      36.893836      36.893836    
   5390000   0.32059291    -8.1062353     -7.6253527      1.2596988      50218.233      36.893836      36.893836      36.893836    
   5400000   0.31968625    -8.1087893     -7.6292667      1.239403       50218.233      36.893836      36.893836      36.893836    
   5410000   0.31975482    -8.1092326     -7.6296072      1.2228801      50218.233      36.893836      36.893836      36.893836    
   5420000   0.31905206    -8.1075629     -7.6289916      1.2358946      50218.233      36.893836      36.893836      36.893836    
   5430000   0.32106441    -8.1094557     -7.6278659      1.2254998      50218.233      36.893836      36.893836      36.893836    
   5440000   0.31903999    -8.1061512     -7.6275981      1.2492502      50218.233      36.893836      36.893836      36.893836    
   5450000   0.32105781    -8.1077988     -7.626219       1.2396664      50218.233      36.893836      36.893836      36.893836    
   5460000   0.32012599    -8.1083527     -7.6281706      1.2385597      50218.233      36.893836      36.893836      36.893836    
   5470000   0.31988409    -8.1051697     -7.6253504      1.2575753      50218.233      36.893836      36.893836      36.893836    
   5480000   0.32124838    -8.1072529     -7.6253872      1.2391901      50218.233      36.893836      36.893836      36.893836    
   5490000   0.32038115    -8.1066348     -7.6260699      1.2411372      50218.233      36.893836      36.893836      36.893836    
   5500000   0.32035102    -8.1110697     -7.63055        1.2189176      50218.233      36.893836      36.893836      36.893836    
   5510000   0.31916108    -8.1093472     -7.6306124      1.2234642      50218.233      36.893836      36.893836      36.893836    
   5520000   0.32028589    -8.1075908     -7.6271688      1.235114       50218.233      36.893836      36.893836      36.893836    
   5530000   0.31960291    -8.107026      -7.6276285      1.2439319      50218.233      36.893836      36.893836      36.893836    
   5540000   0.31988923    -8.1067769     -7.6269499      1.2470129      50218.233      36.893836      36.893836      36.893836    
   5550000   0.32072737    -8.1095241     -7.6284399      1.2335684      50218.233      36.893836      36.893836      36.893836    
   5560000   0.32196307    -8.1059501     -7.6230124      1.255746       50218.233      36.893836      36.893836      36.893836    
   5570000   0.31920705    -8.1076044     -7.6288007      1.238722       50218.233      36.893836      36.893836      36.893836    
   5580000   0.3188204     -8.1078207     -7.6295969      1.2418101      50218.233      36.893836      36.893836      36.893836    
   5590000   0.31999485    -8.1105435     -7.630558       1.2262296      50218.233      36.893836      36.893836      36.893836    
   5600000   0.31964666    -8.1094843     -7.6300212      1.2260318      50218.233      36.893836      36.893836      36.893836    
   5610000   0.31841855    -8.1070914     -7.6294703      1.2479557      50218.233      36.893836      36.893836      36.893836    
   5620000   0.32073943    -8.1068391     -7.6257368      1.2418405      50218.233      36.893836      36.893836      36.893836    
   5630000   0.31824883    -8.1058703     -7.6285039      1.2555925      50218.233      36.893836      36.893836      36.893836    
   5640000   0.32017312    -8.1028274     -7.6225745      1.281538       50218.233      36.893836      36.893836      36.893836    
   5650000   0.31995017    -8.1073627     -7.6274442      1.2464149      50218.233      36.893836      36.893836      36.893836    
   5660000   0.32040684    -8.1055495     -7.6249461      1.2574608      50218.233      36.893836      36.893836      36.893836    
   5670000   0.31987649    -8.1068779     -7.62707        1.2458396      50218.233      36.893836      36.893836      36.893836    
   5680000   0.32008868    -8.1061642     -7.626038       1.2543461      50218.233      36.893836      36.893836      36.893836    
   5690000   0.32090644    -8.1055459     -7.6241931      1.2528113      50218.233      36.893836      36.893836      36.893836    
   5700000   0.31982532    -8.1061721     -7.6264409      1.2461816      50218.233      36.893836      36.893836      36.893836    
   5710000   0.32107683    -8.1061791     -7.6245707      1.2588068      50218.233      36.893836      36.893836      36.893836    
   5720000   0.31974049    -8.1082132     -7.6286093      1.2434291      50218.233      36.893836      36.893836      36.893836    
   5730000   0.31992589    -8.1075861     -7.6277041      1.2438222      50218.233      36.893836      36.893836      36.893836    
   5740000   0.32185738    -8.1067029     -7.6239237      1.2553232      50218.233      36.893836      36.893836      36.893836    
   5750000   0.32027929    -8.1065276     -7.6261155      1.2566715      50218.233      36.893836      36.893836      36.893836    
   5760000   0.3204215     -8.1051808     -7.6245554      1.2569605      50218.233      36.893836      36.893836      36.893836    
   5770000   0.31987671    -8.1058773     -7.6260691      1.2476569      50218.233      36.893836      36.893836      36.893836    
   5780000   0.32026885    -8.1079086     -7.6275122      1.2337313      50218.233      36.893836      36.893836      36.893836    
   5790000   0.31925238    -8.1074482     -7.6285764      1.2387895      50218.233      36.893836      36.893836      36.893836    
   5800000   0.32000463    -8.1082291     -7.6282289      1.2340469      50218.233      36.893836      36.893836      36.893836    
   5810000   0.31981716    -8.1078654     -7.6281465      1.2345351      50218.233      36.893836      36.893836      36.893836    
   5820000   0.31919873    -8.105454      -7.6266627      1.2547776      50218.233      36.893836      36.893836      36.893836    
   5830000   0.32213813    -8.106484      -7.6232837      1.2570854      50218.233      36.893836      36.893836      36.893836    
   5840000   0.31879181    -8.1073452     -7.6291643      1.2419665      50218.233      36.893836      36.893836      36.893836    
   5850000   0.32078142    -8.1074982     -7.626333       1.2436122      50218.233      36.893836      36.893836      36.893836    
   5860000   0.31919761    -8.1055298     -7.6267402      1.2519763      50218.233      36.893836      36.893836      36.893836    
   5870000   0.32056848    -8.1091583     -7.6283125      1.2327927      50218.233      36.893836      36.893836      36.893836    
   5880000   0.31947834    -8.1072287     -7.628018       1.2401337      50218.233      36.893836      36.893836      36.893836    
   5890000   0.31994448    -8.1066926     -7.6267827      1.2491261      50218.233      36.893836      36.893836      36.893836    
   5900000   0.31911336    -8.108826      -7.6301627      1.2304179      50218.233      36.893836      36.893836      36.893836    
   5910000   0.31992215    -8.1085691     -7.6286927      1.2319659      50218.233      36.893836      36.893836      36.893836    
   5920000   0.31906185    -8.1077137     -7.6291277      1.2405563      50218.233      36.893836      36.893836      36.893836    
   5930000   0.32095069    -8.1084239     -7.6270047      1.2330289      50218.233      36.893836      36.893836      36.893836    
   5940000   0.31997798    -8.1064115     -7.6264514      1.2482073      50218.233      36.893836      36.893836      36.893836    
   5950000   0.31951931    -8.1059919     -7.6267197      1.2491256      50218.233      36.893836      36.893836      36.893836    
   5960000   0.31958965    -8.109558      -7.6301803      1.2270821      50218.233      36.893836      36.893836      36.893836    
   5970000   0.32015744    -8.104979      -7.6247496      1.2607221      50218.233      36.893836      36.893836      36.893836    
   5980000   0.31944398    -8.1088226     -7.6296634      1.2247067      50218.233      36.893836      36.893836      36.893836    
   5990000   0.31991894    -8.1087152     -7.6288436      1.2278146      50218.233      36.893836      36.893836      36.893836    
   6000000   0.32074796    -8.1098101     -7.628695       1.2290821      50218.233      36.893836      36.893836      36.893836    
   6010000   0.32020625    -8.1094667     -7.6291641      1.2335558      50218.233      36.893836      36.893836      36.893836    
   6020000   0.32086027    -8.1064109     -7.6251273      1.2368741      50218.233      36.893836      36.893836      36.893836    
   6030000   0.32082261    -8.1088431     -7.6276161      1.2342775      50218.233      36.893836      36.893836      36.893836    
   6040000   0.32197624    -8.1064511     -7.6234937      1.2538265      50218.233      36.893836      36.893836      36.893836    
   6050000   0.31974938    -8.1065108     -7.6268935      1.2517085      50218.233      36.893836      36.893836      36.893836    
   6060000   0.31969799    -8.1071891     -7.6276489      1.2379704      50218.233      36.893836      36.893836      36.893836    
   6070000   0.3192541     -8.1052053     -7.626331       1.2571384      50218.233      36.893836      36.893836      36.893836    
   6080000   0.31959042    -8.1082292     -7.6288504      1.2313247      50218.233      36.893836      36.893836      36.893836    
   6090000   0.32088053    -8.1086802     -7.6273662      1.2311542      50218.233      36.893836      36.893836      36.893836    
   6100000   0.32061333    -8.1072797     -7.6263665      1.2447998      50218.233      36.893836      36.893836      36.893836    
   6110000   0.3197199     -8.104953      -7.62538        1.2526752      50218.233      36.893836      36.893836      36.893836    
   6120000   0.31843152    -8.1066357     -7.6289952      1.2411769      50218.233      36.893836      36.893836      36.893836    
   6130000   0.3180655     -8.1080222     -7.6309308      1.2258222      50218.233      36.893836      36.893836      36.893836    
   6140000   0.32097829    -8.1084927     -7.6270321      1.2316192      50218.233      36.893836      36.893836      36.893836    
   6150000   0.32087364    -8.1045647     -7.6232611      1.2674718      50218.233      36.893836      36.893836      36.893836    
   6160000   0.32146884    -8.1065992     -7.6244028      1.2505251      50218.233      36.893836      36.893836      36.893836    
   6170000   0.32000247    -8.1065501     -7.6265532      1.2517543      50218.233      36.893836      36.893836      36.893836    
   6180000   0.32010585    -8.106851      -7.626699       1.2498481      50218.233      36.893836      36.893836      36.893836    
   6190000   0.31989929    -8.1053857     -7.6255435      1.2533641      50218.233      36.893836      36.893836      36.893836    
   6200000   0.31845956    -8.1041947     -7.6265122      1.2651058      50218.233      36.893836      36.893836      36.893836    
   6210000   0.32135036    -8.1042875     -7.6222689      1.265492       50218.233      36.893836      36.893836      36.893836    
   6220000   0.3195145     -8.1052761     -7.6260112      1.2594366      50218.233      36.893836      36.893836      36.893836    
   6230000   0.31801694    -8.1059084     -7.6288898      1.2496286      50218.233      36.893836      36.893836      36.893836    
   6240000   0.31978628    -8.1056854     -7.6260128      1.2603514      50218.233      36.893836      36.893836      36.893836    
   6250000   0.31987855    -8.1044316     -7.6246206      1.2646885      50218.233      36.893836      36.893836      36.893836    
   6260000   0.31861303    -8.1064915     -7.6285788      1.2459418      50218.233      36.893836      36.893836      36.893836    
   6270000   0.32152773    -8.1067514     -7.6244667      1.2468533      50218.233      36.893836      36.893836      36.893836    
   6280000   0.320434      -8.10413       -7.6234859      1.2662513      50218.233      36.893836      36.893836      36.893836    
   6290000   0.31887382    -8.1062198     -7.6279159      1.2537644      50218.233      36.893836      36.893836      36.893836    
   6300000   0.32039507    -8.1057159     -7.6251301      1.2615773      50218.233      36.893836      36.893836      36.893836    
   6310000   0.32025707    -8.1040596     -7.6236808      1.2705684      50218.233      36.893836      36.893836      36.893836    
   6320000   0.31965249    -8.1061858     -7.6267139      1.2571828      50218.233      36.893836      36.893836      36.893836    
   6330000   0.31872415    -8.105528      -7.6274486      1.2549157      50218.233      36.893836      36.893836      36.893836    
   6340000   0.32115199    -8.1056665     -7.6239454      1.2552521      50218.233      36.893836      36.893836      36.893836    
   6350000   0.32124672    -8.1069511     -7.6250878      1.2495569      50218.233      36.893836      36.893836      36.893836    
   6360000   0.32128017    -8.1044979     -7.6225845      1.2656675      50218.233      36.893836      36.893836      36.893836    
   6370000   0.32117623    -8.1071947     -7.6254372      1.2486822      50218.233      36.893836      36.893836      36.893836    
   6380000   0.3186439     -8.1078721     -7.6299131      1.2275141      50218.233      36.893836      36.893836      36.893836    
   6390000   0.32325599    -8.1096712     -7.6247941      1.2259089      50218.233      36.893836      36.893836      36.893836    
   6400000   0.32079683    -8.1071507     -7.6259622      1.2404365      50218.233      36.893836      36.893836      36.893836    
   6410000   0.31923769    -8.1064962     -7.6276465      1.2429559      50218.233      36.893836      36.893836      36.893836    
   6420000   0.3198524     -8.1077335     -7.6279617      1.222404       50218.233      36.893836      36.893836      36.893836    
   6430000   0.31888422    -8.1067323     -7.6284127      1.2476482      50218.233      36.893836      36.893836      36.893836    
   6440000   0.32193803    -8.1070602     -7.6241601      1.2422048      50218.233      36.893836      36.893836      36.893836    
   6450000   0.31985817    -8.1062817     -7.6265012      1.2528956      50218.233      36.893836      36.893836      36.893836    
   6460000   0.32217763    -8.1103246     -7.627065       1.2239596      50218.233      36.893836      36.893836      36.893836    
   6470000   0.31798063    -8.1076581     -7.630694       1.2408003      50218.233      36.893836      36.893836      36.893836    
   6480000   0.32155946    -8.1113155     -7.6289831      1.209713       50218.233      36.893836      36.893836      36.893836    
   6490000   0.32037036    -8.1072271     -7.6266784      1.2488394      50218.233      36.893836      36.893836      36.893836    
   6500000   0.31890961    -8.1071841     -7.6288265      1.2414403      50218.233      36.893836      36.893836      36.893836    
   6510000   0.31968087    -8.1063938     -7.6268793      1.2534482      50218.233      36.893836      36.893836      36.893836    
   6520000   0.32097935    -8.1088595     -7.6273973      1.2334771      50218.233      36.893836      36.893836      36.893836    
   6530000   0.31926871    -8.1065293     -7.6276331      1.2493376      50218.233      36.893836      36.893836      36.893836    
   6540000   0.32080822    -8.1059607     -7.6247552      1.2610089      50218.233      36.893836      36.893836      36.893836    
   6550000   0.31986045    -8.106772      -7.6269881      1.2495348      50218.233      36.893836      36.893836      36.893836    
   6560000   0.31976371    -8.1069675     -7.6273288      1.249423       50218.233      36.893836      36.893836      36.893836    
   6570000   0.31876027    -8.1084966     -7.630363       1.2302467      50218.233      36.893836      36.893836      36.893836    
   6580000   0.32044563    -8.1055888     -7.6249272      1.2636945      50218.233      36.893836      36.893836      36.893836    
   6590000   0.32039193    -8.107403      -7.626822       1.2501736      50218.233      36.893836      36.893836      36.893836    
   6600000   0.31873852    -8.1059121     -7.6278112      1.2494165      50218.233      36.893836      36.893836      36.893836    
   6610000   0.32080209    -8.1088582     -7.6276619      1.2413239      50218.233      36.893836      36.893836      36.893836    
   6620000   0.32058243    -8.1050549     -7.6241881      1.2581515      50218.233      36.893836      36.893836      36.893836    
   6630000   0.31922061    -8.1058662     -7.6270421      1.2494607      50218.233      36.893836      36.893836      36.893836    
   6640000   0.32037761    -8.1071546     -7.626595       1.2471683      50218.233      36.893836      36.893836      36.893836    
   6650000   0.32065508    -8.1075322     -7.6265564      1.2477709      50218.233      36.893836      36.893836      36.893836    
   6660000   0.32046006    -8.108317      -7.6276338      1.2367032      50218.233      36.893836      36.893836      36.893836    
   6670000   0.32145967    -8.1070237     -7.6248411      1.2574003      50218.233      36.893836      36.893836      36.893836    
   6680000   0.32046216    -8.1041758     -7.6234894      1.2678994      50218.233      36.893836      36.893836      36.893836    
   6690000   0.32128945    -8.1048221     -7.6228947      1.2561645      50218.233      36.893836      36.893836      36.893836    
   6700000   0.31981617    -8.1054414     -7.625724       1.2508768      50218.233      36.893836      36.893836      36.893836    
   6710000   0.31979851    -8.1066211     -7.6269301      1.2339771      50218.233      36.893836      36.893836      36.893836    
   6720000   0.32193559    -8.106405      -7.6235085      1.2573226      50218.233      36.893836      36.893836      36.893836    
   6730000   0.31900877    -8.1054555     -7.6269492      1.2516786      50218.233      36.893836      36.893836      36.893836    
   6740000   0.31965231    -8.1065891     -7.6271175      1.2497591      50218.233      36.893836      36.893836      36.893836    
   6750000   0.31904625    -8.1051599     -7.6265973      1.26469        50218.233      36.893836      36.893836      36.893836    
   6760000   0.32041777    -8.1054567     -7.6248369      1.2611243      50218.233      36.893836      36.893836      36.893836    
   6770000   0.31877204    -8.1061435     -7.6279923      1.2497277      50218.233      36.893836      36.893836      36.893836    
   6780000   0.31957934    -8.1054941     -7.6261319      1.2533157      50218.233      36.893836      36.893836      36.893836    
   6790000   0.31850077    -8.1071959     -7.6294516      1.2442585      50218.233      36.893836      36.893836      36.893836    
   6800000   0.31929404    -8.1076796     -7.6287453      1.2318724      50218.233      36.893836      36.893836      36.893836    
   6810000   0.3195334     -8.1073142     -7.6280209      1.2458972      50218.233      36.893836      36.893836      36.893836    
   6820000   0.32058803    -8.1026902     -7.621815       1.2731796      50218.233      36.893836      36.893836      36.893836    
   6830000   0.32153338    -8.1063821     -7.6240889      1.2516516      50218.233      36.893836      36.893836      36.893836    
   6840000   0.31984695    -8.1068655     -7.6271019      1.24075        50218.233      36.893836      36.893836      36.893836    
   6850000   0.32027399    -8.1067315     -7.6263274      1.246832       50218.233      36.893836      36.893836      36.893836    
   6860000   0.31971882    -8.1069144     -7.627343       1.232669       50218.233      36.893836      36.893836      36.893836    
   6870000   0.32110161    -8.1073075     -7.625662       1.2411111      50218.233      36.893836      36.893836      36.893836    
   6880000   0.32195153    -8.1077314     -7.6248109      1.2397736      50218.233      36.893836      36.893836      36.893836    
   6890000   0.31870717    -8.1063599     -7.6283059      1.2491104      50218.233      36.893836      36.893836      36.893836    
   6900000   0.3207101     -8.106468      -7.6254097      1.2457188      50218.233      36.893836      36.893836      36.893836    
   6910000   0.31931983    -8.1075859     -7.628613       1.2412862      50218.233      36.893836      36.893836      36.893836    
   6920000   0.32052113    -8.1083144     -7.6275396      1.2376103      50218.233      36.893836      36.893836      36.893836    
   6930000   0.32110076    -8.1068067     -7.6251624      1.248148       50218.233      36.893836      36.893836      36.893836    
   6940000   0.3212265     -8.1088268     -7.6269938      1.2301218      50218.233      36.893836      36.893836      36.893836    
   6950000   0.31886419    -8.1079927     -7.6297032      1.2282792      50218.233      36.893836      36.893836      36.893836    
   6960000   0.32044123    -8.1055394     -7.6248844      1.2599782      50218.233      36.893836      36.893836      36.893836    
   6970000   0.32078312    -8.1079126     -7.6267447      1.2385821      50218.233      36.893836      36.893836      36.893836    
   6980000   0.31949713    -8.1103314     -7.6310925      1.2114033      50218.233      36.893836      36.893836      36.893836    
   6990000   0.31967069    -8.1079843     -7.628485       1.2431763      50218.233      36.893836      36.893836      36.893836    
   7000000   0.32016654    -8.1088637     -7.6286208      1.2280007      50218.233      36.893836      36.893836      36.893836    
   7010000   0.32086107    -8.1054205     -7.6241357      1.2543179      50218.233      36.893836      36.893836      36.893836    
   7020000   0.32063257    -8.1084601     -7.6275181      1.236923       50218.233      36.893836      36.893836      36.893836    
   7030000   0.3208599     -8.105926      -7.624643       1.2517718      50218.233      36.893836      36.893836      36.893836    
   7040000   0.32100178    -8.1081201     -7.6266243      1.2342723      50218.233      36.893836      36.893836      36.893836    
   7050000   0.31872025    -8.1086511     -7.6305776      1.2283583      50218.233      36.893836      36.893836      36.893836    
   7060000   0.31912747    -8.1046702     -7.6259858      1.2613635      50218.233      36.893836      36.893836      36.893836    
   7070000   0.32063812    -8.1083863     -7.627436       1.2314654      50218.233      36.893836      36.893836      36.893836    
   7080000   0.32010457    -8.1074341     -7.6272841      1.2428225      50218.233      36.893836      36.893836      36.893836    
   7090000   0.31928914    -8.106741      -7.6278141      1.2418491      50218.233      36.893836      36.893836      36.893836    
   7100000   0.32081297    -8.1070966     -7.625884       1.2474935      50218.233      36.893836      36.893836      36.893836    
   7110000   0.31842807    -8.104921      -7.6272857      1.2581413      50218.233      36.893836      36.893836      36.893836    
   7120000   0.31969521    -8.1033938     -7.6238578      1.269781       50218.233      36.893836      36.893836      36.893836    
   7130000   0.31936016    -8.1075886     -7.6285552      1.2386781      50218.233      36.893836      36.893836      36.893836    
   7140000   0.31955984    -8.1065796     -7.6272467      1.2495366      50218.233      36.893836      36.893836      36.893836    
   7150000   0.31951324    -8.1064009     -7.6271378      1.246914       50218.233      36.893836      36.893836      36.893836    
   7160000   0.3220244     -8.1060738     -7.6230441      1.2516708      50218.233      36.893836      36.893836      36.893836    
   7170000   0.3227182     -8.1058171     -7.6217467      1.250309       50218.233      36.893836      36.893836      36.893836    
   7180000   0.31958784    -8.1053602     -7.6259852      1.2543224      50218.233      36.893836      36.893836      36.893836    
   7190000   0.31954249    -8.1074247     -7.6281178      1.240063       50218.233      36.893836      36.893836      36.893836    
   7200000   0.3195258     -8.1056543     -7.6263724      1.2598287      50218.233      36.893836      36.893836      36.893836    
   7210000   0.32273378    -8.1073515     -7.6232577      1.2529374      50218.233      36.893836      36.893836      36.893836    
   7220000   0.32100848    -8.1047966     -7.6232908      1.2618416      50218.233      36.893836      36.893836      36.893836    
   7230000   0.3190614     -8.1035683     -7.624983       1.2660165      50218.233      36.893836      36.893836      36.893836    
   7240000   0.318757      -8.1086387     -7.63051        1.2355257      50218.233      36.893836      36.893836      36.893836    
   7250000   0.32040871    -8.1042055     -7.6235993      1.2690591      50218.233      36.893836      36.893836      36.893836    
   7260000   0.31950177    -8.1066644     -7.6274186      1.2474008      50218.233      36.893836      36.893836      36.893836    
   7270000   0.32038118    -8.1082571     -7.6276922      1.2385659      50218.233      36.893836      36.893836      36.893836    
   7280000   0.3185693     -8.1063071     -7.62846        1.2459133      50218.233      36.893836      36.893836      36.893836    
   7290000   0.32183258    -8.104994      -7.622252       1.2640058      50218.233      36.893836      36.893836      36.893836    
   7300000   0.31963133    -8.1078807     -7.6284405      1.2408369      50218.233      36.893836      36.893836      36.893836    
   7310000   0.32051654    -8.1046598     -7.6238918      1.2672174      50218.233      36.893836      36.893836      36.893836    
   7320000   0.32044042    -8.1051648     -7.624511       1.2561208      50218.233      36.893836      36.893836      36.893836    
   7330000   0.32044231    -8.1088922     -7.6282356      1.2306425      50218.233      36.893836      36.893836      36.893836    
   7340000   0.32161834    -8.1046305     -7.6222098      1.2696176      50218.233      36.893836      36.893836      36.893836    
   7350000   0.31944824    -8.1070994     -7.6279338      1.2404291      50218.233      36.893836      36.893836      36.893836    
   7360000   0.3202571     -8.1032157     -7.6228369      1.2777153      50218.233      36.893836      36.893836      36.893836    
   7370000   0.31997218    -8.1070352     -7.6270838      1.2447445      50218.233      36.893836      36.893836      36.893836    
   7380000   0.31885117    -8.1069802     -7.6287102      1.2457011      50218.233      36.893836      36.893836      36.893836    
   7390000   0.31808562    -8.1067541     -7.6296324      1.2536985      50218.233      36.893836      36.893836      36.893836    
   7400000   0.3183627     -8.1071453     -7.6296081      1.2447529      50218.233      36.893836      36.893836      36.893836    
   7410000   0.31956917    -8.1073154     -7.6279684      1.2385405      50218.233      36.893836      36.893836      36.893836    
   7420000   0.32267838    -8.1077653     -7.6237546      1.2487385      50218.233      36.893836      36.893836      36.893836    
   7430000   0.32035224    -8.1082378     -7.6277162      1.2362491      50218.233      36.893836      36.893836      36.893836    
   7440000   0.31876797    -8.106845      -7.6286999      1.2428637      50218.233      36.893836      36.893836      36.893836    
   7450000   0.32043762    -8.1075389     -7.6268893      1.2435014      50218.233      36.893836      36.893836      36.893836    
   7460000   0.32008192    -8.1091389     -7.6290228      1.2344735      50218.233      36.893836      36.893836      36.893836    
   7470000   0.31898587    -8.1086962     -7.6302242      1.2293921      50218.233      36.893836      36.893836      36.893836    
   7480000   0.32062694    -8.1071352     -7.6262016      1.2379229      50218.233      36.893836      36.893836      36.893836    
   7490000   0.31995883    -8.1086963     -7.6287649      1.2400334      50218.233      36.893836      36.893836      36.893836    
   7500000   0.31938085    -8.1083538     -7.6292893      1.2269265      50218.233      36.893836      36.893836      36.893836    
   7510000   0.32230961    -8.1076683     -7.6242108      1.2450201      50218.233      36.893836      36.893836      36.893836    
   7520000   0.31961646    -8.1087983     -7.6293804      1.2313564      50218.233      36.893836      36.893836      36.893836    
   7530000   0.31967154    -8.1065868     -7.6270863      1.248247       50218.233      36.893836      36.893836      36.893836    
   7540000   0.31828       -8.1057655     -7.6283522      1.2557915      50218.233      36.893836      36.893836      36.893836    
   7550000   0.32018755    -8.1069102     -7.6266358      1.250207       50218.233      36.893836      36.893836      36.893836    
   7560000   0.31916252    -8.1079843     -7.6292474      1.2322248      50218.233      36.893836      36.893836      36.893836    
   7570000   0.32035538    -8.1059709     -7.6254446      1.2532758      50218.233      36.893836      36.893836      36.893836    
   7580000   0.31813169    -8.107622      -7.6304313      1.2458471      50218.233      36.893836      36.893836      36.893836    
   7590000   0.3191494     -8.1071223     -7.628405       1.2406489      50218.233      36.893836      36.893836      36.893836    
   7600000   0.32017189    -8.1045299     -7.6242789      1.2682262      50218.233      36.893836      36.893836      36.893836    
   7610000   0.32094995    -8.1032118     -7.6217937      1.2739167      50218.233      36.893836      36.893836      36.893836    
   7620000   0.31983281    -8.1091442     -7.6294018      1.2297815      50218.233      36.893836      36.893836      36.893836    
   7630000   0.32077738    -8.1066238     -7.6254645      1.2507532      50218.233      36.893836      36.893836      36.893836    
   7640000   0.3216421     -8.1060699     -7.6236136      1.2500989      50218.233      36.893836      36.893836      36.893836    
   7650000   0.3195618     -8.107208      -7.6278721      1.2460017      50218.233      36.893836      36.893836      36.893836    
   7660000   0.31957583    -8.1061703     -7.6268133      1.2560573      50218.233      36.893836      36.893836      36.893836    
   7670000   0.32124095    -8.1066562     -7.6248017      1.2554458      50218.233      36.893836      36.893836      36.893836    
   7680000   0.3207504     -8.1053808     -7.624262       1.2586921      50218.233      36.893836      36.893836      36.893836    
   7690000   0.32100491    -8.1062115     -7.624711       1.2538712      50218.233      36.893836      36.893836      36.893836    
   7700000   0.31890061    -8.10349       -7.6251459      1.2724725      50218.233      36.893836      36.893836      36.893836    
   7710000   0.31915985    -8.1069711     -7.6282381      1.2449998      50218.233      36.893836      36.893836      36.893836    
   7720000   0.32042733    -8.1082434     -7.6276092      1.2325694      50218.233      36.893836      36.893836      36.893836    
   7730000   0.32113519    -8.1056138     -7.6239179      1.2543488      50218.233      36.893836      36.893836      36.893836    
   7740000   0.32007011    -8.1050773     -7.6249789      1.2542989      50218.233      36.893836      36.893836      36.893836    
   7750000   0.3208373     -8.1046179     -7.6233688      1.2591382      50218.233      36.893836      36.893836      36.893836    
   7760000   0.31884502    -8.1068866     -7.6286259      1.2418655      50218.233      36.893836      36.893836      36.893836    
   7770000   0.31969482    -8.1082675     -7.6287321      1.2328199      50218.233      36.893836      36.893836      36.893836    
   7780000   0.31962838    -8.1057993     -7.6263636      1.2478546      50218.233      36.893836      36.893836      36.893836    
   7790000   0.31954632    -8.1055461     -7.6262335      1.2495528      50218.233      36.893836      36.893836      36.893836    
   7800000   0.319351      -8.1072728     -7.6282531      1.2378047      50218.233      36.893836      36.893836      36.893836    
   7810000   0.32080592    -8.1059094     -7.6247074      1.2530129      50218.233      36.893836      36.893836      36.893836    
   7820000   0.31898967    -8.1053042     -7.6268265      1.2525986      50218.233      36.893836      36.893836      36.893836    
   7830000   0.31932681    -8.105042      -7.6260586      1.260306       50218.233      36.893836      36.893836      36.893836    
   7840000   0.32014216    -8.1053657     -7.6251593      1.2543944      50218.233      36.893836      36.893836      36.893836    
   7850000   0.32048335    -8.1064355     -7.6257173      1.2481894      50218.233      36.893836      36.893836      36.893836    
   7860000   0.32247805    -8.1086491     -7.6249389      1.2409393      50218.233      36.893836      36.893836      36.893836    
   7870000   0.32119274    -8.1074622     -7.62568        1.2408633      50218.233      36.893836      36.893836      36.893836    
   7880000   0.31830082    -8.1065179     -7.6290735      1.2526383      50218.233      36.893836      36.893836      36.893836    
   7890000   0.31907515    -8.1066919     -7.628086       1.2430653      50218.233      36.893836      36.893836      36.893836    
   7900000   0.32044465    -8.1076028     -7.6269427      1.2367953      50218.233      36.893836      36.893836      36.893836    
   7910000   0.31810526    -8.1081127     -7.6309616      1.2309991      50218.233      36.893836      36.893836      36.893836    
   7920000   0.31971652    -8.1060199     -7.6264519      1.2527875      50218.233      36.893836      36.893836      36.893836    
   7930000   0.31928646    -8.1050733     -7.6261504      1.2480141      50218.233      36.893836      36.893836      36.893836    
   7940000   0.31845146    -8.107091      -7.6294206      1.2423315      50218.233      36.893836      36.893836      36.893836    
   7950000   0.31906949    -8.1072555     -7.6286581      1.2416891      50218.233      36.893836      36.893836      36.893836    
   7960000   0.32058336    -8.1066565     -7.6257883      1.2461639      50218.233      36.893836      36.893836      36.893836    
   7970000   0.31875889    -8.108819      -7.6306874      1.2236675      50218.233      36.893836      36.893836      36.893836    
   7980000   0.31932674    -8.1065873     -7.627604       1.2438066      50218.233      36.893836      36.893836      36.893836    
   7990000   0.31994061    -8.1089398     -7.6290357      1.2320112      50218.233      36.893836      36.893836      36.893836    
   8000000   0.32122872    -8.1085052     -7.6266689      1.2297035      50218.233      36.893836      36.893836      36.893836    
   8010000   0.31861672    -8.1070919     -7.6291736      1.2418968      50218.233      36.893836      36.893836      36.893836    
   8020000   0.3229989     -8.10735       -7.6228585      1.2458713      50218.233      36.893836      36.893836      36.893836    
   8030000   0.31963878    -8.107593      -7.6281417      1.2432446      50218.233      36.893836      36.893836      36.893836    
   8040000   0.32132582    -8.1050212     -7.6230393      1.2507539      50218.233      36.893836      36.893836      36.893836    
   8050000   0.32141008    -8.1061967     -7.6240884      1.2577685      50218.233      36.893836      36.893836      36.893836    
   8060000   0.31957157    -8.1087873     -7.6294368      1.2264768      50218.233      36.893836      36.893836      36.893836    
   8070000   0.31980296    -8.1073759     -7.6276782      1.2410422      50218.233      36.893836      36.893836      36.893836    
   8080000   0.31835045    -8.1070582     -7.6295394      1.236427       50218.233      36.893836      36.893836      36.893836    
   8090000   0.31810367    -8.1067117     -7.629563       1.2409282      50218.233      36.893836      36.893836      36.893836    
   8100000   0.32082082    -8.1086708     -7.6274465      1.2347667      50218.233      36.893836      36.893836      36.893836    
   8110000   0.31959432    -8.1082672     -7.6288826      1.23659        50218.233      36.893836      36.893836      36.893836    
   8120000   0.31967685    -8.1045529     -7.6250445      1.25826        50218.233      36.893836      36.893836      36.893836    
   8130000   0.31963847    -8.1058989     -7.626448       1.257413       50218.233      36.893836      36.893836      36.893836    
   8140000   0.32124278    -8.1086649     -7.6268076      1.2396653      50218.233      36.893836      36.893836      36.893836    
   8150000   0.31947482    -8.106854      -7.6276486      1.2397093      50218.233      36.893836      36.893836      36.893836    
   8160000   0.32093242    -8.1087656     -7.6273738      1.2222128      50218.233      36.893836      36.893836      36.893836    
   8170000   0.32051378    -8.1060832     -7.6253194      1.2493914      50218.233      36.893836      36.893836      36.893836    
   8180000   0.31937092    -8.10451       -7.6254604      1.2562384      50218.233      36.893836      36.893836      36.893836    
   8190000   0.31982429    -8.1064182     -7.6266886      1.2479511      50218.233      36.893836      36.893836      36.893836    
   8200000   0.32008607    -8.1040835     -7.6239612      1.2552403      50218.233      36.893836      36.893836      36.893836    
   8210000   0.31974783    -8.1085575     -7.6289426      1.2370954      50218.233      36.893836      36.893836      36.893836    
   8220000   0.320781      -8.1056738     -7.6245091      1.2539026      50218.233      36.893836      36.893836      36.893836    
   8230000   0.32034548    -8.1090823     -7.6285709      1.2277253      50218.233      36.893836      36.893836      36.893836    
   8240000   0.31937156    -8.1066272     -7.6275767      1.2525122      50218.233      36.893836      36.893836      36.893836    
   8250000   0.31883753    -8.1050781     -7.6268286      1.2594032      50218.233      36.893836      36.893836      36.893836    
   8260000   0.31952838    -8.1058112     -7.6265254      1.2575908      50218.233      36.893836      36.893836      36.893836    
   8270000   0.32159247    -8.1061152     -7.6237334      1.2538         50218.233      36.893836      36.893836      36.893836    
   8280000   0.32090961    -8.1090977     -7.6277401      1.2343156      50218.233      36.893836      36.893836      36.893836    
   8290000   0.32135943    -8.1054704     -7.6234381      1.2560499      50218.233      36.893836      36.893836      36.893836    
   8300000   0.32097406    -8.1033567     -7.6219024      1.2699784      50218.233      36.893836      36.893836      36.893836    
   8310000   0.31980347    -8.1036529     -7.6239545      1.2653682      50218.233      36.893836      36.893836      36.893836    
   8320000   0.32025474    -8.1040739     -7.6236986      1.2699265      50218.233      36.893836      36.893836      36.893836    
   8330000   0.31912526    -8.1058775     -7.6271964      1.2501335      50218.233      36.893836      36.893836      36.893836    
   8340000   0.32123065    -8.1053891     -7.62355        1.2623867      50218.233      36.893836      36.893836      36.893836    
   8350000   0.31989643    -8.1095299     -7.6296921      1.2314695      50218.233      36.893836      36.893836      36.893836    
   8360000   0.31983798    -8.1053317     -7.6255815      1.2626258      50218.233      36.893836      36.893836      36.893836    
   8370000   0.32047055    -8.1082635     -7.6275645      1.2427599      50218.233      36.893836      36.893836      36.893836    
   8380000   0.32004811    -8.1058468     -7.6257814      1.2514236      50218.233      36.893836      36.893836      36.893836    
   8390000   0.31942511    -8.106668      -7.6275371      1.251226       50218.233      36.893836      36.893836      36.893836    
   8400000   0.32067519    -8.1068886     -7.6258827      1.2533811      50218.233      36.893836      36.893836      36.893836    
   8410000   0.32032015    -8.1068525     -7.6263791      1.2490883      50218.233      36.893836      36.893836      36.893836    
   8420000   0.32105359    -8.1066676     -7.625094       1.2385787      50218.233      36.893836      36.893836      36.893836    
   8430000   0.32032343    -8.1072119     -7.6267336      1.250034       50218.233      36.893836      36.893836      36.893836    
   8440000   0.32113634    -8.1079695     -7.6262718      1.246053       50218.233      36.893836      36.893836      36.893836    
   8450000   0.32114069    -8.1065518     -7.6248476      1.2484856      50218.233      36.893836      36.893836      36.893836    
   8460000   0.32124517    -8.1066396     -7.6247787      1.2536184      50218.233      36.893836      36.893836      36.893836    
   8470000   0.32004652    -8.1071194     -7.6270565      1.2464151      50218.233      36.893836      36.893836      36.893836    
   8480000   0.31966935    -8.1101594     -7.6306622      1.2206544      50218.233      36.893836      36.893836      36.893836    
   8490000   0.32013311    -8.1058407     -7.6256478      1.2617128      50218.233      36.893836      36.893836      36.893836    
   8500000   0.31997645    -8.1093362     -7.6293783      1.2321511      50218.233      36.893836      36.893836      36.893836    
   8510000   0.31936502    -8.1084054     -7.6293647      1.229402       50218.233      36.893836      36.893836      36.893836    
   8520000   0.32013881    -8.1065502     -7.6263488      1.2535543      50218.233      36.893836      36.893836      36.893836    
   8530000   0.32043714    -8.1087117     -7.6280628      1.2258652      50218.233      36.893836      36.893836      36.893836    
   8540000   0.31929843    -8.105799      -7.6268582      1.2505103      50218.233      36.893836      36.893836      36.893836    
   8550000   0.31958687    -8.1109952     -7.6316217      1.210614       50218.233      36.893836      36.893836      36.893836    
   8560000   0.31962379    -8.1074577     -7.6280289      1.2430498      50218.233      36.893836      36.893836      36.893836    
   8570000   0.32150724    -8.107044      -7.62479        1.246272       50218.233      36.893836      36.893836      36.893836    
   8580000   0.31801971    -8.1075905     -7.6305677      1.2393323      50218.233      36.893836      36.893836      36.893836    
   8590000   0.31997645    -8.1092435     -7.6292857      1.2199208      50218.233      36.893836      36.893836      36.893836    
   8600000   0.31983226    -8.1091705     -7.6294289      1.2260891      50218.233      36.893836      36.893836      36.893836    
   8610000   0.32116918    -8.1070359     -7.625289       1.2381862      50218.233      36.893836      36.893836      36.893836    
   8620000   0.32009653    -8.1104969     -7.6303589      1.2117061      50218.233      36.893836      36.893836      36.893836    
   8630000   0.31947906    -8.1106837     -7.6314719      1.2221833      50218.233      36.893836      36.893836      36.893836    
   8640000   0.31970483    -8.1051807     -7.6256303      1.2570351      50218.233      36.893836      36.893836      36.893836    
   8650000   0.32009689    -8.1030838     -7.6229453      1.2732202      50218.233      36.893836      36.893836      36.893836    
   8660000   0.31902452    -8.1052287     -7.6266987      1.2524401      50218.233      36.893836      36.893836      36.893836    
   8670000   0.32160038    -8.1087528     -7.626359       1.2401594      50218.233      36.893836      36.893836      36.893836    
   8680000   0.31917857    -8.1048999     -7.6261389      1.2508332      50218.233      36.893836      36.893836      36.893836    
   8690000   0.31688028    -8.1043414     -7.6290278      1.2628649      50218.233      36.893836      36.893836      36.893836    
   8700000   0.31987771    -8.1084182     -7.6286085      1.2326399      50218.233      36.893836      36.893836      36.893836    
   8710000   0.3204813     -8.1047188     -7.6240036      1.2618952      50218.233      36.893836      36.893836      36.893836    
   8720000   0.32004584    -8.1083461     -7.6282841      1.2304927      50218.233      36.893836      36.893836      36.893836    
   8730000   0.3186509     -8.1063063     -7.6283367      1.2457993      50218.233      36.893836      36.893836      36.893836    
   8740000   0.32123288    -8.1046253     -7.6227828      1.2702723      50218.233      36.893836      36.893836      36.893836    
   8750000   0.31962832    -8.108181      -7.6287454      1.2370455      50218.233      36.893836      36.893836      36.893836    
   8760000   0.3193797     -8.1072822     -7.6282194      1.2427168      50218.233      36.893836      36.893836      36.893836    
   8770000   0.31918929    -8.1062273     -7.6274501      1.2398295      50218.233      36.893836      36.893836      36.893836    
   8780000   0.31893452    -8.1076545     -7.6292596      1.2376005      50218.233      36.893836      36.893836      36.893836    
   8790000   0.32183294    -8.1097171     -7.6269745      1.2332817      50218.233      36.893836      36.893836      36.893836    
   8800000   0.32013061    -8.1065071     -7.626318       1.2458037      50218.233      36.893836      36.893836      36.893836    
   8810000   0.31831627    -8.1056361     -7.6281685      1.2480326      50218.233      36.893836      36.893836      36.893836    
   8820000   0.31988146    -8.1072817     -7.6274663      1.2377747      50218.233      36.893836      36.893836      36.893836    
   8830000   0.31849417    -8.1049505     -7.6272161      1.2551164      50218.233      36.893836      36.893836      36.893836    
   8840000   0.32039228    -8.1059354     -7.6253538      1.2512338      50218.233      36.893836      36.893836      36.893836    
   8850000   0.31919356    -8.108003      -7.6292195      1.2421981      50218.233      36.893836      36.893836      36.893836    
   8860000   0.32086131    -8.1065798     -7.6252947      1.2497689      50218.233      36.893836      36.893836      36.893836    
   8870000   0.31949862    -8.1075681     -7.628327       1.2424164      50218.233      36.893836      36.893836      36.893836    
   8880000   0.32165903    -8.1067352     -7.6242536      1.2462302      50218.233      36.893836      36.893836      36.893836    
   8890000   0.32029256    -8.1078261     -7.6273941      1.2352724      50218.233      36.893836      36.893836      36.893836    
   8900000   0.31898127    -8.1058055     -7.6273404      1.2569271      50218.233      36.893836      36.893836      36.893836    
   8910000   0.31833706    -8.1081162     -7.6306174      1.237347       50218.233      36.893836      36.893836      36.893836    
   8920000   0.32059392    -8.1083481     -7.627464       1.2367721      50218.233      36.893836      36.893836      36.893836    
   8930000   0.32097699    -8.1067684     -7.6253098      1.2519681      50218.233      36.893836      36.893836      36.893836    
   8940000   0.32130413    -8.1081592     -7.6262099      1.2312685      50218.233      36.893836      36.893836      36.893836    
   8950000   0.32045855    -8.1070607     -7.6263798      1.2503153      50218.233      36.893836      36.893836      36.893836    
   8960000   0.31840435    -8.1093295     -7.6317298      1.225101       50218.233      36.893836      36.893836      36.893836    
   8970000   0.32081524    -8.1104204     -7.6292043      1.2241656      50218.233      36.893836      36.893836      36.893836    
   8980000   0.32024729    -8.1078609     -7.6274968      1.2454226      50218.233      36.893836      36.893836      36.893836    
   8990000   0.31979718    -8.1080803     -7.6283914      1.2420408      50218.233      36.893836      36.893836      36.893836    
   9000000   0.31886004    -8.1085499     -7.6302666      1.2358269      50218.233      36.893836      36.893836      36.893836    
   9010000   0.31927731    -8.1064219     -7.6275128      1.2504334      50218.233      36.893836      36.893836      36.893836    
   9020000   0.31871384    -8.1100441     -7.6319801      1.2237154      50218.233      36.893836      36.893836      36.893836    
   9030000   0.3194594     -8.1083332     -7.6291509      1.2240994      50218.233      36.893836      36.893836      36.893836    
   9040000   0.32004222    -8.1053598     -7.6253033      1.2485292      50218.233      36.893836      36.893836      36.893836    
   9050000   0.32143041    -8.1063858     -7.6242471      1.2502179      50218.233      36.893836      36.893836      36.893836    
   9060000   0.3203712     -8.1076561     -7.6271062      1.2469744      50218.233      36.893836      36.893836      36.893836    
   9070000   0.31863097    -8.1072083     -7.6292686      1.2370902      50218.233      36.893836      36.893836      36.893836    
   9080000   0.31853492    -8.1075634     -7.6297678      1.2445781      50218.233      36.893836      36.893836      36.893836    
   9090000   0.31807519    -8.1085323     -7.6314263      1.2292179      50218.233      36.893836      36.893836      36.893836    
   9100000   0.31873725    -8.109334      -7.6312349      1.2350996      50218.233      36.893836      36.893836      36.893836    
   9110000   0.32072308    -8.1046139     -7.6235361      1.2607228      50218.233      36.893836      36.893836      36.893836    
   9120000   0.31983142    -8.1047103     -7.62497        1.2623408      50218.233      36.893836      36.893836      36.893836    
   9130000   0.3180258     -8.1067536     -7.6297217      1.2489477      50218.233      36.893836      36.893836      36.893836    
   9140000   0.32137047    -8.1037997     -7.6217508      1.2665331      50218.233      36.893836      36.893836      36.893836    
   9150000   0.32031784    -8.1055068     -7.6250368      1.2557397      50218.233      36.893836      36.893836      36.893836    
   9160000   0.32106421    -8.1082429     -7.6266534      1.2395461      50218.233      36.893836      36.893836      36.893836    
   9170000   0.31963947    -8.1081496     -7.6286973      1.2370741      50218.233      36.893836      36.893836      36.893836    
   9180000   0.31992642    -8.1092661     -7.6293833      1.2156797      50218.233      36.893836      36.893836      36.893836    
   9190000   0.3201788     -8.1084078     -7.6281465      1.2359157      50218.233      36.893836      36.893836      36.893836    
   9200000   0.32163419    -8.1036397     -7.6211953      1.2776856      50218.233      36.893836      36.893836      36.893836    
   9210000   0.3205949     -8.1069566     -7.6260711      1.2438614      50218.233      36.893836      36.893836      36.893836    
   9220000   0.3188146     -8.1044948     -7.6262797      1.268431       50218.233      36.893836      36.893836      36.893836    
   9230000   0.31890389    -8.1073181     -7.6289691      1.2339295      50218.233      36.893836      36.893836      36.893836    
   9240000   0.32108047    -8.1050342     -7.6234203      1.2579405      50218.233      36.893836      36.893836      36.893836    
   9250000   0.3199928     -8.1058824     -7.6259         1.2524009      50218.233      36.893836      36.893836      36.893836    
   9260000   0.31996567    -8.1070454     -7.6271038      1.2467452      50218.233      36.893836      36.893836      36.893836    
   9270000   0.3209804     -8.1072618     -7.625798       1.2478535      50218.233      36.893836      36.893836      36.893836    
   9280000   0.3191931     -8.1071056     -7.6283227      1.2448903      50218.233      36.893836      36.893836      36.893836    
   9290000   0.32017808    -8.1066807     -7.6264204      1.2475605      50218.233      36.893836      36.893836      36.893836    
   9300000   0.31940209    -8.1061275     -7.6270311      1.2517051      50218.233      36.893836      36.893836      36.893836    
   9310000   0.31959552    -8.1060261     -7.6266397      1.25057        50218.233      36.893836      36.893836      36.893836    
   9320000   0.32057328    -8.1059635     -7.6251104      1.2539618      50218.233      36.893836      36.893836      36.893836    
   9330000   0.32111878    -8.1048913     -7.62322        1.261055       50218.233      36.893836      36.893836      36.893836    
   9340000   0.32047146    -8.1080498     -7.6273494      1.2370873      50218.233      36.893836      36.893836      36.893836    
   9350000   0.32161882    -8.1058893     -7.6234679      1.2538319      50218.233      36.893836      36.893836      36.893836    
   9360000   0.31907154    -8.1058964     -7.6272959      1.2542087      50218.233      36.893836      36.893836      36.893836    
   9370000   0.32037005    -8.1061942     -7.6256459      1.2540769      50218.233      36.893836      36.893836      36.893836    
   9380000   0.31888983    -8.1053692     -7.6270412      1.2533374      50218.233      36.893836      36.893836      36.893836    
   9390000   0.32078279    -8.1067161     -7.6255487      1.2493077      50218.233      36.893836      36.893836      36.893836    
   9400000   0.3187062     -8.1073632     -7.6293107      1.2450868      50218.233      36.893836      36.893836      36.893836    
   9410000   0.32213632    -8.1057292     -7.6225316      1.2575489      50218.233      36.893836      36.893836      36.893836    
   9420000   0.31867522    -8.107972      -7.6299659      1.2420041      50218.233      36.893836      36.893836      36.893836    
   9430000   0.31859011    -8.1087489     -7.6308705      1.23245        50218.233      36.893836      36.893836      36.893836    
   9440000   0.32086204    -8.1054994     -7.6242132      1.2563341      50218.233      36.893836      36.893836      36.893836    
   9450000   0.31896388    -8.107661      -7.629222       1.2430279      50218.233      36.893836      36.893836      36.893836    
   9460000   0.31783612    -8.1060973     -7.62935        1.2431781      50218.233      36.893836      36.893836      36.893836    
   9470000   0.32023589    -8.1089166     -7.6285696      1.2298175      50218.233      36.893836      36.893836      36.893836    
   9480000   0.31973493    -8.1062298     -7.6266342      1.253942       50218.233      36.893836      36.893836      36.893836    
   9490000   0.32008668    -8.1077796     -7.6276564      1.2437959      50218.233      36.893836      36.893836      36.893836    
   9500000   0.32020014    -8.1085176     -7.6282242      1.231232       50218.233      36.893836      36.893836      36.893836    
   9510000   0.3208943     -8.1089062     -7.6275716      1.2363847      50218.233      36.893836      36.893836      36.893836    
   9520000   0.32125852    -8.1062187     -7.6243378      1.2549572      50218.233      36.893836      36.893836      36.893836    
   9530000   0.32046451    -8.1090653     -7.6283754      1.223956       50218.233      36.893836      36.893836      36.893836    
   9540000   0.31964575    -8.1066629     -7.6272011      1.2478985      50218.233      36.893836      36.893836      36.893836    
   9550000   0.31994423    -8.1083096     -7.6284001      1.2321594      50218.233      36.893836      36.893836      36.893836    
   9560000   0.31945119    -8.1096062     -7.6304362      1.2258796      50218.233      36.893836      36.893836      36.893836    
   9570000   0.31973909    -8.1078753     -7.6282735      1.2376723      50218.233      36.893836      36.893836      36.893836    
   9580000   0.3194672     -8.1073166     -7.6281226      1.2423778      50218.233      36.893836      36.893836      36.893836    
   9590000   0.31985548    -8.107226      -7.6274496      1.2525174      50218.233      36.893836      36.893836      36.893836    
   9600000   0.3218477     -8.1064239     -7.6236593      1.2588446      50218.233      36.893836      36.893836      36.893836    
   9610000   0.31755177    -8.10512       -7.6287991      1.2574769      50218.233      36.893836      36.893836      36.893836    
   9620000   0.31972371    -8.1074264     -7.6278476      1.2333242      50218.233      36.893836      36.893836      36.893836    
   9630000   0.32120186    -8.1082339     -7.626438       1.2359708      50218.233      36.893836      36.893836      36.893836    
   9640000   0.31927824    -8.1067954     -7.6278849      1.2480182      50218.233      36.893836      36.893836      36.893836    
   9650000   0.31963582    -8.1056163     -7.6261694      1.2563423      50218.233      36.893836      36.893836      36.893836    
   9660000   0.31935818    -8.106869      -7.6278385      1.2355019      50218.233      36.893836      36.893836      36.893836    
   9670000   0.32054744    -8.1066173     -7.625803       1.2445056      50218.233      36.893836      36.893836      36.893836    
   9680000   0.31824332    -8.1069026     -7.6295444      1.2371369      50218.233      36.893836      36.893836      36.893836    
   9690000   0.31984745    -8.1067627     -7.6269983      1.2427873      50218.233      36.893836      36.893836      36.893836    
   9700000   0.32061266    -8.1049471     -7.624035       1.2570694      50218.233      36.893836      36.893836      36.893836    
   9710000   0.31932031    -8.1068951     -7.6279214      1.239862       50218.233      36.893836      36.893836      36.893836    
   9720000   0.32013935    -8.1044679     -7.6242657      1.2721054      50218.233      36.893836      36.893836      36.893836    
   9730000   0.32104098    -8.1064841     -7.6249295      1.2453049      50218.233      36.893836      36.893836      36.893836    
   9740000   0.32087898    -8.1065537     -7.6252421      1.2482123      50218.233      36.893836      36.893836      36.893836    
   9750000   0.31941702    -8.1055235     -7.6264048      1.2562575      50218.233      36.893836      36.893836      36.893836    
   9760000   0.31850254    -8.1072339     -7.6294869      1.2510736      50218.233      36.893836      36.893836      36.893836    
   9770000   0.3206233     -8.1074341     -7.626506       1.2353119      50218.233      36.893836      36.893836      36.893836    
   9780000   0.3219433     -8.1058672     -7.6229591      1.2581588      50218.233      36.893836      36.893836      36.893836    
   9790000   0.31951396    -8.1057499     -7.6264858      1.2537578      50218.233      36.893836      36.893836      36.893836    
   9800000   0.32107069    -8.106865      -7.6252658      1.2505965      50218.233      36.893836      36.893836      36.893836    
   9810000   0.32035995    -8.1058505     -7.6253174      1.2506169      50218.233      36.893836      36.893836      36.893836    
   9820000   0.31849739    -8.106871      -7.6291317      1.2437491      50218.233      36.893836      36.893836      36.893836    
   9830000   0.31793313    -8.1057296     -7.6288367      1.2557676      50218.233      36.893836      36.893836      36.893836    
   9840000   0.32009113    -8.1088703     -7.6287405      1.2352009      50218.233      36.893836      36.893836      36.893836    
   9850000   0.31859556    -8.1076302     -7.6297437      1.2378928      50218.233      36.893836      36.893836      36.893836    
   9860000   0.32032126    -8.1078144     -7.6273393      1.2373919      50218.233      36.893836      36.893836      36.893836    
   9870000   0.32078993    -8.1090579     -7.6278799      1.2282681      50218.233      36.893836      36.893836      36.893836    
   9880000   0.32016444    -8.1071793     -7.6269394      1.2467449      50218.233      36.893836      36.893836      36.893836    
   9890000   0.32034922    -8.1065356     -7.6260186      1.2444813      50218.233      36.893836      36.893836      36.893836    
   9900000   0.31979702    -8.1095411     -7.6298524      1.2214197      50218.233      36.893836      36.893836      36.893836    
   9910000   0.31956184    -8.1068931     -7.6275571      1.2418776      50218.233      36.893836      36.893836      36.893836    
   9920000   0.31978604    -8.1080136     -7.6283414      1.2339143      50218.233      36.893836      36.893836      36.893836    
   9930000   0.3222296     -8.1055479     -7.6222103      1.2563284      50218.233      36.893836      36.893836      36.893836    
   9940000   0.32023576    -8.1076129     -7.6272661      1.2396156      50218.233      36.893836      36.893836      36.893836    
   9950000   0.32000391    -8.1058038     -7.6258048      1.247298       50218.233      36.893836      36.893836      36.893836    
   9960000   0.3200455     -8.1086366     -7.6285751      1.2274871      50218.233      36.893836      36.893836      36.893836    
   9970000   0.31969832    -8.1085256     -7.6289849      1.2248705      50218.233      36.893836      36.893836      36.893836    
   9980000   0.32050848    -8.1051576     -7.6244017      1.257683       50218.233      36.893836      36.893836      36.893836    
   9990000   0.31934249    -8.1081086     -7.6291017      1.2296158      50218.233      36.893836      36.893836      36.893836    
  10000000   0.32005388    -8.1080427     -7.6279687      1.2307626      50218.233      36.893836      36.893836      36.893836    
Loop time of 15567.8 on 5 procs for 10000000 steps with 70304 atoms

Performance: 554993.010 tau/day, 642.353 timesteps/s, 45.160 Matom-step/s
94.2% CPU use with 5 MPI tasks x 1 OpenMP threads

MPI task timing breakdown:
Section |  min time  |  avg time  |  max time  |%varavg| %total
---------------------------------------------------------------
Pair    | 5370.3     | 6000.3     | 6918       | 736.3 | 38.54
Neigh   | 42.618     | 45.854     | 52.018     |  51.7 |  0.29
Comm    | 2243.2     | 2251.1     | 2262.9     |  15.6 | 14.46
Output  | 0.17985    | 0.18567    | 0.19601    |   1.3 |  0.00
Modify  | 5574.1     | 6490.7     | 7144.3     | 710.7 | 41.69
Other   |            | 779.6      |            |       |  5.01

Nlocal:        14060.8 ave       14106 max       14033 min
Histogram: 2 0 1 0 0 0 1 0 0 1
Nghost:        18768.6 ave       18845 max       18708 min
Histogram: 1 1 0 0 1 1 0 0 0 1
Neighs:              0 ave           0 max           0 min
Histogram: 5 0 0 0 0 0 0 0 0 0

Total # of neighbors = 0
Ave neighs/atom = 0
Neighbor list builds = 1685296
Dangerous builds = 0
clear
OMP_NUM_THREADS environment is not set. Defaulting to 1 thread. (src/comm.cpp:98)
  using 1 OpenMP thread(s) per MPI task
package gpu 0
jump dms300.lmp

variable T equal 300
# T = 1000* (temp in LJ unit)
variable f equal 10000
log log.${T}
log log.300
