variable TLJ equal (${T}/1000)
variable TLJ equal (380/1000)
variable NCyle equal 10
variable iStep equal (${f})
variable iStep equal (10000)
variable dumpStep equal (${f}*100)
variable dumpStep equal (10000*100)
variable runStep equal (${f}*100*${NCyle})
variable runStep equal (10000*100*${NCyle})
variable runStep equal (10000*100*10)

units       lj
atom_style  atomic
dimension 3
boundary     p p p
pair_style  lj/cut 2.5
read_data  ../data/T${T}.dat
read_data  ../data/T380.dat
Reading data file ...
  orthogonal box = (0.97250269 0.97250269 0.97250269) to (37.866338 37.866338 37.866338)
  1 by 1 by 5 MPI processor grid
  reading atoms ...
  70304 atoms
  reading velocities ...
  70304 velocities
  read_data CPU = 0.209 seconds
change_box all triclinic
Changing box ...
  triclinic box = (0.97250269 0.97250269 0.97250269) to (37.866338 37.866338 37.866338) with tilt (0 0 0)
mass 1 1
mass 2 1
pair_modify shift yes
pair_coeff  1 1 1 1
pair_coeff  1 2 1.5 0.8
pair_coeff  2 2 0.5 0.88


timestep 0.01
thermo ${iStep}
thermo 10000
reset_timestep 0
thermo_style custom step temp pe etotal press vol lx ly lz
fix             1 all nvt temp ${TLJ}  ${TLJ}  0.1
fix             1 all nvt temp 0.38  ${TLJ}  0.1
fix             1 all nvt temp 0.38  0.38  0.1
thermo_modify flush yes

fix dsf all deform 1 xy  wiggle 0.5  ${f}   units box
fix dsf all deform 1 xy  wiggle 0.5  10000   units box
fix ps1 all ave/time 1 1 ${iStep} c_thermo_press[1] c_thermo_press[2]  c_thermo_press[3] c_thermo_press[4]  c_thermo_press[5] c_thermo_press[6]  file  stress.${T}
fix ps1 all ave/time 1 1 10000 c_thermo_press[1] c_thermo_press[2]  c_thermo_press[3] c_thermo_press[4]  c_thermo_press[5] c_thermo_press[6]  file  stress.${T}
fix ps1 all ave/time 1 1 10000 c_thermo_press[1] c_thermo_press[2]  c_thermo_press[3] c_thermo_press[4]  c_thermo_press[5] c_thermo_press[6]  file  stress.380
dump            1 all custom ${dumpStep} dump.${T} id type x y z
dump            1 all custom 1000000 dump.${T} id type x y z
dump            1 all custom 1000000 dump.380 id type x y z
dump_modify 1 sort id
fix nodrift all momentum 1  linear 1 1 1
fix com_seed all recenter INIT INIT INIT shift all
run ${runStep}
run 10000000
Generated 0 of 1 mixed pair_coeff terms from geometric mixing rule
Per MPI rank memory allocation (min/avg/max) = 6.668 | 8.466 | 8.923 Mbytes
   Step          Temp          PotEng         TotEng         Press          Volume           Lx             Ly             Lz      
         0   0.37918496    -8.0295222     -7.4607528      1.9016522      50218.233      36.893836      36.893836      36.893836    
     10000   0.379952      -8.0175619     -7.447642       1.9961372      50218.233      36.893836      36.893836      36.893836    
     20000   0.38147578    -8.0224774     -7.4502719      1.959341       50218.233      36.893836      36.893836      36.893836    
     30000   0.38001891    -8.0179406     -7.4479203      1.9860202      50218.233      36.893836      36.893836      36.893836    
     40000   0.37751941    -8.019386      -7.453115       1.9771165      50218.233      36.893836      36.893836      36.893836    
     50000   0.3803002     -8.02006       -7.4496179      1.9791114      50218.233      36.893836      36.893836      36.893836    
     60000   0.38000095    -8.0223885     -7.4523952      1.9490989      50218.233      36.893836      36.893836      36.893836    
     70000   0.38039133    -8.0203583     -7.4497794      1.9709474      50218.233      36.893836      36.893836      36.893836    
     80000   0.38063463    -8.0166204     -7.4456766      1.9992828      50218.233      36.893836      36.893836      36.893836    
     90000   0.37941356    -8.0168749     -7.4477627      1.9940182      50218.233      36.893836      36.893836      36.893836    
    100000   0.38107326    -8.0186549     -7.4470531      1.9926482      50218.233      36.893836      36.893836      36.893836    
    110000   0.37989066    -8.0154463     -7.4456185      2.0061376      50218.233      36.893836      36.893836      36.893836    
    120000   0.37955706    -8.0195473     -7.4502198      1.9824976      50218.233      36.893836      36.893836      36.893836    
    130000   0.37826649    -8.0197608     -7.4523691      1.9754438      50218.233      36.893836      36.893836      36.893836    
    140000   0.3801631     -8.0213544     -7.4511179      1.9615618      50218.233      36.893836      36.893836      36.893836    
    150000   0.37940701    -8.0184472     -7.4493448      1.9868036      50218.233      36.893836      36.893836      36.893836    
    160000   0.37948659    -8.0179204     -7.4486986      1.9832783      50218.233      36.893836      36.893836      36.893836    
    170000   0.37966812    -8.0175692     -7.4480752      1.988556       50218.233      36.893836      36.893836      36.893836    
    180000   0.38085443    -8.018145      -7.4468715      1.9937453      50218.233      36.893836      36.893836      36.893836    
    190000   0.38008492    -8.0165038     -7.4463845      2.0050236      50218.233      36.893836      36.893836      36.893836    
    200000   0.3799816     -8.0170275     -7.4470632      1.992704       50218.233      36.893836      36.893836      36.893836    
    210000   0.38042826    -8.0175308     -7.4468966      1.9952341      50218.233      36.893836      36.893836      36.893836    
    220000   0.3797136     -8.0173608     -7.4477985      2.0035534      50218.233      36.893836      36.893836      36.893836    
    230000   0.38016251    -8.0185381     -7.4483024      1.9819216      50218.233      36.893836      36.893836      36.893836    
    240000   0.38213535    -8.0169096     -7.4437148      1.9837975      50218.233      36.893836      36.893836      36.893836    
    250000   0.37910299    -8.0165802     -7.4479338      2.0032714      50218.233      36.893836      36.893836      36.893836    
    260000   0.38002693    -8.0196431     -7.4496108      1.9676903      50218.233      36.893836      36.893836      36.893836    
    270000   0.38106841    -8.0162398     -7.4446454      2.0010874      50218.233      36.893836      36.893836      36.893836    
    280000   0.38066701    -8.0205365     -7.4495441      1.9796164      50218.233      36.893836      36.893836      36.893836    
    290000   0.37992927    -8.0179536     -7.4480678      1.9887567      50218.233      36.893836      36.893836      36.893836    
    300000   0.37881213    -8.0177108     -7.4495007      1.995655       50218.233      36.893836      36.893836      36.893836    
    310000   0.3805963     -8.0145125     -7.4436262      2.0140781      50218.233      36.893836      36.893836      36.893836    
    320000   0.38088178    -8.0182643     -7.4469497      1.9876578      50218.233      36.893836      36.893836      36.893836    
    330000   0.37826709    -8.0187364     -7.4513438      1.9802983      50218.233      36.893836      36.893836      36.893836    
    340000   0.37984684    -8.0139859     -7.4442238      2.0249481      50218.233      36.893836      36.893836      36.893836    
    350000   0.37867231    -8.020188      -7.4521876      1.9701919      50218.233      36.893836      36.893836      36.893836    
    360000   0.38113352    -8.0156887     -7.4439966      2.0136807      50218.233      36.893836      36.893836      36.893836    
    370000   0.37928986    -8.0170871     -7.4481604      1.9954352      50218.233      36.893836      36.893836      36.893836    
    380000   0.38078994    -8.0198628     -7.448686       1.9821159      50218.233      36.893836      36.893836      36.893836    
    390000   0.38019211    -8.0172107     -7.4469307      1.9984794      50218.233      36.893836      36.893836      36.893836    
    400000   0.37864923    -8.0179072     -7.4499414      1.9779434      50218.233      36.893836      36.893836      36.893836    
    410000   0.37915366    -8.0143104     -7.445588       2.0181745      50218.233      36.893836      36.893836      36.893836    
    420000   0.38103189    -8.0202337     -7.448694       1.975197       50218.233      36.893836      36.893836      36.893836    
    430000   0.38079498    -8.0179883     -7.4468039      1.98324        50218.233      36.893836      36.893836      36.893836    
    440000   0.37874712    -8.0196503     -7.4515377      1.9759282      50218.233      36.893836      36.893836      36.893836    
    450000   0.38015335    -8.0216814     -7.4514595      1.9631568      50218.233      36.893836      36.893836      36.893836    
    460000   0.38123793    -8.0194542     -7.4476054      1.9774347      50218.233      36.893836      36.893836      36.893836    
    470000   0.38027442    -8.0196585     -7.449255       1.9727433      50218.233      36.893836      36.893836      36.893836    
    480000   0.38054208    -8.0206465     -7.4498414      1.9724284      50218.233      36.893836      36.893836      36.893836    
    490000   0.38183811    -8.0192924     -7.4465434      1.979478       50218.233      36.893836      36.893836      36.893836    
    500000   0.37795019    -8.0208651     -7.4539478      1.9652426      50218.233      36.893836      36.893836      36.893836    
    510000   0.38109037    -8.0187301     -7.4471027      1.981471       50218.233      36.893836      36.893836      36.893836    
    520000   0.38222156    -8.0163979     -7.4430737      2.0121218      50218.233      36.893836      36.893836      36.893836    
    530000   0.38167854    -8.0198104     -7.4473007      1.9779032      50218.233      36.893836      36.893836      36.893836    
    540000   0.37722328    -8.0191971     -7.4533703      1.9836406      50218.233      36.893836      36.893836      36.893836    
    550000   0.3815522     -8.0192494     -7.4469293      1.9831836      50218.233      36.893836      36.893836      36.893836    
    560000   0.38048942    -8.022121      -7.451395       1.9508675      50218.233      36.893836      36.893836      36.893836    
    570000   0.38217561    -8.0211824     -7.4479271      1.9658066      50218.233      36.893836      36.893836      36.893836    
    580000   0.37782507    -8.0197015     -7.452972       1.9815224      50218.233      36.893836      36.893836      36.893836    
    590000   0.38288151    -8.0177695     -7.4434554      1.9972119      50218.233      36.893836      36.893836      36.893836    
    600000   0.38100419    -8.0192694     -7.4477713      1.9884699      50218.233      36.893836      36.893836      36.893836    
    610000   0.37754571    -8.0182532     -7.4519427      1.9896378      50218.233      36.893836      36.893836      36.893836    
    620000   0.37836451    -8.0158712     -7.4483325      2.0049066      50218.233      36.893836      36.893836      36.893836    
    630000   0.37980057    -8.015326      -7.4456332      2.0051792      50218.233      36.893836      36.893836      36.893836    
    640000   0.37968811    -8.0177499     -7.4482258      1.9923821      50218.233      36.893836      36.893836      36.893836    
    650000   0.37716127    -8.0190802     -7.4533463      1.9770405      50218.233      36.893836      36.893836      36.893836    
    660000   0.38038178    -8.0185542     -7.4479897      1.986819       50218.233      36.893836      36.893836      36.893836    
    670000   0.37947711    -8.0170514     -7.4478439      1.9897364      50218.233      36.893836      36.893836      36.893836    
    680000   0.37996132    -8.0215814     -7.4516475      1.9656575      50218.233      36.893836      36.893836      36.893836    
    690000   0.37913718    -8.020245      -7.4515473      1.9732611      50218.233      36.893836      36.893836      36.893836    
    700000   0.3795797     -8.019394      -7.4500326      1.9690705      50218.233      36.893836      36.893836      36.893836    
    710000   0.38169353    -8.0191477     -7.4466156      1.9859517      50218.233      36.893836      36.893836      36.893836    
    720000   0.38098609    -8.0173074     -7.4458364      1.9903859      50218.233      36.893836      36.893836      36.893836    
    730000   0.37840486    -8.015946      -7.4483468      1.9987158      50218.233      36.893836      36.893836      36.893836    
    740000   0.37898096    -8.0164958     -7.4480325      1.9940555      50218.233      36.893836      36.893836      36.893836    
    750000   0.38120104    -8.0157599     -7.4439665      1.9997246      50218.233      36.893836      36.893836      36.893836    
    760000   0.37887248    -8.0163285     -7.4480279      1.9948465      50218.233      36.893836      36.893836      36.893836    
    770000   0.38009008    -8.0178212     -7.4476942      1.9938008      50218.233      36.893836      36.893836      36.893836    
    780000   0.37833189    -8.0161245     -7.4486348      1.9972931      50218.233      36.893836      36.893836      36.893836    
    790000   0.37844246    -8.0211773     -7.4535217      1.9516247      50218.233      36.893836      36.893836      36.893836    
    800000   0.37844208    -8.0150226     -7.4473675      2.0058779      50218.233      36.893836      36.893836      36.893836    
    810000   0.37946848    -8.0200247     -7.4508301      1.9747416      50218.233      36.893836      36.893836      36.893836    
    820000   0.3773605     -8.0183817     -7.452349       1.9859042      50218.233      36.893836      36.893836      36.893836    
    830000   0.37873783    -8.0203412     -7.4522426      1.9676074      50218.233      36.893836      36.893836      36.893836    
    840000   0.37842668    -8.0178638     -7.4502318      1.9972781      50218.233      36.893836      36.893836      36.893836    
    850000   0.37941514    -8.0189976     -7.449883       1.9779013      50218.233      36.893836      36.893836      36.893836    
    860000   0.38036124    -8.0197118     -7.449178       1.9696945      50218.233      36.893836      36.893836      36.893836    
    870000   0.38181313    -8.0193988     -7.4466872      1.9724531      50218.233      36.893836      36.893836      36.893836    
    880000   0.38023243    -8.0192071     -7.4488666      1.9713825      50218.233      36.893836      36.893836      36.893836    
    890000   0.38004038    -8.0194888     -7.4494363      1.9798034      50218.233      36.893836      36.893836      36.893836    
    900000   0.38200817    -8.0219146     -7.4489105      1.9636375      50218.233      36.893836      36.893836      36.893836    
    910000   0.3786161     -8.016352      -7.4484359      2.0011898      50218.233      36.893836      36.893836      36.893836    
    920000   0.37914336    -8.0190217     -7.4503147      1.9765512      50218.233      36.893836      36.893836      36.893836    
    930000   0.38075884    -8.0177011     -7.446571       1.9929782      50218.233      36.893836      36.893836      36.893836    
    940000   0.38027258    -8.0181553     -7.4477546      1.9891926      50218.233      36.893836      36.893836      36.893836    
    950000   0.3803172     -8.0171422     -7.4466745      1.9976946      50218.233      36.893836      36.893836      36.893836    
    960000   0.38109804    -8.0196787     -7.4480398      1.9764957      50218.233      36.893836      36.893836      36.893836    
    970000   0.37998966    -8.0205133     -7.4505369      1.9667725      50218.233      36.893836      36.893836      36.893836    
    980000   0.3807927     -8.0185743     -7.4473934      1.9886409      50218.233      36.893836      36.893836      36.893836    
    990000   0.38106972    -8.0218769     -7.4502804      1.958909       50218.233      36.893836      36.893836      36.893836    
   1000000   0.37949095    -8.0186261     -7.4493977      1.9862536      50218.233      36.893836      36.893836      36.893836    
   1010000   0.37851347    -8.0179644     -7.4502022      1.9848677      50218.233      36.893836      36.893836      36.893836    
   1020000   0.37980101    -8.0220791     -7.4523857      1.9511772      50218.233      36.893836      36.893836      36.893836    
   1030000   0.37937814    -8.0166099     -7.4475508      1.9991494      50218.233      36.893836      36.893836      36.893836    
   1040000   0.37709507    -8.0192277     -7.4535931      1.9840037      50218.233      36.893836      36.893836      36.893836    
   1050000   0.37986034    -8.0188517     -7.4490693      1.9891218      50218.233      36.893836      36.893836      36.893836    
   1060000   0.3809207     -8.0171483     -7.4457754      1.9952358      50218.233      36.893836      36.893836      36.893836    
   1070000   0.37985947    -8.0170373     -7.4472562      1.9846925      50218.233      36.893836      36.893836      36.893836    
   1080000   0.37774516    -8.0179296     -7.4513199      1.9869922      50218.233      36.893836      36.893836      36.893836    
   1090000   0.38033855    -8.0163888     -7.4458891      2.0102766      50218.233      36.893836      36.893836      36.893836    
   1100000   0.37992049    -8.0176485     -7.4477759      1.9855913      50218.233      36.893836      36.893836      36.893836    
   1110000   0.37929799    -8.0183243     -7.4493854      1.9849885      50218.233      36.893836      36.893836      36.893836    
   1120000   0.37845669    -8.0162829     -7.448606       1.9991899      50218.233      36.893836      36.893836      36.893836    
   1130000   0.37953828    -8.0197814     -7.450482       1.9771793      50218.233      36.893836      36.893836      36.893836    
   1140000   0.37975775    -8.0176527     -7.4480242      1.997684       50218.233      36.893836      36.893836      36.893836    
   1150000   0.38002732    -8.0132862     -7.4432533      2.0177493      50218.233      36.893836      36.893836      36.893836    
   1160000   0.38035148    -8.0174437     -7.4469246      1.9968996      50218.233      36.893836      36.893836      36.893836    
   1170000   0.37864848    -8.0191104     -7.4511457      1.9818566      50218.233      36.893836      36.893836      36.893836    
   1180000   0.38042124    -8.0153437     -7.44472        2.0123357      50218.233      36.893836      36.893836      36.893836    
   1190000   0.37960258    -8.01675       -7.4473542      1.9954524      50218.233      36.893836      36.893836      36.893836    
   1200000   0.38093       -8.0182213     -7.4468345      1.9917841      50218.233      36.893836      36.893836      36.893836    
   1210000   0.37892932    -8.0134927     -7.4451068      2.0197704      50218.233      36.893836      36.893836      36.893836    
   1220000   0.38116544    -8.0165212     -7.4447812      2.0035847      50218.233      36.893836      36.893836      36.893836    
   1230000   0.37982491    -8.0188645     -7.4491353      1.9821296      50218.233      36.893836      36.893836      36.893836    
   1240000   0.38129405    -8.0127874     -7.4408544      2.0234022      50218.233      36.893836      36.893836      36.893836    
   1250000   0.3795491     -8.0177057     -7.4483902      2.0011676      50218.233      36.893836      36.893836      36.893836    
   1260000   0.37930262    -8.01648       -7.4475342      2.0032192      50218.233      36.893836      36.893836      36.893836    
   1270000   0.38099483    -8.0178435     -7.4463594      1.9972876      50218.233      36.893836      36.893836      36.893836    
   1280000   0.37938274    -8.0170507     -7.4479847      1.9968218      50218.233      36.893836      36.893836      36.893836    
   1290000   0.37991054    -8.0189107     -7.449053       1.9823267      50218.233      36.893836      36.893836      36.893836    
   1300000   0.38103963    -8.017051      -7.4454996      1.9938896      50218.233      36.893836      36.893836      36.893836    
   1310000   0.37866139    -8.0182514     -7.4502673      1.9846604      50218.233      36.893836      36.893836      36.893836    
   1320000   0.37991246    -8.0183887     -7.4485281      1.989803       50218.233      36.893836      36.893836      36.893836    
   1330000   0.38016801    -8.0166354     -7.4463915      2.0037994      50218.233      36.893836      36.893836      36.893836    
   1340000   0.3804169     -8.0176333     -7.447016       1.9913008      50218.233      36.893836      36.893836      36.893836    
   1350000   0.38304775    -8.0191103     -7.4445468      1.9828502      50218.233      36.893836      36.893836      36.893836    
   1360000   0.37965398    -8.0193493     -7.4498764      1.9770627      50218.233      36.893836      36.893836      36.893836    
   1370000   0.38014039    -8.0174933     -7.4472909      1.9953855      50218.233      36.893836      36.893836      36.893836    
   1380000   0.37936513    -8.0202175     -7.4511779      1.9730141      50218.233      36.893836      36.893836      36.893836    
   1390000   0.38050784    -8.0168407     -7.4460871      1.9988401      50218.233      36.893836      36.893836      36.893836    
   1400000   0.37897818    -8.0175347     -7.4490755      1.9910483      50218.233      36.893836      36.893836      36.893836    
   1410000   0.38032273    -8.0179355     -7.4474595      1.9912978      50218.233      36.893836      36.893836      36.893836    
   1420000   0.38059552    -8.0191649     -7.4482798      1.981123       50218.233      36.893836      36.893836      36.893836    
   1430000   0.38046795    -8.0203581     -7.4496643      1.9800085      50218.233      36.893836      36.893836      36.893836    
   1440000   0.37745657    -8.0156057     -7.4494289      2.019117       50218.233      36.893836      36.893836      36.893836    
   1450000   0.37917989    -8.0168657     -7.448104       2.0003319      50218.233      36.893836      36.893836      36.893836    
   1460000   0.37962579    -8.0202792     -7.4508487      1.9644956      50218.233      36.893836      36.893836      36.893836    
   1470000   0.37928402    -8.0190179     -7.4500999      1.9937194      50218.233      36.893836      36.893836      36.893836    
   1480000   0.380059      -8.0177963     -7.4477159      1.9977977      50218.233      36.893836      36.893836      36.893836    
   1490000   0.38125087    -8.013702      -7.4418339      2.0211306      50218.233      36.893836      36.893836      36.893836    
   1500000   0.37910984    -8.0212466     -7.4525899      1.9679285      50218.233      36.893836      36.893836      36.893836    
   1510000   0.38059704    -8.0203815     -7.449494       1.9794586      50218.233      36.893836      36.893836      36.893836    
   1520000   0.37977386    -8.0187137     -7.449061       1.9860871      50218.233      36.893836      36.893836      36.893836    
   1530000   0.3808535     -8.0193605     -7.4480884      1.9779461      50218.233      36.893836      36.893836      36.893836    
   1540000   0.37771651    -8.0181741     -7.4516074      1.9811135      50218.233      36.893836      36.893836      36.893836    
   1550000   0.37943305    -8.0187788     -7.4496373      1.9831278      50218.233      36.893836      36.893836      36.893836    
   1560000   0.37977405    -8.0176783     -7.4480253      1.98994        50218.233      36.893836      36.893836      36.893836    
   1570000   0.38142694    -8.0200595     -7.4479272      1.9724804      50218.233      36.893836      36.893836      36.893836    
   1580000   0.38130637    -8.0174931     -7.4455416      2.0026044      50218.233      36.893836      36.893836      36.893836    
   1590000   0.38040674    -8.0173428     -7.4467408      1.9990491      50218.233      36.893836      36.893836      36.893836    
   1600000   0.37901216    -8.0221155     -7.4536053      1.9600184      50218.233      36.893836      36.893836      36.893836    
   1610000   0.38060401    -8.0206436     -7.4497457      1.9656862      50218.233      36.893836      36.893836      36.893836    
   1620000   0.37970512    -8.0185706     -7.449021       1.995648       50218.233      36.893836      36.893836      36.893836    
   1630000   0.37945212    -8.0174617     -7.4482917      2.0049347      50218.233      36.893836      36.893836      36.893836    
   1640000   0.37942558    -8.0174739     -7.4483437      1.9858459      50218.233      36.893836      36.893836      36.893836    
   1650000   0.3793079     -8.0204572     -7.4515034      1.9680223      50218.233      36.893836      36.893836      36.893836    
   1660000   0.37933945    -8.0181921     -7.449191       1.991193       50218.233      36.893836      36.893836      36.893836    
   1670000   0.38001813    -8.0168134     -7.4467943      1.9931547      50218.233      36.893836      36.893836      36.893836    
   1680000   0.38020348    -8.018383      -7.4480859      1.9895762      50218.233      36.893836      36.893836      36.893836    
   1690000   0.37866883    -8.0199935     -7.4519983      1.9727553      50218.233      36.893836      36.893836      36.893836    
   1700000   0.3800291     -8.0177393     -7.4477037      1.9834648      50218.233      36.893836      36.893836      36.893836    
   1710000   0.38106245    -8.0214267     -7.4498411      1.9664252      50218.233      36.893836      36.893836      36.893836    
   1720000   0.37880666    -8.0149079     -7.446706       2.0178927      50218.233      36.893836      36.893836      36.893836    
   1730000   0.381313      -8.0185911     -7.4466297      1.9845953      50218.233      36.893836      36.893836      36.893836    
   1740000   0.37934879    -8.0161251     -7.44711        2.0009848      50218.233      36.893836      36.893836      36.893836    
   1750000   0.38128994    -8.0183676     -7.4464408      1.9931828      50218.233      36.893836      36.893836      36.893836    
   1760000   0.37987985    -8.0178351     -7.4480235      1.9838008      50218.233      36.893836      36.893836      36.893836    
   1770000   0.37998199    -8.0183187     -7.4483538      1.9888433      50218.233      36.893836      36.893836      36.893836    
   1780000   0.38097974    -8.0192621     -7.4478006      1.9820017      50218.233      36.893836      36.893836      36.893836    
   1790000   0.37742861    -8.0199914     -7.4538565      1.9689217      50218.233      36.893836      36.893836      36.893836    
   1800000   0.37828294    -8.017241      -7.4498247      1.9887729      50218.233      36.893836      36.893836      36.893836    
   1810000   0.37970462    -8.0184569     -7.4489081      1.9877538      50218.233      36.893836      36.893836      36.893836    
   1820000   0.379243      -8.0212929     -7.4524365      1.9676812      50218.233      36.893836      36.893836      36.893836    
   1830000   0.37980408    -8.0168771     -7.4471791      1.9956751      50218.233      36.893836      36.893836      36.893836    
   1840000   0.38027203    -8.0186985     -7.4482986      1.982963       50218.233      36.893836      36.893836      36.893836    
   1850000   0.37763658    -8.0165187     -7.4500719      2.0022742      50218.233      36.893836      36.893836      36.893836    
   1860000   0.3800123     -8.0198936     -7.4498832      1.9720113      50218.233      36.893836      36.893836      36.893836    
   1870000   0.37855179    -8.017887      -7.4500674      1.9893549      50218.233      36.893836      36.893836      36.893836    
   1880000   0.38179777    -8.0200822     -7.4473936      1.9767449      50218.233      36.893836      36.893836      36.893836    
   1890000   0.37979208    -8.0213109     -7.4516308      1.9572834      50218.233      36.893836      36.893836      36.893836    
   1900000   0.38013808    -8.0189399     -7.4487409      1.9781174      50218.233      36.893836      36.893836      36.893836    
   1910000   0.3815344     -8.0181492     -7.4458558      1.9921578      50218.233      36.893836      36.893836      36.893836    
   1920000   0.37933725    -8.017589      -7.4485912      1.9904905      50218.233      36.893836      36.893836      36.893836    
   1930000   0.38294255    -8.0161839     -7.4417783      2.0043974      50218.233      36.893836      36.893836      36.893836    
   1940000   0.38033925    -8.0163938     -7.445893       2.0106762      50218.233      36.893836      36.893836      36.893836    
   1950000   0.37997317    -8.0193332     -7.4493816      1.9781026      50218.233      36.893836      36.893836      36.893836    
   1960000   0.37852911    -8.021791      -7.4540054      1.9677506      50218.233      36.893836      36.893836      36.893836    
   1970000   0.38220972    -8.0203458     -7.4470394      1.9760783      50218.233      36.893836      36.893836      36.893836    
   1980000   0.38147026    -8.017221      -7.4450237      1.9863947      50218.233      36.893836      36.893836      36.893836    
   1990000   0.37849539    -8.0179164     -7.4501814      1.9859049      50218.233      36.893836      36.893836      36.893836    
   2000000   0.38062875    -8.0180579     -7.4471229      1.9884641      50218.233      36.893836      36.893836      36.893836    
   2010000   0.38158696    -8.0187862     -7.4464139      1.984472       50218.233      36.893836      36.893836      36.893836    
   2020000   0.38110229    -8.0209509     -7.4493056      1.9736355      50218.233      36.893836      36.893836      36.893836    
   2030000   0.37944195    -8.0161161     -7.4469613      1.9970567      50218.233      36.893836      36.893836      36.893836    
   2040000   0.37884176    -8.0184441     -7.4501896      1.9931292      50218.233      36.893836      36.893836      36.893836    
   2050000   0.37977008    -8.0181788     -7.4485318      1.9894329      50218.233      36.893836      36.893836      36.893836    
   2060000   0.38211425    -8.0198839     -7.4467207      1.9763332      50218.233      36.893836      36.893836      36.893836    
   2070000   0.38190719    -8.0190089     -7.4461563      1.9834742      50218.233      36.893836      36.893836      36.893836    
   2080000   0.3800337     -8.0183158     -7.4482733      1.9820912      50218.233      36.893836      36.893836      36.893836    
   2090000   0.37803196    -8.0202312     -7.4531913      1.9626408      50218.233      36.893836      36.893836      36.893836    
   2100000   0.3778874     -8.0177856     -7.4509626      1.9849607      50218.233      36.893836      36.893836      36.893836    
   2110000   0.38110407    -8.0192857     -7.4476377      1.9858732      50218.233      36.893836      36.893836      36.893836    
   2120000   0.3810663     -8.0189382     -7.4473469      1.9847207      50218.233      36.893836      36.893836      36.893836    
   2130000   0.38018305    -8.0208684     -7.450602       1.9685947      50218.233      36.893836      36.893836      36.893836    
   2140000   0.37966309    -8.0181359     -7.4486494      1.9844098      50218.233      36.893836      36.893836      36.893836    
   2150000   0.37922289    -8.0202524     -7.4514261      1.9741278      50218.233      36.893836      36.893836      36.893836    
   2160000   0.37848148    -8.0211241     -7.45341        1.9699079      50218.233      36.893836      36.893836      36.893836    
   2170000   0.38094972    -8.019359      -7.4479425      1.9820145      50218.233      36.893836      36.893836      36.893836    
   2180000   0.37989134    -8.0160979     -7.446269       1.9978132      50218.233      36.893836      36.893836      36.893836    
   2190000   0.38094574    -8.0169003     -7.4454898      2.0024801      50218.233      36.893836      36.893836      36.893836    
   2200000   0.3797431     -8.021013      -7.4514065      1.9680492      50218.233      36.893836      36.893836      36.893836    
   2210000   0.38024158    -8.0186132     -7.448259       1.9857943      50218.233      36.893836      36.893836      36.893836    
   2220000   0.38206093    -8.0182896     -7.4452064      1.9852008      50218.233      36.893836      36.893836      36.893836    
   2230000   0.38135371    -8.0164019     -7.4443795      2.0096181      50218.233      36.893836      36.893836      36.893836    
   2240000   0.38031237    -8.0167454     -7.446285       1.9991991      50218.233      36.893836      36.893836      36.893836    
   2250000   0.3792367     -8.0184186     -7.4495716      1.9889024      50218.233      36.893836      36.893836      36.893836    
   2260000   0.38187232    -8.0187695     -7.4459692      1.9892947      50218.233      36.893836      36.893836      36.893836    
   2270000   0.38049591    -8.0151242     -7.4443884      2.0166247      50218.233      36.893836      36.893836      36.893836    
   2280000   0.38186572    -8.0183587     -7.4455683      1.9901836      50218.233      36.893836      36.893836      36.893836    
   2290000   0.38067332    -8.0169501     -7.4459483      1.9963634      50218.233      36.893836      36.893836      36.893836    
   2300000   0.37945854    -8.0180885     -7.4489088      1.9934344      50218.233      36.893836      36.893836      36.893836    
   2310000   0.38136002    -8.0200083     -7.4479764      1.9696878      50218.233      36.893836      36.893836      36.893836    
   2320000   0.37987534    -8.0154595     -7.4456546      2.009782       50218.233      36.893836      36.893836      36.893836    
   2330000   0.38007552    -8.0200196     -7.4499144      1.9714093      50218.233      36.893836      36.893836      36.893836    
   2340000   0.3798884     -8.0181272     -7.4483027      1.9871673      50218.233      36.893836      36.893836      36.893836    
   2350000   0.38038337    -8.0155694     -7.4450025      2.0130173      50218.233      36.893836      36.893836      36.893836    
   2360000   0.38194715    -8.0179419     -7.4450293      1.9931172      50218.233      36.893836      36.893836      36.893836    
   2370000   0.38070584    -8.0202147     -7.4491641      1.9692443      50218.233      36.893836      36.893836      36.893836    
   2380000   0.37949524    -8.0177155     -7.4484807      2.0034346      50218.233      36.893836      36.893836      36.893836    
   2390000   0.38040213    -8.0165394     -7.4459443      2.0035631      50218.233      36.893836      36.893836      36.893836    
   2400000   0.3782776     -8.0177632     -7.4503549      1.9951828      50218.233      36.893836      36.893836      36.893836    
   2410000   0.38026627    -8.0186494     -7.4482581      1.9774887      50218.233      36.893836      36.893836      36.893836    
   2420000   0.38001057    -8.0191757     -7.4491679      1.9774393      50218.233      36.893836      36.893836      36.893836    
   2430000   0.38060756    -8.0221177     -7.4512145      1.9576781      50218.233      36.893836      36.893836      36.893836    
   2440000   0.38138525    -8.0213139     -7.4492442      1.9664818      50218.233      36.893836      36.893836      36.893836    
   2450000   0.38065063    -8.0178179     -7.44685        1.9844829      50218.233      36.893836      36.893836      36.893836    
   2460000   0.38074985    -8.0203369     -7.4492203      1.9661085      50218.233      36.893836      36.893836      36.893836    
   2470000   0.3811758     -8.0204745     -7.448719       1.969294       50218.233      36.893836      36.893836      36.893836    
   2480000   0.37867352    -8.0197113     -7.4517091      1.975157       50218.233      36.893836      36.893836      36.893836    
   2490000   0.38190139    -8.0162298     -7.4433858      1.9977091      50218.233      36.893836      36.893836      36.893836    
   2500000   0.37907032    -8.0188616     -7.4502642      1.9843598      50218.233      36.893836      36.893836      36.893836    
   2510000   0.38188844    -8.0177533     -7.4449288      1.9958649      50218.233      36.893836      36.893836      36.893836    
   2520000   0.38098903    -8.0181593     -7.4466839      1.9918502      50218.233      36.893836      36.893836      36.893836    
   2530000   0.37963682    -8.0213779     -7.4519308      1.9632181      50218.233      36.893836      36.893836      36.893836    
   2540000   0.38020888    -8.0200501     -7.4497449      1.966617       50218.233      36.893836      36.893836      36.893836    
   2550000   0.38158058    -8.0196601     -7.4472973      1.9708239      50218.233      36.893836      36.893836      36.893836    
   2560000   0.38212132    -8.0221896     -7.4490158      1.9631826      50218.233      36.893836      36.893836      36.893836    
   2570000   0.37956609    -8.0162107     -7.4468696      1.9977426      50218.233      36.893836      36.893836      36.893836    
   2580000   0.3796545     -8.0183917     -7.448918       1.9843866      50218.233      36.893836      36.893836      36.893836    
   2590000   0.38118813    -8.0193024     -7.4475283      1.9797799      50218.233      36.893836      36.893836      36.893836    
   2600000   0.38031439    -8.0198778     -7.4494143      1.969577       50218.233      36.893836      36.893836      36.893836    
   2610000   0.38129765    -8.0190033     -7.4470649      1.9793275      50218.233      36.893836      36.893836      36.893836    
   2620000   0.37680668    -8.0175291     -7.4523271      1.9860004      50218.233      36.893836      36.893836      36.893836    
   2630000   0.37891101    -8.0203872     -7.4520288      1.9682523      50218.233      36.893836      36.893836      36.893836    
   2640000   0.37975608    -8.0175197     -7.4478936      1.9969877      50218.233      36.893836      36.893836      36.893836    
   2650000   0.38044283    -8.0173443     -7.4466882      1.9921734      50218.233      36.893836      36.893836      36.893836    
   2660000   0.38038641    -8.0180289     -7.4474574      1.9811386      50218.233      36.893836      36.893836      36.893836    
   2670000   0.38022102    -8.0177413     -7.4474179      1.9968023      50218.233      36.893836      36.893836      36.893836    
   2680000   0.3797202     -8.0199113     -7.4503391      1.9774866      50218.233      36.893836      36.893836      36.893836    
   2690000   0.38047024    -8.017794      -7.4470968      1.9920093      50218.233      36.893836      36.893836      36.893836    
   2700000   0.38102215    -8.020828      -7.4493029      1.9648913      50218.233      36.893836      36.893836      36.893836    
   2710000   0.38011299    -8.0189447     -7.4487833      1.976901       50218.233      36.893836      36.893836      36.893836    
   2720000   0.37962117    -8.018313      -7.4488893      1.9909809      50218.233      36.893836      36.893836      36.893836    
   2730000   0.38014915    -8.018999      -7.4487833      1.9824221      50218.233      36.893836      36.893836      36.893836    
   2740000   0.38112887    -8.0153278     -7.4436426      2.014175       50218.233      36.893836      36.893836      36.893836    
   2750000   0.37871635    -8.0153452     -7.4472787      1.9976507      50218.233      36.893836      36.893836      36.893836    
   2760000   0.38073795    -8.0192648     -7.448166       1.9837379      50218.233      36.893836      36.893836      36.893836    
   2770000   0.37984652    -8.0175398     -7.4477782      1.9891673      50218.233      36.893836      36.893836      36.893836    
   2780000   0.38022196    -8.0165375     -7.4462127      2.0051685      50218.233      36.893836      36.893836      36.893836    
   2790000   0.38047281    -8.0143974     -7.4436963      2.0186648      50218.233      36.893836      36.893836      36.893836    
   2800000   0.37694288    -8.0180231     -7.4526168      1.9767584      50218.233      36.893836      36.893836      36.893836    
   2810000   0.3808574     -8.0204843     -7.4492063      1.9787573      50218.233      36.893836      36.893836      36.893836    
   2820000   0.38132046    -8.017987      -7.4460145      1.9885953      50218.233      36.893836      36.893836      36.893836    
   2830000   0.38016827    -8.0172568     -7.4470125      1.9960957      50218.233      36.893836      36.893836      36.893836    
   2840000   0.3800334     -8.0177713     -7.4477293      1.984316       50218.233      36.893836      36.893836      36.893836    
   2850000   0.37965973    -8.0150947     -7.4456132      2.0030121      50218.233      36.893836      36.893836      36.893836    
   2860000   0.37886655    -8.018223      -7.4499313      1.9833844      50218.233      36.893836      36.893836      36.893836    
   2870000   0.38262462    -8.0203856     -7.4464568      1.971963       50218.233      36.893836      36.893836      36.893836    
   2880000   0.3803575     -8.016991      -7.4464628      1.9918253      50218.233      36.893836      36.893836      36.893836    
   2890000   0.37877715    -8.0204182     -7.4522606      1.9637765      50218.233      36.893836      36.893836      36.893836    
   2900000   0.37831845    -8.0226483     -7.4551787      1.9477642      50218.233      36.893836      36.893836      36.893836    
   2910000   0.38023286    -8.0178062     -7.447465       1.9831473      50218.233      36.893836      36.893836      36.893836    
   2920000   0.3795575     -8.0177728     -7.4484446      1.9885967      50218.233      36.893836      36.893836      36.893836    
   2930000   0.38007709    -8.0224869     -7.4523794      1.9609455      50218.233      36.893836      36.893836      36.893836    
   2940000   0.37971472    -8.0215008     -7.4519368      1.9693379      50218.233      36.893836      36.893836      36.893836    
   2950000   0.38039602    -8.0204375     -7.4498516      1.9646532      50218.233      36.893836      36.893836      36.893836    
   2960000   0.38137072    -8.0183219     -7.446274       1.9878757      50218.233      36.893836      36.893836      36.893836    
   2970000   0.37934062    -8.0187627     -7.4497599      1.9778017      50218.233      36.893836      36.893836      36.893836    
   2980000   0.3805566     -8.017577      -7.4467503      1.9973067      50218.233      36.893836      36.893836      36.893836    
   2990000   0.3808345     -8.0182307     -7.4469871      1.9894087      50218.233      36.893836      36.893836      36.893836    
   3000000   0.37788003    -8.0193334     -7.4525214      1.9708638      50218.233      36.893836      36.893836      36.893836    
   3010000   0.37841099    -8.0183794     -7.450771       1.9848067      50218.233      36.893836      36.893836      36.893836    
   3020000   0.37923324    -8.0183035     -7.4494618      1.9839022      50218.233      36.893836      36.893836      36.893836    
   3030000   0.37892668    -8.0172887     -7.4489068      1.9996657      50218.233      36.893836      36.893836      36.893836    
   3040000   0.37946801    -8.0189979     -7.449804       1.9717344      50218.233      36.893836      36.893836      36.893836    
   3050000   0.3803333     -8.0168768     -7.446385       1.9986857      50218.233      36.893836      36.893836      36.893836    
   3060000   0.37849689    -8.0199839     -7.4522466      1.9688883      50218.233      36.893836      36.893836      36.893836    
   3070000   0.38025396    -8.0171589     -7.4467861      1.9951148      50218.233      36.893836      36.893836      36.893836    
   3080000   0.38055656    -8.0199101     -7.4490834      1.9716859      50218.233      36.893836      36.893836      36.893836    
   3090000   0.37909281    -8.0200635     -7.4514324      1.9747315      50218.233      36.893836      36.893836      36.893836    
   3100000   0.3791404     -8.0183745     -7.449672       1.9769447      50218.233      36.893836      36.893836      36.893836    
   3110000   0.37919435    -8.0158741     -7.4470906      2.0027015      50218.233      36.893836      36.893836      36.893836    
   3120000   0.38099294    -8.0142426     -7.4427613      2.0148024      50218.233      36.893836      36.893836      36.893836    
   3130000   0.37942604    -8.0210004     -7.4518694      1.9634956      50218.233      36.893836      36.893836      36.893836    
   3140000   0.38071999    -8.0165614     -7.4454896      2.0003532      50218.233      36.893836      36.893836      36.893836    
   3150000   0.3781406     -8.0214982     -7.4542953      1.9585389      50218.233      36.893836      36.893836      36.893836    
   3160000   0.37830494    -8.0187442     -7.4512949      1.9760137      50218.233      36.893836      36.893836      36.893836    
   3170000   0.3792486     -8.0159425     -7.4470776      2.0034099      50218.233      36.893836      36.893836      36.893836    
   3180000   0.38033672    -8.0226678     -7.4521708      1.9582854      50218.233      36.893836      36.893836      36.893836    
   3190000   0.38165125    -8.0170041     -7.4445353      1.9936547      50218.233      36.893836      36.893836      36.893836    
   3200000   0.38052814    -8.0194142     -7.4486301      1.9709439      50218.233      36.893836      36.893836      36.893836    
   3210000   0.38085566    -8.0180955     -7.4468202      1.9878617      50218.233      36.893836      36.893836      36.893836    
   3220000   0.38330485    -8.0170008     -7.4420517      1.9962839      50218.233      36.893836      36.893836      36.893836    
   3230000   0.3793587     -8.0167618     -7.4477319      1.9872274      50218.233      36.893836      36.893836      36.893836    
   3240000   0.37933547    -8.0192718     -7.4502766      1.9790502      50218.233      36.893836      36.893836      36.893836    
   3250000   0.37984138    -8.0154915     -7.4457375      2.00328        50218.233      36.893836      36.893836      36.893836    
   3260000   0.37942867    -8.0169016     -7.4477667      1.9898601      50218.233      36.893836      36.893836      36.893836    
   3270000   0.37905026    -8.0201283     -7.451561       1.9636763      50218.233      36.893836      36.893836      36.893836    
   3280000   0.37945391    -8.016296      -7.4471233      2.0031413      50218.233      36.893836      36.893836      36.893836    
   3290000   0.38060273    -8.0187494     -7.4478535      1.9749318      50218.233      36.893836      36.893836      36.893836    
   3300000   0.38184676    -8.0159861     -7.4432241      2.0071496      50218.233      36.893836      36.893836      36.893836    
   3310000   0.37930805    -8.0192233     -7.4502693      1.9837896      50218.233      36.893836      36.893836      36.893836    
   3320000   0.37986411    -8.0206375     -7.4508494      1.9780642      50218.233      36.893836      36.893836      36.893836    
   3330000   0.37955149    -8.0147955     -7.4454764      2.0141908      50218.233      36.893836      36.893836      36.893836    
   3340000   0.37872867    -8.0184913     -7.4504063      1.9877284      50218.233      36.893836      36.893836      36.893836    
   3350000   0.38082204    -8.0193317     -7.4481068      1.9826504      50218.233      36.893836      36.893836      36.893836    
   3360000   0.37932926    -8.013644      -7.4446582      2.0162075      50218.233      36.893836      36.893836      36.893836    
   3370000   0.38127877    -8.0161828     -7.4442727      2.0009788      50218.233      36.893836      36.893836      36.893836    
   3380000   0.38077321    -8.0177191     -7.4465674      1.9924841      50218.233      36.893836      36.893836      36.893836    
   3390000   0.38028781    -8.0204965     -7.4500729      1.9743248      50218.233      36.893836      36.893836      36.893836    
   3400000   0.38055531    -8.0178205     -7.4469957      2.0042094      50218.233      36.893836      36.893836      36.893836    
   3410000   0.37882027    -8.0181725     -7.4499502      1.9862039      50218.233      36.893836      36.893836      36.893836    
   3420000   0.38024044    -8.0184786     -7.448126       1.9878887      50218.233      36.893836      36.893836      36.893836    
   3430000   0.38033801    -8.0179701     -7.4474712      1.9905269      50218.233      36.893836      36.893836      36.893836    
   3440000   0.38035338    -8.0212948     -7.4507728      1.9650281      50218.233      36.893836      36.893836      36.893836    
   3450000   0.3789913     -8.0169364     -7.4484576      2.0037809      50218.233      36.893836      36.893836      36.893836    
   3460000   0.38019738    -8.0163315     -7.4460435      1.9976142      50218.233      36.893836      36.893836      36.893836    
   3470000   0.38029175    -8.0206738     -7.4502443      1.9709935      50218.233      36.893836      36.893836      36.893836    
   3480000   0.37864951    -8.0196991     -7.4517329      1.9727213      50218.233      36.893836      36.893836      36.893836    
   3490000   0.38021328    -8.0191049     -7.4487931      1.9897344      50218.233      36.893836      36.893836      36.893836    
   3500000   0.38006272    -8.0176717     -7.4475857      1.9927913      50218.233      36.893836      36.893836      36.893836    
   3510000   0.37888677    -8.0220735     -7.4537514      1.9507374      50218.233      36.893836      36.893836      36.893836    
   3520000   0.37910655    -8.0181305     -7.4494788      1.9868997      50218.233      36.893836      36.893836      36.893836    
   3530000   0.38177204    -8.0192274     -7.4465775      1.9716451      50218.233      36.893836      36.893836      36.893836    
   3540000   0.37929455    -8.0223871     -7.4534534      1.9512713      50218.233      36.893836      36.893836      36.893836    
   3550000   0.37981319    -8.0208352     -7.4511236      1.9611787      50218.233      36.893836      36.893836      36.893836    
   3560000   0.38115353    -8.0209309     -7.4492087      1.9706843      50218.233      36.893836      36.893836      36.893836    
   3570000   0.38008522    -8.0170502     -7.4469304      1.9955292      50218.233      36.893836      36.893836      36.893836    
   3580000   0.38059246    -8.0211976     -7.4503171      1.9636257      50218.233      36.893836      36.893836      36.893836    
   3590000   0.38070146    -8.0179814     -7.4469373      1.9830011      50218.233      36.893836      36.893836      36.893836    
   3600000   0.37838047    -8.0226517     -7.4550891      1.9545896      50218.233      36.893836      36.893836      36.893836    
   3610000   0.37901769    -8.018077      -7.4495586      1.9839004      50218.233      36.893836      36.893836      36.893836    
   3620000   0.37933899    -8.0161321     -7.4471318      2.0051484      50218.233      36.893836      36.893836      36.893836    
   3630000   0.38056978    -8.0193772     -7.4485307      1.9745611      50218.233      36.893836      36.893836      36.893836    
   3640000   0.38047591    -8.0190747     -7.4483689      1.9733687      50218.233      36.893836      36.893836      36.893836    
   3650000   0.37975143    -8.01933       -7.449711       1.9773803      50218.233      36.893836      36.893836      36.893836    
   3660000   0.37900135    -8.0158456     -7.4473517      1.9908861      50218.233      36.893836      36.893836      36.893836    
   3670000   0.37771554    -8.0178392     -7.4512739      1.9801869      50218.233      36.893836      36.893836      36.893836    
   3680000   0.38083717    -8.0195855     -7.4483378      1.9698097      50218.233      36.893836      36.893836      36.893836    
   3690000   0.38074493    -8.0187481     -7.4476389      1.9797073      50218.233      36.893836      36.893836      36.893836    
   3700000   0.3825449     -8.0172683     -7.4434591      1.9972029      50218.233      36.893836      36.893836      36.893836    
   3710000   0.37881489    -8.0155453     -7.447331       2.0100869      50218.233      36.893836      36.893836      36.893836    
   3720000   0.37921783    -8.0170709     -7.4482522      1.9910603      50218.233      36.893836      36.893836      36.893836    
   3730000   0.3823313     -8.0180384     -7.4445496      1.9962732      50218.233      36.893836      36.893836      36.893836    
   3740000   0.38088355    -8.017485      -7.4461678      1.9972129      50218.233      36.893836      36.893836      36.893836    
   3750000   0.3786817     -8.0167389     -7.4487244      1.9983815      50218.233      36.893836      36.893836      36.893836    
   3760000   0.37877546    -8.0188131     -7.450658       1.986393       50218.233      36.893836      36.893836      36.893836    
   3770000   0.38093591    -8.0187431     -7.4473473      1.9850755      50218.233      36.893836      36.893836      36.893836    
   3780000   0.38081215    -8.0150615     -7.4438514      2.0240635      50218.233      36.893836      36.893836      36.893836    
   3790000   0.38130533    -8.0179535     -7.4460036      1.9964716      50218.233      36.893836      36.893836      36.893836    
   3800000   0.3798755     -8.0210076     -7.4512024      1.9674404      50218.233      36.893836      36.893836      36.893836    
   3810000   0.38131012    -8.0177767     -7.4458197      1.9901255      50218.233      36.893836      36.893836      36.893836    
   3820000   0.3794998     -8.0221386     -7.4528971      1.9552311      50218.233      36.893836      36.893836      36.893836    
   3830000   0.37967754    -8.0168803     -7.4473721      1.993625       50218.233      36.893836      36.893836      36.893836    
   3840000   0.38079361    -8.0192202     -7.4480379      1.9789418      50218.233      36.893836      36.893836      36.893836    
   3850000   0.38076409    -8.020087      -7.448949       1.9804511      50218.233      36.893836      36.893836      36.893836    
   3860000   0.38292849    -8.0199445     -7.44556        1.9718598      50218.233      36.893836      36.893836      36.893836    
   3870000   0.38092711    -8.0161572     -7.4447747      1.9953656      50218.233      36.893836      36.893836      36.893836    
   3880000   0.38037528    -8.0188878     -7.448333       1.9816566      50218.233      36.893836      36.893836      36.893836    
   3890000   0.37876111    -8.0196645     -7.451531       1.9781598      50218.233      36.893836      36.893836      36.893836    
   3900000   0.3780497     -8.0194911     -7.4524246      1.9791591      50218.233      36.893836      36.893836      36.893836    
   3910000   0.37948333    -8.0157783     -7.4465614      2.012201       50218.233      36.893836      36.893836      36.893836    
   3920000   0.38230497    -8.0198637     -7.4464144      1.9768866      50218.233      36.893836      36.893836      36.893836    
   3930000   0.37942256    -8.0217591     -7.4526334      1.9640129      50218.233      36.893836      36.893836      36.893836    
   3940000   0.37861071    -8.0162893     -7.4483814      1.9905231      50218.233      36.893836      36.893836      36.893836    
   3950000   0.38075298    -8.017098      -7.4459767      1.9949634      50218.233      36.893836      36.893836      36.893836    
   3960000   0.38315377    -8.0166708     -7.4419483      2.0016112      50218.233      36.893836      36.893836      36.893836    
   3970000   0.38160743    -8.0208056     -7.4484026      1.9656224      50218.233      36.893836      36.893836      36.893836    
   3980000   0.38203214    -8.0158829     -7.4428428      2.0071605      50218.233      36.893836      36.893836      36.893836    
   3990000   0.37932734    -8.0205035     -7.4515206      1.9684002      50218.233      36.893836      36.893836      36.893836    
   4000000   0.38138976    -8.0202897     -7.4482132      1.9744386      50218.233      36.893836      36.893836      36.893836    
   4010000   0.37761092    -8.019885      -7.4534767      1.9675412      50218.233      36.893836      36.893836      36.893836    
   4020000   0.38119346    -8.0215606     -7.4497785      1.9597495      50218.233      36.893836      36.893836      36.893836    
   4030000   0.38051793    -8.0209979     -7.4502291      1.9686522      50218.233      36.893836      36.893836      36.893836    
   4040000   0.37990556    -8.0171894     -7.4473392      1.9997243      50218.233      36.893836      36.893836      36.893836    
   4050000   0.38069048    -8.0210606     -7.450033       1.9748896      50218.233      36.893836      36.893836      36.893836    
   4060000   0.37940401    -8.0174738     -7.4483759      1.9951809      50218.233      36.893836      36.893836      36.893836    
   4070000   0.3800259     -8.0196975     -7.4496668      1.977726       50218.233      36.893836      36.893836      36.893836    
   4080000   0.37884798    -8.0170766     -7.4488127      1.9968014      50218.233      36.893836      36.893836      36.893836    
   4090000   0.3792047     -8.0180805     -7.4492816      1.9844498      50218.233      36.893836      36.893836      36.893836    
   4100000   0.38128837    -8.0178936     -7.4459692      1.9932018      50218.233      36.893836      36.893836      36.893836    
   4110000   0.3785974     -8.0188447     -7.4509567      1.9846911      50218.233      36.893836      36.893836      36.893836    
   4120000   0.37997419    -8.0172579     -7.4473047      1.9975856      50218.233      36.893836      36.893836      36.893836    
   4130000   0.37998274    -8.0193612     -7.4493952      1.9761858      50218.233      36.893836      36.893836      36.893836    
   4140000   0.3798773     -8.0198146     -7.4500068      1.979547       50218.233      36.893836      36.893836      36.893836    
   4150000   0.3809421     -8.0174317     -7.4460267      1.9818743      50218.233      36.893836      36.893836      36.893836    
   4160000   0.37786155    -8.0184136     -7.4516293      1.9811975      50218.233      36.893836      36.893836      36.893836    
   4170000   0.3799429     -8.017859      -7.4479528      1.9901696      50218.233      36.893836      36.893836      36.893836    
   4180000   0.37886324    -8.0214966     -7.4532098      1.9668587      50218.233      36.893836      36.893836      36.893836    
   4190000   0.38171432    -8.0170854     -7.4445221      2.0031554      50218.233      36.893836      36.893836      36.893836    
   4200000   0.38239847    -8.0209855     -7.4473959      1.9762616      50218.233      36.893836      36.893836      36.893836    
   4210000   0.38208312    -8.020883      -7.4477665      1.9737033      50218.233      36.893836      36.893836      36.893836    
   4220000   0.37887308    -8.0162458     -7.4479443      2.0026696      50218.233      36.893836      36.893836      36.893836    
   4230000   0.38128101    -8.0186409     -7.4467275      1.9830135      50218.233      36.893836      36.893836      36.893836    
   4240000   0.3793891     -8.0165551     -7.4474796      1.9945465      50218.233      36.893836      36.893836      36.893836    
   4250000   0.38141581    -8.0201883     -7.4480727      1.9777913      50218.233      36.893836      36.893836      36.893836    
   4260000   0.3801998     -8.0179277     -7.4476361      1.9874548      50218.233      36.893836      36.893836      36.893836    
   4270000   0.37838224    -8.0209942     -7.4534289      1.9757638      50218.233      36.893836      36.893836      36.893836    
   4280000   0.37975553    -8.019105      -7.4494799      1.9721802      50218.233      36.893836      36.893836      36.893836    
   4290000   0.37885647    -8.0180506     -7.449774       1.9975712      50218.233      36.893836      36.893836      36.893836    
   4300000   0.37915311    -8.0179254     -7.4492038      1.9927594      50218.233      36.893836      36.893836      36.893836    
   4310000   0.37873304    -8.0173598     -7.4492683      1.9977941      50218.233      36.893836      36.893836      36.893836    
   4320000   0.3800171     -8.0177768     -7.4477593      1.9931616      50218.233      36.893836      36.893836      36.893836    
   4330000   0.37867837    -8.0176332     -7.4496238      1.9903454      50218.233      36.893836      36.893836      36.893836    
   4340000   0.37969363    -8.0178873     -7.448355       1.994913       50218.233      36.893836      36.893836      36.893836    
   4350000   0.37960246    -8.018876      -7.4494804      1.9882011      50218.233      36.893836      36.893836      36.893836    
   4360000   0.38013768    -8.0162766     -7.4460781      2.0078118      50218.233      36.893836      36.893836      36.893836    
   4370000   0.38082335    -8.0202524     -7.4490255      1.977025       50218.233      36.893836      36.893836      36.893836    
   4380000   0.38180801    -8.0171485     -7.4444447      2.0053045      50218.233      36.893836      36.893836      36.893836    
   4390000   0.38113394    -8.0157537     -7.4440609      2.0126148      50218.233      36.893836      36.893836      36.893836    
   4400000   0.38020301    -8.0186948     -7.4483984      1.9861682      50218.233      36.893836      36.893836      36.893836    
   4410000   0.38068777    -8.0222525     -7.4512289      1.9584865      50218.233      36.893836      36.893836      36.893836    
   4420000   0.3796932     -8.0193323     -7.4498006      1.9807475      50218.233      36.893836      36.893836      36.893836    
   4430000   0.38125436    -8.0187328     -7.4468594      1.9885466      50218.233      36.893836      36.893836      36.893836    
   4440000   0.3784025     -8.0197396     -7.4521439      1.9827638      50218.233      36.893836      36.893836      36.893836    
   4450000   0.37957825    -8.0208119     -7.4514526      1.9717236      50218.233      36.893836      36.893836      36.893836    
   4460000   0.38142405    -8.0187941     -7.4466662      1.985957       50218.233      36.893836      36.893836      36.893836    
   4470000   0.37922177    -8.0204216     -7.451597       1.9777907      50218.233      36.893836      36.893836      36.893836    
   4480000   0.38051887    -8.02181       -7.4510398      1.9536865      50218.233      36.893836      36.893836      36.893836    
   4490000   0.37912934    -8.0193597     -7.4506738      1.979764       50218.233      36.893836      36.893836      36.893836    
   4500000   0.38105056    -8.0215121     -7.4499443      1.9570148      50218.233      36.893836      36.893836      36.893836    
   4510000   0.3785742     -8.0163991     -7.4485458      2.0018537      50218.233      36.893836      36.893836      36.893836    
   4520000   0.38030785    -8.0223396     -7.4518859      1.9570301      50218.233      36.893836      36.893836      36.893836    
   4530000   0.37992788    -8.0191413     -7.4492576      1.974647       50218.233      36.893836      36.893836      36.893836    
   4540000   0.38022155    -8.0175349     -7.4472107      1.9946031      50218.233      36.893836      36.893836      36.893836    
   4550000   0.37987966    -8.0168175     -7.4470061      1.9933041      50218.233      36.893836      36.893836      36.893836    
   4560000   0.37957328    -8.0177502     -7.4483983      1.9870844      50218.233      36.893836      36.893836      36.893836    
   4570000   0.38069446    -8.0192893     -7.4482558      1.985433       50218.233      36.893836      36.893836      36.893836    
   4580000   0.37868978    -8.018234      -7.4502074      1.9858486      50218.233      36.893836      36.893836      36.893836    
   4590000   0.37889008    -8.0169151     -7.4485881      1.9953693      50218.233      36.893836      36.893836      36.893836    
   4600000   0.37857716    -8.0197964     -7.4519387      1.9724786      50218.233      36.893836      36.893836      36.893836    
   4610000   0.38097576    -8.0212017     -7.4497462      1.9668384      50218.233      36.893836      36.893836      36.893836    
   4620000   0.3794888     -8.0170229     -7.4477978      2.0046796      50218.233      36.893836      36.893836      36.893836    
   4630000   0.38139294    -8.018905      -7.4468237      1.9865114      50218.233      36.893836      36.893836      36.893836    
   4640000   0.37905129    -8.0187217     -7.4501528      1.9802104      50218.233      36.893836      36.893836      36.893836    
   4650000   0.37944069    -8.0196331     -7.4504801      1.9748442      50218.233      36.893836      36.893836      36.893836    
   4660000   0.37966509    -8.0204402     -7.4509507      1.9711566      50218.233      36.893836      36.893836      36.893836    
   4670000   0.38012796    -8.0170508     -7.446867       1.9988014      50218.233      36.893836      36.893836      36.893836    
   4680000   0.37932419    -8.0162944     -7.4473162      2.000169       50218.233      36.893836      36.893836      36.893836    
   4690000   0.37953058    -8.0194869     -7.4501991      1.9868994      50218.233      36.893836      36.893836      36.893836    
   4700000   0.3810425     -8.0188928     -7.4473372      1.983407       50218.233      36.893836      36.893836      36.893836    
   4710000   0.38048395    -8.0180302     -7.4473123      1.9933006      50218.233      36.893836      36.893836      36.893836    
   4720000   0.37918434    -8.0170023     -7.4482339      1.9943663      50218.233      36.893836      36.893836      36.893836    
   4730000   0.37893733    -8.0206813     -7.4522834      1.9738036      50218.233      36.893836      36.893836      36.893836    
   4740000   0.37759004    -8.0184487     -7.4520717      1.980577       50218.233      36.893836      36.893836      36.893836    
   4750000   0.37824806    -8.015826      -7.4484619      2.0021549      50218.233      36.893836      36.893836      36.893836    
   4760000   0.37999041    -8.0193847     -7.4494072      1.9805361      50218.233      36.893836      36.893836      36.893836    
   4770000   0.38186135    -8.0171125     -7.4443286      1.992384       50218.233      36.893836      36.893836      36.893836    
   4780000   0.38133798    -8.0233564     -7.4513576      1.945757       50218.233      36.893836      36.893836      36.893836    
   4790000   0.38041009    -8.017685      -7.447078       1.9914154      50218.233      36.893836      36.893836      36.893836    
   4800000   0.37995876    -8.0182357     -7.4483057      1.9877168      50218.233      36.893836      36.893836      36.893836    
   4810000   0.38026472    -8.0195262     -7.4491372      1.9791628      50218.233      36.893836      36.893836      36.893836    
   4820000   0.38124207    -8.0208782     -7.4490232      1.9692807      50218.233      36.893836      36.893836      36.893836    
   4830000   0.38006883    -8.0162575     -7.4461624      2.0028799      50218.233      36.893836      36.893836      36.893836    
   4840000   0.38204536    -8.015201      -7.4421411      2.012564       50218.233      36.893836      36.893836      36.893836    
   4850000   0.379754      -8.0183768     -7.4487539      1.9859561      50218.233      36.893836      36.893836      36.893836    
   4860000   0.38108669    -8.0187357     -7.4471138      1.9782987      50218.233      36.893836      36.893836      36.893836    
   4870000   0.38024276    -8.0207186     -7.4503626      1.9705965      50218.233      36.893836      36.893836      36.893836    
   4880000   0.38157508    -8.0203957     -7.4480412      1.9745343      50218.233      36.893836      36.893836      36.893836    
   4890000   0.38053557    -8.0213943     -7.4505991      1.9666964      50218.233      36.893836      36.893836      36.893836    
   4900000   0.38013144    -8.0200011     -7.449812       1.9752252      50218.233      36.893836      36.893836      36.893836    
   4910000   0.37943873    -8.0168083     -7.4476583      1.9878586      50218.233      36.893836      36.893836      36.893836    
   4920000   0.37988532    -8.0202722     -7.4504524      1.9754137      50218.233      36.893836      36.893836      36.893836    
   4930000   0.38103889    -8.0209704     -7.4494202      1.9674418      50218.233      36.893836      36.893836      36.893836    
   4940000   0.38031455    -8.0192454     -7.4487816      1.9819509      50218.233      36.893836      36.893836      36.893836    
   4950000   0.37854564    -8.0183964     -7.450586       1.9879214      50218.233      36.893836      36.893836      36.893836    
   4960000   0.38001764    -8.0233411     -7.4533227      1.942042       50218.233      36.893836      36.893836      36.893836    
   4970000   0.38090657    -8.019085      -7.4477332      1.9818919      50218.233      36.893836      36.893836      36.893836    
   4980000   0.37998959    -8.0189562     -7.44898        1.9837092      50218.233      36.893836      36.893836      36.893836    
   4990000   0.37783978    -8.0212975     -7.4545459      1.9587969      50218.233      36.893836      36.893836      36.893836    
   5000000   0.38065017    -8.0177471     -7.44678        1.9984824      50218.233      36.893836      36.893836      36.893836    
   5010000   0.38093319    -8.0173351     -7.4459434      1.9976283      50218.233      36.893836      36.893836      36.893836    
   5020000   0.38204289    -8.0205642     -7.447508       1.9731934      50218.233      36.893836      36.893836      36.893836    
   5030000   0.37879818    -8.0197762     -7.451587       1.9724735      50218.233      36.893836      36.893836      36.893836    
   5040000   0.38055721    -8.0186725     -7.4478448      1.9796558      50218.233      36.893836      36.893836      36.893836    
   5050000   0.38110226    -8.0199428     -7.4482976      1.9785106      50218.233      36.893836      36.893836      36.893836    
   5060000   0.37936958    -8.0193972     -7.4503509      1.9820551      50218.233      36.893836      36.893836      36.893836    
   5070000   0.38142562    -8.0158722     -7.4437419      2.001508       50218.233      36.893836      36.893836      36.893836    
   5080000   0.38238252    -8.0213245     -7.4477588      1.9680049      50218.233      36.893836      36.893836      36.893836    
   5090000   0.38116708    -8.0204897     -7.4487472      1.9811046      50218.233      36.893836      36.893836      36.893836    
   5100000   0.38112273    -8.0187138     -7.4470378      1.9991115      50218.233      36.893836      36.893836      36.893836    
   5110000   0.38129851    -8.0183925     -7.4464529      1.9935295      50218.233      36.893836      36.893836      36.893836    
   5120000   0.37918027    -8.0197804     -7.451018       1.977333       50218.233      36.893836      36.893836      36.893836    
   5130000   0.38141148    -8.0150018     -7.4428927      2.0192855      50218.233      36.893836      36.893836      36.893836    
   5140000   0.38260236    -8.0170534     -7.443158       1.9981453      50218.233      36.893836      36.893836      36.893836    
   5150000   0.38462087    -8.0174257     -7.4405026      2.0013927      50218.233      36.893836      36.893836      36.893836    
   5160000   0.38050057    -8.0220612     -7.4513184      1.9612268      50218.233      36.893836      36.893836      36.893836    
   5170000   0.38085937    -8.0187961     -7.4475152      1.9841224      50218.233      36.893836      36.893836      36.893836    
   5180000   0.37981314    -8.0183212     -7.4486096      1.9986819      50218.233      36.893836      36.893836      36.893836    
   5190000   0.38053324    -8.0169351     -7.4461433      2.0033899      50218.233      36.893836      36.893836      36.893836    
   5200000   0.3795677     -8.0165329     -7.4471895      1.9996437      50218.233      36.893836      36.893836      36.893836    
   5210000   0.38100443    -8.0182435     -7.446745       1.9985889      50218.233      36.893836      36.893836      36.893836    
   5220000   0.3795322     -8.0204395     -7.4511493      1.9821493      50218.233      36.893836      36.893836      36.893836    
   5230000   0.37917767    -8.0172452     -7.4484868      2.0030556      50218.233      36.893836      36.893836      36.893836    
   5240000   0.38291446    -8.0172705     -7.442907       2.0033251      50218.233      36.893836      36.893836      36.893836    
   5250000   0.38129839    -8.0190429     -7.4471034      1.9942437      50218.233      36.893836      36.893836      36.893836    
   5260000   0.38112359    -8.0172091     -7.4455319      1.9952817      50218.233      36.893836      36.893836      36.893836    
   5270000   0.38050926    -8.0172416     -7.4464858      1.9977602      50218.233      36.893836      36.893836      36.893836    
   5280000   0.37786412    -8.0192286     -7.4524405      1.9792068      50218.233      36.893836      36.893836      36.893836    
   5290000   0.37844984    -8.0189777     -7.451311       1.9776022      50218.233      36.893836      36.893836      36.893836    
   5300000   0.37950587    -8.0161299     -7.4468792      2.0048098      50218.233      36.893836      36.893836      36.893836    
   5310000   0.38060094    -8.0178152     -7.4469219      1.9911243      50218.233      36.893836      36.893836      36.893836    
   5320000   0.38120827    -8.016758      -7.4449538      1.9972006      50218.233      36.893836      36.893836      36.893836    
   5330000   0.3802978     -8.0178367     -7.4473982      1.9889246      50218.233      36.893836      36.893836      36.893836    
   5340000   0.38027419    -8.0186406     -7.4482374      1.9832652      50218.233      36.893836      36.893836      36.893836    
   5350000   0.38042589    -8.0207356     -7.4501048      1.9715438      50218.233      36.893836      36.893836      36.893836    
   5360000   0.37883783    -8.018032      -7.4497834      1.9876184      50218.233      36.893836      36.893836      36.893836    
   5370000   0.37810159    -8.0210657     -7.4539214      1.9746313      50218.233      36.893836      36.893836      36.893836    
   5380000   0.37948516    -8.0190483     -7.4498287      1.982924       50218.233      36.893836      36.893836      36.893836    
   5390000   0.3814001     -8.0187878     -7.4466957      1.9944923      50218.233      36.893836      36.893836      36.893836    
   5400000   0.38343985    -8.0168604     -7.4417088      1.9944346      50218.233      36.893836      36.893836      36.893836    
   5410000   0.37882067    -8.018797      -7.4505741      1.9929622      50218.233      36.893836      36.893836      36.893836    
   5420000   0.37946203    -8.0200231     -7.4508381      1.9641439      50218.233      36.893836      36.893836      36.893836    
   5430000   0.37848628    -8.0174406     -7.4497193      1.993899       50218.233      36.893836      36.893836      36.893836    
   5440000   0.38020189    -8.0182639     -7.4479691      1.9939159      50218.233      36.893836      36.893836      36.893836    
   5450000   0.37886879    -8.0214196     -7.4531245      1.963988       50218.233      36.893836      36.893836      36.893836    
   5460000   0.38053944    -8.0198008     -7.4489998      1.9782585      50218.233      36.893836      36.893836      36.893836    
   5470000   0.37917518    -8.0199781     -7.4512235      1.9602803      50218.233      36.893836      36.893836      36.893836    
   5480000   0.3799915     -8.0224786     -7.4524995      1.9434681      50218.233      36.893836      36.893836      36.893836    
   5490000   0.37840808    -8.020642      -7.4530379      1.969025       50218.233      36.893836      36.893836      36.893836    
   5500000   0.38239542    -8.0179539     -7.4443689      1.9975254      50218.233      36.893836      36.893836      36.893836    
   5510000   0.37895281    -8.0178289     -7.4494078      1.9895248      50218.233      36.893836      36.893836      36.893836    
   5520000   0.37988929    -8.0194569     -7.4496311      1.9782754      50218.233      36.893836      36.893836      36.893836    
   5530000   0.38024256    -8.0218968     -7.4515411      1.9715582      50218.233      36.893836      36.893836      36.893836    
   5540000   0.38074988    -8.0167291     -7.4456124      2.0102564      50218.233      36.893836      36.893836      36.893836    
   5550000   0.37729342    -8.0204074     -7.4544754      1.9566745      50218.233      36.893836      36.893836      36.893836    
   5560000   0.37858081    -8.0235613     -7.4556982      1.9480632      50218.233      36.893836      36.893836      36.893836    
   5570000   0.3780425     -8.0163703     -7.4493147      2.0050694      50218.233      36.893836      36.893836      36.893836    
   5580000   0.3803133     -8.0216898     -7.4512279      1.9614252      50218.233      36.893836      36.893836      36.893836    
   5590000   0.37984479    -8.0199223     -7.4501633      1.9799653      50218.233      36.893836      36.893836      36.893836    
   5600000   0.38032353    -8.0211602     -7.450683       1.970589       50218.233      36.893836      36.893836      36.893836    
   5610000   0.37914292    -8.0196112     -7.4509049      1.9789594      50218.233      36.893836      36.893836      36.893836    
   5620000   0.37858977    -8.019184      -7.4513074      1.9637973      50218.233      36.893836      36.893836      36.893836    
   5630000   0.38049931    -8.0134892     -7.4427484      2.0222996      50218.233      36.893836      36.893836      36.893836    
   5640000   0.37901074    -8.0214825     -7.4529744      1.9677631      50218.233      36.893836      36.893836      36.893836    
   5650000   0.37969049    -8.0211686     -7.451641       1.9720257      50218.233      36.893836      36.893836      36.893836    
   5660000   0.3772876     -8.0225596     -7.4566362      1.9462094      50218.233      36.893836      36.893836      36.893836    
   5670000   0.38001774    -8.0191697     -7.4491512      1.9770515      50218.233      36.893836      36.893836      36.893836    
   5680000   0.37846325    -8.0173497     -7.4496629      1.9980495      50218.233      36.893836      36.893836      36.893836    
   5690000   0.38031853    -8.017053      -7.4465833      1.9962292      50218.233      36.893836      36.893836      36.893836    
   5700000   0.38031502    -8.0186763     -7.4482119      1.9839682      50218.233      36.893836      36.893836      36.893836    
   5710000   0.37892598    -8.0225581     -7.4541772      1.951982       50218.233      36.893836      36.893836      36.893836    
   5720000   0.37963936    -8.0195557     -7.4501048      1.9771683      50218.233      36.893836      36.893836      36.893836    
   5730000   0.38063266    -8.0159572     -7.4450163      2.0107612      50218.233      36.893836      36.893836      36.893836    
   5740000   0.38050995    -8.0149144     -7.4441576      2.0110948      50218.233      36.893836      36.893836      36.893836    
   5750000   0.38115841    -8.0178192     -7.4460897      1.9853245      50218.233      36.893836      36.893836      36.893836    
   5760000   0.38116716    -8.0159325     -7.4441899      2.0166052      50218.233      36.893836      36.893836      36.893836    
   5770000   0.37921688    -8.0203744     -7.4515571      1.976402       50218.233      36.893836      36.893836      36.893836    
   5780000   0.37996177    -8.0189367     -7.4490022      1.9853638      50218.233      36.893836      36.893836      36.893836    
   5790000   0.38128399    -8.0178476     -7.4459297      1.989303       50218.233      36.893836      36.893836      36.893836    
   5800000   0.38139128    -8.0195159     -7.4474371      1.9876041      50218.233      36.893836      36.893836      36.893836    
   5810000   0.37817272    -8.0178727     -7.4506217      1.992558       50218.233      36.893836      36.893836      36.893836    
   5820000   0.38189919    -8.0170603     -7.4442197      1.9972124      50218.233      36.893836      36.893836      36.893836    
   5830000   0.37962089    -8.019586      -7.4501627      1.9746365      50218.233      36.893836      36.893836      36.893836    
   5840000   0.37902143    -8.0192967     -7.4507727      1.9798255      50218.233      36.893836      36.893836      36.893836    
   5850000   0.38134178    -8.0177025     -7.445698       1.9930996      50218.233      36.893836      36.893836      36.893836    
   5860000   0.37931316    -8.0199454     -7.4509837      1.972661       50218.233      36.893836      36.893836      36.893836    
   5870000   0.3800874     -8.0210841     -7.4509611      1.955738       50218.233      36.893836      36.893836      36.893836    
   5880000   0.38099093    -8.0170417     -7.4455635      1.9968107      50218.233      36.893836      36.893836      36.893836    
   5890000   0.38147326    -8.0197171     -7.4475154      1.9763695      50218.233      36.893836      36.893836      36.893836    
   5900000   0.3786961     -8.0172851     -7.449249       1.9933746      50218.233      36.893836      36.893836      36.893836    
   5910000   0.37993773    -8.0209553     -7.4510568      1.9554747      50218.233      36.893836      36.893836      36.893836    
   5920000   0.38127401    -8.0214533     -7.4495505      1.9668373      50218.233      36.893836      36.893836      36.893836    
   5930000   0.37945831    -8.0169175     -7.4477381      1.9945809      50218.233      36.893836      36.893836      36.893836    
   5940000   0.381604      -8.0183008     -7.4459029      1.9875833      50218.233      36.893836      36.893836      36.893836    
   5950000   0.38077404    -8.0197704     -7.4486174      1.9761347      50218.233      36.893836      36.893836      36.893836    
   5960000   0.37964122    -8.0190492     -7.4495955      1.9888332      50218.233      36.893836      36.893836      36.893836    
   5970000   0.3784936     -8.0188069     -7.4510745      1.988109       50218.233      36.893836      36.893836      36.893836    
   5980000   0.37968119    -8.0195441     -7.4500304      1.9675867      50218.233      36.893836      36.893836      36.893836    
   5990000   0.37991111    -8.0199756     -7.450117       1.9744379      50218.233      36.893836      36.893836      36.893836    
   6000000   0.37865765    -8.0198299     -7.4518515      1.9701281      50218.233      36.893836      36.893836      36.893836    
   6010000   0.38145898    -8.0220476     -7.4498673      1.9661528      50218.233      36.893836      36.893836      36.893836    
   6020000   0.37967831    -8.0210777     -7.4515683      1.9662052      50218.233      36.893836      36.893836      36.893836    
   6030000   0.37984495    -8.020314      -7.4505547      1.9788594      50218.233      36.893836      36.893836      36.893836    
   6040000   0.38112807    -8.0199245     -7.4482406      1.9819947      50218.233      36.893836      36.893836      36.893836    
   6050000   0.37963041    -8.0228938     -7.4534563      1.955825       50218.233      36.893836      36.893836      36.893836    
   6060000   0.37910954    -8.0211108     -7.4524546      1.9680628      50218.233      36.893836      36.893836      36.893836    
   6070000   0.37903086    -8.0186713     -7.4501331      1.9803776      50218.233      36.893836      36.893836      36.893836    
   6080000   0.38111919    -8.0202263     -7.4485557      1.9751182      50218.233      36.893836      36.893836      36.893836    
   6090000   0.37955424    -8.0205801     -7.4512568      1.9738715      50218.233      36.893836      36.893836      36.893836    
   6100000   0.38018298    -8.018585      -7.4483186      1.9918975      50218.233      36.893836      36.893836      36.893836    
   6110000   0.37863476    -8.0167069     -7.4487628      2.0062781      50218.233      36.893836      36.893836      36.893836    
   6120000   0.38060036    -8.020807      -7.4499146      1.9637544      50218.233      36.893836      36.893836      36.893836    
   6130000   0.38055109    -8.0170616     -7.4462431      2.0104167      50218.233      36.893836      36.893836      36.893836    
   6140000   0.38039228    -8.018993      -7.4484127      1.9867048      50218.233      36.893836      36.893836      36.893836    
   6150000   0.37973045    -8.0197845     -7.4501969      1.9709936      50218.233      36.893836      36.893836      36.893836    
   6160000   0.38085786    -8.0173312     -7.4460526      1.9953611      50218.233      36.893836      36.893836      36.893836    
   6170000   0.38134497    -8.0171677     -7.4451584      2.002489       50218.233      36.893836      36.893836      36.893836    
   6180000   0.3816017     -8.0172886     -7.4448942      1.997438       50218.233      36.893836      36.893836      36.893836    
   6190000   0.37790371    -8.0166176     -7.4497701      1.9991747      50218.233      36.893836      36.893836      36.893836    
   6200000   0.38003344    -8.0177466     -7.4477046      1.9932491      50218.233      36.893836      36.893836      36.893836    
   6210000   0.37977508    -8.0157377     -7.4460832      2.005435       50218.233      36.893836      36.893836      36.893836    
   6220000   0.37910081    -8.0172926     -7.4486495      1.9974468      50218.233      36.893836      36.893836      36.893836    
   6230000   0.38122659    -8.0204427     -7.4486109      1.9685888      50218.233      36.893836      36.893836      36.893836    
   6240000   0.37973352    -8.0164261     -7.446834       1.9926246      50218.233      36.893836      36.893836      36.893836    
   6250000   0.3794464     -8.0169902     -7.4478287      1.9905962      50218.233      36.893836      36.893836      36.893836    
   6260000   0.37923238    -8.0171191     -7.4482786      1.9958002      50218.233      36.893836      36.893836      36.893836    
   6270000   0.37938008    -8.0197416     -7.4506795      1.9759513      50218.233      36.893836      36.893836      36.893836    
   6280000   0.3806651     -8.0181219     -7.4471324      1.9906488      50218.233      36.893836      36.893836      36.893836    
   6290000   0.38025796    -8.0190825     -7.4487037      1.9810189      50218.233      36.893836      36.893836      36.893836    
   6300000   0.37894115    -8.0182759     -7.4498723      1.9931488      50218.233      36.893836      36.893836      36.893836    
   6310000   0.3807557     -8.0145919     -7.4434665      2.0160551      50218.233      36.893836      36.893836      36.893836    
   6320000   0.37955827    -8.0173936     -7.4480643      1.992415       50218.233      36.893836      36.893836      36.893836    
   6330000   0.37801687    -8.0215322     -7.4545149      1.9525592      50218.233      36.893836      36.893836      36.893836    
   6340000   0.37883947    -8.0195987     -7.4513476      1.9709912      50218.233      36.893836      36.893836      36.893836    
   6350000   0.38054114    -8.0173244     -7.4465208      1.995701       50218.233      36.893836      36.893836      36.893836    
   6360000   0.38032099    -8.0157597     -7.4452864      2.0145475      50218.233      36.893836      36.893836      36.893836    
   6370000   0.38020795    -8.018811      -7.4485072      1.9898248      50218.233      36.893836      36.893836      36.893836    
   6380000   0.38057413    -8.0210603     -7.4502072      1.9608394      50218.233      36.893836      36.893836      36.893836    
   6390000   0.38195482    -8.0189003     -7.4459762      1.9887997      50218.233      36.893836      36.893836      36.893836    
   6400000   0.37991629    -8.0205844     -7.4507181      1.9690556      50218.233      36.893836      36.893836      36.893836    
   6410000   0.38072611    -8.0190674     -7.4479864      1.9753289      50218.233      36.893836      36.893836      36.893836    
   6420000   0.37973832    -8.0200404     -7.450441       1.9690035      50218.233      36.893836      36.893836      36.893836    
   6430000   0.38102074    -8.0223673     -7.4508443      1.9661154      50218.233      36.893836      36.893836      36.893836    
   6440000   0.37803465    -8.0204735     -7.4534296      1.9649669      50218.233      36.893836      36.893836      36.893836    
   6450000   0.38104921    -8.0192142     -7.4476485      1.9885899      50218.233      36.893836      36.893836      36.893836    
   6460000   0.3782089     -8.019946      -7.4526407      1.9815536      50218.233      36.893836      36.893836      36.893836    
   6470000   0.38032203    -8.0179743     -7.4474994      1.9874073      50218.233      36.893836      36.893836      36.893836    
   6480000   0.3791154     -8.0205423     -7.4518772      1.968347       50218.233      36.893836      36.893836      36.893836    
   6490000   0.37983797    -8.0176532     -7.4479044      1.9877521      50218.233      36.893836      36.893836      36.893836    
   6500000   0.38033101    -8.0162821     -7.4457937      2.0018925      50218.233      36.893836      36.893836      36.893836    
   6510000   0.38060316    -8.0242198     -7.4533232      1.939105       50218.233      36.893836      36.893836      36.893836    
   6520000   0.37962294    -8.0180767     -7.4486504      1.9836292      50218.233      36.893836      36.893836      36.893836    
   6530000   0.37927615    -8.0187276     -7.4498215      1.9704482      50218.233      36.893836      36.893836      36.893836    
   6540000   0.38031657    -8.0186156     -7.4481489      1.9857212      50218.233      36.893836      36.893836      36.893836    
   6550000   0.38142797    -8.0204309     -7.4482971      1.9740743      50218.233      36.893836      36.893836      36.893836    
   6560000   0.3761024     -8.020835      -7.4566894      1.9676221      50218.233      36.893836      36.893836      36.893836    
   6570000   0.38056821    -8.0183494     -7.4475052      1.9867741      50218.233      36.893836      36.893836      36.893836    
   6580000   0.38003175    -8.0208804     -7.4508408      1.9633679      50218.233      36.893836      36.893836      36.893836    
   6590000   0.37874381    -8.0203466     -7.452239       1.96929        50218.233      36.893836      36.893836      36.893836    
   6600000   0.38024841    -8.0189408     -7.4485763      1.9846106      50218.233      36.893836      36.893836      36.893836    
   6610000   0.37897563    -8.022514      -7.4540587      1.9499227      50218.233      36.893836      36.893836      36.893836    
   6620000   0.38200955    -8.0190249     -7.4460187      1.9889188      50218.233      36.893836      36.893836      36.893836    
   6630000   0.38168079    -8.0211111     -7.448598       1.9635048      50218.233      36.893836      36.893836      36.893836    
   6640000   0.38130574    -8.0165964     -7.4446459      2.0076619      50218.233      36.893836      36.893836      36.893836    
   6650000   0.37992389    -8.0184843     -7.4486065      1.9909108      50218.233      36.893836      36.893836      36.893836    
   6660000   0.38035848    -8.0179155     -7.4473859      2.004313       50218.233      36.893836      36.893836      36.893836    
   6670000   0.37998733    -8.0207722     -7.4507994      1.9632978      50218.233      36.893836      36.893836      36.893836    
   6680000   0.37906013    -8.0195804     -7.4509983      1.9804191      50218.233      36.893836      36.893836      36.893836    
   6690000   0.37903506    -8.0143382     -7.4457937      2.0095616      50218.233      36.893836      36.893836      36.893836    
   6700000   0.37816868    -8.018136      -7.450891       1.9790191      50218.233      36.893836      36.893836      36.893836    
   6710000   0.38044244    -8.0191042     -7.4484487      1.978769       50218.233      36.893836      36.893836      36.893836    
   6720000   0.38081067    -8.0187813     -7.4475734      1.9889706      50218.233      36.893836      36.893836      36.893836    
   6730000   0.37976392    -8.0191696     -7.4495318      1.9799763      50218.233      36.893836      36.893836      36.893836    
   6740000   0.38131444    -8.0200468     -7.4480833      1.9779657      50218.233      36.893836      36.893836      36.893836    
   6750000   0.38003113    -8.0203191     -7.4502805      1.9770493      50218.233      36.893836      36.893836      36.893836    
   6760000   0.38096033    -8.0186129     -7.4471805      1.9788764      50218.233      36.893836      36.893836      36.893836    
   6770000   0.3798725     -8.016492      -7.4466913      2.0002623      50218.233      36.893836      36.893836      36.893836    
   6780000   0.37915846    -8.0160736     -7.4473439      2.0031288      50218.233      36.893836      36.893836      36.893836    
   6790000   0.38022711    -8.0191815     -7.448849       1.9843103      50218.233      36.893836      36.893836      36.893836    
   6800000   0.37989335    -8.0193911     -7.4495592      1.9771467      50218.233      36.893836      36.893836      36.893836    
   6810000   0.37909749    -8.0192585     -7.4506204      1.9808536      50218.233      36.893836      36.893836      36.893836    
   6820000   0.38060995    -8.0186906     -7.4477838      1.9861132      50218.233      36.893836      36.893836      36.893836    
   6830000   0.38018097    -8.0173408     -7.4470775      1.9923565      50218.233      36.893836      36.893836      36.893836    
   6840000   0.37940823    -8.0183929     -7.4492886      1.9865765      50218.233      36.893836      36.893836      36.893836    
   6850000   0.38096131    -8.0186862     -7.4472524      1.9891751      50218.233      36.893836      36.893836      36.893836    
   6860000   0.37831996    -8.0163332     -7.4488613      2.0091744      50218.233      36.893836      36.893836      36.893836    
   6870000   0.3802455     -8.0187357     -7.4483756      1.9939803      50218.233      36.893836      36.893836      36.893836    
   6880000   0.38130501    -8.0186523     -7.4467029      1.9897731      50218.233      36.893836      36.893836      36.893836    
   6890000   0.37867759    -8.0183339     -7.4503256      1.9963711      50218.233      36.893836      36.893836      36.893836    
   6900000   0.37977404    -8.0179772     -7.4483242      1.9885035      50218.233      36.893836      36.893836      36.893836    
   6910000   0.38012002    -8.0179406     -7.4477687      1.993175       50218.233      36.893836      36.893836      36.893836    
   6920000   0.37987286    -8.0185606     -7.4487594      1.9880348      50218.233      36.893836      36.893836      36.893836    
   6930000   0.38067487    -8.0212257     -7.4502215      1.974246       50218.233      36.893836      36.893836      36.893836    
   6940000   0.38043575    -8.0198067     -7.4491612      1.9913609      50218.233      36.893836      36.893836      36.893836    
   6950000   0.38115599    -8.0210704     -7.4493445      1.9601425      50218.233      36.893836      36.893836      36.893836    
   6960000   0.37947       -8.0228535     -7.4536566      1.9604024      50218.233      36.893836      36.893836      36.893836    
   6970000   0.38050396    -8.0189093     -7.4481615      1.9934612      50218.233      36.893836      36.893836      36.893836    
   6980000   0.37990522    -8.0207679     -7.4509181      1.965499       50218.233      36.893836      36.893836      36.893836    
   6990000   0.38041567    -8.0217051     -7.4510898      1.9667431      50218.233      36.893836      36.893836      36.893836    
   7000000   0.3804862     -8.0215776     -7.4508564      1.9652347      50218.233      36.893836      36.893836      36.893836    
   7010000   0.3813146     -8.0196345     -7.4476708      1.9767412      50218.233      36.893836      36.893836      36.893836    
   7020000   0.38015294    -8.0159911     -7.4457698      2.0109175      50218.233      36.893836      36.893836      36.893836    
   7030000   0.37947394    -8.0179988     -7.448796       1.9826475      50218.233      36.893836      36.893836      36.893836    
   7040000   0.37984124    -8.0217567     -7.4520029      1.9717107      50218.233      36.893836      36.893836      36.893836    
   7050000   0.38039719    -8.0214661     -7.4508784      1.971859       50218.233      36.893836      36.893836      36.893836    
   7060000   0.38084976    -8.0213566     -7.4500901      1.9659533      50218.233      36.893836      36.893836      36.893836    
   7070000   0.37958216    -8.0183561     -7.448991       1.9900882      50218.233      36.893836      36.893836      36.893836    
   7080000   0.38127114    -8.021216      -7.4493175      1.9742753      50218.233      36.893836      36.893836      36.893836    
   7090000   0.38119922    -8.0225367     -7.450746       1.9656528      50218.233      36.893836      36.893836      36.893836    
   7100000   0.38085116    -8.0176139     -7.4463453      1.9890529      50218.233      36.893836      36.893836      36.893836    
   7110000   0.37960484    -8.0181191     -7.44872        1.9919395      50218.233      36.893836      36.893836      36.893836    
   7120000   0.37938997    -8.0176701     -7.4485933      1.9967665      50218.233      36.893836      36.893836      36.893836    
   7130000   0.38147919    -8.0182834     -7.4460727      1.9882486      50218.233      36.893836      36.893836      36.893836    
   7140000   0.38086549    -8.0197257     -7.4484356      1.9743279      50218.233      36.893836      36.893836      36.893836    
   7150000   0.37899274    -8.019291      -7.4508099      1.975895       50218.233      36.893836      36.893836      36.893836    
   7160000   0.37973968    -8.0194883     -7.4498869      1.9800181      50218.233      36.893836      36.893836      36.893836    
   7170000   0.38047916    -8.0182564     -7.4475457      1.9962658      50218.233      36.893836      36.893836      36.893836    
   7180000   0.3792287     -8.0173645     -7.4485295      2.0021139      50218.233      36.893836      36.893836      36.893836    
   7190000   0.3814154     -8.0184894     -7.4463744      1.9876772      50218.233      36.893836      36.893836      36.893836    
   7200000   0.3799882     -8.0198291     -7.4498549      1.9718684      50218.233      36.893836      36.893836      36.893836    
   7210000   0.37819838    -8.0184878     -7.4511983      1.9826074      50218.233      36.893836      36.893836      36.893836    
   7220000   0.38176037    -8.0197345     -7.4471021      1.9752804      50218.233      36.893836      36.893836      36.893836    
   7230000   0.37911636    -8.0208896     -7.4522232      1.9675322      50218.233      36.893836      36.893836      36.893836    
   7240000   0.38017533    -8.0166802     -7.4464253      1.9931835      50218.233      36.893836      36.893836      36.893836    
   7250000   0.37973979    -8.0165911     -7.4469895      2.0028185      50218.233      36.893836      36.893836      36.893836    
   7260000   0.3810479     -8.0170082     -7.4454445      2.0010843      50218.233      36.893836      36.893836      36.893836    
   7270000   0.37757622    -8.0198896     -7.4535333      1.9696507      50218.233      36.893836      36.893836      36.893836    
   7280000   0.3785377     -8.0179198     -7.4501213      1.9861024      50218.233      36.893836      36.893836      36.893836    
   7290000   0.37952878    -8.016721      -7.4474359      1.9996335      50218.233      36.893836      36.893836      36.893836    
   7300000   0.380153      -8.0198558     -7.4496344      1.9782603      50218.233      36.893836      36.893836      36.893836    
   7310000   0.38120064    -8.0177387     -7.4459459      1.9949825      50218.233      36.893836      36.893836      36.893836    
   7320000   0.38177992    -8.0191121     -7.4464503      1.9878284      50218.233      36.893836      36.893836      36.893836    
   7330000   0.37849539    -8.0183783     -7.4506433      1.9854952      50218.233      36.893836      36.893836      36.893836    
   7340000   0.37889087    -8.0181975     -7.4498692      1.9810262      50218.233      36.893836      36.893836      36.893836    
   7350000   0.38197603    -8.0194271     -7.4464712      1.9857919      50218.233      36.893836      36.893836      36.893836    
   7360000   0.38222515    -8.0182693     -7.4449397      1.9959639      50218.233      36.893836      36.893836      36.893836    
   7370000   0.38225652    -8.0200782     -7.4467016      1.9755539      50218.233      36.893836      36.893836      36.893836    
   7380000   0.37755574    -8.0217275     -7.4554019      1.9564464      50218.233      36.893836      36.893836      36.893836    
   7390000   0.37933324    -8.01965       -7.4506582      1.9697504      50218.233      36.893836      36.893836      36.893836    
   7400000   0.38111121    -8.0181906     -7.4465319      1.9867947      50218.233      36.893836      36.893836      36.893836    
   7410000   0.37980466    -8.0179748     -7.448276       1.9925032      50218.233      36.893836      36.893836      36.893836    
   7420000   0.37918451    -8.018689      -7.4499203      1.9819711      50218.233      36.893836      36.893836      36.893836    
   7430000   0.37994841    -8.0185675     -7.448653       1.9751428      50218.233      36.893836      36.893836      36.893836    
   7440000   0.37938971    -8.0211603     -7.4520838      1.9605628      50218.233      36.893836      36.893836      36.893836    
   7450000   0.37909665    -8.0200147     -7.4513778      1.974334       50218.233      36.893836      36.893836      36.893836    
   7460000   0.38021219    -8.0164929     -7.4461827      1.9984426      50218.233      36.893836      36.893836      36.893836    
   7470000   0.37954329    -8.0206665     -7.4513597      1.9698384      50218.233      36.893836      36.893836      36.893836    
   7480000   0.38134775    -8.0174836     -7.4454701      1.9844495      50218.233      36.893836      36.893836      36.893836    
   7490000   0.37840037    -8.0196377     -7.4520452      1.9768366      50218.233      36.893836      36.893836      36.893836    
   7500000   0.38062937    -8.0159879     -7.445052       2.007444       50218.233      36.893836      36.893836      36.893836    
   7510000   0.38057228    -8.0173517     -7.4465014      1.9851638      50218.233      36.893836      36.893836      36.893836    
   7520000   0.38225583    -8.0204106     -7.4470351      1.9764968      50218.233      36.893836      36.893836      36.893836    
   7530000   0.3820226     -8.0186836     -7.4456578      1.9787121      50218.233      36.893836      36.893836      36.893836    
   7540000   0.3806502     -8.0224253     -7.4514582      1.958507       50218.233      36.893836      36.893836      36.893836    
   7550000   0.37894965    -8.0208485     -7.4524321      1.9738424      50218.233      36.893836      36.893836      36.893836    
   7560000   0.38220577    -8.0175431     -7.4442426      1.9951801      50218.233      36.893836      36.893836      36.893836    
   7570000   0.3796281     -8.0202822     -7.4508481      1.9725813      50218.233      36.893836      36.893836      36.893836    
   7580000   0.38072341    -8.0232908     -7.4522138      1.9492234      50218.233      36.893836      36.893836      36.893836    
   7590000   0.38215149    -8.0193125     -7.4460934      1.9797412      50218.233      36.893836      36.893836      36.893836    
   7600000   0.37738771    -8.0187726     -7.452699       1.9808797      50218.233      36.893836      36.893836      36.893836    
   7610000   0.37876392    -8.0190686     -7.4509308      1.9770985      50218.233      36.893836      36.893836      36.893836    
   7620000   0.38114662    -8.0176873     -7.4459755      1.9852075      50218.233      36.893836      36.893836      36.893836    
   7630000   0.37987779    -8.0200691     -7.4502605      1.9735139      50218.233      36.893836      36.893836      36.893836    
   7640000   0.38126607    -8.0172347     -7.4453437      1.9902761      50218.233      36.893836      36.893836      36.893836    
   7650000   0.38089494    -8.0173748     -7.4460405      1.9872276      50218.233      36.893836      36.893836      36.893836    
   7660000   0.37957821    -8.0186383     -7.449279       1.9780158      50218.233      36.893836      36.893836      36.893836    
   7670000   0.37940691    -8.0191678     -7.4500655      1.9802467      50218.233      36.893836      36.893836      36.893836    
   7680000   0.37949977    -8.0190801     -7.4498385      1.9687946      50218.233      36.893836      36.893836      36.893836    
   7690000   0.37930241    -8.0152964     -7.4463509      2.0031086      50218.233      36.893836      36.893836      36.893836    
   7700000   0.3798923     -8.0170442     -7.4472139      1.9994628      50218.233      36.893836      36.893836      36.893836    
   7710000   0.37888801    -8.020024      -7.4517001      1.975627       50218.233      36.893836      36.893836      36.893836    
   7720000   0.37832163    -8.0191297     -7.4516554      1.9826266      50218.233      36.893836      36.893836      36.893836    
   7730000   0.37935097    -8.0178539     -7.4488355      1.9955764      50218.233      36.893836      36.893836      36.893836    
   7740000   0.38079114    -8.0184749     -7.4472964      1.9875934      50218.233      36.893836      36.893836      36.893836    
   7750000   0.38048012    -8.0156469     -7.4449348      2.0147244      50218.233      36.893836      36.893836      36.893836    
   7760000   0.3826068     -8.0175489     -7.4436469      1.9976934      50218.233      36.893836      36.893836      36.893836    
   7770000   0.37907316    -8.01868       -7.4500784      1.9860702      50218.233      36.893836      36.893836      36.893836    
   7780000   0.37945219    -8.018132      -7.4489618      1.9861145      50218.233      36.893836      36.893836      36.893836    
   7790000   0.38105925    -8.0141602     -7.4425795      2.0210615      50218.233      36.893836      36.893836      36.893836    
   7800000   0.38007008    -8.0166265     -7.4465295      1.9975553      50218.233      36.893836      36.893836      36.893836    
   7810000   0.37776063    -8.0181051     -7.4514722      1.9864758      50218.233      36.893836      36.893836      36.893836    
   7820000   0.38003375    -8.0191863     -7.4491437      1.9745194      50218.233      36.893836      36.893836      36.893836    
   7830000   0.37794246    -8.0159603     -7.4490547      2.0142519      50218.233      36.893836      36.893836      36.893836    
   7840000   0.37829908    -8.0183936     -7.4509531      1.9843459      50218.233      36.893836      36.893836      36.893836    
   7850000   0.37912697    -8.0186172     -7.4499349      1.9913464      50218.233      36.893836      36.893836      36.893836    
   7860000   0.37937589    -8.0172792     -7.4482234      1.9863931      50218.233      36.893836      36.893836      36.893836    
   7870000   0.37953865    -8.0180298     -7.4487299      1.9890516      50218.233      36.893836      36.893836      36.893836    
   7880000   0.38125363    -8.0242687     -7.4523964      1.9465164      50218.233      36.893836      36.893836      36.893836    
   7890000   0.38046519    -8.0189462     -7.4482565      1.9813965      50218.233      36.893836      36.893836      36.893836    
   7900000   0.37816177    -8.0189323     -7.4516977      1.983209       50218.233      36.893836      36.893836      36.893836    
   7910000   0.38020517    -8.0204794     -7.4501798      1.9805202      50218.233      36.893836      36.893836      36.893836    
   7920000   0.37951204    -8.0179593     -7.4486994      1.9872528      50218.233      36.893836      36.893836      36.893836    
   7930000   0.37986388    -8.0196565     -7.4498688      1.9761965      50218.233      36.893836      36.893836      36.893836    
   7940000   0.37919444    -8.0229837     -7.4542001      1.9488393      50218.233      36.893836      36.893836      36.893836    
   7950000   0.37802489    -8.0225942     -7.4555649      1.9538046      50218.233      36.893836      36.893836      36.893836    
   7960000   0.38133076    -8.0191485     -7.4471605      1.9865182      50218.233      36.893836      36.893836      36.893836    
   7970000   0.37757648    -8.0205561     -7.4541995      1.9664599      50218.233      36.893836      36.893836      36.893836    
   7980000   0.37793055    -8.0217112     -7.4548234      1.9585453      50218.233      36.893836      36.893836      36.893836    
   7990000   0.38049686    -8.0248348     -7.4540976      1.9477874      50218.233      36.893836      36.893836      36.893836    
   8000000   0.3818013     -8.0228912     -7.4501974      1.9529629      50218.233      36.893836      36.893836      36.893836    
   8010000   0.37910462    -8.0233738     -7.4547249      1.9450141      50218.233      36.893836      36.893836      36.893836    
   8020000   0.38038504    -8.0203874     -7.4498179      1.9712186      50218.233      36.893836      36.893836      36.893836    
   8030000   0.38211042    -8.020085      -7.4469275      1.9691364      50218.233      36.893836      36.893836      36.893836    
   8040000   0.38271777    -8.0210946     -7.4470261      1.9728154      50218.233      36.893836      36.893836      36.893836    
   8050000   0.37939712    -8.0172105     -7.4481229      2.0001274      50218.233      36.893836      36.893836      36.893836    
   8060000   0.38142385    -8.01876       -7.4466323      1.9837845      50218.233      36.893836      36.893836      36.893836    
   8070000   0.38059033    -8.0177774     -7.4469001      1.9816905      50218.233      36.893836      36.893836      36.893836    
   8080000   0.3827139     -8.0173917     -7.4433291      2.0043579      50218.233      36.893836      36.893836      36.893836    
   8090000   0.38235463    -8.0193994     -7.4458756      1.9875324      50218.233      36.893836      36.893836      36.893836    
   8100000   0.37970749    -8.0203325     -7.4507794      1.9643678      50218.233      36.893836      36.893836      36.893836    
   8110000   0.37969637    -8.0206344     -7.4510979      1.9709625      50218.233      36.893836      36.893836      36.893836    
   8120000   0.38064768    -8.0199916     -7.4490282      1.973028       50218.233      36.893836      36.893836      36.893836    
   8130000   0.38100903    -8.018475      -7.4469696      1.9855622      50218.233      36.893836      36.893836      36.893836    
   8140000   0.37982647    -8.0212651     -7.4515336      1.9672471      50218.233      36.893836      36.893836      36.893836    
   8150000   0.38093604    -8.0185076     -7.4471117      1.9841753      50218.233      36.893836      36.893836      36.893836    
   8160000   0.38103077    -8.01882       -7.447282       1.9947639      50218.233      36.893836      36.893836      36.893836    
   8170000   0.37950553    -8.0205922     -7.451342       1.9666746      50218.233      36.893836      36.893836      36.893836    
   8180000   0.37938254    -8.017982      -7.4489162      1.9954473      50218.233      36.893836      36.893836      36.893836    
   8190000   0.37998703    -8.0191688     -7.4491963      1.9868676      50218.233      36.893836      36.893836      36.893836    
   8200000   0.38111852    -8.0169799     -7.4453103      1.9998761      50218.233      36.893836      36.893836      36.893836    
   8210000   0.37942066    -8.0180245     -7.4489016      1.995491       50218.233      36.893836      36.893836      36.893836    
   8220000   0.37903344    -8.0214265     -7.4528844      1.9611673      50218.233      36.893836      36.893836      36.893836    
   8230000   0.37892401    -8.0176755     -7.4492976      1.9893008      50218.233      36.893836      36.893836      36.893836    
   8240000   0.3803277     -8.0196529     -7.4491694      1.9838945      50218.233      36.893836      36.893836      36.893836    
   8250000   0.38157331    -8.014779      -7.4424272      2.0165023      50218.233      36.893836      36.893836      36.893836    
   8260000   0.38012209    -8.0211583     -7.4509833      1.9683311      50218.233      36.893836      36.893836      36.893836    
   8270000   0.38178396    -8.0169954     -7.4443276      1.9964353      50218.233      36.893836      36.893836      36.893836    
   8280000   0.38031206    -8.015697      -7.4452371      2.0076062      50218.233      36.893836      36.893836      36.893836    
   8290000   0.37736621    -8.0215095     -7.4554683      1.9591377      50218.233      36.893836      36.893836      36.893836    
   8300000   0.37965375    -8.0218846     -7.452412       1.9575177      50218.233      36.893836      36.893836      36.893836    
   8310000   0.38039615    -8.0205764     -7.4499903      1.972702       50218.233      36.893836      36.893836      36.893836    
   8320000   0.37979486    -8.019959      -7.4502748      1.9680934      50218.233      36.893836      36.893836      36.893836    
   8330000   0.37859471    -8.019882      -7.4519981      1.9689818      50218.233      36.893836      36.893836      36.893836    
   8340000   0.37868457    -8.0177918     -7.449773       1.9826876      50218.233      36.893836      36.893836      36.893836    
   8350000   0.37965979    -8.0210626     -7.451581       1.966041       50218.233      36.893836      36.893836      36.893836    
   8360000   0.37905243    -8.018059      -7.4494885      1.987149       50218.233      36.893836      36.893836      36.893836    
   8370000   0.37993536    -8.0180655     -7.4481705      1.9944176      50218.233      36.893836      36.893836      36.893836    
   8380000   0.38165645    -8.0221558     -7.4496793      1.9668159      50218.233      36.893836      36.893836      36.893836    
   8390000   0.38011904    -8.0196243     -7.4494538      1.9824854      50218.233      36.893836      36.893836      36.893836    
   8400000   0.38007842    -8.0221405     -7.452031       1.9559098      50218.233      36.893836      36.893836      36.893836    
   8410000   0.37846642    -8.0225953     -7.4549037      1.9580932      50218.233      36.893836      36.893836      36.893836    
   8420000   0.38154797    -8.0217512     -7.4494374      1.9624019      50218.233      36.893836      36.893836      36.893836    
   8430000   0.38033785    -8.0218385     -7.4513398      1.9593886      50218.233      36.893836      36.893836      36.893836    
   8440000   0.38056319    -8.0189771     -7.4481404      1.9858564      50218.233      36.893836      36.893836      36.893836    
   8450000   0.38018511    -8.0214833     -7.4512137      1.9635444      50218.233      36.893836      36.893836      36.893836    
   8460000   0.38038075    -8.020585      -7.450022       1.9715412      50218.233      36.893836      36.893836      36.893836    
   8470000   0.37978995    -8.0235281     -7.4538513      1.9419986      50218.233      36.893836      36.893836      36.893836    
   8480000   0.3813551     -8.0184234     -7.4463989      1.9928642      50218.233      36.893836      36.893836      36.893836    
   8490000   0.37877282    -8.0214483     -7.4532972      1.9589184      50218.233      36.893836      36.893836      36.893836    
   8500000   0.38205898    -8.0173042     -7.4442239      1.9977484      50218.233      36.893836      36.893836      36.893836    
   8510000   0.37993595    -8.0233362     -7.4534404      1.9548122      50218.233      36.893836      36.893836      36.893836    
   8520000   0.38025028    -8.0209397     -7.4505724      1.9678289      50218.233      36.893836      36.893836      36.893836    
   8530000   0.38157741    -8.0191975     -7.4468396      1.9791865      50218.233      36.893836      36.893836      36.893836    
   8540000   0.38038648    -8.019619      -7.4490474      1.9743121      50218.233      36.893836      36.893836      36.893836    
   8550000   0.37862692    -8.0178509     -7.4499186      1.9813594      50218.233      36.893836      36.893836      36.893836    
   8560000   0.38111859    -8.0206692     -7.4489995      1.9797282      50218.233      36.893836      36.893836      36.893836    
   8570000   0.37962179    -8.0196105     -7.450186       1.9755777      50218.233      36.893836      36.893836      36.893836    
   8580000   0.3793603     -8.0214906     -7.4524582      1.968588       50218.233      36.893836      36.893836      36.893836    
   8590000   0.38019879    -8.0212273     -7.4509372      1.9725818      50218.233      36.893836      36.893836      36.893836    
   8600000   0.38147366    -8.0206695     -7.4484671      1.9733284      50218.233      36.893836      36.893836      36.893836    
   8610000   0.37972091    -8.0193599     -7.4497866      1.9736378      50218.233      36.893836      36.893836      36.893836    
   8620000   0.38091651    -8.0193663     -7.4479996      1.9792256      50218.233      36.893836      36.893836      36.893836    
   8630000   0.37806192    -8.018541      -7.4514562      1.9852896      50218.233      36.893836      36.893836      36.893836    
   8640000   0.38017775    -8.0218476     -7.4515891      1.9580534      50218.233      36.893836      36.893836      36.893836    
   8650000   0.38093354    -8.0191373     -7.4477452      1.9865771      50218.233      36.893836      36.893836      36.893836    
   8660000   0.38171151    -8.0193919     -7.4468328      1.9840814      50218.233      36.893836      36.893836      36.893836    
   8670000   0.37989966    -8.0169004     -7.4470591      1.9951576      50218.233      36.893836      36.893836      36.893836    
   8680000   0.38189344    -8.0188393     -7.4460073      1.9870844      50218.233      36.893836      36.893836      36.893836    
   8690000   0.3799904     -8.0178302     -7.4478528      1.9842426      50218.233      36.893836      36.893836      36.893836    
   8700000   0.38011674    -8.018485      -7.448318       1.9933276      50218.233      36.893836      36.893836      36.893836    
   8710000   0.38097286    -8.0196648     -7.4482136      1.9770339      50218.233      36.893836      36.893836      36.893836    
   8720000   0.38118591    -8.020287      -7.4485162      1.9701334      50218.233      36.893836      36.893836      36.893836    
   8730000   0.38094368    -8.0152697     -7.4438623      2.0115622      50218.233      36.893836      36.893836      36.893836    
   8740000   0.38042244    -8.0192747     -7.4486492      1.9806679      50218.233      36.893836      36.893836      36.893836    
   8750000   0.37937315    -8.021519      -7.4524673      1.9599318      50218.233      36.893836      36.893836      36.893836    
   8760000   0.37983663    -8.0179732     -7.4482263      1.9923616      50218.233      36.893836      36.893836      36.893836    
   8770000   0.37991152    -8.0215507     -7.4516915      1.9575461      50218.233      36.893836      36.893836      36.893836    
   8780000   0.38230907    -8.0172788     -7.4438233      1.993898       50218.233      36.893836      36.893836      36.893836    
   8790000   0.37867076    -8.0184277     -7.4504297      1.9862347      50218.233      36.893836      36.893836      36.893836    
   8800000   0.3812958     -8.0182096     -7.446274       1.9813216      50218.233      36.893836      36.893836      36.893836    
   8810000   0.38016633    -8.019867      -7.4496256      1.9734365      50218.233      36.893836      36.893836      36.893836    
   8820000   0.37855237    -8.0208966     -7.4530761      1.9663612      50218.233      36.893836      36.893836      36.893836    
   8830000   0.38123469    -8.0227268     -7.4508829      1.9597968      50218.233      36.893836      36.893836      36.893836    
   8840000   0.38069503    -8.0212208     -7.4501864      1.9647304      50218.233      36.893836      36.893836      36.893836    
   8850000   0.38082895    -8.0214947     -7.4502594      1.9689537      50218.233      36.893836      36.893836      36.893836    
   8860000   0.38086338    -8.0205824     -7.4492955      1.964629       50218.233      36.893836      36.893836      36.893836    
   8870000   0.37973964    -8.0227841     -7.4531827      1.9583688      50218.233      36.893836      36.893836      36.893836    
   8880000   0.37913014    -8.0178546     -7.4491675      1.9839985      50218.233      36.893836      36.893836      36.893836    
   8890000   0.38100388    -8.017813      -7.4463153      1.9977038      50218.233      36.893836      36.893836      36.893836    
   8900000   0.37950618    -8.0184807     -7.4492295      1.9902252      50218.233      36.893836      36.893836      36.893836    
   8910000   0.3788409     -8.0232226     -7.4549694      1.9543405      50218.233      36.893836      36.893836      36.893836    
   8920000   0.37874181    -8.0208461     -7.4527414      1.9577265      50218.233      36.893836      36.893836      36.893836    
   8930000   0.37862945    -8.0186302     -7.4506941      1.9817862      50218.233      36.893836      36.893836      36.893836    
   8940000   0.38234998    -8.0217085     -7.4481917      1.963891       50218.233      36.893836      36.893836      36.893836    
   8950000   0.37924875    -8.0189453     -7.4500802      1.9779218      50218.233      36.893836      36.893836      36.893836    
   8960000   0.37796185    -8.0201281     -7.4531934      1.9667684      50218.233      36.893836      36.893836      36.893836    
   8970000   0.38027683    -8.021549      -7.4511419      1.9645823      50218.233      36.893836      36.893836      36.893836    
   8980000   0.38093382    -8.0204667     -7.4490741      1.9689809      50218.233      36.893836      36.893836      36.893836    
   8990000   0.38089642    -8.021567      -7.4502305      1.9670276      50218.233      36.893836      36.893836      36.893836    
   9000000   0.3773581     -8.0223465     -7.4563174      1.9506446      50218.233      36.893836      36.893836      36.893836    
   9010000   0.38010431    -8.0179328     -7.4477845      1.9938625      50218.233      36.893836      36.893836      36.893836    
   9020000   0.38152942    -8.0202884     -7.4480024      1.9727984      50218.233      36.893836      36.893836      36.893836    
   9030000   0.37985428    -8.0227555     -7.4529821      1.9500996      50218.233      36.893836      36.893836      36.893836    
   9040000   0.38125225    -8.022791      -7.4509207      1.9597042      50218.233      36.893836      36.893836      36.893836    
   9050000   0.38142194    -8.0198533     -7.4477285      1.9785163      50218.233      36.893836      36.893836      36.893836    
   9060000   0.38022804    -8.0208735     -7.4505395      1.9663851      50218.233      36.893836      36.893836      36.893836    
   9070000   0.38175381    -8.0209559     -7.4483333      1.9667043      50218.233      36.893836      36.893836      36.893836    
   9080000   0.38173849    -8.021212      -7.4486124      1.9654115      50218.233      36.893836      36.893836      36.893836    
   9090000   0.37811444    -8.0197026     -7.452539       1.9715355      50218.233      36.893836      36.893836      36.893836    
   9100000   0.38050414    -8.0183445     -7.4475964      1.9842467      50218.233      36.893836      36.893836      36.893836    
   9110000   0.38061167    -8.01892       -7.4480106      1.9863802      50218.233      36.893836      36.893836      36.893836    
   9120000   0.37952144    -8.0160862     -7.4468121      2.000835       50218.233      36.893836      36.893836      36.893836    
   9130000   0.37910112    -8.0197193     -7.4510757      1.9796747      50218.233      36.893836      36.893836      36.893836    
   9140000   0.38180665    -8.0199882     -7.4472864      1.9797507      50218.233      36.893836      36.893836      36.893836    
   9150000   0.3793362     -8.018292      -7.4492958      1.9760901      50218.233      36.893836      36.893836      36.893836    
   9160000   0.3786839     -8.0196978     -7.45168        1.9711193      50218.233      36.893836      36.893836      36.893836    
   9170000   0.38044292    -8.0197061     -7.4490499      1.9795413      50218.233      36.893836      36.893836      36.893836    
   9180000   0.37944562    -8.0197892     -7.4506288      1.9726352      50218.233      36.893836      36.893836      36.893836    
   9190000   0.38288132    -8.0168692     -7.4425554      2.0042197      50218.233      36.893836      36.893836      36.893836    
   9200000   0.38113866    -8.0177475     -7.4460476      1.9881273      50218.233      36.893836      36.893836      36.893836    
   9210000   0.37981674    -8.0178949     -7.4481779      1.99515        50218.233      36.893836      36.893836      36.893836    
   9220000   0.38053001    -8.0174443     -7.4466574      1.9929683      50218.233      36.893836      36.893836      36.893836    
   9230000   0.37813236    -8.0180748     -7.4508844      1.9831186      50218.233      36.893836      36.893836      36.893836    
   9240000   0.37981653    -8.0177814     -7.4480647      1.9913339      50218.233      36.893836      36.893836      36.893836    
   9250000   0.38046033    -8.0187583     -7.4480759      1.9777639      50218.233      36.893836      36.893836      36.893836    
   9260000   0.38090944    -8.019474      -7.448118       1.9834224      50218.233      36.893836      36.893836      36.893836    
   9270000   0.38034647    -8.0163527     -7.4458411      2.0139746      50218.233      36.893836      36.893836      36.893836    
   9280000   0.3796485     -8.0169417     -7.447477       1.9897746      50218.233      36.893836      36.893836      36.893836    
   9290000   0.37923587    -8.0182578     -7.449412       1.994872       50218.233      36.893836      36.893836      36.893836    
   9300000   0.38092746    -8.0203531     -7.44897        1.9795145      50218.233      36.893836      36.893836      36.893836    
   9310000   0.37900047    -8.0198966     -7.451404       1.9726181      50218.233      36.893836      36.893836      36.893836    
   9320000   0.37864046    -8.0180036     -7.450051       1.9826413      50218.233      36.893836      36.893836      36.893836    
   9330000   0.38021628    -8.0202322     -7.4499159      1.9713464      50218.233      36.893836      36.893836      36.893836    
   9340000   0.37942419    -8.014853      -7.4457248      2.0103183      50218.233      36.893836      36.893836      36.893836    
   9350000   0.38123962    -8.0164177     -7.4445664      2.0066595      50218.233      36.893836      36.893836      36.893836    
   9360000   0.37821453    -8.0206925     -7.4533787      1.967656       50218.233      36.893836      36.893836      36.893836    
   9370000   0.37880535    -8.0186147     -7.4504148      1.9826892      50218.233      36.893836      36.893836      36.893836    
   9380000   0.3804112     -8.0176041     -7.4469954      1.9916877      50218.233      36.893836      36.893836      36.893836    
   9390000   0.3798932     -8.0193844     -7.4495527      1.9742784      50218.233      36.893836      36.893836      36.893836    
   9400000   0.37818629    -8.0219633     -7.4546919      1.9580243      50218.233      36.893836      36.893836      36.893836    
   9410000   0.38106031    -8.0179497     -7.4463673      1.9851892      50218.233      36.893836      36.893836      36.893836    
   9420000   0.37808386    -8.0195397     -7.452422       1.97614        50218.233      36.893836      36.893836      36.893836    
   9430000   0.38034628    -8.0203843     -7.449873       1.9783306      50218.233      36.893836      36.893836      36.893836    
   9440000   0.37995132    -8.019522      -7.4496032      1.9813666      50218.233      36.893836      36.893836      36.893836    
   9450000   0.37994526    -8.0234337     -7.4535239      1.9456775      50218.233      36.893836      36.893836      36.893836    
   9460000   0.380056      -8.0191648     -7.449089       1.9756679      50218.233      36.893836      36.893836      36.893836    
   9470000   0.37999464    -8.0200389     -7.450055       1.9727308      50218.233      36.893836      36.893836      36.893836    
   9480000   0.37910244    -8.0217442     -7.4530987      1.9589644      50218.233      36.893836      36.893836      36.893836    
   9490000   0.38075262    -8.0189104     -7.4477895      1.9713829      50218.233      36.893836      36.893836      36.893836    
   9500000   0.38068489    -8.0210956     -7.4500763      1.9693822      50218.233      36.893836      36.893836      36.893836    
   9510000   0.37918472    -8.0235963     -7.4548273      1.9476238      50218.233      36.893836      36.893836      36.893836    
   9520000   0.37809278    -8.0201355     -7.4530044      1.9709345      50218.233      36.893836      36.893836      36.893836    
   9530000   0.37923237    -8.0199744     -7.4511339      1.9743735      50218.233      36.893836      36.893836      36.893836    
   9540000   0.38002243    -8.0193733     -7.4493478      1.9728939      50218.233      36.893836      36.893836      36.893836    
   9550000   0.37852582    -8.0192431     -7.4514624      1.9805845      50218.233      36.893836      36.893836      36.893836    
   9560000   0.38044659    -8.0184632     -7.4478015      1.9861567      50218.233      36.893836      36.893836      36.893836    
   9570000   0.37885809    -8.0212319     -7.4529528      1.9626754      50218.233      36.893836      36.893836      36.893836    
   9580000   0.38121278    -8.0192217     -7.4474107      1.9788097      50218.233      36.893836      36.893836      36.893836    
   9590000   0.38011924    -8.0187651     -7.4485943      1.9856679      50218.233      36.893836      36.893836      36.893836    
   9600000   0.37988742    -8.0189171     -7.4490941      1.9773146      50218.233      36.893836      36.893836      36.893836    
   9610000   0.38183498    -8.0204978     -7.4477535      1.9740242      50218.233      36.893836      36.893836      36.893836    
   9620000   0.37998535    -8.019963      -7.4499931      1.9734876      50218.233      36.893836      36.893836      36.893836    
   9630000   0.38049564    -8.0196403     -7.4489049      1.9823783      50218.233      36.893836      36.893836      36.893836    
   9640000   0.37929292    -8.0215792     -7.4526479      1.9715351      50218.233      36.893836      36.893836      36.893836    
   9650000   0.37908989    -8.0204935     -7.4518667      1.966002       50218.233      36.893836      36.893836      36.893836    
   9660000   0.38274651    -8.0186616     -7.44455        1.9881368      50218.233      36.893836      36.893836      36.893836    
   9670000   0.37873248    -8.0192613     -7.4511707      1.9804556      50218.233      36.893836      36.893836      36.893836    
   9680000   0.38100579    -8.0181137     -7.4466132      1.9852847      50218.233      36.893836      36.893836      36.893836    
   9690000   0.38027555    -8.0192349     -7.4488297      1.9890659      50218.233      36.893836      36.893836      36.893836    
   9700000   0.38041638    -8.0184394     -7.4478229      1.9762281      50218.233      36.893836      36.893836      36.893836    
   9710000   0.37987235    -8.0207428     -7.4509424      1.9730681      50218.233      36.893836      36.893836      36.893836    
   9720000   0.37985631    -8.017953      -7.4481766      1.9879224      50218.233      36.893836      36.893836      36.893836    
   9730000   0.37950477    -8.0183294     -7.4490804      1.9878519      50218.233      36.893836      36.893836      36.893836    
   9740000   0.38063453    -8.0191247     -7.448181       1.9903846      50218.233      36.893836      36.893836      36.893836    
   9750000   0.38102502    -8.0172818     -7.4457524      1.9926135      50218.233      36.893836      36.893836      36.893836    
   9760000   0.37815879    -8.0177385     -7.4505083      1.9914786      50218.233      36.893836      36.893836      36.893836    
   9770000   0.380165      -8.0163968     -7.4461574      1.9959096      50218.233      36.893836      36.893836      36.893836    
   9780000   0.38154374    -8.0183388     -7.4460313      1.992208       50218.233      36.893836      36.893836      36.893836    
   9790000   0.37867024    -8.0176737     -7.4496764      1.9863352      50218.233      36.893836      36.893836      36.893836    
   9800000   0.38046699    -8.0188668     -7.4481744      1.9886915      50218.233      36.893836      36.893836      36.893836    
   9810000   0.37916859    -8.0192331     -7.4504883      1.9845098      50218.233      36.893836      36.893836      36.893836    
   9820000   0.38035866    -8.0188692     -7.4483393      1.9810585      50218.233      36.893836      36.893836      36.893836    
   9830000   0.37842395    -8.0193731     -7.4517453      1.9609201      50218.233      36.893836      36.893836      36.893836    
   9840000   0.37978779    -8.0195737     -7.4499001      1.9774472      50218.233      36.893836      36.893836      36.893836    
   9850000   0.38048931    -8.0188885     -7.4481626      1.9871453      50218.233      36.893836      36.893836      36.893836    
   9860000   0.38057755    -8.0181218     -7.4472636      1.9778127      50218.233      36.893836      36.893836      36.893836    
   9870000   0.37981321    -8.0185904     -7.4488786      1.9838962      50218.233      36.893836      36.893836      36.893836    
   9880000   0.38037734    -8.0215621     -7.4510042      1.9644631      50218.233      36.893836      36.893836      36.893836    
   9890000   0.37930611    -8.0243789     -7.4554278      1.9402862      50218.233      36.893836      36.893836      36.893836    
   9900000   0.38019388    -8.0206042     -7.4503214      1.9720085      50218.233      36.893836      36.893836      36.893836    
   9910000   0.37937852    -8.0187679     -7.4497082      1.9810665      50218.233      36.893836      36.893836      36.893836    
   9920000   0.37902667    -8.0187399     -7.450208       1.9820964      50218.233      36.893836      36.893836      36.893836    
   9930000   0.38084602    -8.0176505     -7.4463896      1.9882941      50218.233      36.893836      36.893836      36.893836    
   9940000   0.38003352    -8.0169852     -7.4469431      2.0051225      50218.233      36.893836      36.893836      36.893836    
   9950000   0.38011474    -8.0228321     -7.4526681      1.9583307      50218.233      36.893836      36.893836      36.893836    
   9960000   0.38112073    -8.020826      -7.4491531      1.9749849      50218.233      36.893836      36.893836      36.893836    
   9970000   0.37866784    -8.0208573     -7.4528637      1.9675135      50218.233      36.893836      36.893836      36.893836    
   9980000   0.378273      -8.0210022     -7.4536008      1.964709       50218.233      36.893836      36.893836      36.893836    
   9990000   0.38228254    -8.016217      -7.4428013      2.003635       50218.233      36.893836      36.893836      36.893836    
  10000000   0.37793388    -8.0182022     -7.4513095      1.9858301      50218.233      36.893836      36.893836      36.893836    
Loop time of 15538.9 on 5 procs for 10000000 steps with 70304 atoms

Performance: 556022.595 tau/day, 643.545 timesteps/s, 45.244 Matom-step/s
94.6% CPU use with 5 MPI tasks x 1 OpenMP threads

MPI task timing breakdown:
Section |  min time  |  avg time  |  max time  |%varavg| %total
---------------------------------------------------------------
Pair    | 5690.5     | 6164.2     | 6570.5     | 414.6 | 39.67
Neigh   | 42.798     | 46.17      | 48.592     |  34.0 |  0.30
Comm    | 2248.4     | 2267       | 2284.5     |  31.5 | 14.59
Output  | 0.18004    | 0.18572    | 0.1963     |   1.3 |  0.00
Modify  | 5859.2     | 6272.2     | 6729.1     | 402.2 | 40.36
Other   |            | 789.2      |            |       |  5.08

Nlocal:        14060.8 ave       14106 max       14035 min
Histogram: 2 1 0 0 0 0 1 0 0 1
Nghost:        18747.4 ave       18801 max       18689 min
Histogram: 2 0 0 0 0 1 0 0 0 2
Neighs:              0 ave           0 max           0 min
Histogram: 5 0 0 0 0 0 0 0 0 0

Total # of neighbors = 0
Ave neighs/atom = 0
Neighbor list builds = 1831606
Dangerous builds = 0
clear
OMP_NUM_THREADS environment is not set. Defaulting to 1 thread. (src/comm.cpp:98)
  using 1 OpenMP thread(s) per MPI task
package gpu 0
jump dms360.lmp

variable T equal 360
# T = 1000* (temp in LJ unit)
variable f equal 10000
log log.${T}
log log.360
