variable TLJ equal (${T}/1000)
variable TLJ equal (520/1000)
variable NCyle equal 10
variable iStep equal (${f})
variable iStep equal (10000)
variable dumpStep equal (${f}*100)
variable dumpStep equal (10000*100)
variable runStep equal (${f}*100*${NCyle})
variable runStep equal (10000*100*${NCyle})
variable runStep equal (10000*100*10)

units       lj
atom_style  atomic
dimension 3
boundary     p p p
pair_style  lj/cut 2.5
read_data  ../data/T${T}.dat
read_data  ../data/T520.dat
Reading data file ...
  orthogonal box = (0.97250269 0.97250269 0.97250269) to (37.866338 37.866338 37.866338)
  1 by 1 by 5 MPI processor grid
  reading atoms ...
  70304 atoms
  reading velocities ...
  70304 velocities
  read_data CPU = 0.311 seconds
change_box all triclinic
Changing box ...
  triclinic box = (0.97250269 0.97250269 0.97250269) to (37.866338 37.866338 37.866338) with tilt (0 0 0)
mass 1 1
mass 2 1
pair_modify shift yes
pair_coeff  1 1 1 1
pair_coeff  1 2 1.5 0.8
pair_coeff  2 2 0.5 0.88


timestep 0.01
thermo ${iStep}
thermo 10000
reset_timestep 0
thermo_style custom step temp pe etotal press vol lx ly lz
fix             1 all nvt temp ${TLJ}  ${TLJ}  0.1
fix             1 all nvt temp 0.52  ${TLJ}  0.1
fix             1 all nvt temp 0.52  0.52  0.1
thermo_modify flush yes

fix dsf all deform 1 xy  wiggle 0.5  ${f}   units box
fix dsf all deform 1 xy  wiggle 0.5  10000   units box
fix ps1 all ave/time 1 1 ${iStep} c_thermo_press[1] c_thermo_press[2]  c_thermo_press[3] c_thermo_press[4]  c_thermo_press[5] c_thermo_press[6]  file  stress.${T}
fix ps1 all ave/time 1 1 10000 c_thermo_press[1] c_thermo_press[2]  c_thermo_press[3] c_thermo_press[4]  c_thermo_press[5] c_thermo_press[6]  file  stress.${T}
fix ps1 all ave/time 1 1 10000 c_thermo_press[1] c_thermo_press[2]  c_thermo_press[3] c_thermo_press[4]  c_thermo_press[5] c_thermo_press[6]  file  stress.520
dump            1 all custom ${dumpStep} dump.${T} id type x y z
dump            1 all custom 1000000 dump.${T} id type x y z
dump            1 all custom 1000000 dump.520 id type x y z
dump_modify 1 sort id
fix nodrift all momentum 1  linear 1 1 1
fix com_seed all recenter INIT INIT INIT shift all
run ${runStep}
run 10000000
Generated 0 of 1 mixed pair_coeff terms from geometric mixing rule
Per MPI rank memory allocation (min/avg/max) = 8.918 | 8.922 | 8.926 Mbytes
   Step          Temp          PotEng         TotEng         Press          Volume           Lx             Ly             Lz      
         0   0.52196693    -7.7815442     -6.998605       3.944713       50218.233      36.893836      36.893836      36.893836    
     10000   0.52157586    -7.7733587     -6.991006       3.9869979      50218.233      36.893836      36.893836      36.893836    
     20000   0.52322149    -7.7714975     -6.9866765      4.0124301      50218.233      36.893836      36.893836      36.893836    
     30000   0.52041171    -7.7737594     -6.993153       3.98028        50218.233      36.893836      36.893836      36.893836    
     40000   0.51851395    -7.7729248     -6.995165       3.9804229      50218.233      36.893836      36.893836      36.893836    
     50000   0.51919811    -7.7735626     -6.9947765      3.9856853      50218.233      36.893836      36.893836      36.893836    
     60000   0.52183786    -7.7680541     -6.9853084      4.0277324      50218.233      36.893836      36.893836      36.893836    
     70000   0.51763983    -7.7744619     -6.9980132      3.9771864      50218.233      36.893836      36.893836      36.893836    
     80000   0.52164118    -7.7704551     -6.9880044      4.0138894      50218.233      36.893836      36.893836      36.893836    
     90000   0.51833194    -7.7767233     -6.9992365      3.9641712      50218.233      36.893836      36.893836      36.893836    
    100000   0.51977708    -7.7751773     -6.9955228      3.9738602      50218.233      36.893836      36.893836      36.893836    
    110000   0.52018381    -7.7729281     -6.9926635      3.9988307      50218.233      36.893836      36.893836      36.893836    
    120000   0.51743339    -7.7770234     -7.0008843      3.9549886      50218.233      36.893836      36.893836      36.893836    
    130000   0.52106247    -7.7669233     -6.9853407      4.0430774      50218.233      36.893836      36.893836      36.893836    
    140000   0.52300868    -7.7694933     -6.9849915      4.0141734      50218.233      36.893836      36.893836      36.893836    
    150000   0.51748376    -7.7727817     -6.9965671      3.9876371      50218.233      36.893836      36.893836      36.893836    
    160000   0.52205002    -7.7756324     -6.9925685      3.9675231      50218.233      36.893836      36.893836      36.893836    
    170000   0.51849299    -7.7738095     -6.9960811      3.9799633      50218.233      36.893836      36.893836      36.893836    
    180000   0.51850366    -7.7667986     -6.9890542      4.0306378      50218.233      36.893836      36.893836      36.893836    
    190000   0.52151654    -7.7696009     -6.9873372      4.011612       50218.233      36.893836      36.893836      36.893836    
    200000   0.52155401    -7.7680121     -6.9856923      4.0254948      50218.233      36.893836      36.893836      36.893836    
    210000   0.51880522    -7.7718174     -6.9936206      4.0024228      50218.233      36.893836      36.893836      36.893836    
    220000   0.51694333    -7.7758207     -7.0004167      3.9673878      50218.233      36.893836      36.893836      36.893836    
    230000   0.52230928    -7.7775569     -6.9941041      3.9580756      50218.233      36.893836      36.893836      36.893836    
    240000   0.52011024    -7.7739055     -6.9937512      3.9821201      50218.233      36.893836      36.893836      36.893836    
    250000   0.51910991    -7.7730231     -6.9943693      3.9899337      50218.233      36.893836      36.893836      36.893836    
    260000   0.5190324     -7.7719796     -6.9934421      4.0050491      50218.233      36.893836      36.893836      36.893836    
    270000   0.52044414    -7.7718308     -6.9911757      4.0103816      50218.233      36.893836      36.893836      36.893836    
    280000   0.51938179    -7.7717605     -6.9926989      3.9921261      50218.233      36.893836      36.893836      36.893836    
    290000   0.51973964    -7.7731547     -6.9935563      3.988936       50218.233      36.893836      36.893836      36.893836    
    300000   0.51892505    -7.7736547     -6.9952782      3.9791188      50218.233      36.893836      36.893836      36.893836    
    310000   0.51868161    -7.7725671     -6.9945557      3.9949156      50218.233      36.893836      36.893836      36.893836    
    320000   0.51975754    -7.7703832     -6.990758       4.0200616      50218.233      36.893836      36.893836      36.893836    
    330000   0.52162874    -7.7747464     -6.9923144      3.9757985      50218.233      36.893836      36.893836      36.893836    
    340000   0.52019542    -7.7723509     -6.9920689      3.9938056      50218.233      36.893836      36.893836      36.893836    
    350000   0.51988009    -7.7696047     -6.9897956      4.0180091      50218.233      36.893836      36.893836      36.893836    
    360000   0.51815029    -7.7773816     -7.0001672      3.9595231      50218.233      36.893836      36.893836      36.893836    
    370000   0.51959784    -7.7740431     -6.9946574      3.98571        50218.233      36.893836      36.893836      36.893836    
    380000   0.52085279    -7.7756928     -6.9944247      3.9804465      50218.233      36.893836      36.893836      36.893836    
    390000   0.52352504    -7.7748583     -6.9895819      3.9725596      50218.233      36.893836      36.893836      36.893836    
    400000   0.51969639    -7.767634      -6.9881005      4.0192259      50218.233      36.893836      36.893836      36.893836    
    410000   0.51951539    -7.7712168     -6.9919548      4.0023041      50218.233      36.893836      36.893836      36.893836    
    420000   0.52020456    -7.7718243     -6.9915285      4.0016449      50218.233      36.893836      36.893836      36.893836    
    430000   0.51970568    -7.7696395     -6.990092       4.0203787      50218.233      36.893836      36.893836      36.893836    
    440000   0.5199831     -7.7730195     -6.9930559      4.0015321      50218.233      36.893836      36.893836      36.893836    
    450000   0.52110796    -7.7723181     -6.9906673      3.9901894      50218.233      36.893836      36.893836      36.893836    
    460000   0.52291798    -7.7705406     -6.9861748      4.0125723      50218.233      36.893836      36.893836      36.893836    
    470000   0.51895877    -7.775451      -6.997024       3.9740207      50218.233      36.893836      36.893836      36.893836    
    480000   0.52031061    -7.7768481     -6.9963933      3.9570821      50218.233      36.893836      36.893836      36.893836    
    490000   0.5168862     -7.7756855     -7.0003673      3.9709605      50218.233      36.893836      36.893836      36.893836    
    500000   0.52093746    -7.7658266     -6.9844315      4.0436254      50218.233      36.893836      36.893836      36.893836    
    510000   0.52114872    -7.7730859     -6.991374       3.9838142      50218.233      36.893836      36.893836      36.893836    
    520000   0.52165401    -7.7743639     -6.9918941      3.9855061      50218.233      36.893836      36.893836      36.893836    
    530000   0.52095946    -7.7714356     -6.9900075      3.9964866      50218.233      36.893836      36.893836      36.893836    
    540000   0.5211102     -7.7740415     -6.9923873      3.9855355      50218.233      36.893836      36.893836      36.893836    
    550000   0.51922606    -7.7714151     -6.9925871      3.9984038      50218.233      36.893836      36.893836      36.893836    
    560000   0.5236012     -7.7717884     -6.9863978      4.0112266      50218.233      36.893836      36.893836      36.893836    
    570000   0.52211489    -7.774281      -6.9911198      3.9878493      50218.233      36.893836      36.893836      36.893836    
    580000   0.52016826    -7.7712992     -6.9910579      4.0113501      50218.233      36.893836      36.893836      36.893836    
    590000   0.52089964    -7.7655565     -6.9842181      4.0403383      50218.233      36.893836      36.893836      36.893836    
    600000   0.5191912     -7.7706316     -6.9918559      4.0063741      50218.233      36.893836      36.893836      36.893836    
    610000   0.52112755    -7.773029      -6.9913488      3.997824       50218.233      36.893836      36.893836      36.893836    
    620000   0.5194335     -7.7713775     -6.9922384      4.0009463      50218.233      36.893836      36.893836      36.893836    
    630000   0.51897278    -7.7777537     -6.9993056      3.9601411      50218.233      36.893836      36.893836      36.893836    
    640000   0.52049522    -7.7690124     -6.9882807      4.0217128      50218.233      36.893836      36.893836      36.893836    
    650000   0.52227985    -7.7775504     -6.9941418      3.9612721      50218.233      36.893836      36.893836      36.893836    
    660000   0.51947574    -7.7733915     -6.994189       3.9898849      50218.233      36.893836      36.893836      36.893836    
    670000   0.52266902    -7.7704765     -6.9864841      4.007302       50218.233      36.893836      36.893836      36.893836    
    680000   0.52368567    -7.7715043     -6.9859869      4.0018822      50218.233      36.893836      36.893836      36.893836    
    690000   0.52063883    -7.7708978     -6.9899507      4.0105337      50218.233      36.893836      36.893836      36.893836    
    700000   0.51622824    -7.7691375     -6.9948062      4.0194691      50218.233      36.893836      36.893836      36.893836    
    710000   0.52071478    -7.7715604     -6.9904993      4.0023018      50218.233      36.893836      36.893836      36.893836    
    720000   0.52229401    -7.7726979     -6.989268       3.9893594      50218.233      36.893836      36.893836      36.893836    
    730000   0.51986407    -7.7721419     -6.9923569      3.9931762      50218.233      36.893836      36.893836      36.893836    
    740000   0.52129141    -7.7716605     -6.9897345      4.0001723      50218.233      36.893836      36.893836      36.893836    
    750000   0.52130659    -7.7740461     -6.9920973      3.9713599      50218.233      36.893836      36.893836      36.893836    
    760000   0.51690553    -7.7726688     -6.9973216      3.9864464      50218.233      36.893836      36.893836      36.893836    
    770000   0.51814839    -7.7713437     -6.9941321      3.9858494      50218.233      36.893836      36.893836      36.893836    
    780000   0.51863713    -7.7716618     -6.9937172      3.9942279      50218.233      36.893836      36.893836      36.893836    
    790000   0.52175511    -7.7736074     -6.9909858      3.9945034      50218.233      36.893836      36.893836      36.893836    
    800000   0.52195323    -7.7697783     -6.9868596      4.0098575      50218.233      36.893836      36.893836      36.893836    
    810000   0.52096294    -7.77399       -6.9925567      3.9759144      50218.233      36.893836      36.893836      36.893836    
    820000   0.52344818    -7.7706427     -6.9854816      4.009757       50218.233      36.893836      36.893836      36.893836    
    830000   0.52073242    -7.7704061     -6.9893186      4.0091033      50218.233      36.893836      36.893836      36.893836    
    840000   0.52087682    -7.7723588     -6.9910547      3.994332       50218.233      36.893836      36.893836      36.893836    
    850000   0.51654723    -7.7711944     -6.9963846      4.0039567      50218.233      36.893836      36.893836      36.893836    
    860000   0.5187346     -7.7688185     -6.9907277      4.0071062      50218.233      36.893836      36.893836      36.893836    
    870000   0.52131875    -7.7730601     -6.9910931      3.9860784      50218.233      36.893836      36.893836      36.893836    
    880000   0.52078285    -7.7689391     -6.987776       4.0233922      50218.233      36.893836      36.893836      36.893836    
    890000   0.52098942    -7.7690062     -6.9875332      4.0341887      50218.233      36.893836      36.893836      36.893836    
    900000   0.51886375    -7.7687726     -6.990488       4.0169017      50218.233      36.893836      36.893836      36.893836    
    910000   0.51853234    -7.7755998     -6.9978124      3.9628981      50218.233      36.893836      36.893836      36.893836    
    920000   0.51738267    -7.7678806     -6.9918177      4.0120004      50218.233      36.893836      36.893836      36.893836    
    930000   0.52066197    -7.7714247     -6.9904429      3.9989577      50218.233      36.893836      36.893836      36.893836    
    940000   0.5190337     -7.7681161     -6.9895766      4.0284602      50218.233      36.893836      36.893836      36.893836    
    950000   0.52154957    -7.7712237     -6.9889104      3.9954825      50218.233      36.893836      36.893836      36.893836    
    960000   0.52075324    -7.7695225     -6.9884037      4.0118903      50218.233      36.893836      36.893836      36.893836    
    970000   0.52132555    -7.767831      -6.9858538      4.0288447      50218.233      36.893836      36.893836      36.893836    
    980000   0.52112587    -7.775636      -6.9939583      3.9709105      50218.233      36.893836      36.893836      36.893836    
    990000   0.51959679    -7.7698794     -6.9904953      4.0036973      50218.233      36.893836      36.893836      36.893836    
   1000000   0.51882783    -7.7695085     -6.9912779      4.0117135      50218.233      36.893836      36.893836      36.893836    
   1010000   0.51696162    -7.7700446     -6.9946132      4.0116977      50218.233      36.893836      36.893836      36.893836    
   1020000   0.51947604    -7.7703333     -6.9911303      4.0111389      50218.233      36.893836      36.893836      36.893836    
   1030000   0.52275325    -7.7664552     -6.9823364      4.0481988      50218.233      36.893836      36.893836      36.893836    
   1040000   0.51836299    -7.7707492     -6.9932158      4.0019562      50218.233      36.893836      36.893836      36.893836    
   1050000   0.51973331    -7.7657688     -6.98618        4.0524497      50218.233      36.893836      36.893836      36.893836    
   1060000   0.51696204    -7.7706227     -6.9951907      4.0027554      50218.233      36.893836      36.893836      36.893836    
   1070000   0.52127161    -7.7671458     -6.9852495      4.0463729      50218.233      36.893836      36.893836      36.893836    
   1080000   0.51923603    -7.7685735     -6.9897305      4.0248232      50218.233      36.893836      36.893836      36.893836    
   1090000   0.51854763    -7.7711531     -6.9933428      4.0121566      50218.233      36.893836      36.893836      36.893836    
   1100000   0.51859827    -7.7645865     -6.9867002      4.0580672      50218.233      36.893836      36.893836      36.893836    
   1110000   0.52061128    -7.7733292     -6.9924234      3.989546       50218.233      36.893836      36.893836      36.893836    
   1120000   0.51867205    -7.7731661     -6.9951691      3.9846458      50218.233      36.893836      36.893836      36.893836    
   1130000   0.51890411    -7.7677766     -6.9894315      4.0220175      50218.233      36.893836      36.893836      36.893836    
   1140000   0.52134991    -7.7653068     -6.9832931      4.044882       50218.233      36.893836      36.893836      36.893836    
   1150000   0.51829847    -7.7656479     -6.9882113      4.0426549      50218.233      36.893836      36.893836      36.893836    
   1160000   0.52146654    -7.7717753     -6.9895866      4.0106741      50218.233      36.893836      36.893836      36.893836    
   1170000   0.51778295    -7.7699106     -6.9932473      4.0197598      50218.233      36.893836      36.893836      36.893836    
   1180000   0.52047376    -7.7692002     -6.9885006      4.0348294      50218.233      36.893836      36.893836      36.893836    
   1190000   0.51993642    -7.7700193     -6.9901257      4.0120961      50218.233      36.893836      36.893836      36.893836    
   1200000   0.52131097    -7.7683711     -6.9864157      4.0348256      50218.233      36.893836      36.893836      36.893836    
   1210000   0.52034309    -7.7673509     -6.9868474      4.0426681      50218.233      36.893836      36.893836      36.893836    
   1220000   0.51838073    -7.7652504     -6.9876904      4.0494427      50218.233      36.893836      36.893836      36.893836    
   1230000   0.52075396    -7.7703508     -6.989231       4.0032848      50218.233      36.893836      36.893836      36.893836    
   1240000   0.5210902     -7.7717604     -6.9901362      4.0004437      50218.233      36.893836      36.893836      36.893836    
   1250000   0.52464616    -7.7691066     -6.9821486      4.029838       50218.233      36.893836      36.893836      36.893836    
   1260000   0.52127774    -7.7666617     -6.9847562      4.0369455      50218.233      36.893836      36.893836      36.893836    
   1270000   0.51900259    -7.7687003     -6.9902074      4.0176791      50218.233      36.893836      36.893836      36.893836    
   1280000   0.52028868    -7.7733007     -6.9928788      3.9886086      50218.233      36.893836      36.893836      36.893836    
   1290000   0.51862983    -7.7732449     -6.9953112      3.9915632      50218.233      36.893836      36.893836      36.893836    
   1300000   0.52023179    -7.7710264     -6.9906899      3.9989844      50218.233      36.893836      36.893836      36.893836    
   1310000   0.51866423    -7.7711482     -6.9931629      4.0030664      50218.233      36.893836      36.893836      36.893836    
   1320000   0.51865314    -7.7767225     -6.9987538      3.9589612      50218.233      36.893836      36.893836      36.893836    
   1330000   0.52237813    -7.7690928     -6.9855367      4.024033       50218.233      36.893836      36.893836      36.893836    
   1340000   0.51859209    -7.761539      -6.983662       4.0724297      50218.233      36.893836      36.893836      36.893836    
   1350000   0.52157491    -7.771745      -6.9893937      4.0144278      50218.233      36.893836      36.893836      36.893836    
   1360000   0.51778205    -7.76983       -6.9931679      4.0231175      50218.233      36.893836      36.893836      36.893836    
   1370000   0.52165249    -7.7749575     -6.9924898      3.9885496      50218.233      36.893836      36.893836      36.893836    
   1380000   0.5212354     -7.772838      -6.990996       3.9926153      50218.233      36.893836      36.893836      36.893836    
   1390000   0.52227488    -7.7708383     -6.9874371      4.0134252      50218.233      36.893836      36.893836      36.893836    
   1400000   0.52020158    -7.7704276     -6.9901363      4.0058639      50218.233      36.893836      36.893836      36.893836    
   1410000   0.51935806    -7.7678194     -6.9887934      4.0264571      50218.233      36.893836      36.893836      36.893836    
   1420000   0.51703348    -7.7682601     -6.9927209      4.0335518      50218.233      36.893836      36.893836      36.893836    
   1430000   0.5209181     -7.7757603     -6.9943942      3.9801291      50218.233      36.893836      36.893836      36.893836    
   1440000   0.51838482    -7.7687198     -6.9911536      4.0230656      50218.233      36.893836      36.893836      36.893836    
   1450000   0.51940524    -7.7683063     -6.9892095      4.0275495      50218.233      36.893836      36.893836      36.893836    
   1460000   0.5215511     -7.7689171     -6.9866016      4.0191553      50218.233      36.893836      36.893836      36.893836    
   1470000   0.52272706    -7.7692173     -6.9851378      4.0265564      50218.233      36.893836      36.893836      36.893836    
   1480000   0.52371015    -7.7704354     -6.9848814      4.016536       50218.233      36.893836      36.893836      36.893836    
   1490000   0.51960609    -7.7702907     -6.9908926      4.0232321      50218.233      36.893836      36.893836      36.893836    
   1500000   0.51824325    -7.7685781     -6.9912243      4.0237675      50218.233      36.893836      36.893836      36.893836    
   1510000   0.5187736     -7.7709673     -6.992818       3.9998984      50218.233      36.893836      36.893836      36.893836    
   1520000   0.52098954    -7.7689822     -6.987509       4.0246937      50218.233      36.893836      36.893836      36.893836    
   1530000   0.51983913    -7.76615       -6.9864024      4.0373544      50218.233      36.893836      36.893836      36.893836    
   1540000   0.52152435    -7.7683596     -6.9860842      4.033637       50218.233      36.893836      36.893836      36.893836    
   1550000   0.51572495    -7.7693896     -6.9958132      4.0132742      50218.233      36.893836      36.893836      36.893836    
   1560000   0.51786812    -7.7680492     -6.9912581      4.0184418      50218.233      36.893836      36.893836      36.893836    
   1570000   0.52294563    -7.7660632     -6.9816559      4.0404934      50218.233      36.893836      36.893836      36.893836    
   1580000   0.52175233    -7.7674197     -6.9848024      4.0394181      50218.233      36.893836      36.893836      36.893836    
   1590000   0.51896844    -7.7716478     -6.9932062      4.0008202      50218.233      36.893836      36.893836      36.893836    
   1600000   0.51967822    -7.7703107     -6.9908045      4.0143367      50218.233      36.893836      36.893836      36.893836    
   1610000   0.5199776     -7.7690284     -6.9890731      4.0320132      50218.233      36.893836      36.893836      36.893836    
   1620000   0.52275951    -7.7689173     -6.9847892      4.0372963      50218.233      36.893836      36.893836      36.893836    
   1630000   0.51661425    -7.7655019     -6.9905916      4.035653       50218.233      36.893836      36.893836      36.893836    
   1640000   0.51917445    -7.7678055     -6.9890549      4.0202717      50218.233      36.893836      36.893836      36.893836    
   1650000   0.51989725    -7.7674909     -6.9876561      4.0392104      50218.233      36.893836      36.893836      36.893836    
   1660000   0.51853509    -7.7677239     -6.9899323      4.0338963      50218.233      36.893836      36.893836      36.893836    
   1670000   0.51780485    -7.7664164     -6.9897201      4.0408628      50218.233      36.893836      36.893836      36.893836    
   1680000   0.5230908     -7.7657606     -6.9811356      4.0600067      50218.233      36.893836      36.893836      36.893836    
   1690000   0.52139202    -7.7708916     -6.9888147      4.0211244      50218.233      36.893836      36.893836      36.893836    
   1700000   0.52127076    -7.7679248     -6.9860298      4.0412833      50218.233      36.893836      36.893836      36.893836    
   1710000   0.51929246    -7.7665044     -6.9875767      4.0428696      50218.233      36.893836      36.893836      36.893836    
   1720000   0.52247634    -7.7684541     -6.9847507      4.0414059      50218.233      36.893836      36.893836      36.893836    
   1730000   0.51901172    -7.7722312     -6.9937247      3.9970477      50218.233      36.893836      36.893836      36.893836    
   1740000   0.51971989    -7.7689543     -6.9893856      4.0236342      50218.233      36.893836      36.893836      36.893836    
   1750000   0.52161213    -7.7749367     -6.9925296      3.9853618      50218.233      36.893836      36.893836      36.893836    
   1760000   0.52020977    -7.770442      -6.9901385      4.0139946      50218.233      36.893836      36.893836      36.893836    
   1770000   0.52526436    -7.7689355     -6.9810502      4.0375243      50218.233      36.893836      36.893836      36.893836    
   1780000   0.5203417     -7.7671912     -6.9866898      4.0344516      50218.233      36.893836      36.893836      36.893836    
   1790000   0.51795216    -7.7726151     -6.995698       3.9909234      50218.233      36.893836      36.893836      36.893836    
   1800000   0.52205526    -7.7686882     -6.9856165      4.0257861      50218.233      36.893836      36.893836      36.893836    
   1810000   0.51943508    -7.7717039     -6.9925624      3.9995558      50218.233      36.893836      36.893836      36.893836    
   1820000   0.51994219    -7.7719107     -6.9920085      4.0035504      50218.233      36.893836      36.893836      36.893836    
   1830000   0.52126857    -7.7743865     -6.9924948      3.9911194      50218.233      36.893836      36.893836      36.893836    
   1840000   0.52140467    -7.7668551     -6.9847593      4.0470986      50218.233      36.893836      36.893836      36.893836    
   1850000   0.52002451    -7.7737584     -6.9937327      3.9700491      50218.233      36.893836      36.893836      36.893836    
   1860000   0.51876153    -7.7750801     -6.9969489      3.9790252      50218.233      36.893836      36.893836      36.893836    
   1870000   0.5185971     -7.7743706     -6.996486       3.9809918      50218.233      36.893836      36.893836      36.893836    
   1880000   0.52119052    -7.7676452     -6.9858705      4.0317001      50218.233      36.893836      36.893836      36.893836    
   1890000   0.51855486    -7.7729854     -6.9951641      3.9951368      50218.233      36.893836      36.893836      36.893836    
   1900000   0.5189977     -7.7737744     -6.995289       3.9936189      50218.233      36.893836      36.893836      36.893836    
   1910000   0.52086533    -7.7656729     -6.984386       4.058732       50218.233      36.893836      36.893836      36.893836    
   1920000   0.52130118    -7.7703734     -6.9884327      4.0213521      50218.233      36.893836      36.893836      36.893836    
   1930000   0.52049855    -7.7706274     -6.9898907      4.0223052      50218.233      36.893836      36.893836      36.893836    
   1940000   0.52142702    -7.7716787     -6.9895493      4.0136898      50218.233      36.893836      36.893836      36.893836    
   1950000   0.52135604    -7.7708321     -6.9888092      4.0137557      50218.233      36.893836      36.893836      36.893836    
   1960000   0.51977241    -7.773676      -6.9940284      3.9927492      50218.233      36.893836      36.893836      36.893836    
   1970000   0.52254803    -7.768978      -6.9851671      4.0313128      50218.233      36.893836      36.893836      36.893836    
   1980000   0.52102475    -7.7747752     -6.9932492      3.989121       50218.233      36.893836      36.893836      36.893836    
   1990000   0.52375972    -7.769313      -6.9836846      4.0273351      50218.233      36.893836      36.893836      36.893836    
   2000000   0.52255765    -7.7695358     -6.9857104      4.0329179      50218.233      36.893836      36.893836      36.893836    
   2010000   0.51727817    -7.77093       -6.9950237      3.9999006      50218.233      36.893836      36.893836      36.893836    
   2020000   0.51904714    -7.7734486     -6.994889       3.9961216      50218.233      36.893836      36.893836      36.893836    
   2030000   0.52168964    -7.7707556     -6.9882322      4.0111613      50218.233      36.893836      36.893836      36.893836    
   2040000   0.51802469    -7.7704185     -6.9933925      4.0116117      50218.233      36.893836      36.893836      36.893836    
   2050000   0.51787262    -7.7697106     -6.9929127      4.0160377      50218.233      36.893836      36.893836      36.893836    
   2060000   0.51907376    -7.7664112     -6.9878116      4.0383103      50218.233      36.893836      36.893836      36.893836    
   2070000   0.51960919    -7.7696324     -6.9902297      4.0289624      50218.233      36.893836      36.893836      36.893836    
   2080000   0.52144193    -7.7686389     -6.9864871      4.0306726      50218.233      36.893836      36.893836      36.893836    
   2090000   0.51953812    -7.7703569     -6.9910608      4.0114112      50218.233      36.893836      36.893836      36.893836    
   2100000   0.52148103    -7.7719518     -6.9897414      3.999895       50218.233      36.893836      36.893836      36.893836    
   2110000   0.52028976    -7.770153      -6.9897295      4.0224569      50218.233      36.893836      36.893836      36.893836    
   2120000   0.52219255    -7.7700352     -6.9867575      4.0366034      50218.233      36.893836      36.893836      36.893836    
   2130000   0.51863862    -7.769256      -6.9913091      4.0160472      50218.233      36.893836      36.893836      36.893836    
   2140000   0.51946543    -7.774983      -6.995796       3.9818329      50218.233      36.893836      36.893836      36.893836    
   2150000   0.52171014    -7.7663273     -6.9837732      4.0573234      50218.233      36.893836      36.893836      36.893836    
   2160000   0.5204486     -7.771816      -6.9911542      4.0065521      50218.233      36.893836      36.893836      36.893836    
   2170000   0.51827155    -7.7704315     -6.9930352      4.0237675      50218.233      36.893836      36.893836      36.893836    
   2180000   0.52112726    -7.7685288     -6.9868491      4.0316492      50218.233      36.893836      36.893836      36.893836    
   2190000   0.51806542    -7.7687918     -6.9917047      4.0347173      50218.233      36.893836      36.893836      36.893836    
   2200000   0.51934266    -7.7687598     -6.9897569      4.020984       50218.233      36.893836      36.893836      36.893836    
   2210000   0.52165072    -7.7648619     -6.982397       4.056855       50218.233      36.893836      36.893836      36.893836    
   2220000   0.51798044    -7.7748584     -6.9978988      3.9741201      50218.233      36.893836      36.893836      36.893836    
   2230000   0.5184369     -7.7660917     -6.9884474      4.0458849      50218.233      36.893836      36.893836      36.893836    
   2240000   0.51928077    -7.7660486     -6.9871385      4.0437008      50218.233      36.893836      36.893836      36.893836    
   2250000   0.51914941    -7.770521      -6.991808       4.0149329      50218.233      36.893836      36.893836      36.893836    
   2260000   0.52133015    -7.7680246     -6.9860404      4.0219706      50218.233      36.893836      36.893836      36.893836    
   2270000   0.52084094    -7.7670442     -6.9857939      4.0437337      50218.233      36.893836      36.893836      36.893836    
   2280000   0.51672592    -7.7707486     -6.9956707      4.0083815      50218.233      36.893836      36.893836      36.893836    
   2290000   0.52169874    -7.7653176     -6.9827806      4.0418391      50218.233      36.893836      36.893836      36.893836    
   2300000   0.52045015    -7.7651851     -6.9845209      4.0519944      50218.233      36.893836      36.893836      36.893836    
   2310000   0.51869009    -7.7686606     -6.9906365      4.0321874      50218.233      36.893836      36.893836      36.893836    
   2320000   0.51969553    -7.7683357     -6.9888035      4.0234879      50218.233      36.893836      36.893836      36.893836    
   2330000   0.51803848    -7.7673893     -6.9903426      4.0325544      50218.233      36.893836      36.893836      36.893836    
   2340000   0.52154227    -7.7694028     -6.9871005      4.0195412      50218.233      36.893836      36.893836      36.893836    
   2350000   0.52190566    -7.7665727     -6.9837254      4.0437943      50218.233      36.893836      36.893836      36.893836    
   2360000   0.51902962    -7.7663895     -6.9878561      4.0549816      50218.233      36.893836      36.893836      36.893836    
   2370000   0.51862161    -7.7689954     -6.991074       4.0174241      50218.233      36.893836      36.893836      36.893836    
   2380000   0.51996633    -7.7655057     -6.9855673      4.0536216      50218.233      36.893836      36.893836      36.893836    
   2390000   0.5192629     -7.7682513     -6.989368       4.0346711      50218.233      36.893836      36.893836      36.893836    
   2400000   0.51829147    -7.768752      -6.9913258      4.015          50218.233      36.893836      36.893836      36.893836    
   2410000   0.52190675    -7.7689046     -6.9860556      4.0301033      50218.233      36.893836      36.893836      36.893836    
   2420000   0.51852098    -7.7629134     -6.985143       4.0537071      50218.233      36.893836      36.893836      36.893836    
   2430000   0.52163334    -7.7635796     -6.9811407      4.0484756      50218.233      36.893836      36.893836      36.893836    
   2440000   0.51930223    -7.7649262     -6.9859839      4.0344508      50218.233      36.893836      36.893836      36.893836    
   2450000   0.52136761    -7.7655434     -6.9835031      4.0568449      50218.233      36.893836      36.893836      36.893836    
   2460000   0.51946494    -7.7668214     -6.9876351      4.0374484      50218.233      36.893836      36.893836      36.893836    
   2470000   0.52007784    -7.7658253     -6.9857197      4.0395258      50218.233      36.893836      36.893836      36.893836    
   2480000   0.52182946    -7.7665476     -6.9838146      4.0402026      50218.233      36.893836      36.893836      36.893836    
   2490000   0.52072018    -7.7697502     -6.988681       4.0162885      50218.233      36.893836      36.893836      36.893836    
   2500000   0.5194034     -7.7669655     -6.9878715      4.032481       50218.233      36.893836      36.893836      36.893836    
   2510000   0.52007753    -7.7661664     -6.9860612      4.040357       50218.233      36.893836      36.893836      36.893836    
   2520000   0.52066424    -7.7671558     -6.9861705      4.0323697      50218.233      36.893836      36.893836      36.893836    
   2530000   0.52057278    -7.7646816     -6.9838336      4.0647989      50218.233      36.893836      36.893836      36.893836    
   2540000   0.5195088     -7.768138      -6.9888858      4.0288973      50218.233      36.893836      36.893836      36.893836    
   2550000   0.51935258    -7.7677342     -6.9887164      4.0396486      50218.233      36.893836      36.893836      36.893836    
   2560000   0.52242323    -7.767517      -6.9838933      4.0257718      50218.233      36.893836      36.893836      36.893836    
   2570000   0.5167761     -7.7629073     -6.9877542      4.0501213      50218.233      36.893836      36.893836      36.893836    
   2580000   0.51926835    -7.7670273     -6.9881359      4.0363494      50218.233      36.893836      36.893836      36.893836    
   2590000   0.52213487    -7.7720601     -6.9888689      4.0072274      50218.233      36.893836      36.893836      36.893836    
   2600000   0.51745089    -7.7649582     -6.988793       4.0514224      50218.233      36.893836      36.893836      36.893836    
   2610000   0.52055341    -7.7701489     -6.9893299      4.0089732      50218.233      36.893836      36.893836      36.893836    
   2620000   0.51806707    -7.7686411     -6.9915516      4.0255178      50218.233      36.893836      36.893836      36.893836    
   2630000   0.52025828    -7.7650971     -6.9847207      4.0483626      50218.233      36.893836      36.893836      36.893836    
   2640000   0.51802778    -7.7691471     -6.9921165      4.0348259      50218.233      36.893836      36.893836      36.893836    
   2650000   0.52175241    -7.7675328     -6.9849153      4.026141       50218.233      36.893836      36.893836      36.893836    
   2660000   0.51843437    -7.7643378     -6.9866973      4.0509705      50218.233      36.893836      36.893836      36.893836    
   2670000   0.51866373    -7.76076       -6.9827754      4.0852676      50218.233      36.893836      36.893836      36.893836    
   2680000   0.52041881    -7.7633666     -6.9827495      4.0618901      50218.233      36.893836      36.893836      36.893836    
   2690000   0.51998844    -7.7645282     -6.9845566      4.0601129      50218.233      36.893836      36.893836      36.893836    
   2700000   0.52166879    -7.7669538     -6.9844618      4.0427917      50218.233      36.893836      36.893836      36.893836    
   2710000   0.51809791    -7.7690668     -6.9919309      4.0196093      50218.233      36.893836      36.893836      36.893836    
   2720000   0.51641863    -7.7661505     -6.9915336      4.032905       50218.233      36.893836      36.893836      36.893836    
   2730000   0.52020092    -7.7605375     -6.9802473      4.074689       50218.233      36.893836      36.893836      36.893836    
   2740000   0.52020219    -7.7697618     -6.9894696      4.0072539      50218.233      36.893836      36.893836      36.893836    
   2750000   0.51677872    -7.7667765     -6.9916195      4.0322055      50218.233      36.893836      36.893836      36.893836    
   2760000   0.51976634    -7.765071      -6.9854326      4.0394852      50218.233      36.893836      36.893836      36.893836    
   2770000   0.51741487    -7.7690792     -6.9929679      4.0138567      50218.233      36.893836      36.893836      36.893836    
   2780000   0.5209309     -7.7666913     -6.9853061      4.0458151      50218.233      36.893836      36.893836      36.893836    
   2790000   0.51894375    -7.7664198     -6.9880153      4.0378937      50218.233      36.893836      36.893836      36.893836    
   2800000   0.52129143    -7.7660471     -6.9841211      4.0468935      50218.233      36.893836      36.893836      36.893836    
   2810000   0.51955262    -7.7626818     -6.9833639      4.0600625      50218.233      36.893836      36.893836      36.893836    
   2820000   0.51593435    -7.7632973     -6.9894068      4.0511896      50218.233      36.893836      36.893836      36.893836    
   2830000   0.51982801    -7.7667646     -6.9870337      4.0346453      50218.233      36.893836      36.893836      36.893836    
   2840000   0.51750784    -7.7683559     -6.9921052      4.0300102      50218.233      36.893836      36.893836      36.893836    
   2850000   0.51894263    -7.76356       -6.9851572      4.0646084      50218.233      36.893836      36.893836      36.893836    
   2860000   0.5230604     -7.7626935     -6.9781141      4.0655286      50218.233      36.893836      36.893836      36.893836    
   2870000   0.51989075    -7.7641096     -6.9842846      4.0539253      50218.233      36.893836      36.893836      36.893836    
   2880000   0.51955232    -7.7639944     -6.984677       4.0571568      50218.233      36.893836      36.893836      36.893836    
   2890000   0.52258913    -7.7642353     -6.9803628      4.0678172      50218.233      36.893836      36.893836      36.893836    
   2900000   0.51823909    -7.7668355     -6.9894879      4.034242       50218.233      36.893836      36.893836      36.893836    
   2910000   0.52035949    -7.7650593     -6.9845312      4.0598561      50218.233      36.893836      36.893836      36.893836    
   2920000   0.51961791    -7.7682632     -6.9888474      4.0200978      50218.233      36.893836      36.893836      36.893836    
   2930000   0.51874793    -7.7634261     -6.9853152      4.0558362      50218.233      36.893836      36.893836      36.893836    
   2940000   0.52096852    -7.7630788     -6.9816372      4.0666071      50218.233      36.893836      36.893836      36.893836    
   2950000   0.52049028    -7.7640627     -6.9833384      4.0544573      50218.233      36.893836      36.893836      36.893836    
   2960000   0.52184006    -7.7696891     -6.9869402      4.0190192      50218.233      36.893836      36.893836      36.893836    
   2970000   0.52328655    -7.7680548     -6.9831362      4.0297152      50218.233      36.893836      36.893836      36.893836    
   2980000   0.5174253     -7.7645483     -6.9884214      4.0401925      50218.233      36.893836      36.893836      36.893836    
   2990000   0.51826096    -7.7612712     -6.9838908      4.0850975      50218.233      36.893836      36.893836      36.893836    
   3000000   0.51942493    -7.7651789     -6.9860526      4.0522216      50218.233      36.893836      36.893836      36.893836    
   3010000   0.52013716    -7.765819      -6.9856244      4.0508794      50218.233      36.893836      36.893836      36.893836    
   3020000   0.52029321    -7.7662206     -6.9857919      4.0441637      50218.233      36.893836      36.893836      36.893836    
   3030000   0.52218184    -7.7633175     -6.9800559      4.0634066      50218.233      36.893836      36.893836      36.893836    
   3040000   0.51909384    -7.7661117     -6.987482       4.0477705      50218.233      36.893836      36.893836      36.893836    
   3050000   0.52269461    -7.766004      -6.9819732      4.05697        50218.233      36.893836      36.893836      36.893836    
   3060000   0.51987337    -7.7697913     -6.9899924      4.0150141      50218.233      36.893836      36.893836      36.893836    
   3070000   0.52481238    -7.7633633     -6.9761559      4.0818654      50218.233      36.893836      36.893836      36.893836    
   3080000   0.51824901    -7.7692341     -6.9918716      4.0240911      50218.233      36.893836      36.893836      36.893836    
   3090000   0.51927805    -7.7676442     -6.9887382      4.0459113      50218.233      36.893836      36.893836      36.893836    
   3100000   0.52120189    -7.7689188     -6.9871271      4.0223608      50218.233      36.893836      36.893836      36.893836    
   3110000   0.51824453    -7.7696297     -6.992274       4.020451       50218.233      36.893836      36.893836      36.893836    
   3120000   0.51998242    -7.7680235     -6.988061       4.0220051      50218.233      36.893836      36.893836      36.893836    
   3130000   0.51928353    -7.7696636     -6.9907494      4.0205158      50218.233      36.893836      36.893836      36.893836    
   3140000   0.51989321    -7.7679464     -6.9881177      4.0367964      50218.233      36.893836      36.893836      36.893836    
   3150000   0.52007463    -7.7702723     -6.9901715      4.0118242      50218.233      36.893836      36.893836      36.893836    
   3160000   0.51715252    -7.767388      -6.9916703      4.0388647      50218.233      36.893836      36.893836      36.893836    
   3170000   0.52028301    -7.7677203     -6.9873068      4.0302848      50218.233      36.893836      36.893836      36.893836    
   3180000   0.52077724    -7.7679588     -6.986804       4.0289511      50218.233      36.893836      36.893836      36.893836    
   3190000   0.52093725    -7.7669724     -6.9855777      4.0337231      50218.233      36.893836      36.893836      36.893836    
   3200000   0.5208268     -7.7670703     -6.9858412      4.0286913      50218.233      36.893836      36.893836      36.893836    
   3210000   0.52268867    -7.7623758     -6.978354       4.0657371      50218.233      36.893836      36.893836      36.893836    
   3220000   0.52006264    -7.7656784     -6.9855955      4.0556237      50218.233      36.893836      36.893836      36.893836    
   3230000   0.51699861    -7.7679466     -6.9924597      4.0275437      50218.233      36.893836      36.893836      36.893836    
   3240000   0.52104277    -7.7646633     -6.9831103      4.0550223      50218.233      36.893836      36.893836      36.893836    
   3250000   0.51685837    -7.7690638     -6.9937873      4.0127114      50218.233      36.893836      36.893836      36.893836    
   3260000   0.52053658    -7.7658265     -6.9850327      4.0579269      50218.233      36.893836      36.893836      36.893836    
   3270000   0.52172337    -7.7697266     -6.9871527      4.0223397      50218.233      36.893836      36.893836      36.893836    
   3280000   0.51837712    -7.7675949     -6.9900403      4.0243278      50218.233      36.893836      36.893836      36.893836    
   3290000   0.51906264    -7.7695311     -6.9909482      4.0250008      50218.233      36.893836      36.893836      36.893836    
   3300000   0.52004978    -7.7679483     -6.9878847      4.026474       50218.233      36.893836      36.893836      36.893836    
   3310000   0.52103732    -7.7704305     -6.9888856      4.0054807      50218.233      36.893836      36.893836      36.893836    
   3320000   0.52020367    -7.7690979     -6.9888035      4.0149678      50218.233      36.893836      36.893836      36.893836    
   3330000   0.52016675    -7.7664322     -6.9861931      4.0467352      50218.233      36.893836      36.893836      36.893836    
   3340000   0.5221839     -7.7631414     -6.9798767      4.077846       50218.233      36.893836      36.893836      36.893836    
   3350000   0.51998376    -7.7655082     -6.9855436      4.0480258      50218.233      36.893836      36.893836      36.893836    
   3360000   0.51794768    -7.766094      -6.9891835      4.0399503      50218.233      36.893836      36.893836      36.893836    
   3370000   0.51997892    -7.7628857     -6.9829284      4.0759853      50218.233      36.893836      36.893836      36.893836    
   3380000   0.52102835    -7.7661473     -6.9846159      4.0498812      50218.233      36.893836      36.893836      36.893836    
   3390000   0.5211021     -7.7707963     -6.9891543      4.0129084      50218.233      36.893836      36.893836      36.893836    
   3400000   0.52057207    -7.7672107     -6.9863637      4.0388319      50218.233      36.893836      36.893836      36.893836    
   3410000   0.52235723    -7.7635563     -6.9800316      4.0652865      50218.233      36.893836      36.893836      36.893836    
   3420000   0.51945165    -7.770441      -6.9912746      4.0175444      50218.233      36.893836      36.893836      36.893836    
   3430000   0.5238195     -7.7641667     -6.9784487      4.0716897      50218.233      36.893836      36.893836      36.893836    
   3440000   0.52106956    -7.7607577     -6.9791645      4.0768407      50218.233      36.893836      36.893836      36.893836    
   3450000   0.51934396    -7.7654934     -6.9864885      4.0402222      50218.233      36.893836      36.893836      36.893836    
   3460000   0.51941986    -7.7685338     -6.9894151      4.0191512      50218.233      36.893836      36.893836      36.893836    
   3470000   0.51899766    -7.7682631     -6.9897777      4.0316618      50218.233      36.893836      36.893836      36.893836    
   3480000   0.51934247    -7.7647135     -6.9857109      4.0450512      50218.233      36.893836      36.893836      36.893836    
   3490000   0.52224726    -7.7685784     -6.9852186      4.0287969      50218.233      36.893836      36.893836      36.893836    
   3500000   0.52026382    -7.7681068     -6.9877222      4.0395546      50218.233      36.893836      36.893836      36.893836    
   3510000   0.52103493    -7.7689453     -6.987404       4.0242448      50218.233      36.893836      36.893836      36.893836    
   3520000   0.51616168    -7.7606787     -6.9864472      4.0850436      50218.233      36.893836      36.893836      36.893836    
   3530000   0.51912975    -7.7713216     -6.9926381      4.0098851      50218.233      36.893836      36.893836      36.893836    
   3540000   0.52090725    -7.7641383     -6.9827886      4.0660846      50218.233      36.893836      36.893836      36.893836    
   3550000   0.52088433    -7.7670737     -6.9857583      4.0345412      50218.233      36.893836      36.893836      36.893836    
   3560000   0.52163752    -7.7703714     -6.9879262      4.012467       50218.233      36.893836      36.893836      36.893836    
   3570000   0.51989775    -7.7692128     -6.9893773      4.0159258      50218.233      36.893836      36.893836      36.893836    
   3580000   0.52049477    -7.7650107     -6.9842797      4.0467611      50218.233      36.893836      36.893836      36.893836    
   3590000   0.51911701    -7.7665973     -6.9879329      4.0447727      50218.233      36.893836      36.893836      36.893836    
   3600000   0.52198062    -7.765615      -6.9826552      4.0514928      50218.233      36.893836      36.893836      36.893836    
   3610000   0.51663378    -7.7732645     -6.9983248      3.9911276      50218.233      36.893836      36.893836      36.893836    
   3620000   0.51945326    -7.7734331     -6.9942643      3.9842366      50218.233      36.893836      36.893836      36.893836    
   3630000   0.51889916    -7.7646339     -6.9862963      4.0517578      50218.233      36.893836      36.893836      36.893836    
   3640000   0.51995289    -7.7710105     -6.9910922      4.0038028      50218.233      36.893836      36.893836      36.893836    
   3650000   0.51919971    -7.7724142     -6.9936257      3.996748       50218.233      36.893836      36.893836      36.893836    
   3660000   0.52323273    -7.7682198     -6.9833819      4.0391309      50218.233      36.893836      36.893836      36.893836    
   3670000   0.51867553    -7.7624322     -6.98443        4.0644824      50218.233      36.893836      36.893836      36.893836    
   3680000   0.51844106    -7.7668181     -6.9891675      4.0350814      50218.233      36.893836      36.893836      36.893836    
   3690000   0.51916836    -7.7676933     -6.9889518      4.0330057      50218.233      36.893836      36.893836      36.893836    
   3700000   0.51676344    -7.7682251     -6.9930909      4.0323171      50218.233      36.893836      36.893836      36.893836    
   3710000   0.52268428    -7.7704755     -6.9864603      4.0178983      50218.233      36.893836      36.893836      36.893836    
   3720000   0.51917915    -7.7660304     -6.9872727      4.0620713      50218.233      36.893836      36.893836      36.893836    
   3730000   0.52191533    -7.7685743     -6.9857125      4.0258652      50218.233      36.893836      36.893836      36.893836    
   3740000   0.51828218    -7.7673512     -6.989939       4.0308564      50218.233      36.893836      36.893836      36.893836    
   3750000   0.51997161    -7.7671997     -6.9872534      4.0347149      50218.233      36.893836      36.893836      36.893836    
   3760000   0.51962587    -7.7676051     -6.9881773      4.0387583      50218.233      36.893836      36.893836      36.893836    
   3770000   0.5167645     -7.7671341     -6.9919984      4.0298876      50218.233      36.893836      36.893836      36.893836    
   3780000   0.51941393    -7.7688728     -6.989763       4.0200481      50218.233      36.893836      36.893836      36.893836    
   3790000   0.51923401    -7.7695792     -6.9907393      4.0300778      50218.233      36.893836      36.893836      36.893836    
   3800000   0.52205961    -7.7700277     -6.9869495      4.0129598      50218.233      36.893836      36.893836      36.893836    
   3810000   0.51820207    -7.769885      -6.9925929      4.0101178      50218.233      36.893836      36.893836      36.893836    
   3820000   0.52207122    -7.7722989     -6.9892032      3.995933       50218.233      36.893836      36.893836      36.893836    
   3830000   0.51997722    -7.7686427     -6.9886879      4.0289165      50218.233      36.893836      36.893836      36.893836    
   3840000   0.5175074     -7.7754144     -6.9991643      3.974438       50218.233      36.893836      36.893836      36.893836    
   3850000   0.5194532     -7.7715459     -6.9923771      4.0043677      50218.233      36.893836      36.893836      36.893836    
   3860000   0.51993164    -7.7671615     -6.9872751      4.04204        50218.233      36.893836      36.893836      36.893836    
   3870000   0.5198599     -7.7698754     -6.9900966      4.0197126      50218.233      36.893836      36.893836      36.893836    
   3880000   0.51900923    -7.7695487     -6.9910459      4.0286913      50218.233      36.893836      36.893836      36.893836    
   3890000   0.5200596     -7.7668239     -6.9867456      4.0514512      50218.233      36.893836      36.893836      36.893836    
   3900000   0.51941167    -7.7746272     -6.9955207      3.9869967      50218.233      36.893836      36.893836      36.893836    
   3910000   0.51734119    -7.7697274     -6.9937267      4.0172174      50218.233      36.893836      36.893836      36.893836    
   3920000   0.51993564    -7.7667399     -6.9868476      4.0486606      50218.233      36.893836      36.893836      36.893836    
   3930000   0.51874745    -7.772472      -6.9943619      4.0037262      50218.233      36.893836      36.893836      36.893836    
   3940000   0.51643467    -7.7662929     -6.9916519      4.0440256      50218.233      36.893836      36.893836      36.893836    
   3950000   0.52182235    -7.7738524     -6.99113        3.9890036      50218.233      36.893836      36.893836      36.893836    
   3960000   0.51851887    -7.7712495     -6.9934822      4.0146568      50218.233      36.893836      36.893836      36.893836    
   3970000   0.51632588    -7.7704961     -6.9960183      4.0084476      50218.233      36.893836      36.893836      36.893836    
   3980000   0.51963038    -7.7736296     -6.9941951      4.0009295      50218.233      36.893836      36.893836      36.893836    
   3990000   0.5205381     -7.7741075     -6.9933115      3.9767394      50218.233      36.893836      36.893836      36.893836    
   4000000   0.51902843    -7.7721851     -6.9936535      4.0046249      50218.233      36.893836      36.893836      36.893836    
   4010000   0.52119944    -7.7698059     -6.9880178      4.0209855      50218.233      36.893836      36.893836      36.893836    
   4020000   0.52143275    -7.7676367     -6.9854986      4.0259611      50218.233      36.893836      36.893836      36.893836    
   4030000   0.51716523    -7.7698561     -6.9941193      4.007196       50218.233      36.893836      36.893836      36.893836    
   4040000   0.52112531    -7.7674013     -6.9857245      4.04314        50218.233      36.893836      36.893836      36.893836    
   4050000   0.51936789    -7.768279      -6.9892382      4.0272699      50218.233      36.893836      36.893836      36.893836    
   4060000   0.5191039     -7.7698225     -6.9911777      4.018531       50218.233      36.893836      36.893836      36.893836    
   4070000   0.52183288    -7.7678838     -6.9851456      4.0424258      50218.233      36.893836      36.893836      36.893836    
   4080000   0.51914567    -7.7718601     -6.9931527      4.0123512      50218.233      36.893836      36.893836      36.893836    
   4090000   0.52336946    -7.7650326     -6.9799896      4.0499357      50218.233      36.893836      36.893836      36.893836    
   4100000   0.5197391     -7.7708024     -6.9912049      4.0157163      50218.233      36.893836      36.893836      36.893836    
   4110000   0.5197578     -7.7729088     -6.9932832      3.9948493      50218.233      36.893836      36.893836      36.893836    
   4120000   0.51800426    -7.7735389     -6.9965435      3.9885649      50218.233      36.893836      36.893836      36.893836    
   4130000   0.52022102    -7.77032       -6.9899995      4.0168572      50218.233      36.893836      36.893836      36.893836    
   4140000   0.52010295    -7.7642551     -6.9841118      4.0510432      50218.233      36.893836      36.893836      36.893836    
   4150000   0.51990824    -7.765521      -6.9856697      4.0426716      50218.233      36.893836      36.893836      36.893836    
   4160000   0.52255467    -7.7722664     -6.9884455      3.9942988      50218.233      36.893836      36.893836      36.893836    
   4170000   0.52111172    -7.7674455     -6.9857891      4.0438872      50218.233      36.893836      36.893836      36.893836    
   4180000   0.5199838     -7.7721407     -6.9921761      4.0018383      50218.233      36.893836      36.893836      36.893836    
   4190000   0.52006184    -7.770605      -6.9905233      4.0030505      50218.233      36.893836      36.893836      36.893836    
   4200000   0.51891812    -7.7678738     -6.9895077      4.0291208      50218.233      36.893836      36.893836      36.893836    
   4210000   0.52044809    -7.771227      -6.990566       4.0132134      50218.233      36.893836      36.893836      36.893836    
   4220000   0.52086332    -7.7716199     -6.990336       4.0078559      50218.233      36.893836      36.893836      36.893836    
   4230000   0.52160098    -7.7699639     -6.9875736      4.0269491      50218.233      36.893836      36.893836      36.893836    
   4240000   0.52056836    -7.771142      -6.9903006      4.0147263      50218.233      36.893836      36.893836      36.893836    
   4250000   0.51965445    -7.7689207     -6.9894501      4.0253171      50218.233      36.893836      36.893836      36.893836    
   4260000   0.52103303    -7.7691159     -6.9875775      4.0247123      50218.233      36.893836      36.893836      36.893836    
   4270000   0.51900197    -7.7650927     -6.9866008      4.046365       50218.233      36.893836      36.893836      36.893836    
   4280000   0.51818297    -7.7681249     -6.9908615      4.0317756      50218.233      36.893836      36.893836      36.893836    
   4290000   0.51959413    -7.7658533     -6.9864732      4.0494364      50218.233      36.893836      36.893836      36.893836    
   4300000   0.52179569    -7.7675141     -6.9848317      4.0304594      50218.233      36.893836      36.893836      36.893836    
   4310000   0.5231097     -7.7660571     -6.9814037      4.0419135      50218.233      36.893836      36.893836      36.893836    
   4320000   0.52170747    -7.7668861     -6.984336       4.0419255      50218.233      36.893836      36.893836      36.893836    
   4330000   0.51715076    -7.7630176     -6.9873025      4.0519861      50218.233      36.893836      36.893836      36.893836    
   4340000   0.51801618    -7.76717       -6.9901568      4.0322496      50218.233      36.893836      36.893836      36.893836    
   4350000   0.52012797    -7.7660096     -6.9858287      4.0487135      50218.233      36.893836      36.893836      36.893836    
   4360000   0.51923919    -7.7688295     -6.9899818      4.0302866      50218.233      36.893836      36.893836      36.893836    
   4370000   0.5207447     -7.7652843     -6.9841783      4.0520381      50218.233      36.893836      36.893836      36.893836    
   4380000   0.52215282    -7.7627089     -6.9794908      4.0725999      50218.233      36.893836      36.893836      36.893836    
   4390000   0.5225787     -7.7686062     -6.9847493      4.033174       50218.233      36.893836      36.893836      36.893836    
   4400000   0.52046687    -7.7636529     -6.9829637      4.0868181      50218.233      36.893836      36.893836      36.893836    
   4410000   0.51926675    -7.7674247     -6.9885356      4.0298457      50218.233      36.893836      36.893836      36.893836    
   4420000   0.51889372    -7.7730654     -6.9947359      3.9859313      50218.233      36.893836      36.893836      36.893836    
   4430000   0.51826058    -7.7659454     -6.9885656      4.0354406      50218.233      36.893836      36.893836      36.893836    
   4440000   0.51756196    -7.7710962     -6.9947643      3.9972243      50218.233      36.893836      36.893836      36.893836    
   4450000   0.52094535    -7.7694331     -6.9880262      4.0182528      50218.233      36.893836      36.893836      36.893836    
   4460000   0.51930629    -7.7663043     -6.987356       4.0391481      50218.233      36.893836      36.893836      36.893836    
   4470000   0.52049708    -7.7704466     -6.9897121      4.0080707      50218.233      36.893836      36.893836      36.893836    
   4480000   0.51905847    -7.7685618     -6.9899852      4.0255791      50218.233      36.893836      36.893836      36.893836    
   4490000   0.52126298    -7.7714603     -6.989577       4.0023876      50218.233      36.893836      36.893836      36.893836    
   4500000   0.52125899    -7.7720448     -6.9901674      3.9962114      50218.233      36.893836      36.893836      36.893836    
   4510000   0.52141945    -7.7736426     -6.9915245      3.9937101      50218.233      36.893836      36.893836      36.893836    
   4520000   0.51900353    -7.7697355     -6.9912413      4.0200578      50218.233      36.893836      36.893836      36.893836    
   4530000   0.5199068     -7.7677927     -6.9879435      4.0260871      50218.233      36.893836      36.893836      36.893836    
   4540000   0.51718839    -7.7671433     -6.9913717      4.0520652      50218.233      36.893836      36.893836      36.893836    
   4550000   0.52121104    -7.7657218     -6.9839164      4.050681       50218.233      36.893836      36.893836      36.893836    
   4560000   0.52061869    -7.7655338     -6.9846168      4.0615515      50218.233      36.893836      36.893836      36.893836    
   4570000   0.52097295    -7.76906       -6.9876117      4.0211653      50218.233      36.893836      36.893836      36.893836    
   4580000   0.52137245    -7.7670492     -6.9850016      4.0351313      50218.233      36.893836      36.893836      36.893836    
   4590000   0.51894186    -7.7658356     -6.9874338      4.0429515      50218.233      36.893836      36.893836      36.893836    
   4600000   0.52075645    -7.7696351     -6.9885115      4.0181488      50218.233      36.893836      36.893836      36.893836    
   4610000   0.52075636    -7.7699557     -6.9888323      4.0095522      50218.233      36.893836      36.893836      36.893836    
   4620000   0.520986      -7.7686234     -6.9871556      4.0250281      50218.233      36.893836      36.893836      36.893836    
   4630000   0.51984866    -7.7664654     -6.9867035      4.0437172      50218.233      36.893836      36.893836      36.893836    
   4640000   0.51946575    -7.7694851     -6.9902976      4.017422       50218.233      36.893836      36.893836      36.893836    
   4650000   0.51988376    -7.7711604     -6.9913459      4.0017053      50218.233      36.893836      36.893836      36.893836    
   4660000   0.51943202    -7.7679417     -6.9888048      4.0278444      50218.233      36.893836      36.893836      36.893836    
   4670000   0.52400136    -7.7703528     -6.9843619      4.0157921      50218.233      36.893836      36.893836      36.893836    
   4680000   0.52145831    -7.7662885     -6.9841121      4.0396238      50218.233      36.893836      36.893836      36.893836    
   4690000   0.51980053    -7.7689877     -6.989298       4.0232875      50218.233      36.893836      36.893836      36.893836    
   4700000   0.51959663    -7.7689485     -6.9895646      4.0303661      50218.233      36.893836      36.893836      36.893836    
   4710000   0.52077779    -7.7730417     -6.9918861      3.9858227      50218.233      36.893836      36.893836      36.893836    
   4720000   0.51572785    -7.7665549     -6.9929742      4.028075       50218.233      36.893836      36.893836      36.893836    
   4730000   0.51721568    -7.7728969     -6.9970844      3.9930297      50218.233      36.893836      36.893836      36.893836    
   4740000   0.52216495    -7.7695325     -6.9862962      4.0195484      50218.233      36.893836      36.893836      36.893836    
   4750000   0.5161994     -7.7688725     -6.9945844      4.0198001      50218.233      36.893836      36.893836      36.893836    
   4760000   0.52347373    -7.7714677     -6.9862682      4.0131612      50218.233      36.893836      36.893836      36.893836    
   4770000   0.52182934    -7.7754164     -6.9926835      3.9808123      50218.233      36.893836      36.893836      36.893836    
   4780000   0.52067748    -7.768728      -6.9877229      4.0336261      50218.233      36.893836      36.893836      36.893836    
   4790000   0.51825105    -7.7728066     -6.9954411      3.986991       50218.233      36.893836      36.893836      36.893836    
   4800000   0.51969669    -7.7737754     -6.9942415      3.9915516      50218.233      36.893836      36.893836      36.893836    
   4810000   0.51966234    -7.774869      -6.9953866      3.9713501      50218.233      36.893836      36.893836      36.893836    
   4820000   0.51936547    -7.7734547     -6.9944175      3.9728261      50218.233      36.893836      36.893836      36.893836    
   4830000   0.52063885    -7.7724778     -6.9915306      3.9859642      50218.233      36.893836      36.893836      36.893836    
   4840000   0.51895393    -7.7760847     -6.9976649      3.9637842      50218.233      36.893836      36.893836      36.893836    
   4850000   0.51902693    -7.7721033     -6.993574       3.992383       50218.233      36.893836      36.893836      36.893836    
   4860000   0.52207742    -7.7737614     -6.9906564      3.9874469      50218.233      36.893836      36.893836      36.893836    
   4870000   0.51830343    -7.7731952     -6.9957512      3.9818804      50218.233      36.893836      36.893836      36.893836    
   4880000   0.5188125     -7.772298      -6.9940904      4.0010329      50218.233      36.893836      36.893836      36.893836    
   4890000   0.52122439    -7.7693718     -6.9875463      4.0230406      50218.233      36.893836      36.893836      36.893836    
   4900000   0.52031404    -7.7727799     -6.99232        3.9942404      50218.233      36.893836      36.893836      36.893836    
   4910000   0.51651974    -7.7696462     -6.9948776      4.0146267      50218.233      36.893836      36.893836      36.893836    
   4920000   0.51589292    -7.7699757     -6.9961474      4.0067647      50218.233      36.893836      36.893836      36.893836    
   4930000   0.51904307    -7.7745749     -6.9960213      3.9843483      50218.233      36.893836      36.893836      36.893836    
   4940000   0.51831283    -7.7734303     -6.9959721      3.9736957      50218.233      36.893836      36.893836      36.893836    
   4950000   0.51953015    -7.7700628     -6.9907787      4.0098626      50218.233      36.893836      36.893836      36.893836    
   4960000   0.52409813    -7.7708386     -6.9847026      4.0119331      50218.233      36.893836      36.893836      36.893836    
   4970000   0.52026628    -7.7723054     -6.9919171      3.9993713      50218.233      36.893836      36.893836      36.893836    
   4980000   0.51952337    -7.7722776     -6.9930036      3.9972261      50218.233      36.893836      36.893836      36.893836    
   4990000   0.51695925    -7.7684855     -6.9930576      4.0180443      50218.233      36.893836      36.893836      36.893836    
   5000000   0.51826825    -7.7726738     -6.9952825      3.9882168      50218.233      36.893836      36.893836      36.893836    
   5010000   0.52268158    -7.7735558     -6.9895446      3.9994957      50218.233      36.893836      36.893836      36.893836    
   5020000   0.52163632    -7.7737404     -6.9912971      3.9895219      50218.233      36.893836      36.893836      36.893836    
   5030000   0.52118745    -7.7692552     -6.9874852      4.0171669      50218.233      36.893836      36.893836      36.893836    
   5040000   0.52150083    -7.7673153     -6.9850752      4.0485452      50218.233      36.893836      36.893836      36.893836    
   5050000   0.52028995    -7.770733      -6.9903092      4.0073442      50218.233      36.893836      36.893836      36.893836    
   5060000   0.51961134    -7.7718389     -6.992433       3.9923542      50218.233      36.893836      36.893836      36.893836    
   5070000   0.51973939    -7.7714215     -6.9918235      3.9957198      50218.233      36.893836      36.893836      36.893836    
   5080000   0.52211947    -7.7699468     -6.9867787      4.0178686      50218.233      36.893836      36.893836      36.893836    
   5090000   0.52058323    -7.7708026     -6.9899389      4.0103882      50218.233      36.893836      36.893836      36.893836    
   5100000   0.51717538    -7.7743132     -6.9985612      3.9722105      50218.233      36.893836      36.893836      36.893836    
   5110000   0.51917008    -7.7668168     -6.9880727      4.0374274      50218.233      36.893836      36.893836      36.893836    
   5120000   0.52015105    -7.7681622     -6.9879467      4.0326691      50218.233      36.893836      36.893836      36.893836    
   5130000   0.51953416    -7.7656406     -6.9863504      4.0468321      50218.233      36.893836      36.893836      36.893836    
   5140000   0.51865196    -7.769191      -6.9912242      4.0170074      50218.233      36.893836      36.893836      36.893836    
   5150000   0.51768514    -7.7669432     -6.9904266      4.037393       50218.233      36.893836      36.893836      36.893836    
   5160000   0.52036185    -7.7691184     -6.9885867      4.0219197      50218.233      36.893836      36.893836      36.893836    
   5170000   0.5193386     -7.7653905     -6.9863937      4.0423338      50218.233      36.893836      36.893836      36.893836    
   5180000   0.51929007    -7.7687578     -6.9898337      4.0250097      50218.233      36.893836      36.893836      36.893836    
   5190000   0.5186609     -7.7659265     -6.9879462      4.0414504      50218.233      36.893836      36.893836      36.893836    
   5200000   0.51719847    -7.766377      -6.9905904      4.0228896      50218.233      36.893836      36.893836      36.893836    
   5210000   0.520539      -7.7692732     -6.9884758      4.0261441      50218.233      36.893836      36.893836      36.893836    
   5220000   0.51973031    -7.7704493     -6.9908649      4.012676       50218.233      36.893836      36.893836      36.893836    
   5230000   0.52232178    -7.7644376     -6.9809661      4.0600494      50218.233      36.893836      36.893836      36.893836    
   5240000   0.52147956    -7.7702252     -6.9880169      4.0082832      50218.233      36.893836      36.893836      36.893836    
   5250000   0.52097207    -7.7731939     -6.9917469      3.9764331      50218.233      36.893836      36.893836      36.893836    
   5260000   0.51930396    -7.7671039     -6.988159       4.0309043      50218.233      36.893836      36.893836      36.893836    
   5270000   0.52256046    -7.770103      -6.9862735      4.0071999      50218.233      36.893836      36.893836      36.893836    
   5280000   0.5171193     -7.7677562     -6.9920883      4.024533       50218.233      36.893836      36.893836      36.893836    
   5290000   0.52125138    -7.7641888     -6.9823229      4.063422       50218.233      36.893836      36.893836      36.893836    
   5300000   0.51782383    -7.7684006     -6.9916759      4.014709       50218.233      36.893836      36.893836      36.893836    
   5310000   0.52068311    -7.7658067     -6.9847931      4.0419152      50218.233      36.893836      36.893836      36.893836    
   5320000   0.5207094     -7.7613027     -6.9802497      4.0801624      50218.233      36.893836      36.893836      36.893836    
   5330000   0.51939091    -7.7703645     -6.9912893      4.0004761      50218.233      36.893836      36.893836      36.893836    
   5340000   0.51974522    -7.7693444     -6.9897377      4.0124726      50218.233      36.893836      36.893836      36.893836    
   5350000   0.52104496    -7.7689906     -6.9874343      4.0180484      50218.233      36.893836      36.893836      36.893836    
   5360000   0.51856604    -7.7675567     -6.9897187      4.0210675      50218.233      36.893836      36.893836      36.893836    
   5370000   0.52129773    -7.7701316     -6.9881962      4.0096917      50218.233      36.893836      36.893836      36.893836    
   5380000   0.51756489    -7.7635315     -6.9871953      4.0591181      50218.233      36.893836      36.893836      36.893836    
   5390000   0.52011148    -7.7651111     -6.984955       4.0597156      50218.233      36.893836      36.893836      36.893836    
   5400000   0.51927943    -7.7697665     -6.9908584      4.0192971      50218.233      36.893836      36.893836      36.893836    
   5410000   0.51637154    -7.767783      -6.9932367      4.0292028      50218.233      36.893836      36.893836      36.893836    
   5420000   0.5219081     -7.7689313     -6.9860803      4.0300207      50218.233      36.893836      36.893836      36.893836    
   5430000   0.51939484    -7.7678146     -6.9887335      4.0276563      50218.233      36.893836      36.893836      36.893836    
   5440000   0.51897598    -7.7679603     -6.9895074      4.0305144      50218.233      36.893836      36.893836      36.893836    
   5450000   0.52183916    -7.7686291     -6.9858815      4.0352043      50218.233      36.893836      36.893836      36.893836    
   5460000   0.51939263    -7.7716791     -6.9926012      4.0069776      50218.233      36.893836      36.893836      36.893836    
   5470000   0.52008471    -7.7650817     -6.9849657      4.0447055      50218.233      36.893836      36.893836      36.893836    
   5480000   0.51770001    -7.764256      -6.987717       4.043372       50218.233      36.893836      36.893836      36.893836    
   5490000   0.52339741    -7.7689574     -6.9838725      4.0136674      50218.233      36.893836      36.893836      36.893836    
   5500000   0.52252307    -7.7692513     -6.9854778      4.0153095      50218.233      36.893836      36.893836      36.893836    
   5510000   0.51777104    -7.7701477     -6.9935022      3.9977986      50218.233      36.893836      36.893836      36.893836    
   5520000   0.51955748    -7.7681679     -6.9888428      4.0258381      50218.233      36.893836      36.893836      36.893836    
   5530000   0.51801115    -7.7651278     -6.9881221      4.0486247      50218.233      36.893836      36.893836      36.893836    
   5540000   0.5215783     -7.7680557     -6.9856994      4.0313959      50218.233      36.893836      36.893836      36.893836    
   5550000   0.51998673    -7.7665325     -6.9865635      4.0309403      50218.233      36.893836      36.893836      36.893836    
   5560000   0.51913006    -7.7627774     -6.9840934      4.067109       50218.233      36.893836      36.893836      36.893836    
   5570000   0.52106572    -7.7702789     -6.9886914      4.007312       50218.233      36.893836      36.893836      36.893836    
   5580000   0.51846324    -7.7675869     -6.9899031      4.0270082      50218.233      36.893836      36.893836      36.893836    
   5590000   0.52223542    -7.7655425     -6.9822005      4.0546681      50218.233      36.893836      36.893836      36.893836    
   5600000   0.52245272    -7.7671678     -6.9834999      4.0410885      50218.233      36.893836      36.893836      36.893836    
   5610000   0.52103689    -7.7666221     -6.9850779      4.0374618      50218.233      36.893836      36.893836      36.893836    
   5620000   0.52125768    -7.7716808     -6.9898054      4.0010728      50218.233      36.893836      36.893836      36.893836    
   5630000   0.5209496     -7.7663232     -6.9849099      4.0375202      50218.233      36.893836      36.893836      36.893836    
   5640000   0.52011223    -7.7686305     -6.9884732      4.0283873      50218.233      36.893836      36.893836      36.893836    
   5650000   0.51988571    -7.7684583     -6.9886408      4.0216635      50218.233      36.893836      36.893836      36.893836    
   5660000   0.5185379     -7.7725181     -6.9947223      3.987174       50218.233      36.893836      36.893836      36.893836    
   5670000   0.51919104    -7.7741993     -6.9954238      3.9855423      50218.233      36.893836      36.893836      36.893836    
   5680000   0.52085727    -7.767778      -6.9865032      4.0255601      50218.233      36.893836      36.893836      36.893836    
   5690000   0.5191307     -7.7686202     -6.9899352      4.0297113      50218.233      36.893836      36.893836      36.893836    
   5700000   0.51854929    -7.7665146     -6.9887017      4.0370529      50218.233      36.893836      36.893836      36.893836    
   5710000   0.52033692    -7.76693       -6.9864358      4.0267603      50218.233      36.893836      36.893836      36.893836    
   5720000   0.5173737     -7.768214      -6.9921645      4.0236453      50218.233      36.893836      36.893836      36.893836    
   5730000   0.51721827    -7.7675837     -6.9917673      4.0202087      50218.233      36.893836      36.893836      36.893836    
   5740000   0.5159967     -7.7681991     -6.9942151      4.0254185      50218.233      36.893836      36.893836      36.893836    
   5750000   0.51827946    -7.7680722     -6.9906641      4.0253448      50218.233      36.893836      36.893836      36.893836    
   5760000   0.51875116    -7.7687811     -6.9906655      4.0314776      50218.233      36.893836      36.893836      36.893836    
   5770000   0.51969368    -7.7711973     -6.9916679      4.0069141      50218.233      36.893836      36.893836      36.893836    
   5780000   0.52050367    -7.7689798     -6.9882354      4.0216277      50218.233      36.893836      36.893836      36.893836    
   5790000   0.51990557    -7.7722837     -6.9924365      3.9941766      50218.233      36.893836      36.893836      36.893836    
   5800000   0.52017942    -7.7659556     -6.9856975      4.0559989      50218.233      36.893836      36.893836      36.893836    
   5810000   0.51762621    -7.7689219     -6.9924937      4.0385988      50218.233      36.893836      36.893836      36.893836    
   5820000   0.51862634    -7.766222      -6.9882935      4.0508726      50218.233      36.893836      36.893836      36.893836    
   5830000   0.5199175     -7.7709621     -6.991097       4.0191035      50218.233      36.893836      36.893836      36.893836    
   5840000   0.51883257    -7.7620702     -6.9838324      4.0834676      50218.233      36.893836      36.893836      36.893836    
   5850000   0.51852571    -7.7659005     -6.988123       4.0428079      50218.233      36.893836      36.893836      36.893836    
   5860000   0.5187829     -7.7731838     -6.9950206      3.9899969      50218.233      36.893836      36.893836      36.893836    
   5870000   0.51914755    -7.770231      -6.9915208      4.0119244      50218.233      36.893836      36.893836      36.893836    
   5880000   0.52018341    -7.766269      -6.986005       4.0482499      50218.233      36.893836      36.893836      36.893836    
   5890000   0.51873787    -7.7675494     -6.9894536      4.0358828      50218.233      36.893836      36.893836      36.893836    
   5900000   0.52183048    -7.7664662     -6.9837316      4.0450757      50218.233      36.893836      36.893836      36.893836    
   5910000   0.51952851    -7.7688247     -6.989543       4.018019       50218.233      36.893836      36.893836      36.893836    
   5920000   0.51865721    -7.7696508     -6.9916761      4.0181962      50218.233      36.893836      36.893836      36.893836    
   5930000   0.52042325    -7.768176      -6.9875522      4.0305483      50218.233      36.893836      36.893836      36.893836    
   5940000   0.52125266    -7.7679777     -6.9861099      4.0324549      50218.233      36.893836      36.893836      36.893836    
   5950000   0.51935241    -7.7731015     -6.9940839      3.9989088      50218.233      36.893836      36.893836      36.893836    
   5960000   0.5192266     -7.7708251     -6.9919963      4.0015835      50218.233      36.893836      36.893836      36.893836    
   5970000   0.52031623    -7.7733017     -6.9928384      3.9971437      50218.233      36.893836      36.893836      36.893836    
   5980000   0.51879132    -7.7689731     -6.9907972      4.0340468      50218.233      36.893836      36.893836      36.893836    
   5990000   0.52156004    -7.7675781     -6.9852492      4.0332415      50218.233      36.893836      36.893836      36.893836    
   6000000   0.51832969    -7.7687966     -6.9913131      4.0284678      50218.233      36.893836      36.893836      36.893836    
   6010000   0.51994158    -7.7744129     -6.9945116      3.9877983      50218.233      36.893836      36.893836      36.893836    
   6020000   0.52205538    -7.7692603     -6.9861884      4.0156391      50218.233      36.893836      36.893836      36.893836    
   6030000   0.52049075    -7.7732865     -6.9925614      4.0004475      50218.233      36.893836      36.893836      36.893836    
   6040000   0.51860454    -7.7703685     -6.9924728      4.0113519      50218.233      36.893836      36.893836      36.893836    
   6050000   0.51945581    -7.7697033     -6.9905307      4.017796       50218.233      36.893836      36.893836      36.893836    
   6060000   0.51993928    -7.769987      -6.9900892      4.0102057      50218.233      36.893836      36.893836      36.893836    
   6070000   0.52056349    -7.7680359     -6.9872017      4.0309251      50218.233      36.893836      36.893836      36.893836    
   6080000   0.52098865    -7.7689996     -6.9875277      4.0413693      50218.233      36.893836      36.893836      36.893836    
   6090000   0.51885746    -7.7704581     -6.992183       4.0062853      50218.233      36.893836      36.893836      36.893836    
   6100000   0.52151693    -7.7694559     -6.9871916      4.029423       50218.233      36.893836      36.893836      36.893836    
   6110000   0.52203259    -7.7645046     -6.9814668      4.0659932      50218.233      36.893836      36.893836      36.893836    
   6120000   0.51798295    -7.765697      -6.9887337      4.0542642      50218.233      36.893836      36.893836      36.893836    
   6130000   0.51877531    -7.7638565     -6.9857046      4.0776737      50218.233      36.893836      36.893836      36.893836    
   6140000   0.5223613     -7.7710116     -6.9874808      4.022641       50218.233      36.893836      36.893836      36.893836    
   6150000   0.52223253    -7.7681804     -6.9848427      4.0323483      50218.233      36.893836      36.893836      36.893836    
   6160000   0.52144809    -7.7687706     -6.9866096      4.0315907      50218.233      36.893836      36.893836      36.893836    
   6170000   0.51801595    -7.7723391     -6.9953262      4.001769       50218.233      36.893836      36.893836      36.893836    
   6180000   0.52151404    -7.7668787     -6.9846187      4.0229901      50218.233      36.893836      36.893836      36.893836    
   6190000   0.51971723    -7.767055      -6.9874903      4.0404314      50218.233      36.893836      36.893836      36.893836    
   6200000   0.51959366    -7.7687664     -6.989387       4.0249048      50218.233      36.893836      36.893836      36.893836    
   6210000   0.51786426    -7.7674849     -6.9906996      4.0244899      50218.233      36.893836      36.893836      36.893836    
   6220000   0.51901434    -7.7709191     -6.9924086      4.0111343      50218.233      36.893836      36.893836      36.893836    
   6230000   0.52264891    -7.7679722     -6.98401        4.0373137      50218.233      36.893836      36.893836      36.893836    
   6240000   0.52155104    -7.7717852     -6.9894698      3.9948352      50218.233      36.893836      36.893836      36.893836    
   6250000   0.51966441    -7.7683999     -6.9889144      4.0261946      50218.233      36.893836      36.893836      36.893836    
   6260000   0.5225227     -7.7701703     -6.9863974      4.0276362      50218.233      36.893836      36.893836      36.893836    
   6270000   0.52138016    -7.7683139     -6.9862548      4.0415023      50218.233      36.893836      36.893836      36.893836    
   6280000   0.51913008    -7.7755261     -6.9968421      3.9730647      50218.233      36.893836      36.893836      36.893836    
   6290000   0.5208549     -7.7681982     -6.986927       4.0293378      50218.233      36.893836      36.893836      36.893836    
   6300000   0.52129168    -7.7695698     -6.9876434      4.034827       50218.233      36.893836      36.893836      36.893836    
   6310000   0.51708217    -7.77368       -6.9980678      3.9877384      50218.233      36.893836      36.893836      36.893836    
   6320000   0.52013137    -7.7678721     -6.9876862      4.0392918      50218.233      36.893836      36.893836      36.893836    
   6330000   0.52075075    -7.7684138     -6.9872988      4.0204387      50218.233      36.893836      36.893836      36.893836    
   6340000   0.51889637    -7.7639559     -6.9856224      4.0612544      50218.233      36.893836      36.893836      36.893836    
   6350000   0.51915986    -7.7678398     -6.9891111      4.0245016      50218.233      36.893836      36.893836      36.893836    
   6360000   0.52233615    -7.7713135     -6.9878204      4.0010006      50218.233      36.893836      36.893836      36.893836    
   6370000   0.52041104    -7.7662816     -6.9856761      4.0380397      50218.233      36.893836      36.893836      36.893836    
   6380000   0.52051167    -7.7743674     -6.993611       3.972458       50218.233      36.893836      36.893836      36.893836    
   6390000   0.51888569    -7.7681471     -6.9898296      4.0145322      50218.233      36.893836      36.893836      36.893836    
   6400000   0.52095459    -7.7730954     -6.9916747      3.9918784      50218.233      36.893836      36.893836      36.893836    
   6410000   0.51874656    -7.7704966     -6.9923879      4.0198416      50218.233      36.893836      36.893836      36.893836    
   6420000   0.51702177    -7.7677378     -6.9922161      4.0202388      50218.233      36.893836      36.893836      36.893836    
   6430000   0.51949213    -7.7680727     -6.9888456      4.0283807      50218.233      36.893836      36.893836      36.893836    
   6440000   0.52033639    -7.772695      -6.9922015      3.9845085      50218.233      36.893836      36.893836      36.893836    
   6450000   0.51980507    -7.7663902     -6.9866937      4.0431556      50218.233      36.893836      36.893836      36.893836    
   6460000   0.520019      -7.7677429     -6.9877255      4.0256941      50218.233      36.893836      36.893836      36.893836    
   6470000   0.52141329    -7.7656506     -6.9835418      4.0392773      50218.233      36.893836      36.893836      36.893836    
   6480000   0.52023041    -7.7710614     -6.9907269      4.0096858      50218.233      36.893836      36.893836      36.893836    
   6490000   0.52137191    -7.7653969     -6.9833501      4.0542292      50218.233      36.893836      36.893836      36.893836    
   6500000   0.51994437    -7.7681657     -6.9882603      4.0210039      50218.233      36.893836      36.893836      36.893836    
   6510000   0.5241314     -7.7667149     -6.980529       4.043616       50218.233      36.893836      36.893836      36.893836    
   6520000   0.52161911    -7.7711678     -6.9887503      4.0129625      50218.233      36.893836      36.893836      36.893836    
   6530000   0.51952607    -7.7717665     -6.9924885      4.0041217      50218.233      36.893836      36.893836      36.893836    
   6540000   0.51828636    -7.7716664     -6.9942479      3.9920735      50218.233      36.893836      36.893836      36.893836    
   6550000   0.51836974    -7.769321      -6.9917775      4.017573       50218.233      36.893836      36.893836      36.893836    
   6560000   0.51906684    -7.7725737     -6.9939846      3.9858382      50218.233      36.893836      36.893836      36.893836    
   6570000   0.5178525     -7.7714006     -6.9946329      4.0048365      50218.233      36.893836      36.893836      36.893836    
   6580000   0.51916415    -7.7662144     -6.9874792      4.0375101      50218.233      36.893836      36.893836      36.893836    
   6590000   0.52223946    -7.7634153     -6.9800673      4.0630167      50218.233      36.893836      36.893836      36.893836    
   6600000   0.52225197    -7.7693819     -6.9860151      4.0043028      50218.233      36.893836      36.893836      36.893836    
   6610000   0.52114081    -7.7677899     -6.9860898      4.0125948      50218.233      36.893836      36.893836      36.893836    
   6620000   0.5216587     -7.7696847     -6.9872078      4.023786       50218.233      36.893836      36.893836      36.893836    
   6630000   0.52101068    -7.7600817     -6.9785768      4.0921705      50218.233      36.893836      36.893836      36.893836    
   6640000   0.52046477    -7.7629272     -6.9822411      4.0676475      50218.233      36.893836      36.893836      36.893836    
   6650000   0.52207211    -7.7632167     -6.9801196      4.0633891      50218.233      36.893836      36.893836      36.893836    
   6660000   0.5181949     -7.7636942     -6.9864129      4.061919       50218.233      36.893836      36.893836      36.893836    
   6670000   0.5187453     -7.7664032     -6.9882963      4.0361747      50218.233      36.893836      36.893836      36.893836    
   6680000   0.51599005    -7.7685973     -6.9946233      4.0112978      50218.233      36.893836      36.893836      36.893836    
   6690000   0.51783719    -7.769403      -6.9926583      4.0220865      50218.233      36.893836      36.893836      36.893836    
   6700000   0.52395272    -7.7696816     -6.9837637      4.0198487      50218.233      36.893836      36.893836      36.893836    
   6710000   0.52153751    -7.7709442     -6.9886491      4.0161747      50218.233      36.893836      36.893836      36.893836    
   6720000   0.52036495    -7.7689803     -6.988444       4.0286694      50218.233      36.893836      36.893836      36.893836    
   6730000   0.5201057     -7.7696917     -6.9895442      4.0222497      50218.233      36.893836      36.893836      36.893836    
   6740000   0.51914641    -7.7677416     -6.989033       4.0308026      50218.233      36.893836      36.893836      36.893836    
   6750000   0.51925796    -7.7735998     -6.9947239      3.9852274      50218.233      36.893836      36.893836      36.893836    
   6760000   0.52363098    -7.7677684     -6.9823331      4.0287331      50218.233      36.893836      36.893836      36.893836    
   6770000   0.51886638    -7.7687411     -6.9904526      4.020451       50218.233      36.893836      36.893836      36.893836    
   6780000   0.5182461     -7.7688477     -6.9914896      4.0251108      50218.233      36.893836      36.893836      36.893836    
   6790000   0.52073324    -7.7711586     -6.9900699      4.0103857      50218.233      36.893836      36.893836      36.893836    
   6800000   0.51993381    -7.7661447     -6.9862551      4.0425505      50218.233      36.893836      36.893836      36.893836    
   6810000   0.52251115    -7.7646177     -6.9808621      4.0605134      50218.233      36.893836      36.893836      36.893836    
   6820000   0.52068639    -7.7679001     -6.9868816      4.036397       50218.233      36.893836      36.893836      36.893836    
   6830000   0.51942495    -7.7686502     -6.9895239      4.0272748      50218.233      36.893836      36.893836      36.893836    
   6840000   0.52058481    -7.7660475     -6.9851814      4.0583109      50218.233      36.893836      36.893836      36.893836    
   6850000   0.51856743    -7.7675959     -6.9897558      4.0483671      50218.233      36.893836      36.893836      36.893836    
   6860000   0.5209361     -7.7697362     -6.9883432      4.0205757      50218.233      36.893836      36.893836      36.893836    
   6870000   0.51931267    -7.7677568     -6.9887989      4.0413386      50218.233      36.893836      36.893836      36.893836    
   6880000   0.52111992    -7.7696834     -6.9880146      4.0355614      50218.233      36.893836      36.893836      36.893836    
   6890000   0.52060374    -7.7655081     -6.9846136      4.0560976      50218.233      36.893836      36.893836      36.893836    
   6900000   0.51954235    -7.7701582     -6.9908557      4.011854       50218.233      36.893836      36.893836      36.893836    
   6910000   0.5225512     -7.7634333     -6.9796177      4.0741206      50218.233      36.893836      36.893836      36.893836    
   6920000   0.52076321    -7.7724148     -6.9912811      4.0042759      50218.233      36.893836      36.893836      36.893836    
   6930000   0.52278881    -7.7668856     -6.9827136      4.042803       50218.233      36.893836      36.893836      36.893836    
   6940000   0.51950456    -7.7654402     -6.9861945      4.0537976      50218.233      36.893836      36.893836      36.893836    
   6950000   0.51829572    -7.772405      -6.9949725      3.996445       50218.233      36.893836      36.893836      36.893836    
   6960000   0.52141319    -7.7703216     -6.9882129      4.0067446      50218.233      36.893836      36.893836      36.893836    
   6970000   0.51928656    -7.7712108     -6.992292       4.0144935      50218.233      36.893836      36.893836      36.893836    
   6980000   0.52193808    -7.7735857     -6.9906898      3.9798858      50218.233      36.893836      36.893836      36.893836    
   6990000   0.51748829    -7.7674828     -6.9912614      4.0299609      50218.233      36.893836      36.893836      36.893836    
   7000000   0.52117644    -7.770525      -6.9887714      4.0157966      50218.233      36.893836      36.893836      36.893836    
   7010000   0.52003791    -7.7682973     -6.9882516      4.0222583      50218.233      36.893836      36.893836      36.893836    
   7020000   0.51898649    -7.7654235     -6.9869549      4.039345       50218.233      36.893836      36.893836      36.893836    
   7030000   0.5216254     -7.7659718     -6.9835448      4.0495663      50218.233      36.893836      36.893836      36.893836    
   7040000   0.52232327    -7.7680769     -6.9846031      4.0420489      50218.233      36.893836      36.893836      36.893836    
   7050000   0.51784496    -7.7691552     -6.9923988      4.0142719      50218.233      36.893836      36.893836      36.893836    
   7060000   0.52139268    -7.7656445     -6.9835666      4.0453864      50218.233      36.893836      36.893836      36.893836    
   7070000   0.51932514    -7.7713263     -6.9923497      4.0017377      50218.233      36.893836      36.893836      36.893836    
   7080000   0.51932631    -7.7661313     -6.9871529      4.0668855      50218.233      36.893836      36.893836      36.893836    
   7090000   0.52135044    -7.769829      -6.9878145      4.019394       50218.233      36.893836      36.893836      36.893836    
   7100000   0.51748969    -7.7683262     -6.9921027      4.0323061      50218.233      36.893836      36.893836      36.893836    
   7110000   0.52078812    -7.7717191     -6.990548       4.0022865      50218.233      36.893836      36.893836      36.893836    
   7120000   0.51937622    -7.775519      -6.9964658      3.9730106      50218.233      36.893836      36.893836      36.893836    
   7130000   0.52043511    -7.7669807     -6.9863391      4.0413097      50218.233      36.893836      36.893836      36.893836    
   7140000   0.51977517    -7.7708201     -6.9911684      4.0065265      50218.233      36.893836      36.893836      36.893836    
   7150000   0.52023154    -7.7698527     -6.9895165      4.027864       50218.233      36.893836      36.893836      36.893836    
   7160000   0.51934086    -7.7738524     -6.9948522      3.9965262      50218.233      36.893836      36.893836      36.893836    
   7170000   0.52064184    -7.7674782     -6.9865265      4.0249722      50218.233      36.893836      36.893836      36.893836    
   7180000   0.52014636    -7.7704552     -6.9902468      4.0120278      50218.233      36.893836      36.893836      36.893836    
   7190000   0.52060991    -7.7675609     -6.9866571      4.035324       50218.233      36.893836      36.893836      36.893836    
   7200000   0.51923284    -7.7743266     -6.9954885      3.9861367      50218.233      36.893836      36.893836      36.893836    
   7210000   0.52145743    -7.768425      -6.98625        4.0314561      50218.233      36.893836      36.893836      36.893836    
   7220000   0.51749146    -7.7656422     -6.9894161      4.0465353      50218.233      36.893836      36.893836      36.893836    
   7230000   0.52213202    -7.7691079     -6.985921       4.0306901      50218.233      36.893836      36.893836      36.893836    
   7240000   0.52232717    -7.7677935     -6.9843139      4.0246342      50218.233      36.893836      36.893836      36.893836    
   7250000   0.51768164    -7.7684032     -6.9918918      4.0301918      50218.233      36.893836      36.893836      36.893836    
   7260000   0.52048598    -7.7723192     -6.9916014      4.0070568      50218.233      36.893836      36.893836      36.893836    
   7270000   0.52133311    -7.7715366     -6.989548       4.0086254      50218.233      36.893836      36.893836      36.893836    
   7280000   0.51983416    -7.7665915     -6.9868514      4.0526383      50218.233      36.893836      36.893836      36.893836    
   7290000   0.52341872    -7.7686636     -6.9835467      4.0214599      50218.233      36.893836      36.893836      36.893836    
   7300000   0.51662803    -7.7711717     -6.9962407      4.0024298      50218.233      36.893836      36.893836      36.893836    
   7310000   0.5175279     -7.769381      -6.9931002      4.0359996      50218.233      36.893836      36.893836      36.893836    
   7320000   0.52062986    -7.7683989     -6.9874652      4.0269899      50218.233      36.893836      36.893836      36.893836    
   7330000   0.51948413    -7.7686343     -6.9894192      4.0144087      50218.233      36.893836      36.893836      36.893836    
   7340000   0.52010037    -7.7725063     -6.9923669      3.9971012      50218.233      36.893836      36.893836      36.893836    
   7350000   0.52102815    -7.7657002     -6.9841691      4.0376837      50218.233      36.893836      36.893836      36.893836    
   7360000   0.51912897    -7.7673988     -6.9887165      4.0480296      50218.233      36.893836      36.893836      36.893836    
   7370000   0.52279295    -7.7706025     -6.9864242      4.0163122      50218.233      36.893836      36.893836      36.893836    
   7380000   0.52174522    -7.7685291     -6.9859224      4.031621       50218.233      36.893836      36.893836      36.893836    
   7390000   0.52026444    -7.7709204     -6.9905349      4.0185398      50218.233      36.893836      36.893836      36.893836    
   7400000   0.52148182    -7.7689796     -6.986768       4.0173019      50218.233      36.893836      36.893836      36.893836    
   7410000   0.51794682    -7.7712512     -6.994342       4.0055408      50218.233      36.893836      36.893836      36.893836    
   7420000   0.51598897    -7.7728202     -6.9988477      3.9839787      50218.233      36.893836      36.893836      36.893836    
   7430000   0.51851797    -7.7719237     -6.9941578      3.9871002      50218.233      36.893836      36.893836      36.893836    
   7440000   0.51933836    -7.770193      -6.9911966      4.0276174      50218.233      36.893836      36.893836      36.893836    
   7450000   0.51865312    -7.7663893     -6.9884207      4.0444739      50218.233      36.893836      36.893836      36.893836    
   7460000   0.51875518    -7.7686465     -6.9905248      4.0304858      50218.233      36.893836      36.893836      36.893836    
   7470000   0.51932972    -7.7741031     -6.9951196      3.9812089      50218.233      36.893836      36.893836      36.893836    
   7480000   0.52256171    -7.7707182     -6.9868867      4.0082072      50218.233      36.893836      36.893836      36.893836    
   7490000   0.51966362    -7.7700185     -6.9905342      4.0153782      50218.233      36.893836      36.893836      36.893836    
   7500000   0.51940524    -7.7723536     -6.9932569      4.0019796      50218.233      36.893836      36.893836      36.893836    
   7510000   0.52170576    -7.7733394     -6.9907919      4.0021484      50218.233      36.893836      36.893836      36.893836    
   7520000   0.52066791    -7.7724819     -6.9914912      3.9960064      50218.233      36.893836      36.893836      36.893836    
   7530000   0.52203395    -7.7671473     -6.9841075      4.0336933      50218.233      36.893836      36.893836      36.893836    
   7540000   0.52111526    -7.7666669     -6.9850052      4.0389762      50218.233      36.893836      36.893836      36.893836    
   7550000   0.52214996    -7.7682011     -6.9849873      4.0247491      50218.233      36.893836      36.893836      36.893836    
   7560000   0.51823663    -7.763339      -6.9859951      4.0590912      50218.233      36.893836      36.893836      36.893836    
   7570000   0.51688033    -7.7654318     -6.9901224      4.056227       50218.233      36.893836      36.893836      36.893836    
   7580000   0.52108807    -7.767452      -6.985831       4.034544       50218.233      36.893836      36.893836      36.893836    
   7590000   0.51636824    -7.7678077     -6.9932663      4.0297479      50218.233      36.893836      36.893836      36.893836    
   7600000   0.52032614    -7.7698204     -6.9893422      4.0185273      50218.233      36.893836      36.893836      36.893836    
   7610000   0.51808404    -7.7713479     -6.9942329      3.9970735      50218.233      36.893836      36.893836      36.893836    
   7620000   0.52187683    -7.7691527     -6.9863485      4.018939       50218.233      36.893836      36.893836      36.893836    
   7630000   0.52091306    -7.7673604     -6.986002       4.0445429      50218.233      36.893836      36.893836      36.893836    
   7640000   0.52240316    -7.7714006     -6.987807       3.9970629      50218.233      36.893836      36.893836      36.893836    
   7650000   0.51829425    -7.7682637     -6.9908334      4.0306545      50218.233      36.893836      36.893836      36.893836    
   7660000   0.52095223    -7.7694098     -6.9879925      4.027779       50218.233      36.893836      36.893836      36.893836    
   7670000   0.51542819    -7.7698514     -6.9967201      4.0169916      50218.233      36.893836      36.893836      36.893836    
   7680000   0.51953752    -7.7668293     -6.9875342      4.0428918      50218.233      36.893836      36.893836      36.893836    
   7690000   0.52019753    -7.7698885     -6.9896033      4.0210089      50218.233      36.893836      36.893836      36.893836    
   7700000   0.52049947    -7.7685072     -6.9877691      4.0254324      50218.233      36.893836      36.893836      36.893836    
   7710000   0.5202508     -7.7648222     -6.9844571      4.0477387      50218.233      36.893836      36.893836      36.893836    
   7720000   0.52025991    -7.7694606     -6.9890819      4.024693       50218.233      36.893836      36.893836      36.893836    
   7730000   0.52046623    -7.7674131     -6.9867248      4.029739       50218.233      36.893836      36.893836      36.893836    
   7740000   0.51759337    -7.7693401     -6.9929611      4.0236981      50218.233      36.893836      36.893836      36.893836    
   7750000   0.51749569    -7.7685528     -6.9923204      4.0184205      50218.233      36.893836      36.893836      36.893836    
   7760000   0.52228008    -7.7684651     -6.9850561      4.0485641      50218.233      36.893836      36.893836      36.893836    
   7770000   0.52127589    -7.76658       -6.9846773      4.0370964      50218.233      36.893836      36.893836      36.893836    
   7780000   0.51756311    -7.7680405     -6.9917069      4.0190561      50218.233      36.893836      36.893836      36.893836    
   7790000   0.51986051    -7.7698029     -6.9900232      4.0212546      50218.233      36.893836      36.893836      36.893836    
   7800000   0.52087962    -7.7709768     -6.9896685      3.999131       50218.233      36.893836      36.893836      36.893836    
   7810000   0.5182467     -7.7639636     -6.9866046      4.0527904      50218.233      36.893836      36.893836      36.893836    
   7820000   0.518181      -7.766793      -6.9895325      4.0344844      50218.233      36.893836      36.893836      36.893836    
   7830000   0.51834572    -7.7677914     -6.9902839      4.0235907      50218.233      36.893836      36.893836      36.893836    
   7840000   0.52077921    -7.7695091     -6.9883514      4.0199035      50218.233      36.893836      36.893836      36.893836    
   7850000   0.52006311    -7.7700426     -6.989959       4.0132646      50218.233      36.893836      36.893836      36.893836    
   7860000   0.51854542    -7.7687691     -6.990962       4.015223       50218.233      36.893836      36.893836      36.893836    
   7870000   0.52251415    -7.7692408     -6.9854807      4.0209147      50218.233      36.893836      36.893836      36.893836    
   7880000   0.51828094    -7.7668026     -6.9893923      4.0317105      50218.233      36.893836      36.893836      36.893836    
   7890000   0.52295095    -7.7648883     -6.980473       4.0517505      50218.233      36.893836      36.893836      36.893836    
   7900000   0.52022262    -7.7636221     -6.9832993      4.0720255      50218.233      36.893836      36.893836      36.893836    
   7910000   0.51849021    -7.7704912     -6.992767       4.0044152      50218.233      36.893836      36.893836      36.893836    
   7920000   0.52040822    -7.7718819     -6.9912807      3.9951346      50218.233      36.893836      36.893836      36.893836    
   7930000   0.51994991    -7.7675654     -6.9876516      4.025682       50218.233      36.893836      36.893836      36.893836    
   7940000   0.51873674    -7.7683086     -6.9902145      4.0296565      50218.233      36.893836      36.893836      36.893836    
   7950000   0.5196408     -7.772254      -6.9928039      4.0020483      50218.233      36.893836      36.893836      36.893836    
   7960000   0.51984783    -7.7681861     -6.9884254      4.0138972      50218.233      36.893836      36.893836      36.893836    
   7970000   0.52096942    -7.7661822     -6.9847392      4.0381275      50218.233      36.893836      36.893836      36.893836    
   7980000   0.52010738    -7.7713216     -6.9911716      3.9994207      50218.233      36.893836      36.893836      36.893836    
   7990000   0.52027827    -7.7667445     -6.9863382      4.0202181      50218.233      36.893836      36.893836      36.893836    
   8000000   0.52081992    -7.7640133     -6.9827945      4.0508777      50218.233      36.893836      36.893836      36.893836    
   8010000   0.51977723    -7.7663146     -6.9866599      4.0463655      50218.233      36.893836      36.893836      36.893836    
   8020000   0.52010702    -7.7658419     -6.9856925      4.0462073      50218.233      36.893836      36.893836      36.893836    
   8030000   0.51578865    -7.7655841     -6.9919121      4.0491165      50218.233      36.893836      36.893836      36.893836    
   8040000   0.51833931    -7.7671055     -6.9896076      4.031198       50218.233      36.893836      36.893836      36.893836    
   8050000   0.52011637    -7.7692312     -6.9890678      4.021187       50218.233      36.893836      36.893836      36.893836    
   8060000   0.5241622     -7.7693006     -6.9830685      4.0190958      50218.233      36.893836      36.893836      36.893836    
   8070000   0.52088987    -7.7723013     -6.9909776      4.0040407      50218.233      36.893836      36.893836      36.893836    
   8080000   0.52224285    -7.7681731     -6.98482        4.0426655      50218.233      36.893836      36.893836      36.893836    
   8090000   0.52218288    -7.7688027     -6.9855395      4.0174532      50218.233      36.893836      36.893836      36.893836    
   8100000   0.51952514    -7.7652123     -6.9859357      4.0587134      50218.233      36.893836      36.893836      36.893836    
   8110000   0.518959      -7.7651161     -6.9866887      4.0419283      50218.233      36.893836      36.893836      36.893836    
   8120000   0.52071052    -7.765594      -6.9845394      4.0540578      50218.233      36.893836      36.893836      36.893836    
   8130000   0.5201928     -7.76241       -6.9821319      4.0774946      50218.233      36.893836      36.893836      36.893836    
   8140000   0.52141847    -7.7630754     -6.9809588      4.0737148      50218.233      36.893836      36.893836      36.893836    
   8150000   0.52240482    -7.7660577     -6.9824616      4.0412841      50218.233      36.893836      36.893836      36.893836    
   8160000   0.51959532    -7.768113      -6.9887311      4.027783       50218.233      36.893836      36.893836      36.893836    
   8170000   0.51946125    -7.7631566     -6.9839758      4.0653863      50218.233      36.893836      36.893836      36.893836    
   8180000   0.51744333    -7.7637203     -6.9875663      4.0543486      50218.233      36.893836      36.893836      36.893836    
   8190000   0.51839379    -7.7658221     -6.9882425      4.042374       50218.233      36.893836      36.893836      36.893836    
   8200000   0.52007215    -7.7689717     -6.9888746      4.0289321      50218.233      36.893836      36.893836      36.893836    
   8210000   0.51973207    -7.7664454     -6.9868584      4.046499       50218.233      36.893836      36.893836      36.893836    
   8220000   0.52016356    -7.7713376     -6.9911033      4.0053426      50218.233      36.893836      36.893836      36.893836    
   8230000   0.5197535     -7.7627506     -6.9831315      4.0630241      50218.233      36.893836      36.893836      36.893836    
   8240000   0.52011657    -7.7667062     -6.9865424      4.0387092      50218.233      36.893836      36.893836      36.893836    
   8250000   0.52064065    -7.769987      -6.9890371      4.0182105      50218.233      36.893836      36.893836      36.893836    
   8260000   0.51856773    -7.7694349     -6.9915943      4.0129853      50218.233      36.893836      36.893836      36.893836    
   8270000   0.5210375     -7.7688251     -6.9872799      4.0279808      50218.233      36.893836      36.893836      36.893836    
   8280000   0.51964381    -7.7648444     -6.9853898      4.0330517      50218.233      36.893836      36.893836      36.893836    
   8290000   0.52068668    -7.7631559     -6.9821369      4.0657497      50218.233      36.893836      36.893836      36.893836    
   8300000   0.52021447    -7.7661174     -6.9858068      4.0478494      50218.233      36.893836      36.893836      36.893836    
   8310000   0.52034688    -7.7645454     -6.9840361      4.064582       50218.233      36.893836      36.893836      36.893836    
   8320000   0.52198962    -7.7682711     -6.9852978      4.0359484      50218.233      36.893836      36.893836      36.893836    
   8330000   0.52134748    -7.7677674     -6.9857573      4.0431766      50218.233      36.893836      36.893836      36.893836    
   8340000   0.51797975    -7.765188      -6.9882294      4.0446425      50218.233      36.893836      36.893836      36.893836    
   8350000   0.51883474    -7.7723939     -6.9941529      3.9803363      50218.233      36.893836      36.893836      36.893836    
   8360000   0.51864457    -7.7651539     -6.9871981      4.0350267      50218.233      36.893836      36.893836      36.893836    
   8370000   0.52072437    -7.7688489     -6.9877735      4.0100356      50218.233      36.893836      36.893836      36.893836    
   8380000   0.51848503    -7.7657323     -6.9880158      4.0512161      50218.233      36.893836      36.893836      36.893836    
   8390000   0.51938753    -7.7691012     -6.990031       4.0237022      50218.233      36.893836      36.893836      36.893836    
   8400000   0.52073372    -7.767921      -6.9868315      4.0313741      50218.233      36.893836      36.893836      36.893836    
   8410000   0.51958678    -7.7670673     -6.9876982      4.0285778      50218.233      36.893836      36.893836      36.893836    
   8420000   0.520435      -7.7680432     -6.9874018      4.0304663      50218.233      36.893836      36.893836      36.893836    
   8430000   0.52021222    -7.7717881     -6.9914809      3.9948078      50218.233      36.893836      36.893836      36.893836    
   8440000   0.51953393    -7.7659003     -6.9866105      4.0480284      50218.233      36.893836      36.893836      36.893836    
   8450000   0.52034819    -7.7654766     -6.9849654      4.056283       50218.233      36.893836      36.893836      36.893836    
   8460000   0.52193131    -7.7681214     -6.9852356      4.0346492      50218.233      36.893836      36.893836      36.893836    
   8470000   0.52044003    -7.7660864     -6.9854375      4.0422973      50218.233      36.893836      36.893836      36.893836    
   8480000   0.51907348    -7.7694291     -6.99083        4.0094494      50218.233      36.893836      36.893836      36.893836    
   8490000   0.51708847    -7.7672785     -6.9916568      4.026662       50218.233      36.893836      36.893836      36.893836    
   8500000   0.51869479    -7.7680339     -6.9900028      4.0142688      50218.233      36.893836      36.893836      36.893836    
   8510000   0.52271407    -7.7672347     -6.9831747      4.0454102      50218.233      36.893836      36.893836      36.893836    
   8520000   0.5181912     -7.7656468     -6.9883711      4.0210675      50218.233      36.893836      36.893836      36.893836    
   8530000   0.51790529    -7.7641582     -6.9873113      4.0527323      50218.233      36.893836      36.893836      36.893836    
   8540000   0.52039479    -7.7635161     -6.982935       4.0665112      50218.233      36.893836      36.893836      36.893836    
   8550000   0.51992482    -7.7677273     -6.9878511      4.0329907      50218.233      36.893836      36.893836      36.893836    
   8560000   0.52169839    -7.7642172     -6.9816807      4.061915       50218.233      36.893836      36.893836      36.893836    
   8570000   0.52021524    -7.7664129     -6.9861011      4.0446807      50218.233      36.893836      36.893836      36.893836    
   8580000   0.51889131    -7.7689942     -6.9906683      4.024145       50218.233      36.893836      36.893836      36.893836    
   8590000   0.51818369    -7.7640088     -6.9867443      4.0495395      50218.233      36.893836      36.893836      36.893836    
   8600000   0.52079212    -7.7642222     -6.9830451      4.0594474      50218.233      36.893836      36.893836      36.893836    
   8610000   0.5190923     -7.7669072     -6.9882798      4.0433856      50218.233      36.893836      36.893836      36.893836    
   8620000   0.52062927    -7.7647325     -6.9837998      4.0492503      50218.233      36.893836      36.893836      36.893836    
   8630000   0.52029957    -7.7646757     -6.9842375      4.0471289      50218.233      36.893836      36.893836      36.893836    
   8640000   0.52200648    -7.7627112     -6.9797126      4.0736963      50218.233      36.893836      36.893836      36.893836    
   8650000   0.52250114    -7.7686421     -6.9849016      4.0128058      50218.233      36.893836      36.893836      36.893836    
   8660000   0.52037309    -7.761976      -6.9814274      4.0651352      50218.233      36.893836      36.893836      36.893836    
   8670000   0.5192509     -7.7604694     -6.9816042      4.0885075      50218.233      36.893836      36.893836      36.893836    
   8680000   0.52040142    -7.7662717     -6.9856806      4.0412549      50218.233      36.893836      36.893836      36.893836    
   8690000   0.51897694    -7.7693448     -6.9908904      4.0203239      50218.233      36.893836      36.893836      36.893836    
   8700000   0.51825873    -7.7686938     -6.9913168      4.0143977      50218.233      36.893836      36.893836      36.893836    
   8710000   0.52292407    -7.7677787     -6.9834037      4.0385606      50218.233      36.893836      36.893836      36.893836    
   8720000   0.51959461    -7.7653197     -6.9859389      4.0524388      50218.233      36.893836      36.893836      36.893836    
   8730000   0.52133927    -7.7641087     -6.9821109      4.0573648      50218.233      36.893836      36.893836      36.893836    
   8740000   0.52192115    -7.763392      -6.9805214      4.0595215      50218.233      36.893836      36.893836      36.893836    
   8750000   0.52081182    -7.7677013     -6.9864946      4.0367119      50218.233      36.893836      36.893836      36.893836    
   8760000   0.51719002    -7.766377      -6.9906031      4.048346       50218.233      36.893836      36.893836      36.893836    
   8770000   0.51750352    -7.7630264     -6.9867822      4.061464       50218.233      36.893836      36.893836      36.893836    
   8780000   0.51830557    -7.7657847     -6.9883374      4.0491298      50218.233      36.893836      36.893836      36.893836    
   8790000   0.52174074    -7.7649589     -6.982359       4.0548263      50218.233      36.893836      36.893836      36.893836    
   8800000   0.5222777     -7.764763      -6.9813575      4.048428       50218.233      36.893836      36.893836      36.893836    
   8810000   0.52216349    -7.763072      -6.9798379      4.066488       50218.233      36.893836      36.893836      36.893836    
   8820000   0.52104674    -7.7681824     -6.9866234      4.021592       50218.233      36.893836      36.893836      36.893836    
   8830000   0.52140977    -7.7657236     -6.9836201      4.0470867      50218.233      36.893836      36.893836      36.893836    
   8840000   0.51937962    -7.7681056     -6.9890473      4.0247337      50218.233      36.893836      36.893836      36.893836    
   8850000   0.51891393    -7.7645135     -6.9861536      4.06775        50218.233      36.893836      36.893836      36.893836    
   8860000   0.51761344    -7.7667045     -6.9902954      4.030543       50218.233      36.893836      36.893836      36.893836    
   8870000   0.52026756    -7.7656416     -6.9852513      4.0421007      50218.233      36.893836      36.893836      36.893836    
   8880000   0.52145875    -7.7633501     -6.9811731      4.0635192      50218.233      36.893836      36.893836      36.893836    
   8890000   0.52120073    -7.7678874     -6.9860974      4.0296188      50218.233      36.893836      36.893836      36.893836    
   8900000   0.52204816    -7.7646496     -6.9815885      4.0540565      50218.233      36.893836      36.893836      36.893836    
   8910000   0.51911645    -7.767112      -6.9884484      4.0160523      50218.233      36.893836      36.893836      36.893836    
   8920000   0.52272986    -7.7663213     -6.9822377      4.0370896      50218.233      36.893836      36.893836      36.893836    
   8930000   0.51803001    -7.7657013     -6.9886673      4.0443093      50218.233      36.893836      36.893836      36.893836    
   8940000   0.51832356    -7.7691243     -6.9916501      4.0246967      50218.233      36.893836      36.893836      36.893836    
   8950000   0.51845493    -7.7672673     -6.9895959      4.030085       50218.233      36.893836      36.893836      36.893836    
   8960000   0.51787994    -7.7672716     -6.9904628      4.0285387      50218.233      36.893836      36.893836      36.893836    
   8970000   0.51742614    -7.7665419     -6.9904138      4.0319004      50218.233      36.893836      36.893836      36.893836    
   8980000   0.51962274    -7.7665285     -6.9871055      4.0474854      50218.233      36.893836      36.893836      36.893836    
   8990000   0.52021129    -7.765759      -6.9854531      4.0400278      50218.233      36.893836      36.893836      36.893836    
   9000000   0.51890202    -7.7644047     -6.9860627      4.0449998      50218.233      36.893836      36.893836      36.893836    
   9010000   0.52069481    -7.7668515     -6.9858204      4.0317706      50218.233      36.893836      36.893836      36.893836    
   9020000   0.52062411    -7.7689354     -6.9880103      4.0154155      50218.233      36.893836      36.893836      36.893836    
   9030000   0.52004043    -7.7660294     -6.9859799      4.0427221      50218.233      36.893836      36.893836      36.893836    
   9040000   0.51823594    -7.7679559     -6.9906131      4.0135892      50218.233      36.893836      36.893836      36.893836    
   9050000   0.52197094    -7.7663052     -6.9833599      4.0413957      50218.233      36.893836      36.893836      36.893836    
   9060000   0.51805286    -7.7701966     -6.9931284      4.000911       50218.233      36.893836      36.893836      36.893836    
   9070000   0.52135523    -7.7696811     -6.9876594      4.0164995      50218.233      36.893836      36.893836      36.893836    
   9080000   0.51974309    -7.7661882     -6.9865847      4.0551263      50218.233      36.893836      36.893836      36.893836    
   9090000   0.51934196    -7.7694795     -6.9904776      4.0068811      50218.233      36.893836      36.893836      36.893836    
   9100000   0.51995162    -7.7693037     -6.9893873      4.0135713      50218.233      36.893836      36.893836      36.893836    
   9110000   0.5206204     -7.767729      -6.9868095      4.0275246      50218.233      36.893836      36.893836      36.893836    
   9120000   0.52091007    -7.7671666     -6.9858126      4.0277462      50218.233      36.893836      36.893836      36.893836    
   9130000   0.51749025    -7.7676259     -6.9914016      4.0197779      50218.233      36.893836      36.893836      36.893836    
   9140000   0.5216636     -7.7624256     -6.9799413      4.0619994      50218.233      36.893836      36.893836      36.893836    
   9150000   0.52036517    -7.7652802     -6.9847436      4.0584334      50218.233      36.893836      36.893836      36.893836    
   9160000   0.52023705    -7.763182      -6.9828375      4.0731458      50218.233      36.893836      36.893836      36.893836    
   9170000   0.52085696    -7.7664464     -6.9851721      4.041301       50218.233      36.893836      36.893836      36.893836    
   9180000   0.51798608    -7.7682096     -6.9912415      4.0262882      50218.233      36.893836      36.893836      36.893836    
   9190000   0.5214691     -7.7714919     -6.9892994      4.0077386      50218.233      36.893836      36.893836      36.893836    
   9200000   0.52123294    -7.7616502     -6.9798119      4.0870438      50218.233      36.893836      36.893836      36.893836    
   9210000   0.5180075     -7.7661312     -6.989131       4.030197       50218.233      36.893836      36.893836      36.893836    
   9220000   0.52199562    -7.7671119     -6.9841296      4.0362846      50218.233      36.893836      36.893836      36.893836    
   9230000   0.52081096    -7.7687127     -6.9875074      4.0341588      50218.233      36.893836      36.893836      36.893836    
   9240000   0.5204244     -7.7661069     -6.9854814      4.0492595      50218.233      36.893836      36.893836      36.893836    
   9250000   0.51919433    -7.768557      -6.9897766      4.0256448      50218.233      36.893836      36.893836      36.893836    
   9260000   0.52047043    -7.765545      -6.9848504      4.0445994      50218.233      36.893836      36.893836      36.893836    
   9270000   0.51986336    -7.7676556     -6.9878717      4.0264334      50218.233      36.893836      36.893836      36.893836    
   9280000   0.5174945     -7.7652603     -6.9890296      4.0423939      50218.233      36.893836      36.893836      36.893836    
   9290000   0.51986628    -7.7683133     -6.988525       4.0251721      50218.233      36.893836      36.893836      36.893836    
   9300000   0.52356173    -7.7619976     -6.9766661      4.073842       50218.233      36.893836      36.893836      36.893836    
   9310000   0.52219567    -7.767488      -6.9842057      4.0402121      50218.233      36.893836      36.893836      36.893836    
   9320000   0.5186408     -7.7663019     -6.9883518      4.0503434      50218.233      36.893836      36.893836      36.893836    
   9330000   0.52321987    -7.7667688     -6.9819502      4.0430822      50218.233      36.893836      36.893836      36.893836    
   9340000   0.51923487    -7.7641177     -6.9852765      4.0601427      50218.233      36.893836      36.893836      36.893836    
   9350000   0.52192368    -7.7662141     -6.9833397      4.0517588      50218.233      36.893836      36.893836      36.893836    
   9360000   0.52273727    -7.765992      -6.9818972      4.0501651      50218.233      36.893836      36.893836      36.893836    
   9370000   0.51940682    -7.7642136     -6.9851144      4.0552873      50218.233      36.893836      36.893836      36.893836    
   9380000   0.51979459    -7.769207      -6.9895262      4.0163192      50218.233      36.893836      36.893836      36.893836    
   9390000   0.51830858    -7.7669929     -6.9895411      4.0253138      50218.233      36.893836      36.893836      36.893836    
   9400000   0.51904421    -7.7691457     -6.9905905      4.0205912      50218.233      36.893836      36.893836      36.893836    
   9410000   0.51948268    -7.7667129     -6.9875         4.0319563      50218.233      36.893836      36.893836      36.893836    
   9420000   0.51970599    -7.770508      -6.9909601      4.0109305      50218.233      36.893836      36.893836      36.893836    
   9430000   0.52003863    -7.771495      -6.9914481      4.0082217      50218.233      36.893836      36.893836      36.893836    
   9440000   0.52006799    -7.7640379     -6.983947       4.0469917      50218.233      36.893836      36.893836      36.893836    
   9450000   0.52141145    -7.7655865     -6.9834804      4.0436579      50218.233      36.893836      36.893836      36.893836    
   9460000   0.51889705    -7.7663212     -6.9879867      4.0396019      50218.233      36.893836      36.893836      36.893836    
   9470000   0.52214815    -7.7658974     -6.9826863      4.0521659      50218.233      36.893836      36.893836      36.893836    
   9480000   0.5181355     -7.7678656     -6.9906734      4.0249487      50218.233      36.893836      36.893836      36.893836    
   9490000   0.52450345    -7.7682695     -6.9815255      4.0271927      50218.233      36.893836      36.893836      36.893836    
   9500000   0.5187916     -7.7673983     -6.9892219      4.0274018      50218.233      36.893836      36.893836      36.893836    
   9510000   0.51865047    -7.7726076     -6.994643       3.992296       50218.233      36.893836      36.893836      36.893836    
   9520000   0.52170853    -7.7661209     -6.9835692      4.0532878      50218.233      36.893836      36.893836      36.893836    
   9530000   0.52038893    -7.7660523     -6.98548        4.0421764      50218.233      36.893836      36.893836      36.893836    
   9540000   0.52244639    -7.7666855     -6.983027       4.0352089      50218.233      36.893836      36.893836      36.893836    
   9550000   0.52066265    -7.7649221     -6.9839392      4.0452997      50218.233      36.893836      36.893836      36.893836    
   9560000   0.51965544    -7.7647505     -6.9852784      4.0424867      50218.233      36.893836      36.893836      36.893836    
   9570000   0.51991236    -7.7642194     -6.984362       4.0565728      50218.233      36.893836      36.893836      36.893836    
   9580000   0.52149605    -7.7659745     -6.9837416      4.0478006      50218.233      36.893836      36.893836      36.893836    
   9590000   0.5211803     -7.7623389     -6.9805796      4.0680757      50218.233      36.893836      36.893836      36.893836    
   9600000   0.52034396    -7.7622292     -6.9817244      4.0635468      50218.233      36.893836      36.893836      36.893836    
   9610000   0.52134221    -7.7652141     -6.983212       4.0428182      50218.233      36.893836      36.893836      36.893836    
   9620000   0.51805711    -7.7648417     -6.9877671      4.0461345      50218.233      36.893836      36.893836      36.893836    
   9630000   0.52123057    -7.7629827     -6.981148       4.0581611      50218.233      36.893836      36.893836      36.893836    
   9640000   0.52026182    -7.7700287     -6.9896471      4.0095739      50218.233      36.893836      36.893836      36.893836    
   9650000   0.52185802    -7.7671139     -6.984338       4.0357627      50218.233      36.893836      36.893836      36.893836    
   9660000   0.5202235     -7.7602901     -6.979966       4.0797882      50218.233      36.893836      36.893836      36.893836    
   9670000   0.51789391    -7.7642432     -6.9874134      4.0527337      50218.233      36.893836      36.893836      36.893836    
   9680000   0.52241868    -7.7693235     -6.9857066      4.0227871      50218.233      36.893836      36.893836      36.893836    
   9690000   0.51892719    -7.7648938     -6.9865141      4.0471965      50218.233      36.893836      36.893836      36.893836    
   9700000   0.51995408    -7.7695572     -6.9896372      4.0163407      50218.233      36.893836      36.893836      36.893836    
   9710000   0.51909327    -7.7672661     -6.9886373      4.0357114      50218.233      36.893836      36.893836      36.893836    
   9720000   0.5212278     -7.7638457     -6.9820151      4.0716003      50218.233      36.893836      36.893836      36.893836    
   9730000   0.51978726    -7.7652135     -6.9855437      4.0474756      50218.233      36.893836      36.893836      36.893836    
   9740000   0.51853287    -7.7730468     -6.9952586      3.9919545      50218.233      36.893836      36.893836      36.893836    
   9750000   0.51903582    -7.764787      -6.9862443      4.0606185      50218.233      36.893836      36.893836      36.893836    
   9760000   0.51992224    -7.76868       -6.9888077      4.0216074      50218.233      36.893836      36.893836      36.893836    
   9770000   0.52183574    -7.7659325     -6.98319        4.0503107      50218.233      36.893836      36.893836      36.893836    
   9780000   0.5194566     -7.7630695     -6.9838957      4.061422       50218.233      36.893836      36.893836      36.893836    
   9790000   0.5191477     -7.770778      -6.9920675      4.0016208      50218.233      36.893836      36.893836      36.893836    
   9800000   0.51735154    -7.7663035     -6.9902872      4.027978       50218.233      36.893836      36.893836      36.893836    
   9810000   0.52023401    -7.7652695     -6.9849296      4.0547196      50218.233      36.893836      36.893836      36.893836    
   9820000   0.5233861     -7.7703995     -6.9853315      4.0100835      50218.233      36.893836      36.893836      36.893836    
   9830000   0.52005217    -7.7641519     -6.9840847      4.0544435      50218.233      36.893836      36.893836      36.893836    
   9840000   0.5229892     -7.7648186     -6.980346       4.0675663      50218.233      36.893836      36.893836      36.893836    
   9850000   0.51959126    -7.7693808     -6.990005       4.0223025      50218.233      36.893836      36.893836      36.893836    
   9860000   0.52170852    -7.769728      -6.9871764      4.0277747      50218.233      36.893836      36.893836      36.893836    
   9870000   0.52011757    -7.763781      -6.9836158      4.060024       50218.233      36.893836      36.893836      36.893836    
   9880000   0.5205133     -7.7646295     -6.9838707      4.0612187      50218.233      36.893836      36.893836      36.893836    
   9890000   0.52035901    -7.7724796     -6.9919521      4.0149763      50218.233      36.893836      36.893836      36.893836    
   9900000   0.52102606    -7.7670635     -6.9855355      4.034439       50218.233      36.893836      36.893836      36.893836    
   9910000   0.52078138    -7.7685026     -6.9873416      4.0202131      50218.233      36.893836      36.893836      36.893836    
   9920000   0.52339514    -7.7622108     -6.9771293      4.0817254      50218.233      36.893836      36.893836      36.893836    
   9930000   0.51989274    -7.7659766     -6.9861486      4.0498346      50218.233      36.893836      36.893836      36.893836    
   9940000   0.51839938    -7.7609814     -6.9833934      4.0795678      50218.233      36.893836      36.893836      36.893836    
   9950000   0.51980501    -7.7669365     -6.98724        4.0403115      50218.233      36.893836      36.893836      36.893836    
   9960000   0.51973652    -7.7643573     -6.9847636      4.0542728      50218.233      36.893836      36.893836      36.893836    
   9970000   0.52262611    -7.7659016     -6.9819736      4.0420054      50218.233      36.893836      36.893836      36.893836    
   9980000   0.5181673     -7.7682083     -6.9909684      4.0142841      50218.233      36.893836      36.893836      36.893836    
   9990000   0.51992699    -7.7672286     -6.9873493      4.0340488      50218.233      36.893836      36.893836      36.893836    
  10000000   0.51848315    -7.7656951     -6.9879814      4.0390067      50218.233      36.893836      36.893836      36.893836    
Loop time of 13694.3 on 5 procs for 10000000 steps with 70304 atoms

Performance: 630917.431 tau/day, 730.229 timesteps/s, 51.338 Matom-step/s
94.9% CPU use with 5 MPI tasks x 1 OpenMP threads

MPI task timing breakdown:
Section |  min time  |  avg time  |  max time  |%varavg| %total
---------------------------------------------------------------
Pair    | 4033.1     | 4778.4     | 6044       |1086.4 | 34.89
Neigh   | 48.006     | 50.186     | 53.542     |  27.0 |  0.37
Comm    | 2279.9     | 2301.3     | 2319.6     |  29.0 | 16.80
Output  | 0.1767     | 0.1818     | 0.19004    |   1.1 |  0.00
Modify  | 4596.3     | 5857.1     | 6599.2     | 983.9 | 42.77
Other   |            | 707.2      |            |       |  5.16

Nlocal:        14060.8 ave       14078 max       14034 min
Histogram: 1 0 0 0 1 0 0 1 1 1
Nghost:          18758 ave       18796 max       18707 min
Histogram: 1 0 0 1 0 0 1 1 0 1
Neighs:              0 ave           0 max           0 min
Histogram: 5 0 0 0 0 0 0 0 0 0

Total # of neighbors = 0
Ave neighs/atom = 0
Neighbor list builds = 2077723
Dangerous builds = 0
clear
OMP_NUM_THREADS environment is not set. Defaulting to 1 thread. (src/comm.cpp:98)
  using 1 OpenMP thread(s) per MPI task
package gpu 0
jump dms500.lmp

variable T equal 500
# T = 1000* (temp in LJ unit)
variable f equal 10000
log log.${T}
log log.500
