variable TLJ equal (${T}/1000)
variable TLJ equal (530/1000)
variable NCyle equal 10
variable iStep equal (${f})
variable iStep equal (1000)
variable dumpStep equal (${f}*100)
variable dumpStep equal (1000*100)
variable runStep equal (${f}*100*${NCyle})
variable runStep equal (1000*100*${NCyle})
variable runStep equal (1000*100*10)

units       lj
atom_style  atomic
dimension 3
boundary     p p p
pair_style  lj/cut 2.5
read_data  ../data/T${T}.dat
read_data  ../data/T530.dat
Reading data file ...
  orthogonal box = (0.97250269 0.97250269 0.97250269) to (37.866338 37.866338 37.866338)
  1 by 1 by 1 MPI processor grid
  reading atoms ...
  70304 atoms
  reading velocities ...
  70304 velocities
  read_data CPU = 0.224 seconds
change_box all triclinic
Changing box ...
  triclinic box = (0.97250269 0.97250269 0.97250269) to (37.866338 37.866338 37.866338) with tilt (0 0 0)
mass 1 1
mass 2 1
pair_modify shift yes
pair_coeff  1 1 1 1
pair_coeff  1 2 1.5 0.8
pair_coeff  2 2 0.5 0.88


timestep 0.01
thermo ${iStep}
thermo 1000
reset_timestep 0
thermo_style custom step temp pe etotal press vol lx ly lz
fix             1 all nvt temp ${TLJ}  ${TLJ}  0.1
fix             1 all nvt temp 0.53  ${TLJ}  0.1
fix             1 all nvt temp 0.53  0.53  0.1
thermo_modify flush yes

fix dsf all deform 1 xy  wiggle 0.5  ${f}   units box
fix dsf all deform 1 xy  wiggle 0.5  1000   units box
fix ps1 all ave/time 1 1 ${iStep} c_thermo_press[1] c_thermo_press[2]  c_thermo_press[3] c_thermo_press[4]  c_thermo_press[5] c_thermo_press[6]  file  stress.${T}
fix ps1 all ave/time 1 1 1000 c_thermo_press[1] c_thermo_press[2]  c_thermo_press[3] c_thermo_press[4]  c_thermo_press[5] c_thermo_press[6]  file  stress.${T}
fix ps1 all ave/time 1 1 1000 c_thermo_press[1] c_thermo_press[2]  c_thermo_press[3] c_thermo_press[4]  c_thermo_press[5] c_thermo_press[6]  file  stress.530
dump            1 all custom ${dumpStep} dump.${T} id type x y z
dump            1 all custom 100000 dump.${T} id type x y z
dump            1 all custom 100000 dump.530 id type x y z
dump_modify 1 sort id
fix nodrift all momentum 1  linear 1 1 1
fix com_seed all recenter INIT INIT INIT shift all
run ${runStep}
run 1000000
Generated 0 of 1 mixed pair_coeff terms from geometric mixing rule
Per MPI rank memory allocation (min/avg/max) = 21.17 | 21.17 | 21.17 Mbytes
   Step          Temp          PotEng         TotEng         Press          Volume           Lx             Ly             Lz      
         0   0.53158081    -7.7646825     -6.9673226      4.0761466      50218.233      36.893836      36.893836      36.893836    
      1000   0.52912182    -7.7533106     -6.9596391      4.1675484      50218.233      36.893836      36.893836      36.893836    
      2000   0.53207404    -7.7568817     -6.958782       4.1293359      50218.233      36.893836      36.893836      36.893836    
      3000   0.53227923    -7.7555296     -6.9571221      4.1469667      50218.233      36.893836      36.893836      36.893836    
      4000   0.53012029    -7.7480052     -6.9528361      4.2098304      50218.233      36.893836      36.893836      36.893836    
      5000   0.53002568    -7.7561959     -6.9611687      4.1406255      50218.233      36.893836      36.893836      36.893836    
      6000   0.53066959    -7.7486661     -6.9526731      4.2035895      50218.233      36.893836      36.893836      36.893836    
      7000   0.52677822    -7.7505111     -6.960355       4.1725469      50218.233      36.893836      36.893836      36.893836    
      8000   0.53025165    -7.7545702     -6.9592041      4.1510407      50218.233      36.893836      36.893836      36.893836    
      9000   0.53124492    -7.7543007     -6.9574447      4.1445432      50218.233      36.893836      36.893836      36.893836    
     10000   0.525356      -7.7502015     -6.9621787      4.1758192      50218.233      36.893836      36.893836      36.893836    
     11000   0.52770435    -7.7513172     -6.9597719      4.1738816      50218.233      36.893836      36.893836      36.893836    
     12000   0.52880852    -7.7500863     -6.9568848      4.1784971      50218.233      36.893836      36.893836      36.893836    
     13000   0.53349368    -7.7537495     -6.9535204      4.1567888      50218.233      36.893836      36.893836      36.893836    
     14000   0.53055578    -7.7506706     -6.9548482      4.1710619      50218.233      36.893836      36.893836      36.893836    
     15000   0.53090225    -7.7460294     -6.9496874      4.2132672      50218.233      36.893836      36.893836      36.893836    
     16000   0.5293157     -7.7506803     -6.956718       4.1734958      50218.233      36.893836      36.893836      36.893836    
     17000   0.53322684    -7.7506692     -6.9508403      4.1919761      50218.233      36.893836      36.893836      36.893836    
     18000   0.53068893    -7.7518807     -6.9558586      4.1675787      50218.233      36.893836      36.893836      36.893836    
     19000   0.53152393    -7.7519734     -6.9546989      4.172399       50218.233      36.893836      36.893836      36.893836    
     20000   0.53186517    -7.7511909     -6.9534045      4.1809902      50218.233      36.893836      36.893836      36.893836    
     21000   0.52960264    -7.7504762     -6.9560835      4.1671681      50218.233      36.893836      36.893836      36.893836    
     22000   0.53242291    -7.7512733     -6.9526503      4.1857754      50218.233      36.893836      36.893836      36.893836    
     23000   0.53230605    -7.7472811     -6.9488334      4.1993575      50218.233      36.893836      36.893836      36.893836    
     24000   0.53252482    -7.7547324     -6.9559565      4.1393428      50218.233      36.893836      36.893836      36.893836    
     25000   0.53076423    -7.7490899     -6.9529549      4.1966383      50218.233      36.893836      36.893836      36.893836    
     26000   0.52786743    -7.7485284     -6.9567385      4.1947984      50218.233      36.893836      36.893836      36.893836    
     27000   0.53125762    -7.7489645     -6.9520894      4.1895015      50218.233      36.893836      36.893836      36.893836    
     28000   0.53130168    -7.7506419     -6.9537008      4.1779486      50218.233      36.893836      36.893836      36.893836    
     29000   0.52918583    -7.7513154     -6.9575479      4.1700716      50218.233      36.893836      36.893836      36.893836    
     30000   0.53103052    -7.7506835     -6.954149       4.1743776      50218.233      36.893836      36.893836      36.893836    
     31000   0.52821519    -7.7508169     -6.9585054      4.16862        50218.233      36.893836      36.893836      36.893836    
     32000   0.5276587     -7.7462968     -6.95482        4.196632       50218.233      36.893836      36.893836      36.893836    
     33000   0.5306147     -7.755645      -6.9597342      4.1523846      50218.233      36.893836      36.893836      36.893836    
     34000   0.52897105    -7.7492276     -6.9557823      4.1855166      50218.233      36.893836      36.893836      36.893836    
     35000   0.52919179    -7.7477473     -6.9539709      4.2083813      50218.233      36.893836      36.893836      36.893836    
     36000   0.53038054    -7.7476108     -6.9520513      4.1928061      50218.233      36.893836      36.893836      36.893836    
     37000   0.5313263     -7.746601      -6.9496229      4.2060701      50218.233      36.893836      36.893836      36.893836    
     38000   0.52495406    -7.7498346     -6.9624147      4.1732598      50218.233      36.893836      36.893836      36.893836    
     39000   0.53119893    -7.7519235     -6.9551365      4.1775631      50218.233      36.893836      36.893836      36.893836    
     40000   0.53078002    -7.7468074     -6.9506487      4.2062038      50218.233      36.893836      36.893836      36.893836    
     41000   0.52900242    -7.7500038     -6.9565115      4.1687933      50218.233      36.893836      36.893836      36.893836    
     42000   0.52997229    -7.7548675     -6.9599204      4.1516658      50218.233      36.893836      36.893836      36.893836    
     43000   0.53149059    -7.7502581     -6.9530336      4.1852636      50218.233      36.893836      36.893836      36.893836    
     44000   0.52810191    -7.7520414     -6.9598998      4.1597381      50218.233      36.893836      36.893836      36.893836    
     45000   0.52963355    -7.7505726     -6.9561336      4.1788215      50218.233      36.893836      36.893836      36.893836    
     46000   0.52872883    -7.7540234     -6.9609414      4.1522457      50218.233      36.893836      36.893836      36.893836    
     47000   0.52914546    -7.7507444     -6.9570375      4.1737687      50218.233      36.893836      36.893836      36.893836    
     48000   0.53027622    -7.7475002     -6.9520972      4.201469       50218.233      36.893836      36.893836      36.893836    
     49000   0.52888639    -7.7508727     -6.9575543      4.180384       50218.233      36.893836      36.893836      36.893836    
     50000   0.52840834    -7.7521062     -6.959505       4.1645103      50218.233      36.893836      36.893836      36.893836    
     51000   0.53011899    -7.7486045     -6.9534373      4.1875944      50218.233      36.893836      36.893836      36.893836    
     52000   0.53056511    -7.7497618     -6.9539254      4.1914404      50218.233      36.893836      36.893836      36.893836    
     53000   0.528089      -7.7498855     -6.9577633      4.1786352      50218.233      36.893836      36.893836      36.893836    
     54000   0.52786816    -7.7530466     -6.9612556      4.1505268      50218.233      36.893836      36.893836      36.893836    
     55000   0.53065834    -7.7533777     -6.9574015      4.1454689      50218.233      36.893836      36.893836      36.893836    
     56000   0.52887353    -7.7488596     -6.9555605      4.1849097      50218.233      36.893836      36.893836      36.893836    
     57000   0.52977324    -7.745501      -6.9508525      4.20567        50218.233      36.893836      36.893836      36.893836    
     58000   0.53049243    -7.7510632     -6.9553359      4.1679817      50218.233      36.893836      36.893836      36.893836    
     59000   0.53211198    -7.7517686     -6.9536119      4.1698256      50218.233      36.893836      36.893836      36.893836    
     60000   0.53054186    -7.7517778     -6.9559763      4.1572334      50218.233      36.893836      36.893836      36.893836    
     61000   0.53015507    -7.7494161     -6.9541948      4.1769892      50218.233      36.893836      36.893836      36.893836    
     62000   0.53014154    -7.7506527     -6.9554517      4.1694634      50218.233      36.893836      36.893836      36.893836    
     63000   0.52846415    -7.7505977     -6.9579127      4.1706258      50218.233      36.893836      36.893836      36.893836    
     64000   0.52859521    -7.7442253     -6.9513438      4.2143218      50218.233      36.893836      36.893836      36.893836    
     65000   0.53204433    -7.7459918     -6.9479366      4.1995966      50218.233      36.893836      36.893836      36.893836    
     66000   0.5330208     -7.7460218     -6.946502       4.2183339      50218.233      36.893836      36.893836      36.893836    
     67000   0.52744451    -7.7497132     -6.9585577      4.1788119      50218.233      36.893836      36.893836      36.893836    
     68000   0.52990875    -7.7457682     -6.9509164      4.2116639      50218.233      36.893836      36.893836      36.893836    
     69000   0.52865448    -7.7474019     -6.9544315      4.1862091      50218.233      36.893836      36.893836      36.893836    
     70000   0.52562595    -7.7478962     -6.9594685      4.1907769      50218.233      36.893836      36.893836      36.893836    
     71000   0.5298819     -7.7477527     -6.9529412      4.1959944      50218.233      36.893836      36.893836      36.893836    
     72000   0.53102791    -7.745078      -6.9485474      4.2325507      50218.233      36.893836      36.893836      36.893836    
     73000   0.53057329    -7.7438054     -6.9479568      4.2237595      50218.233      36.893836      36.893836      36.893836    
     74000   0.53050742    -7.7465773     -6.9508275      4.2072635      50218.233      36.893836      36.893836      36.893836    
     75000   0.52904136    -7.7456369     -6.9520862      4.2188024      50218.233      36.893836      36.893836      36.893836    
     76000   0.52981409    -7.7502857     -6.9555759      4.1825996      50218.233      36.893836      36.893836      36.893836    
     77000   0.52858991    -7.7434144     -6.9505408      4.2300587      50218.233      36.893836      36.893836      36.893836    
     78000   0.52825973    -7.7504586     -6.9580803      4.1766391      50218.233      36.893836      36.893836      36.893836    
     79000   0.52650996    -7.7497003     -6.9599466      4.1722032      50218.233      36.893836      36.893836      36.893836    
     80000   0.53006909    -7.7484786     -6.9533863      4.1840508      50218.233      36.893836      36.893836      36.893836    
     81000   0.52589833    -7.7480334     -6.9591972      4.1838088      50218.233      36.893836      36.893836      36.893836    
     82000   0.52996288    -7.7484626     -6.9535296      4.1885088      50218.233      36.893836      36.893836      36.893836    
     83000   0.53242461    -7.7496466     -6.9510211      4.1872513      50218.233      36.893836      36.893836      36.893836    
     84000   0.52882462    -7.7480589     -6.9548332      4.2024646      50218.233      36.893836      36.893836      36.893836    
     85000   0.52827339    -7.7486164     -6.9562176      4.1821941      50218.233      36.893836      36.893836      36.893836    
     86000   0.5337697     -7.7491815     -6.9485384      4.1858138      50218.233      36.893836      36.893836      36.893836    
     87000   0.52787673    -7.7529489     -6.961145       4.162463       50218.233      36.893836      36.893836      36.893836    
     88000   0.53192414    -7.7470996     -6.9492248      4.2096565      50218.233      36.893836      36.893836      36.893836    
     89000   0.5304903     -7.7485591     -6.9528349      4.1892912      50218.233      36.893836      36.893836      36.893836    
     90000   0.52853763    -7.7484206     -6.9556254      4.1864156      50218.233      36.893836      36.893836      36.893836    
     91000   0.52949183    -7.7465724     -6.952346       4.2059532      50218.233      36.893836      36.893836      36.893836    
     92000   0.53016881    -7.7451453     -6.9499034      4.2225236      50218.233      36.893836      36.893836      36.893836    
     93000   0.52980806    -7.747724      -6.9530232      4.1975743      50218.233      36.893836      36.893836      36.893836    
     94000   0.52972575    -7.7489836     -6.9544063      4.1884909      50218.233      36.893836      36.893836      36.893836    
     95000   0.52863944    -7.7504082     -6.9574603      4.1863564      50218.233      36.893836      36.893836      36.893836    
     96000   0.52893191    -7.7517401     -6.9583535      4.1605754      50218.233      36.893836      36.893836      36.893836    
     97000   0.5292957     -7.7497681     -6.9558358      4.1735632      50218.233      36.893836      36.893836      36.893836    
     98000   0.52927841    -7.7447972     -6.9508909      4.2119395      50218.233      36.893836      36.893836      36.893836    
     99000   0.53001984    -7.7506399     -6.9556215      4.1705013      50218.233      36.893836      36.893836      36.893836    
    100000   0.5312782     -7.7487691     -6.9518631      4.1947738      50218.233      36.893836      36.893836      36.893836    
    101000   0.52973485    -7.7477797     -6.9531888      4.1956465      50218.233      36.893836      36.893836      36.893836    
    102000   0.5287367     -7.7531717     -6.960078       4.1524023      50218.233      36.893836      36.893836      36.893836    
    103000   0.53158246    -7.7496136     -6.9522512      4.1828922      50218.233      36.893836      36.893836      36.893836    
    104000   0.52989943    -7.7517593     -6.9569215      4.1630299      50218.233      36.893836      36.893836      36.893836    
    105000   0.5292603     -7.7474067     -6.9535276      4.2017267      50218.233      36.893836      36.893836      36.893836    
    106000   0.52931151    -7.7464719     -6.952516       4.2098751      50218.233      36.893836      36.893836      36.893836    
    107000   0.52997407    -7.7514045     -6.9564547      4.1839884      50218.233      36.893836      36.893836      36.893836    
    108000   0.52915034    -7.747659      -6.9539448      4.1921246      50218.233      36.893836      36.893836      36.893836    
    109000   0.53135325    -7.7474899     -6.9504714      4.1882964      50218.233      36.893836      36.893836      36.893836    
    110000   0.53113023    -7.7469803     -6.9502963      4.1974492      50218.233      36.893836      36.893836      36.893836    
    111000   0.53165951    -7.7462574     -6.9487795      4.2026675      50218.233      36.893836      36.893836      36.893836    
    112000   0.52894278    -7.745507      -6.9521041      4.2066982      50218.233      36.893836      36.893836      36.893836    
    113000   0.53034962    -7.7474742     -6.9519611      4.1939355      50218.233      36.893836      36.893836      36.893836    
    114000   0.52952659    -7.7476112     -6.9533326      4.20145        50218.233      36.893836      36.893836      36.893836    
    115000   0.53030218    -7.7449151     -6.9494731      4.2063015      50218.233      36.893836      36.893836      36.893836    
    116000   0.52862563    -7.7492278     -6.9563006      4.1786394      50218.233      36.893836      36.893836      36.893836    
    117000   0.53049293    -7.7491326     -6.9534045      4.1837392      50218.233      36.893836      36.893836      36.893836    
    118000   0.53262765    -7.7450161     -6.946086       4.2114201      50218.233      36.893836      36.893836      36.893836    
    119000   0.52919664    -7.747408      -6.9536243      4.1938502      50218.233      36.893836      36.893836      36.893836    
    120000   0.5297913     -7.750233      -6.9555573      4.1707491      50218.233      36.893836      36.893836      36.893836    
    121000   0.53198868    -7.7456973     -6.9477256      4.2114906      50218.233      36.893836      36.893836      36.893836    
    122000   0.53132338    -7.7440185     -6.9470447      4.2251198      50218.233      36.893836      36.893836      36.893836    
    123000   0.5278391     -7.7480795     -6.9563321      4.1841602      50218.233      36.893836      36.893836      36.893836    
    124000   0.53073534    -7.7465513     -6.9504597      4.2018147      50218.233      36.893836      36.893836      36.893836    
    125000   0.53053292    -7.7475268     -6.9517387      4.1986533      50218.233      36.893836      36.893836      36.893836    
    126000   0.53134324    -7.748467      -6.9514634      4.1804376      50218.233      36.893836      36.893836      36.893836    
    127000   0.52976848    -7.7448482     -6.9502067      4.2236799      50218.233      36.893836      36.893836      36.893836    
    128000   0.53014746    -7.7463468     -6.9511369      4.2124117      50218.233      36.893836      36.893836      36.893836    
    129000   0.53141898    -7.7447252     -6.9476081      4.2286991      50218.233      36.893836      36.893836      36.893836    
    130000   0.53019949    -7.7439096     -6.9486217      4.2362303      50218.233      36.893836      36.893836      36.893836    
    131000   0.52960069    -7.7471755     -6.9527857      4.2072043      50218.233      36.893836      36.893836      36.893836    
    132000   0.53194073    -7.7474058     -6.9495061      4.2110686      50218.233      36.893836      36.893836      36.893836    
    133000   0.52901254    -7.749257      -6.9557495      4.1928189      50218.233      36.893836      36.893836      36.893836    
    134000   0.52809578    -7.7473277     -6.9551953      4.2119028      50218.233      36.893836      36.893836      36.893836    
    135000   0.53403997    -7.7508816     -6.949833       4.1751971      50218.233      36.893836      36.893836      36.893836    
    136000   0.53011437    -7.7444519     -6.9492917      4.2298081      50218.233      36.893836      36.893836      36.893836    
    137000   0.53252519    -7.7445157     -6.9457392      4.2324179      50218.233      36.893836      36.893836      36.893836    
    138000   0.53100899    -7.7470063     -6.9505042      4.1988759      50218.233      36.893836      36.893836      36.893836    
    139000   0.52811954    -7.7476053     -6.9554373      4.2054267      50218.233      36.893836      36.893836      36.893836    
    140000   0.52812431    -7.7531415     -6.9609663      4.1637295      50218.233      36.893836      36.893836      36.893836    
    141000   0.53026139    -7.7504231     -6.9550424      4.1784969      50218.233      36.893836      36.893836      36.893836    
    142000   0.52658715    -7.7479771     -6.9581076      4.1930379      50218.233      36.893836      36.893836      36.893836    
    143000   0.53334268    -7.7519372     -6.9519346      4.1773106      50218.233      36.893836      36.893836      36.893836    
    144000   0.52803814    -7.7459702     -6.9539243      4.2065316      50218.233      36.893836      36.893836      36.893836    
    145000   0.52929753    -7.7530988     -6.9591638      4.1644565      50218.233      36.893836      36.893836      36.893836    
    146000   0.532013      -7.7485012     -6.9504931      4.2008347      50218.233      36.893836      36.893836      36.893836    
    147000   0.52883882    -7.7490819     -6.955835       4.1932462      50218.233      36.893836      36.893836      36.893836    
    148000   0.53126931    -7.7501207     -6.953228       4.1817174      50218.233      36.893836      36.893836      36.893836    
    149000   0.53041557    -7.752399      -6.956787       4.1597993      50218.233      36.893836      36.893836      36.893836    
    150000   0.53183953    -7.7474267     -6.9496787      4.1960402      50218.233      36.893836      36.893836      36.893836    
    151000   0.52825078    -7.75483       -6.9624651      4.1415148      50218.233      36.893836      36.893836      36.893836    
    152000   0.52997942    -7.749875      -6.9549172      4.1768041      50218.233      36.893836      36.893836      36.893836    
    153000   0.53050277    -7.7500341     -6.9542913      4.1905359      50218.233      36.893836      36.893836      36.893836    
    154000   0.52717833    -7.7484176     -6.9576613      4.1803376      50218.233      36.893836      36.893836      36.893836    
    155000   0.52874688    -7.7537553     -6.9606462      4.1554061      50218.233      36.893836      36.893836      36.893836    
    156000   0.53213887    -7.7520407     -6.9538437      4.1620142      50218.233      36.893836      36.893836      36.893836    
    157000   0.52818299    -7.7488286     -6.9565653      4.1798412      50218.233      36.893836      36.893836      36.893836    
    158000   0.531583      -7.7495844     -6.9522212      4.1845781      50218.233      36.893836      36.893836      36.893836    
    159000   0.52733699    -7.7483183     -6.957324       4.1918984      50218.233      36.893836      36.893836      36.893836    
    160000   0.53312671    -7.7543555     -6.9546768      4.1439915      50218.233      36.893836      36.893836      36.893836    
    161000   0.52846454    -7.7516594     -6.9589739      4.1666038      50218.233      36.893836      36.893836      36.893836    
    162000   0.52800974    -7.7477788     -6.9557755      4.1798006      50218.233      36.893836      36.893836      36.893836    
    163000   0.52836319    -7.7451757     -6.9526422      4.2150814      50218.233      36.893836      36.893836      36.893836    
    164000   0.52989558    -7.7466172     -6.9517851      4.2046095      50218.233      36.893836      36.893836      36.893836    
    165000   0.52894747    -7.7484884     -6.9550785      4.1880627      50218.233      36.893836      36.893836      36.893836    
    166000   0.52862706    -7.7457067     -6.9527774      4.2070782      50218.233      36.893836      36.893836      36.893836    
    167000   0.52907546    -7.7484911     -6.9548892      4.1879089      50218.233      36.893836      36.893836      36.893836    
    168000   0.5288682     -7.7488536     -6.9555626      4.1801634      50218.233      36.893836      36.893836      36.893836    
    169000   0.53150335    -7.7523686     -6.955125       4.1571849      50218.233      36.893836      36.893836      36.893836    
    170000   0.5286722     -7.7485199     -6.9555229      4.1952542      50218.233      36.893836      36.893836      36.893836    
    171000   0.53137053    -7.750265      -6.9532206      4.1757608      50218.233      36.893836      36.893836      36.893836    
    172000   0.53023107    -7.753811      -6.9584757      4.1587434      50218.233      36.893836      36.893836      36.893836    
    173000   0.5304292     -7.7448228     -6.9491903      4.2157042      50218.233      36.893836      36.893836      36.893836    
    174000   0.52854372    -7.7457008     -6.9528965      4.2046981      50218.233      36.893836      36.893836      36.893836    
    175000   0.5277621     -7.7470674     -6.9554355      4.1973447      50218.233      36.893836      36.893836      36.893836    
    176000   0.52800252    -7.7469691     -6.9549766      4.1847214      50218.233      36.893836      36.893836      36.893836    
    177000   0.52382608    -7.7480616     -6.9623337      4.1822028      50218.233      36.893836      36.893836      36.893836    
    178000   0.53044605    -7.7501571     -6.9544994      4.1660377      50218.233      36.893836      36.893836      36.893836    
    179000   0.52959611    -7.7491861     -6.9548033      4.1651172      50218.233      36.893836      36.893836      36.893836    
    180000   0.53446828    -7.7458263     -6.9441353      4.2081678      50218.233      36.893836      36.893836      36.893836    
    181000   0.53087123    -7.749475      -6.9531795      4.1732787      50218.233      36.893836      36.893836      36.893836    
    182000   0.52736221    -7.7501326     -6.9591006      4.1668806      50218.233      36.893836      36.893836      36.893836    
    183000   0.52853083    -7.7539981     -6.9612131      4.1466242      50218.233      36.893836      36.893836      36.893836    
    184000   0.52832107    -7.7475938     -6.9551234      4.1882727      50218.233      36.893836      36.893836      36.893836    
    185000   0.53055295    -7.7512354     -6.9554173      4.1693259      50218.233      36.893836      36.893836      36.893836    
    186000   0.53064719    -7.7499087     -6.9539492      4.1875553      50218.233      36.893836      36.893836      36.893836    
    187000   0.53067582    -7.7479765     -6.9519741      4.191534       50218.233      36.893836      36.893836      36.893836    
    188000   0.52797874    -7.7482469     -6.95629        4.1779808      50218.233      36.893836      36.893836      36.893836    
    189000   0.53431018    -7.750488      -6.9490341      4.1839298      50218.233      36.893836      36.893836      36.893836    
    190000   0.53108462    -7.751444      -6.9548284      4.1732526      50218.233      36.893836      36.893836      36.893836    
    191000   0.53221769    -7.7515439     -6.9532287      4.171405       50218.233      36.893836      36.893836      36.893836    
    192000   0.5298199     -7.7486833     -6.9539647      4.1928729      50218.233      36.893836      36.893836      36.893836    
    193000   0.52999316    -7.7512902     -6.9563117      4.1743222      50218.233      36.893836      36.893836      36.893836    
    194000   0.52688252    -7.7537229     -6.9634104      4.1405329      50218.233      36.893836      36.893836      36.893836    
    195000   0.52947569    -7.7514739     -6.9572717      4.1712421      50218.233      36.893836      36.893836      36.893836    
    196000   0.52938733    -7.7517407     -6.957671       4.1584578      50218.233      36.893836      36.893836      36.893836    
    197000   0.53328065    -7.7533308     -6.9534212      4.1531679      50218.233      36.893836      36.893836      36.893836    
    198000   0.52823935    -7.7439311     -6.9515833      4.2290807      50218.233      36.893836      36.893836      36.893836    
    199000   0.52798338    -7.747859      -6.9558952      4.1946099      50218.233      36.893836      36.893836      36.893836    
    200000   0.52870021    -7.7495274     -6.9564884      4.1720333      50218.233      36.893836      36.893836      36.893836    
    201000   0.5277306     -7.7504729     -6.9588883      4.1613436      50218.233      36.893836      36.893836      36.893836    
    202000   0.52826295    -7.7505523     -6.9581691      4.1718919      50218.233      36.893836      36.893836      36.893836    
    203000   0.53112238    -7.7496995     -6.9530273      4.178106       50218.233      36.893836      36.893836      36.893836    
    204000   0.52980433    -7.7479795     -6.9532843      4.1919104      50218.233      36.893836      36.893836      36.893836    
    205000   0.52769002    -7.751576      -6.9600522      4.1555289      50218.233      36.893836      36.893836      36.893836    
    206000   0.52721959    -7.7515797     -6.9607616      4.1564922      50218.233      36.893836      36.893836      36.893836    
    207000   0.5296237     -7.7537715     -6.9593473      4.1502698      50218.233      36.893836      36.893836      36.893836    
    208000   0.52921193    -7.7468134     -6.9530068      4.1963488      50218.233      36.893836      36.893836      36.893836    
    209000   0.52821172    -7.7474816     -6.9551752      4.2057006      50218.233      36.893836      36.893836      36.893836    
    210000   0.52986692    -7.7486312     -6.9538421      4.1747612      50218.233      36.893836      36.893836      36.893836    
    211000   0.52648574    -7.7456005     -6.9558831      4.1883057      50218.233      36.893836      36.893836      36.893836    
    212000   0.52953889    -7.7479059     -6.9536089      4.1963894      50218.233      36.893836      36.893836      36.893836    
    213000   0.52840289    -7.7522976     -6.9597045      4.1541991      50218.233      36.893836      36.893836      36.893836    
    214000   0.52961591    -7.7461367     -6.9517242      4.2058711      50218.233      36.893836      36.893836      36.893836    
    215000   0.52808444    -7.7474345     -6.9553191      4.2008549      50218.233      36.893836      36.893836      36.893836    
    216000   0.52759284    -7.7466942     -6.9553162      4.2060081      50218.233      36.893836      36.893836      36.893836    
    217000   0.53304506    -7.7482254     -6.9486691      4.2066246      50218.233      36.893836      36.893836      36.893836    
    218000   0.53007307    -7.7463609     -6.9512626      4.2037929      50218.233      36.893836      36.893836      36.893836    
    219000   0.5294135     -7.748139      -6.9540301      4.1909175      50218.233      36.893836      36.893836      36.893836    
    220000   0.52910351    -7.7483992     -6.9547552      4.2000083      50218.233      36.893836      36.893836      36.893836    
    221000   0.53066545    -7.7479081     -6.9519212      4.1973356      50218.233      36.893836      36.893836      36.893836    
    222000   0.52946987    -7.7443392     -6.9501457      4.2282561      50218.233      36.893836      36.893836      36.893836    
    223000   0.53243308    -7.7434933     -6.944855       4.2381139      50218.233      36.893836      36.893836      36.893836    
    224000   0.52915236    -7.7482158     -6.9544986      4.1837826      50218.233      36.893836      36.893836      36.893836    
    225000   0.52884665    -7.7487573     -6.9554986      4.1864889      50218.233      36.893836      36.893836      36.893836    
    226000   0.53015301    -7.7463016     -6.9510834      4.1952531      50218.233      36.893836      36.893836      36.893836    
    227000   0.52937835    -7.7479156     -6.9538594      4.1893307      50218.233      36.893836      36.893836      36.893836    
    228000   0.52712493    -7.7453473     -6.9546712      4.2015212      50218.233      36.893836      36.893836      36.893836    
    229000   0.52981627    -7.7479865     -6.9532734      4.1844834      50218.233      36.893836      36.893836      36.893836    
    230000   0.53196562    -7.7454753     -6.9475382      4.2222997      50218.233      36.893836      36.893836      36.893836    
    231000   0.52625069    -7.7428963     -6.9535315      4.2234836      50218.233      36.893836      36.893836      36.893836    
    232000   0.53236506    -7.7474062     -6.94887        4.1970199      50218.233      36.893836      36.893836      36.893836    
    233000   0.53183351    -7.7522942     -6.9545552      4.1639067      50218.233      36.893836      36.893836      36.893836    
    234000   0.52962782    -7.7424754     -6.9480449      4.2262192      50218.233      36.893836      36.893836      36.893836    
    235000   0.52680297    -7.7432916     -6.9530984      4.2314203      50218.233      36.893836      36.893836      36.893836    
    236000   0.5296281     -7.74593       -6.9514991      4.2008323      50218.233      36.893836      36.893836      36.893836    
    237000   0.52693744    -7.7443822     -6.9539873      4.2182346      50218.233      36.893836      36.893836      36.893836    
    238000   0.5307567     -7.7456339     -6.9495102      4.2184204      50218.233      36.893836      36.893836      36.893836    
    239000   0.52998665    -7.7463469     -6.9513782      4.19684        50218.233      36.893836      36.893836      36.893836    
    240000   0.52936384    -7.7449522     -6.9509177      4.2121382      50218.233      36.893836      36.893836      36.893836    
    241000   0.52986161    -7.7495078     -6.9547267      4.1876922      50218.233      36.893836      36.893836      36.893836    
    242000   0.52906617    -7.7485774     -6.9549895      4.1808769      50218.233      36.893836      36.893836      36.893836    
    243000   0.52929638    -7.7490862     -6.9551529      4.1829794      50218.233      36.893836      36.893836      36.893836    
    244000   0.53141817    -7.7466612     -6.9495453      4.2035809      50218.233      36.893836      36.893836      36.893836    
    245000   0.52898249    -7.7449195     -6.951457       4.2099615      50218.233      36.893836      36.893836      36.893836    
    246000   0.52885038    -7.7457649     -6.9525006      4.2082042      50218.233      36.893836      36.893836      36.893836    
    247000   0.530703      -7.7431871     -6.9471439      4.2156995      50218.233      36.893836      36.893836      36.893836    
    248000   0.52891099    -7.7470835     -6.9537283      4.1947678      50218.233      36.893836      36.893836      36.893836    
    249000   0.52785445    -7.7486433     -6.9568729      4.1915789      50218.233      36.893836      36.893836      36.893836    
    250000   0.53338933    -7.7472256     -6.9471529      4.2009187      50218.233      36.893836      36.893836      36.893836    
    251000   0.52777862    -7.7449738     -6.9533171      4.2098813      50218.233      36.893836      36.893836      36.893836    
    252000   0.52795451    -7.751043      -6.9591225      4.1729525      50218.233      36.893836      36.893836      36.893836    
    253000   0.52983935    -7.7468495     -6.9521018      4.1973242      50218.233      36.893836      36.893836      36.893836    
    254000   0.53098742    -7.7458161     -6.9493463      4.2095162      50218.233      36.893836      36.893836      36.893836    
    255000   0.52928567    -7.7480572     -6.95414        4.1900742      50218.233      36.893836      36.893836      36.893836    
    256000   0.53228535    -7.747144      -6.9487273      4.2016981      50218.233      36.893836      36.893836      36.893836    
    257000   0.53165582    -7.7458999     -6.9484275      4.2187066      50218.233      36.893836      36.893836      36.893836    
    258000   0.52896948    -7.749357      -6.9559141      4.1952023      50218.233      36.893836      36.893836      36.893836    
    259000   0.52897859    -7.7434813     -6.9500247      4.218118       50218.233      36.893836      36.893836      36.893836    
    260000   0.52973409    -7.743803      -6.9492132      4.2189155      50218.233      36.893836      36.893836      36.893836    
    261000   0.52759585    -7.7445959     -6.9532134      4.2194297      50218.233      36.893836      36.893836      36.893836    
    262000   0.5310837     -7.7472252     -6.950611       4.1971916      50218.233      36.893836      36.893836      36.893836    
    263000   0.52950086    -7.7453594     -6.9511194      4.2097624      50218.233      36.893836      36.893836      36.893836    
    264000   0.53023486    -7.7415217     -6.9461807      4.2406586      50218.233      36.893836      36.893836      36.893836    
    265000   0.53157278    -7.7444725     -6.9471247      4.2227043      50218.233      36.893836      36.893836      36.893836    
    266000   0.5294123     -7.7456097     -6.9515025      4.2063487      50218.233      36.893836      36.893836      36.893836    
    267000   0.52967824    -7.7438615     -6.9493554      4.2164071      50218.233      36.893836      36.893836      36.893836    
    268000   0.52818025    -7.7440239     -6.9517648      4.2224302      50218.233      36.893836      36.893836      36.893836    
    269000   0.53043082    -7.7456652     -6.9500303      4.2102969      50218.233      36.893836      36.893836      36.893836    
    270000   0.52946729    -7.7516734     -6.9574838      4.1606833      50218.233      36.893836      36.893836      36.893836    
    271000   0.52893368    -7.7479526     -6.9545633      4.1870762      50218.233      36.893836      36.893836      36.893836    
    272000   0.5306905     -7.744207      -6.9481825      4.2241457      50218.233      36.893836      36.893836      36.893836    
    273000   0.53166405    -7.7436842     -6.9461995      4.2271842      50218.233      36.893836      36.893836      36.893836    
    274000   0.52857275    -7.7432741     -6.9504262      4.2327359      50218.233      36.893836      36.893836      36.893836    
    275000   0.52955905    -7.7435688     -6.9492416      4.2189966      50218.233      36.893836      36.893836      36.893836    
    276000   0.53025077    -7.7457481     -6.9503832      4.2080607      50218.233      36.893836      36.893836      36.893836    
    277000   0.52851239    -7.7456309     -6.9528736      4.2202278      50218.233      36.893836      36.893836      36.893836    
    278000   0.52802275    -7.7502889     -6.9582661      4.1801191      50218.233      36.893836      36.893836      36.893836    
    279000   0.5268904     -7.7471839     -6.9568595      4.1988011      50218.233      36.893836      36.893836      36.893836    
    280000   0.53388345    -7.7423847     -6.9415709      4.2361424      50218.233      36.893836      36.893836      36.893836    
    281000   0.53131363    -7.7449142     -6.9479551      4.2210364      50218.233      36.893836      36.893836      36.893836    
    282000   0.53155164    -7.7465817     -6.9492656      4.2005365      50218.233      36.893836      36.893836      36.893836    
    283000   0.530746      -7.7462916     -6.9501839      4.2137681      50218.233      36.893836      36.893836      36.893836    
    284000   0.52969475    -7.7478469     -6.9533161      4.1917553      50218.233      36.893836      36.893836      36.893836    
    285000   0.53038349    -7.7478619     -6.952298       4.1953786      50218.233      36.893836      36.893836      36.893836    
    286000   0.52979491    -7.7413348     -6.9466537      4.239128       50218.233      36.893836      36.893836      36.893836    
    287000   0.52922956    -7.7496466     -6.9558136      4.174851       50218.233      36.893836      36.893836      36.893836    
    288000   0.52977284    -7.7491508     -6.9545028      4.1853339      50218.233      36.893836      36.893836      36.893836    
    289000   0.52833798    -7.7427928     -6.9502971      4.2287161      50218.233      36.893836      36.893836      36.893836    
    290000   0.53327816    -7.7434639     -6.9435581      4.2339745      50218.233      36.893836      36.893836      36.893836    
    291000   0.53120166    -7.7524158     -6.9556246      4.1655189      50218.233      36.893836      36.893836      36.893836    
    292000   0.53059068    -7.7438804     -6.9480057      4.2201835      50218.233      36.893836      36.893836      36.893836    
    293000   0.52970652    -7.7470914     -6.9525429      4.1959282      50218.233      36.893836      36.893836      36.893836    
    294000   0.52818668    -7.7514278     -6.9591591      4.1686123      50218.233      36.893836      36.893836      36.893836    
    295000   0.53040871    -7.7462541     -6.9506524      4.2049276      50218.233      36.893836      36.893836      36.893836    
    296000   0.53245511    -7.7516855     -6.9530142      4.1795324      50218.233      36.893836      36.893836      36.893836    
    297000   0.53054386    -7.7464048     -6.9506003      4.2120826      50218.233      36.893836      36.893836      36.893836    
    298000   0.53127744    -7.7479023     -6.9509975      4.1823742      50218.233      36.893836      36.893836      36.893836    
    299000   0.52876987    -7.7475561     -6.9544126      4.186322       50218.233      36.893836      36.893836      36.893836    
    300000   0.53149674    -7.7502403     -6.9530066      4.187975       50218.233      36.893836      36.893836      36.893836    
    301000   0.52942583    -7.747955      -6.9538276      4.1924776      50218.233      36.893836      36.893836      36.893836    
    302000   0.53073445    -7.7445414     -6.9484511      4.2287813      50218.233      36.893836      36.893836      36.893836    
    303000   0.52955485    -7.7509776     -6.9566566      4.1660927      50218.233      36.893836      36.893836      36.893836    
    304000   0.53035613    -7.7508232     -6.9553004      4.1751913      50218.233      36.893836      36.893836      36.893836    
    305000   0.52964694    -7.747813      -6.9533539      4.1995656      50218.233      36.893836      36.893836      36.893836    
    306000   0.53049482    -7.7482418     -6.9525109      4.197086       50218.233      36.893836      36.893836      36.893836    
    307000   0.52768936    -7.7453214     -6.9537986      4.2193418      50218.233      36.893836      36.893836      36.893836    
    308000   0.52761706    -7.7492025     -6.9577882      4.1801706      50218.233      36.893836      36.893836      36.893836    
    309000   0.52852209    -7.7450374     -6.9522655      4.2189042      50218.233      36.893836      36.893836      36.893836    
    310000   0.52927013    -7.7442102     -6.9503163      4.2216797      50218.233      36.893836      36.893836      36.893836    
    311000   0.5307924     -7.7486        -6.9524227      4.1941395      50218.233      36.893836      36.893836      36.893836    
    312000   0.53040957    -7.748975      -6.953372       4.1873454      50218.233      36.893836      36.893836      36.893836    
    313000   0.53072214    -7.7487384     -6.9526665      4.1833353      50218.233      36.893836      36.893836      36.893836    
    314000   0.53116862    -7.7485572     -6.9518156      4.2028495      50218.233      36.893836      36.893836      36.893836    
    315000   0.53311264    -7.7525843     -6.9529267      4.1647939      50218.233      36.893836      36.893836      36.893836    
    316000   0.52955432    -7.7472337     -6.9529135      4.1975268      50218.233      36.893836      36.893836      36.893836    
    317000   0.52979183    -7.7466146     -6.9519382      4.2048598      50218.233      36.893836      36.893836      36.893836    
    318000   0.52612737    -7.7463102     -6.9571304      4.2015722      50218.233      36.893836      36.893836      36.893836    
    319000   0.52781398    -7.746145      -6.9544353      4.2047244      50218.233      36.893836      36.893836      36.893836    
    320000   0.53207522    -7.7442901     -6.9461886      4.2284241      50218.233      36.893836      36.893836      36.893836    
    321000   0.52910572    -7.7442533     -6.950606       4.2168737      50218.233      36.893836      36.893836      36.893836    
    322000   0.53025163    -7.7498689     -6.9545028      4.1806755      50218.233      36.893836      36.893836      36.893836    
    323000   0.53193447    -7.7465077     -6.9486173      4.199118       50218.233      36.893836      36.893836      36.893836    
    324000   0.53033239    -7.7468538     -6.9513666      4.1933971      50218.233      36.893836      36.893836      36.893836    
    325000   0.52949976    -7.7477938     -6.9535555      4.1849563      50218.233      36.893836      36.893836      36.893836    
    326000   0.53057222    -7.7528379     -6.9569909      4.1586762      50218.233      36.893836      36.893836      36.893836    
    327000   0.53231443    -7.7485092     -6.9500489      4.1904319      50218.233      36.893836      36.893836      36.893836    
    328000   0.5308736     -7.7489252     -6.9526262      4.178931       50218.233      36.893836      36.893836      36.893836    
    329000   0.52906372    -7.745905      -6.9523207      4.201984       50218.233      36.893836      36.893836      36.893836    
    330000   0.52892136    -7.7444457     -6.9510749      4.197962       50218.233      36.893836      36.893836      36.893836    
    331000   0.52972178    -7.7476847     -6.9531133      4.1904227      50218.233      36.893836      36.893836      36.893836    
    332000   0.53149102    -7.7504273     -6.9532021      4.169889       50218.233      36.893836      36.893836      36.893836    
    333000   0.52955691    -7.7473453     -6.9530212      4.1853126      50218.233      36.893836      36.893836      36.893836    
    334000   0.53379929    -7.7499328     -6.9492452      4.1890544      50218.233      36.893836      36.893836      36.893836    
    335000   0.53138121    -7.7457028     -6.9486423      4.212177       50218.233      36.893836      36.893836      36.893836    
    336000   0.53047625    -7.7491683     -6.9534653      4.1883553      50218.233      36.893836      36.893836      36.893836    
    337000   0.53232962    -7.7469509     -6.9484678      4.2006798      50218.233      36.893836      36.893836      36.893836    
    338000   0.53102369    -7.747335      -6.9508107      4.2007624      50218.233      36.893836      36.893836      36.893836    
    339000   0.52822802    -7.7450874     -6.9527567      4.2114985      50218.233      36.893836      36.893836      36.893836    
    340000   0.53292262    -7.7500122     -6.9506396      4.176323       50218.233      36.893836      36.893836      36.893836    
    341000   0.53150882    -7.751028      -6.9537762      4.1791362      50218.233      36.893836      36.893836      36.893836    
    342000   0.52952192    -7.7488471     -6.9545755      4.1806103      50218.233      36.893836      36.893836      36.893836    
    343000   0.52759422    -7.7469221     -6.955542       4.1967734      50218.233      36.893836      36.893836      36.893836    
    344000   0.52907863    -7.7488739     -6.9552673      4.1830788      50218.233      36.893836      36.893836      36.893836    
    345000   0.53198205    -7.7496688     -6.9517071      4.1904191      50218.233      36.893836      36.893836      36.893836    
    346000   0.52848719    -7.7445296     -6.9518101      4.216988       50218.233      36.893836      36.893836      36.893836    
    347000   0.52982128    -7.7475833     -6.9528626      4.1951414      50218.233      36.893836      36.893836      36.893836    
    348000   0.52786864    -7.7504666     -6.9586749      4.1701583      50218.233      36.893836      36.893836      36.893836    
    349000   0.53175555    -7.7489764     -6.9513544      4.189117       50218.233      36.893836      36.893836      36.893836    
    350000   0.52910313    -7.7474763     -6.9538329      4.1987713      50218.233      36.893836      36.893836      36.893836    
    351000   0.53076302    -7.7513229     -6.9551897      4.162764       50218.233      36.893836      36.893836      36.893836    
    352000   0.53148463    -7.7476909     -6.9504752      4.1967255      50218.233      36.893836      36.893836      36.893836    
    353000   0.53187597    -7.7479683     -6.9501657      4.1936224      50218.233      36.893836      36.893836      36.893836    
    354000   0.52959124    -7.7513847     -6.9570091      4.1648143      50218.233      36.893836      36.893836      36.893836    
    355000   0.52990906    -7.7447656     -6.9499133      4.2034542      50218.233      36.893836      36.893836      36.893836    
    356000   0.52861547    -7.7423198     -6.9494079      4.2325601      50218.233      36.893836      36.893836      36.893836    
    357000   0.53070316    -7.7492176     -6.9531742      4.1858317      50218.233      36.893836      36.893836      36.893836    
    358000   0.53081536    -7.7488233     -6.9526116      4.1936767      50218.233      36.893836      36.893836      36.893836    
    359000   0.52955115    -7.7447736     -6.9504581      4.2235557      50218.233      36.893836      36.893836      36.893836    
    360000   0.53056167    -7.7476714     -6.9518402      4.197951       50218.233      36.893836      36.893836      36.893836    
    361000   0.53124925    -7.7448716     -6.948009       4.220105       50218.233      36.893836      36.893836      36.893836    
    362000   0.52948751    -7.7497814     -6.9555614      4.1836248      50218.233      36.893836      36.893836      36.893836    
    363000   0.53129373    -7.7478804     -6.9509511      4.2013265      50218.233      36.893836      36.893836      36.893836    
    364000   0.53010519    -7.749481      -6.9543345      4.1989609      50218.233      36.893836      36.893836      36.893836    
    365000   0.52974912    -7.7441305     -6.9495181      4.2192856      50218.233      36.893836      36.893836      36.893836    
    366000   0.52961434    -7.7481991     -6.9537889      4.1891509      50218.233      36.893836      36.893836      36.893836    
    367000   0.53036428    -7.7456035     -6.9500684      4.2146417      50218.233      36.893836      36.893836      36.893836    
    368000   0.5308059     -7.7470174     -6.9508199      4.2044737      50218.233      36.893836      36.893836      36.893836    
    369000   0.52831595    -7.7464166     -6.9539539      4.1980976      50218.233      36.893836      36.893836      36.893836    
    370000   0.52874545    -7.7476384     -6.9545315      4.1898822      50218.233      36.893836      36.893836      36.893836    
    371000   0.52794055    -7.7478514     -6.9559519      4.2000356      50218.233      36.893836      36.893836      36.893836    
    372000   0.52968414    -7.74223       -6.9477151      4.2254274      50218.233      36.893836      36.893836      36.893836    
    373000   0.53270698    -7.7482649     -6.9492158      4.1928863      50218.233      36.893836      36.893836      36.893836    
    374000   0.5301832     -7.748906      -6.9536425      4.1844313      50218.233      36.893836      36.893836      36.893836    
    375000   0.52950042    -7.7465224     -6.9522831      4.1997116      50218.233      36.893836      36.893836      36.893836    
    376000   0.52585531    -7.7480801     -6.9593084      4.1818608      50218.233      36.893836      36.893836      36.893836    
    377000   0.52894194    -7.7517556     -6.958354       4.1502174      50218.233      36.893836      36.893836      36.893836    
    378000   0.53248179    -7.7479526     -6.9492413      4.1949446      50218.233      36.893836      36.893836      36.893836    
    379000   0.5318017     -7.7452992     -6.947608       4.2062023      50218.233      36.893836      36.893836      36.893836    
    380000   0.53090192    -7.7441514     -6.9478098      4.2201783      50218.233      36.893836      36.893836      36.893836    
    381000   0.53064888    -7.7489443     -6.9529823      4.1739443      50218.233      36.893836      36.893836      36.893836    
    382000   0.53023838    -7.7465069     -6.9511606      4.2071575      50218.233      36.893836      36.893836      36.893836    
    383000   0.52893431    -7.7473796     -6.9539894      4.1837904      50218.233      36.893836      36.893836      36.893836    
    384000   0.53045943    -7.7454186     -6.9497408      4.2068044      50218.233      36.893836      36.893836      36.893836    
    385000   0.53314329    -7.7485762     -6.9488726      4.1838391      50218.233      36.893836      36.893836      36.893836    
    386000   0.53239245    -7.7441438     -6.9455665      4.2179019      50218.233      36.893836      36.893836      36.893836    
    387000   0.52874042    -7.7519201     -6.9588207      4.154752       50218.233      36.893836      36.893836      36.893836    
    388000   0.52980125    -7.7495191     -6.9548285      4.1688464      50218.233      36.893836      36.893836      36.893836    
    389000   0.53085884    -7.7494254     -6.9531485      4.1690272      50218.233      36.893836      36.893836      36.893836    
    390000   0.52826519    -7.746126      -6.9537395      4.1910334      50218.233      36.893836      36.893836      36.893836    
    391000   0.52888925    -7.7476938     -6.9543712      4.1826358      50218.233      36.893836      36.893836      36.893836    
    392000   0.52982992    -7.7468538     -6.9521202      4.2030694      50218.233      36.893836      36.893836      36.893836    
    393000   0.53060567    -7.7438897     -6.9479925      4.2250224      50218.233      36.893836      36.893836      36.893836    
    394000   0.53134686    -7.7515317     -6.9545227      4.1693403      50218.233      36.893836      36.893836      36.893836    
    395000   0.53088712    -7.7469862     -6.9506669      4.2072771      50218.233      36.893836      36.893836      36.893836    
    396000   0.52863794    -7.7488013     -6.9558557      4.1874008      50218.233      36.893836      36.893836      36.893836    
    397000   0.53192311    -7.7484696     -6.9505963      4.1852238      50218.233      36.893836      36.893836      36.893836    
    398000   0.52708049    -7.7426546     -6.9520451      4.2303356      50218.233      36.893836      36.893836      36.893836    
    399000   0.53126231    -7.7484515     -6.9515693      4.17915        50218.233      36.893836      36.893836      36.893836    
    400000   0.53092702    -7.75208       -6.9557008      4.1657992      50218.233      36.893836      36.893836      36.893836    
    401000   0.53042511    -7.749109      -6.9534827      4.18557        50218.233      36.893836      36.893836      36.893836    
    402000   0.53048277    -7.7444846     -6.9487718      4.2119822      50218.233      36.893836      36.893836      36.893836    
    403000   0.531675      -7.7497469     -6.9522457      4.1769639      50218.233      36.893836      36.893836      36.893836    
    404000   0.53045637    -7.7461101     -6.9504368      4.2066516      50218.233      36.893836      36.893836      36.893836    
    405000   0.52923577    -7.7487464     -6.954904       4.190347       50218.233      36.893836      36.893836      36.893836    
    406000   0.52937692    -7.7471273     -6.9530732      4.1956611      50218.233      36.893836      36.893836      36.893836    
    407000   0.52811136    -7.7493194     -6.9571636      4.1725971      50218.233      36.893836      36.893836      36.893836    
    408000   0.53245052    -7.748765      -6.9501006      4.1890524      50218.233      36.893836      36.893836      36.893836    
    409000   0.52902799    -7.7503892     -6.9568585      4.1766805      50218.233      36.893836      36.893836      36.893836    
    410000   0.52855498    -7.7459405     -6.9531193      4.2063531      50218.233      36.893836      36.893836      36.893836    
    411000   0.53052877    -7.7483998     -6.952618       4.1895802      50218.233      36.893836      36.893836      36.893836    
    412000   0.52743011    -7.7450567     -6.9539227      4.1975901      50218.233      36.893836      36.893836      36.893836    
    413000   0.53180401    -7.7483898     -6.9506951      4.1992479      50218.233      36.893836      36.893836      36.893836    
    414000   0.53083665    -7.745178      -6.9489344      4.2128113      50218.233      36.893836      36.893836      36.893836    
    415000   0.53047222    -7.7491965     -6.9534994      4.1957064      50218.233      36.893836      36.893836      36.893836    
    416000   0.53209516    -7.7534401     -6.9553087      4.1673321      50218.233      36.893836      36.893836      36.893836    
    417000   0.53158183    -7.7497667     -6.9524053      4.174483       50218.233      36.893836      36.893836      36.893836    
    418000   0.52917293    -7.7471123     -6.9533642      4.2039697      50218.233      36.893836      36.893836      36.893836    
    419000   0.53029087    -7.7485739     -6.9531489      4.1865636      50218.233      36.893836      36.893836      36.893836    
    420000   0.52946442    -7.7493771     -6.9551918      4.184245       50218.233      36.893836      36.893836      36.893836    
    421000   0.5306429     -7.7502158     -6.9542628      4.1718643      50218.233      36.893836      36.893836      36.893836    
    422000   0.53010463    -7.7507358     -6.9555902      4.1800154      50218.233      36.893836      36.893836      36.893836    
    423000   0.52979811    -7.7502893     -6.9556035      4.178865       50218.233      36.893836      36.893836      36.893836    
    424000   0.52917043    -7.7482258     -6.9544815      4.1802404      50218.233      36.893836      36.893836      36.893836    
    425000   0.52896325    -7.7496374     -6.9562038      4.1733132      50218.233      36.893836      36.893836      36.893836    
    426000   0.53058852    -7.7507512     -6.9548797      4.1774963      50218.233      36.893836      36.893836      36.893836    
    427000   0.53098717    -7.7496435     -6.9531741      4.1735573      50218.233      36.893836      36.893836      36.893836    
    428000   0.52931607    -7.7487071     -6.9547442      4.1837335      50218.233      36.893836      36.893836      36.893836    
    429000   0.52800304    -7.7481898     -6.9561965      4.1931493      50218.233      36.893836      36.893836      36.893836    
    430000   0.53162861    -7.746482      -6.9490504      4.2051592      50218.233      36.893836      36.893836      36.893836    
    431000   0.53097596    -7.7514672     -6.9550146      4.1693         50218.233      36.893836      36.893836      36.893836    
    432000   0.52702489    -7.7486698     -6.9581437      4.1862718      50218.233      36.893836      36.893836      36.893836    
    433000   0.5332822     -7.7509493     -6.9510374      4.167074       50218.233      36.893836      36.893836      36.893836    
    434000   0.53084364    -7.7453403     -6.9490862      4.2132713      50218.233      36.893836      36.893836      36.893836    
    435000   0.52936407    -7.746058      -6.9520232      4.2151442      50218.233      36.893836      36.893836      36.893836    
    436000   0.52973447    -7.7449487     -6.9503583      4.2259068      50218.233      36.893836      36.893836      36.893836    
    437000   0.52817998    -7.7472483     -6.9549896      4.2014872      50218.233      36.893836      36.893836      36.893836    
    438000   0.52890047    -7.7472692     -6.9539298      4.1850126      50218.233      36.893836      36.893836      36.893836    
    439000   0.52953449    -7.7511708     -6.9568804      4.1650123      50218.233      36.893836      36.893836      36.893836    
    440000   0.53159388    -7.750318      -6.9529385      4.1730145      50218.233      36.893836      36.893836      36.893836    
    441000   0.5308849     -7.752154      -6.955838       4.1668279      50218.233      36.893836      36.893836      36.893836    
    442000   0.53214107    -7.7513227     -6.9531225      4.1694924      50218.233      36.893836      36.893836      36.893836    
    443000   0.52843319    -7.7482536     -6.9556151      4.1930928      50218.233      36.893836      36.893836      36.893836    
    444000   0.52820106    -7.74937       -6.9570797      4.171698       50218.233      36.893836      36.893836      36.893836    
    445000   0.5295642     -7.7440683     -6.9497333      4.2214696      50218.233      36.893836      36.893836      36.893836    
    446000   0.526495      -7.7488501     -6.9591188      4.185794       50218.233      36.893836      36.893836      36.893836    
    447000   0.52881509    -7.7495454     -6.9563341      4.1763644      50218.233      36.893836      36.893836      36.893836    
    448000   0.52935509    -7.750692      -6.9566707      4.1681955      50218.233      36.893836      36.893836      36.893836    
    449000   0.52696319    -7.7485928     -6.9581593      4.1773451      50218.233      36.893836      36.893836      36.893836    
    450000   0.53162515    -7.7509189     -6.9534925      4.1717971      50218.233      36.893836      36.893836      36.893836    
    451000   0.53422113    -7.7485818     -6.9472615      4.2022612      50218.233      36.893836      36.893836      36.893836    
    452000   0.52916929    -7.7481675     -6.9544248      4.1901946      50218.233      36.893836      36.893836      36.893836    
    453000   0.53111111    -7.7488042     -6.9521489      4.1861373      50218.233      36.893836      36.893836      36.893836    
    454000   0.52980148    -7.7502717     -6.9555808      4.1751344      50218.233      36.893836      36.893836      36.893836    
    455000   0.52925647    -7.7504983     -6.9566249      4.1770145      50218.233      36.893836      36.893836      36.893836    
    456000   0.53168831    -7.7488705     -6.9513494      4.1904094      50218.233      36.893836      36.893836      36.893836    
    457000   0.53061873    -7.7466751     -6.9507584      4.2015113      50218.233      36.893836      36.893836      36.893836    
    458000   0.53002979    -7.7493346     -6.9543012      4.1708417      50218.233      36.893836      36.893836      36.893836    
    459000   0.53191146    -7.7480147     -6.9501588      4.196579       50218.233      36.893836      36.893836      36.893836    
    460000   0.52909507    -7.7511461     -6.9575148      4.1695924      50218.233      36.893836      36.893836      36.893836    
    461000   0.52945936    -7.7470232     -6.9528455      4.1841556      50218.233      36.893836      36.893836      36.893836    
    462000   0.52924928    -7.7490109     -6.9551482      4.1791803      50218.233      36.893836      36.893836      36.893836    
    463000   0.53005421    -7.7496909     -6.9546209      4.1776922      50218.233      36.893836      36.893836      36.893836    
    464000   0.53090728    -7.7422262     -6.9458766      4.2482442      50218.233      36.893836      36.893836      36.893836    
    465000   0.53134851    -7.7499107     -6.9528993      4.1777029      50218.233      36.893836      36.893836      36.893836    
    466000   0.52879421    -7.7485712     -6.9553912      4.1846725      50218.233      36.893836      36.893836      36.893836    
    467000   0.53032714    -7.7490458     -6.9535664      4.1783374      50218.233      36.893836      36.893836      36.893836    
    468000   0.53067772    -7.7476239     -6.9516187      4.1989605      50218.233      36.893836      36.893836      36.893836    
    469000   0.53020313    -7.7482491     -6.9529557      4.1980595      50218.233      36.893836      36.893836      36.893836    
    470000   0.53008124    -7.7438453     -6.9487347      4.2190139      50218.233      36.893836      36.893836      36.893836    
    471000   0.52839152    -7.7530786     -6.9605026      4.1555967      50218.233      36.893836      36.893836      36.893836    
    472000   0.5327321     -7.7528946     -6.9538078      4.1629697      50218.233      36.893836      36.893836      36.893836    
    473000   0.52889926    -7.751476      -6.9581384      4.1653568      50218.233      36.893836      36.893836      36.893836    
    474000   0.53004371    -7.7491272     -6.9540729      4.1875981      50218.233      36.893836      36.893836      36.893836    
    475000   0.52919946    -7.7479426     -6.9541547      4.1898869      50218.233      36.893836      36.893836      36.893836    
    476000   0.5294335     -7.7508973     -6.9567583      4.1725637      50218.233      36.893836      36.893836      36.893836    
    477000   0.5308755     -7.7464098     -6.9501079      4.2114604      50218.233      36.893836      36.893836      36.893836    
    478000   0.52679963    -7.7492308     -6.9590426      4.1773062      50218.233      36.893836      36.893836      36.893836    
    479000   0.5313267     -7.7447017     -6.947723       4.2267688      50218.233      36.893836      36.893836      36.893836    
    480000   0.53442514    -7.7479503     -6.946324       4.2042674      50218.233      36.893836      36.893836      36.893836    
    481000   0.53077941    -7.7482135     -6.9520557      4.1996245      50218.233      36.893836      36.893836      36.893836    
    482000   0.5332149     -7.7499371     -6.9501261      4.1878493      50218.233      36.893836      36.893836      36.893836    
    483000   0.53133132    -7.7495815     -6.9525959      4.1976958      50218.233      36.893836      36.893836      36.893836    
    484000   0.53157461    -7.7479862     -6.9506356      4.1974383      50218.233      36.893836      36.893836      36.893836    
    485000   0.53126465    -7.7492042     -6.9523186      4.1860055      50218.233      36.893836      36.893836      36.893836    
    486000   0.52809242    -7.7491145     -6.9569872      4.1749804      50218.233      36.893836      36.893836      36.893836    
    487000   0.53079609    -7.7538958     -6.957713       4.1418812      50218.233      36.893836      36.893836      36.893836    
    488000   0.52947521    -7.7478704     -6.9536688      4.1994885      50218.233      36.893836      36.893836      36.893836    
    489000   0.5307185     -7.7449208     -6.9488544      4.2130499      50218.233      36.893836      36.893836      36.893836    
    490000   0.52959432    -7.7510235     -6.9566433      4.1683675      50218.233      36.893836      36.893836      36.893836    
    491000   0.53132136    -7.7473909     -6.9504202      4.1999922      50218.233      36.893836      36.893836      36.893836    
    492000   0.53116033    -7.7508292     -6.9541001      4.1743931      50218.233      36.893836      36.893836      36.893836    
    493000   0.52800013    -7.7488482     -6.9568593      4.1848163      50218.233      36.893836      36.893836      36.893836    
    494000   0.52618368    -7.7439397     -6.9546754      4.2139462      50218.233      36.893836      36.893836      36.893836    
    495000   0.52983895    -7.7496017     -6.9548546      4.1865646      50218.233      36.893836      36.893836      36.893836    
    496000   0.52905754    -7.7516653     -6.9580903      4.1682617      50218.233      36.893836      36.893836      36.893836    
    497000   0.53033435    -7.7467827     -6.9512925      4.2067357      50218.233      36.893836      36.893836      36.893836    
    498000   0.52990933    -7.7507021     -6.9558495      4.1743746      50218.233      36.893836      36.893836      36.893836    
    499000   0.53099229    -7.7517729     -6.9552958      4.1679303      50218.233      36.893836      36.893836      36.893836    
    500000   0.52956825    -7.7489749     -6.9546338      4.188012       50218.233      36.893836      36.893836      36.893836    
    501000   0.53351053    -7.7485583     -6.9483038      4.1980066      50218.233      36.893836      36.893836      36.893836    
    502000   0.53087811    -7.7471666     -6.9508608      4.1923727      50218.233      36.893836      36.893836      36.893836    
    503000   0.53068158    -7.7460312     -6.9500201      4.2051064      50218.233      36.893836      36.893836      36.893836    
    504000   0.52803899    -7.745522      -6.9534748      4.2108971      50218.233      36.893836      36.893836      36.893836    
    505000   0.53024438    -7.7508149     -6.9554596      4.1732173      50218.233      36.893836      36.893836      36.893836    
    506000   0.5302164     -7.7464466     -6.9511333      4.2111091      50218.233      36.893836      36.893836      36.893836    
    507000   0.53138128    -7.7534286     -6.956368       4.1634621      50218.233      36.893836      36.893836      36.893836    
    508000   0.53094838    -7.7506887     -6.9542774      4.1776495      50218.233      36.893836      36.893836      36.893836    
    509000   0.53379       -7.7525245     -6.9518509      4.1564193      50218.233      36.893836      36.893836      36.893836    
    510000   0.53043081    -7.7488059     -6.953171       4.1829426      50218.233      36.893836      36.893836      36.893836    
    511000   0.52960451    -7.7502619     -6.9558664      4.1638851      50218.233      36.893836      36.893836      36.893836    
    512000   0.52777589    -7.7451564     -6.9535038      4.2106103      50218.233      36.893836      36.893836      36.893836    
    513000   0.53068688    -7.7474996     -6.9514806      4.208354       50218.233      36.893836      36.893836      36.893836    
    514000   0.52870269    -7.7476875     -6.9546447      4.1952375      50218.233      36.893836      36.893836      36.893836    
    515000   0.53019373    -7.7491119     -6.9538327      4.1803373      50218.233      36.893836      36.893836      36.893836    
    516000   0.5293673     -7.7463541     -6.9523144      4.20201        50218.233      36.893836      36.893836      36.893836    
    517000   0.52997183    -7.7491821     -6.9542357      4.1906578      50218.233      36.893836      36.893836      36.893836    
    518000   0.52963152    -7.7489709     -6.9545349      4.1800257      50218.233      36.893836      36.893836      36.893836    
    519000   0.52793915    -7.7484116     -6.9565141      4.1824434      50218.233      36.893836      36.893836      36.893836    
    520000   0.53110828    -7.7444199     -6.9477688      4.2240367      50218.233      36.893836      36.893836      36.893836    
    521000   0.53119588    -7.7470257     -6.9502432      4.2105123      50218.233      36.893836      36.893836      36.893836    
    522000   0.52853684    -7.7488624     -6.9560684      4.1803029      50218.233      36.893836      36.893836      36.893836    
    523000   0.52980182    -7.7445959     -6.9499045      4.2214699      50218.233      36.893836      36.893836      36.893836    
    524000   0.53121391    -7.7525436     -6.955734       4.1585675      50218.233      36.893836      36.893836      36.893836    
    525000   0.53395257    -7.7479047     -6.9469873      4.2034539      50218.233      36.893836      36.893836      36.893836    
    526000   0.5318131     -7.7474887     -6.9497804      4.2050718      50218.233      36.893836      36.893836      36.893836    
    527000   0.53037047    -7.7495559     -6.9540115      4.1799438      50218.233      36.893836      36.893836      36.893836    
    528000   0.53088042    -7.7492184     -6.9529091      4.1818836      50218.233      36.893836      36.893836      36.893836    
    529000   0.52838171    -7.7475988     -6.9550375      4.1879327      50218.233      36.893836      36.893836      36.893836    
    530000   0.52848611    -7.7443589     -6.951641       4.2300914      50218.233      36.893836      36.893836      36.893836    
    531000   0.52884076    -7.7444861     -6.9512362      4.2314957      50218.233      36.893836      36.893836      36.893836    
    532000   0.52660421    -7.7514599     -6.9615648      4.1596527      50218.233      36.893836      36.893836      36.893836    
    533000   0.52916675    -7.7474111     -6.9536722      4.1972248      50218.233      36.893836      36.893836      36.893836    
    534000   0.52739317    -7.7488446     -6.9577661      4.1808827      50218.233      36.893836      36.893836      36.893836    
    535000   0.53023938    -7.7531576     -6.9578098      4.1518869      50218.233      36.893836      36.893836      36.893836    
    536000   0.52786161    -7.7520345     -6.9602534      4.1659678      50218.233      36.893836      36.893836      36.893836    
    537000   0.53184522    -7.7498568     -6.9521003      4.1881025      50218.233      36.893836      36.893836      36.893836    
    538000   0.52988836    -7.7488842     -6.9540629      4.19101        50218.233      36.893836      36.893836      36.893836    
    539000   0.52933349    -7.7513179     -6.9573289      4.1747361      50218.233      36.893836      36.893836      36.893836    
    540000   0.52952413    -7.7497248     -6.9554499      4.17575        50218.233      36.893836      36.893836      36.893836    
    541000   0.53003163    -7.7487072     -6.9536711      4.1988793      50218.233      36.893836      36.893836      36.893836    
    542000   0.53009456    -7.7488934     -6.9537629      4.1927581      50218.233      36.893836      36.893836      36.893836    
    543000   0.53040581    -7.747522      -6.9519246      4.2032372      50218.233      36.893836      36.893836      36.893836    
    544000   0.53202346    -7.7494695     -6.9514456      4.1881906      50218.233      36.893836      36.893836      36.893836    
    545000   0.53168521    -7.7502382     -6.9527218      4.1755504      50218.233      36.893836      36.893836      36.893836    
    546000   0.53286388    -7.7446363     -6.9453519      4.2383853      50218.233      36.893836      36.893836      36.893836    
    547000   0.53101305    -7.7515306     -6.9550224      4.1576017      50218.233      36.893836      36.893836      36.893836    
    548000   0.52964747    -7.750706      -6.9562461      4.1681995      50218.233      36.893836      36.893836      36.893836    
    549000   0.52842491    -7.7483095     -6.9556834      4.1841722      50218.233      36.893836      36.893836      36.893836    
    550000   0.52961042    -7.7505239     -6.9561196      4.1608498      50218.233      36.893836      36.893836      36.893836    
    551000   0.52945512    -7.7502431     -6.9560717      4.1776677      50218.233      36.893836      36.893836      36.893836    
    552000   0.5289123     -7.7505401     -6.9571829      4.168436       50218.233      36.893836      36.893836      36.893836    
    553000   0.52987809    -7.7480667     -6.9532609      4.1741294      50218.233      36.893836      36.893836      36.893836    
    554000   0.52875659    -7.7527443     -6.9596207      4.1465327      50218.233      36.893836      36.893836      36.893836    
    555000   0.53137443    -7.7445057     -6.9474554      4.219153       50218.233      36.893836      36.893836      36.893836    
    556000   0.5284731     -7.7439202     -6.9512218      4.2246795      50218.233      36.893836      36.893836      36.893836    
    557000   0.5276102     -7.7535722     -6.9621682      4.1477129      50218.233      36.893836      36.893836      36.893836    
    558000   0.53229436    -7.749811      -6.9513808      4.1780455      50218.233      36.893836      36.893836      36.893836    
    559000   0.53136224    -7.7468766     -6.9498445      4.1985465      50218.233      36.893836      36.893836      36.893836    
    560000   0.53204938    -7.7496937     -6.951631       4.1876991      50218.233      36.893836      36.893836      36.893836    
    561000   0.52901091    -7.7502765     -6.9567715      4.1758717      50218.233      36.893836      36.893836      36.893836    
    562000   0.52812603    -7.7497738     -6.957596       4.1792087      50218.233      36.893836      36.893836      36.893836    
    563000   0.52695325    -7.7425104     -6.9520918      4.2244468      50218.233      36.893836      36.893836      36.893836    
    564000   0.53280905    -7.7476111     -6.9484089      4.192565       50218.233      36.893836      36.893836      36.893836    
    565000   0.52659003    -7.7476744     -6.9578006      4.1883639      50218.233      36.893836      36.893836      36.893836    
    566000   0.53107598    -7.7486941     -6.9520915      4.1898015      50218.233      36.893836      36.893836      36.893836    
    567000   0.53048108    -7.7530681     -6.9573578      4.1506188      50218.233      36.893836      36.893836      36.893836    
    568000   0.52945679    -7.7522488     -6.958075       4.1528652      50218.233      36.893836      36.893836      36.893836    
    569000   0.52938288    -7.751283      -6.95722        4.1757663      50218.233      36.893836      36.893836      36.893836    
    570000   0.53180109    -7.7435761     -6.9458859      4.2254556      50218.233      36.893836      36.893836      36.893836    
    571000   0.53098477    -7.7504732     -6.9540074      4.1822532      50218.233      36.893836      36.893836      36.893836    
    572000   0.53184665    -7.7508145     -6.9530559      4.1675596      50218.233      36.893836      36.893836      36.893836    
    573000   0.53081808    -7.7481209     -6.9519051      4.1927439      50218.233      36.893836      36.893836      36.893836    
    574000   0.53024237    -7.7510738     -6.9557215      4.1647946      50218.233      36.893836      36.893836      36.893836    
    575000   0.529572      -7.7469878     -6.9526411      4.2029689      50218.233      36.893836      36.893836      36.893836    
    576000   0.53197336    -7.7539252     -6.9559765      4.143993       50218.233      36.893836      36.893836      36.893836    
    577000   0.52882243    -7.7470445     -6.9538222      4.1922554      50218.233      36.893836      36.893836      36.893836    
    578000   0.52692248    -7.7457493     -6.9553768      4.1925537      50218.233      36.893836      36.893836      36.893836    
    579000   0.53221622    -7.7444156     -6.9461026      4.2201181      50218.233      36.893836      36.893836      36.893836    
    580000   0.52737179    -7.7471633     -6.9561169      4.1967765      50218.233      36.893836      36.893836      36.893836    
    581000   0.52911292    -7.7497084     -6.9560503      4.1812166      50218.233      36.893836      36.893836      36.893836    
    582000   0.52862968    -7.7488552     -6.955922       4.1780749      50218.233      36.893836      36.893836      36.893836    
    583000   0.52882733    -7.7468763     -6.9536466      4.1987978      50218.233      36.893836      36.893836      36.893836    
    584000   0.53059328    -7.7481996     -6.952321       4.194876       50218.233      36.893836      36.893836      36.893836    
    585000   0.52752206    -7.7501832     -6.9589113      4.1692455      50218.233      36.893836      36.893836      36.893836    
    586000   0.53249973    -7.7486416     -6.9499034      4.1923065      50218.233      36.893836      36.893836      36.893836    
    587000   0.53096352    -7.7487993     -6.9523653      4.1840025      50218.233      36.893836      36.893836      36.893836    
    588000   0.5297598     -7.7490143     -6.9543859      4.1875422      50218.233      36.893836      36.893836      36.893836    
    589000   0.52997059    -7.7481836     -6.953239       4.1873722      50218.233      36.893836      36.893836      36.893836    
    590000   0.52870866    -7.7491803     -6.9561286      4.1823307      50218.233      36.893836      36.893836      36.893836    
    591000   0.52886855    -7.7448302     -6.9515387      4.2157615      50218.233      36.893836      36.893836      36.893836    
    592000   0.53079324    -7.7480907     -6.9519121      4.1881807      50218.233      36.893836      36.893836      36.893836    
    593000   0.53270761    -7.7503313     -6.9512813      4.1749188      50218.233      36.893836      36.893836      36.893836    
    594000   0.52859849    -7.7507785     -6.9578921      4.1702321      50218.233      36.893836      36.893836      36.893836    
    595000   0.52946635    -7.7504894     -6.9563012      4.1739821      50218.233      36.893836      36.893836      36.893836    
    596000   0.52937593    -7.7492269     -6.9551743      4.1941501      50218.233      36.893836      36.893836      36.893836    
    597000   0.53014553    -7.7528317     -6.9576247      4.1609584      50218.233      36.893836      36.893836      36.893836    
    598000   0.53395514    -7.7530044     -6.9520831      4.1754661      50218.233      36.893836      36.893836      36.893836    
    599000   0.53105445    -7.7488879     -6.9523175      4.184907       50218.233      36.893836      36.893836      36.893836    
    600000   0.53086751    -7.7475344     -6.9512444      4.2097197      50218.233      36.893836      36.893836      36.893836    
    601000   0.53020675    -7.7526022     -6.9573033      4.1683803      50218.233      36.893836      36.893836      36.893836    
    602000   0.52924678    -7.7451208     -6.9512619      4.2038697      50218.233      36.893836      36.893836      36.893836    
    603000   0.52992154    -7.7512819     -6.9564108      4.1634141      50218.233      36.893836      36.893836      36.893836    
    604000   0.53101184    -7.7512261     -6.9547197      4.1802976      50218.233      36.893836      36.893836      36.893836    
    605000   0.5306432     -7.7485402     -6.9525867      4.1881028      50218.233      36.893836      36.893836      36.893836    
    606000   0.53048353    -7.7436793     -6.9479654      4.2312809      50218.233      36.893836      36.893836      36.893836    
    607000   0.5334275     -7.7456271     -6.9454972      4.2173148      50218.233      36.893836      36.893836      36.893836    
    608000   0.52747712    -7.7529396     -6.9617352      4.1569087      50218.233      36.893836      36.893836      36.893836    
    609000   0.52730604    -7.7504594     -6.9595116      4.1752031      50218.233      36.893836      36.893836      36.893836    
    610000   0.53071529    -7.7496035     -6.9535419      4.1796837      50218.233      36.893836      36.893836      36.893836    
    611000   0.53049738    -7.7501612     -6.9544265      4.1848138      50218.233      36.893836      36.893836      36.893836    
    612000   0.53089129    -7.7465738     -6.9502482      4.19707        50218.233      36.893836      36.893836      36.893836    
    613000   0.53182804    -7.7487896     -6.9510588      4.188831       50218.233      36.893836      36.893836      36.893836    
    614000   0.53110717    -7.7466718     -6.9500224      4.2050313      50218.233      36.893836      36.893836      36.893836    
    615000   0.52967846    -7.7455237     -6.9510173      4.211777       50218.233      36.893836      36.893836      36.893836    
    616000   0.53182926    -7.7471255     -6.949393       4.2062088      50218.233      36.893836      36.893836      36.893836    
    617000   0.53244608    -7.7456765     -6.9470187      4.2203111      50218.233      36.893836      36.893836      36.893836    
    618000   0.53142943    -7.7489341     -6.9518013      4.1870735      50218.233      36.893836      36.893836      36.893836    
    619000   0.52984758    -7.7462508     -6.9514907      4.2084875      50218.233      36.893836      36.893836      36.893836    
    620000   0.52773161    -7.7499528     -6.9583666      4.1798284      50218.233      36.893836      36.893836      36.893836    
    621000   0.52831543    -7.7498466     -6.9573847      4.1763339      50218.233      36.893836      36.893836      36.893836    
    622000   0.52657547    -7.7477528     -6.9579008      4.1967279      50218.233      36.893836      36.893836      36.893836    
    623000   0.52943703    -7.7476585     -6.9535143      4.1958735      50218.233      36.893836      36.893836      36.893836    
    624000   0.53281559    -7.7482474     -6.9490353      4.1939475      50218.233      36.893836      36.893836      36.893836    
    625000   0.53122621    -7.7473407     -6.9505127      4.1968675      50218.233      36.893836      36.893836      36.893836    
    626000   0.53000446    -7.7486583     -6.953663       4.1750182      50218.233      36.893836      36.893836      36.893836    
    627000   0.52802362    -7.7481789     -6.9561547      4.1783245      50218.233      36.893836      36.893836      36.893836    
    628000   0.53119622    -7.7505491     -6.9537661      4.1849131      50218.233      36.893836      36.893836      36.893836    
    629000   0.53001321    -7.7474838     -6.9524753      4.1978954      50218.233      36.893836      36.893836      36.893836    
    630000   0.53007457    -7.7488622     -6.9537617      4.1941229      50218.233      36.893836      36.893836      36.893836    
    631000   0.52805989    -7.7473475     -6.9552689      4.1923609      50218.233      36.893836      36.893836      36.893836    
    632000   0.53182488    -7.7489179     -6.9511919      4.1961323      50218.233      36.893836      36.893836      36.893836    
    633000   0.52706237    -7.7466647     -6.9560824      4.2120251      50218.233      36.893836      36.893836      36.893836    
    634000   0.53124896    -7.7506631     -6.953801       4.1794177      50218.233      36.893836      36.893836      36.893836    
    635000   0.53043523    -7.7439312     -6.9482897      4.2369274      50218.233      36.893836      36.893836      36.893836    
    636000   0.53210918    -7.7511254     -6.952973       4.1663912      50218.233      36.893836      36.893836      36.893836    
    637000   0.52935087    -7.7478069     -6.9537919      4.195211       50218.233      36.893836      36.893836      36.893836    
    638000   0.53162748    -7.7438444     -6.9464145      4.2260538      50218.233      36.893836      36.893836      36.893836    
    639000   0.5340303     -7.7511544     -6.9501204      4.1682846      50218.233      36.893836      36.893836      36.893836    
    640000   0.53094918    -7.7519739     -6.9555615      4.1651971      50218.233      36.893836      36.893836      36.893836    
    641000   0.53305238    -7.7504171     -6.9508499      4.1858713      50218.233      36.893836      36.893836      36.893836    
    642000   0.53019165    -7.7525559     -6.9572797      4.1544549      50218.233      36.893836      36.893836      36.893836    
    643000   0.52847226    -7.7502931     -6.957596       4.1765796      50218.233      36.893836      36.893836      36.893836    
    644000   0.5276482     -7.7501484     -6.9586874      4.1739308      50218.233      36.893836      36.893836      36.893836    
    645000   0.53223241    -7.7530878     -6.9547505      4.1631448      50218.233      36.893836      36.893836      36.893836    
    646000   0.52809285    -7.7498916     -6.9577636      4.1805358      50218.233      36.893836      36.893836      36.893836    
    647000   0.52972912    -7.7489931     -6.9544107      4.189823       50218.233      36.893836      36.893836      36.893836    
    648000   0.52616876    -7.7431254     -6.9538835      4.2199236      50218.233      36.893836      36.893836      36.893836    
    649000   0.52911503    -7.749274      -6.9556127      4.1803942      50218.233      36.893836      36.893836      36.893836    
    650000   0.53058809    -7.7505097     -6.9546388      4.1697446      50218.233      36.893836      36.893836      36.893836    
    651000   0.52831334    -7.7490925     -6.9566338      4.176695       50218.233      36.893836      36.893836      36.893836    
    652000   0.52845808    -7.7496172     -6.9569414      4.1790203      50218.233      36.893836      36.893836      36.893836    
    653000   0.5305934     -7.7496997     -6.9538209      4.1730516      50218.233      36.893836      36.893836      36.893836    
    654000   0.53089325    -7.7482283     -6.9518997      4.1914969      50218.233      36.893836      36.893836      36.893836    
    655000   0.5304016     -7.7501878     -6.9545967      4.1631682      50218.233      36.893836      36.893836      36.893836    
    656000   0.53107839    -7.7534014     -6.9567951      4.1471818      50218.233      36.893836      36.893836      36.893836    
    657000   0.52862763    -7.7461964     -6.9532662      4.2059404      50218.233      36.893836      36.893836      36.893836    
    658000   0.52744442    -7.7464574     -6.955302       4.2037173      50218.233      36.893836      36.893836      36.893836    
    659000   0.53243476    -7.7516512     -6.9530104      4.1638182      50218.233      36.893836      36.893836      36.893836    
    660000   0.52692925    -7.7470964     -6.9567138      4.1837442      50218.233      36.893836      36.893836      36.893836    
    661000   0.53126544    -7.7484881     -6.9516013      4.1845812      50218.233      36.893836      36.893836      36.893836    
    662000   0.52846519    -7.7522081     -6.9595216      4.1494835      50218.233      36.893836      36.893836      36.893836    
    663000   0.52877179    -7.7489672     -6.9558208      4.1747585      50218.233      36.893836      36.893836      36.893836    
    664000   0.5255583     -7.7486017     -6.9602754      4.1736578      50218.233      36.893836      36.893836      36.893836    
    665000   0.53226911    -7.7478024     -6.9494101      4.2005685      50218.233      36.893836      36.893836      36.893836    
    666000   0.53367628    -7.7504182     -6.9499151      4.1712924      50218.233      36.893836      36.893836      36.893836    
    667000   0.53171404    -7.7457581     -6.9481983      4.2183205      50218.233      36.893836      36.893836      36.893836    
    668000   0.53241363    -7.7472644     -6.9486553      4.2061355      50218.233      36.893836      36.893836      36.893836    
    669000   0.53091987    -7.7493063     -6.9529378      4.1897298      50218.233      36.893836      36.893836      36.893836    
    670000   0.52960961    -7.7490267     -6.9546236      4.1894095      50218.233      36.893836      36.893836      36.893836    
    671000   0.52915412    -7.7465375     -6.9528176      4.2009761      50218.233      36.893836      36.893836      36.893836    
    672000   0.53055898    -7.7491929     -6.9533658      4.1842742      50218.233      36.893836      36.893836      36.893836    
    673000   0.52982524    -7.7507409     -6.9560143      4.1662972      50218.233      36.893836      36.893836      36.893836    
    674000   0.53296763    -7.7516304     -6.9521903      4.1658731      50218.233      36.893836      36.893836      36.893836    
    675000   0.52621908    -7.746195      -6.9568776      4.2069957      50218.233      36.893836      36.893836      36.893836    
    676000   0.52903677    -7.7480185     -6.9544746      4.1897625      50218.233      36.893836      36.893836      36.893836    
    677000   0.53016522    -7.7467941     -6.9515576      4.1918365      50218.233      36.893836      36.893836      36.893836    
    678000   0.52966668    -7.749934      -6.9554453      4.1735142      50218.233      36.893836      36.893836      36.893836    
    679000   0.53246212    -7.7503006     -6.9516188      4.1706291      50218.233      36.893836      36.893836      36.893836    
    680000   0.53030935    -7.7496458     -6.9541931      4.1789429      50218.233      36.893836      36.893836      36.893836    
    681000   0.52895042    -7.7476332     -6.9542189      4.2005607      50218.233      36.893836      36.893836      36.893836    
    682000   0.53379747    -7.7476275     -6.9469427      4.2086409      50218.233      36.893836      36.893836      36.893836    
    683000   0.52981894    -7.745798      -6.9510809      4.2118601      50218.233      36.893836      36.893836      36.893836    
    684000   0.52949725    -7.7443347     -6.9501001      4.2098865      50218.233      36.893836      36.893836      36.893836    
    685000   0.53088879    -7.7448812     -6.9485593      4.228546       50218.233      36.893836      36.893836      36.893836    
    686000   0.52905331    -7.7502011     -6.9566324      4.1802357      50218.233      36.893836      36.893836      36.893836    
    687000   0.53058418    -7.7503237     -6.9544588      4.1867124      50218.233      36.893836      36.893836      36.893836    
    688000   0.52691917    -7.7536548     -6.9632873      4.1417504      50218.233      36.893836      36.893836      36.893836    
    689000   0.52966863    -7.747679      -6.9531874      4.1955011      50218.233      36.893836      36.893836      36.893836    
    690000   0.5276781     -7.7499281     -6.9584222      4.1746761      50218.233      36.893836      36.893836      36.893836    
    691000   0.53229637    -7.7498991     -6.9514659      4.1802555      50218.233      36.893836      36.893836      36.893836    
    692000   0.52929048    -7.7478637     -6.9539392      4.1973563      50218.233      36.893836      36.893836      36.893836    
    693000   0.53312357    -7.7494856     -6.9498116      4.1867994      50218.233      36.893836      36.893836      36.893836    
    694000   0.52966687    -7.7466105     -6.9521215      4.2042923      50218.233      36.893836      36.893836      36.893836    
    695000   0.52973728    -7.7487547     -6.9541601      4.1894093      50218.233      36.893836      36.893836      36.893836    
    696000   0.52875954    -7.7506193     -6.9574913      4.182275       50218.233      36.893836      36.893836      36.893836    
    697000   0.526355      -7.7493319     -6.9598106      4.1779482      50218.233      36.893836      36.893836      36.893836    
    698000   0.53066349    -7.7523553     -6.9563713      4.1567417      50218.233      36.893836      36.893836      36.893836    
    699000   0.52898193    -7.7431836     -6.949722       4.2315206      50218.233      36.893836      36.893836      36.893836    
    700000   0.53137319    -7.7495388     -6.9524904      4.1883695      50218.233      36.893836      36.893836      36.893836    
    701000   0.52755616    -7.7504513     -6.9591283      4.1741464      50218.233      36.893836      36.893836      36.893836    
    702000   0.53064666    -7.7526029     -6.9566442      4.1647481      50218.233      36.893836      36.893836      36.893836    
    703000   0.52914543    -7.7488008     -6.9550939      4.1669842      50218.233      36.893836      36.893836      36.893836    
    704000   0.52941567    -7.75233       -6.9582178      4.1679249      50218.233      36.893836      36.893836      36.893836    
    705000   0.52919564    -7.7458041     -6.9520219      4.199759       50218.233      36.893836      36.893836      36.893836    
    706000   0.52541817    -7.7467055     -6.9585894      4.2126834      50218.233      36.893836      36.893836      36.893836    
    707000   0.52858882    -7.7515262     -6.9586543      4.1624499      50218.233      36.893836      36.893836      36.893836    
    708000   0.52828143    -7.7503956     -6.9579848      4.1718897      50218.233      36.893836      36.893836      36.893836    
    709000   0.53159223    -7.752852      -6.955475       4.1480514      50218.233      36.893836      36.893836      36.893836    
    710000   0.52805583    -7.7496867     -6.9576143      4.1862783      50218.233      36.893836      36.893836      36.893836    
    711000   0.53187548    -7.7470353     -6.9492334      4.1977544      50218.233      36.893836      36.893836      36.893836    
    712000   0.53003605    -7.7510721     -6.9560293      4.1720802      50218.233      36.893836      36.893836      36.893836    
    713000   0.53149403    -7.751973      -6.9547433      4.1701435      50218.233      36.893836      36.893836      36.893836    
    714000   0.52712939    -7.7448873     -6.9542044      4.2174866      50218.233      36.893836      36.893836      36.893836    
    715000   0.52833168    -7.7516636     -6.9591774      4.1682375      50218.233      36.893836      36.893836      36.893836    
    716000   0.53079374    -7.7528839     -6.9567046      4.1686046      50218.233      36.893836      36.893836      36.893836    
    717000   0.53199797    -7.7481623     -6.9501767      4.2083436      50218.233      36.893836      36.893836      36.893836    
    718000   0.53076545    -7.745837      -6.9497001      4.2018775      50218.233      36.893836      36.893836      36.893836    
    719000   0.53183823    -7.7427736     -6.9450276      4.2293935      50218.233      36.893836      36.893836      36.893836    
    720000   0.52710614    -7.7454833     -6.9548354      4.2099077      50218.233      36.893836      36.893836      36.893836    
    721000   0.52821833    -7.7467452     -6.954429       4.2102729      50218.233      36.893836      36.893836      36.893836    
    722000   0.5269839     -7.7469222     -6.9564575      4.1897093      50218.233      36.893836      36.893836      36.893836    
    723000   0.5289323     -7.7474964     -6.9541092      4.2035134      50218.233      36.893836      36.893836      36.893836    
    724000   0.53181518    -7.7468555     -6.9491441      4.1955         50218.233      36.893836      36.893836      36.893836    
    725000   0.52687014    -7.7487881     -6.9584942      4.1726262      50218.233      36.893836      36.893836      36.893836    
    726000   0.5319545     -7.7497243     -6.9518039      4.1752962      50218.233      36.893836      36.893836      36.893836    
    727000   0.5310963     -7.7451907     -6.9485576      4.2163723      50218.233      36.893836      36.893836      36.893836    
    728000   0.53082204    -7.7510533     -6.9548315      4.1736435      50218.233      36.893836      36.893836      36.893836    
    729000   0.53060745    -7.7491866     -6.9532867      4.187292       50218.233      36.893836      36.893836      36.893836    
    730000   0.52960436    -7.7489817     -6.9545864      4.1784661      50218.233      36.893836      36.893836      36.893836    
    731000   0.52658939    -7.7460437     -6.9561708      4.2064268      50218.233      36.893836      36.893836      36.893836    
    732000   0.52940657    -7.7504462     -6.9563477      4.171186       50218.233      36.893836      36.893836      36.893836    
    733000   0.52852237    -7.745091      -6.9523187      4.2114253      50218.233      36.893836      36.893836      36.893836    
    734000   0.53134972    -7.7489674     -6.9519541      4.192803       50218.233      36.893836      36.893836      36.893836    
    735000   0.53052905    -7.7478057     -6.9520235      4.1986833      50218.233      36.893836      36.893836      36.893836    
    736000   0.52789409    -7.7481355     -6.9563056      4.2054245      50218.233      36.893836      36.893836      36.893836    
    737000   0.52960681    -7.7482411     -6.9538422      4.1952042      50218.233      36.893836      36.893836      36.893836    
    738000   0.52939172    -7.751066      -6.9569897      4.176232       50218.233      36.893836      36.893836      36.893836    
    739000   0.52977601    -7.7483264     -6.9536737      4.1927093      50218.233      36.893836      36.893836      36.893836    
    740000   0.5291489     -7.7453075     -6.9515954      4.2157534      50218.233      36.893836      36.893836      36.893836    
    741000   0.53003238    -7.7471041     -6.9520669      4.2117592      50218.233      36.893836      36.893836      36.893836    
    742000   0.52893874    -7.7502036     -6.9568068      4.177205       50218.233      36.893836      36.893836      36.893836    
    743000   0.52950218    -7.7478887     -6.9536467      4.19076        50218.233      36.893836      36.893836      36.893836    
    744000   0.52792138    -7.7523044     -6.9604336      4.1605255      50218.233      36.893836      36.893836      36.893836    
    745000   0.52993327    -7.7488786     -6.95399        4.1893346      50218.233      36.893836      36.893836      36.893836    
    746000   0.52935004    -7.7523739     -6.9583601      4.1622353      50218.233      36.893836      36.893836      36.893836    
    747000   0.5274584     -7.7509295     -6.9597531      4.1653794      50218.233      36.893836      36.893836      36.893836    
    748000   0.53155589    -7.749288      -6.9519655      4.1909598      50218.233      36.893836      36.893836      36.893836    
    749000   0.52907413    -7.7483252     -6.9547253      4.1906313      50218.233      36.893836      36.893836      36.893836    
    750000   0.53216252    -7.7443886     -6.9461562      4.2225155      50218.233      36.893836      36.893836      36.893836    
    751000   0.5263671     -7.7471128     -6.9575734      4.1968621      50218.233      36.893836      36.893836      36.893836    
    752000   0.5289274     -7.7523501     -6.9589703      4.1617454      50218.233      36.893836      36.893836      36.893836    
    753000   0.53122784    -7.7429224     -6.946092       4.2361503      50218.233      36.893836      36.893836      36.893836    
    754000   0.52966353    -7.7477798     -6.9532958      4.1947209      50218.233      36.893836      36.893836      36.893836    
    755000   0.53151941    -7.7519578     -6.9546901      4.1649246      50218.233      36.893836      36.893836      36.893836    
    756000   0.52808272    -7.7484268     -6.956314       4.1888873      50218.233      36.893836      36.893836      36.893836    
    757000   0.53105803    -7.7423581     -6.9457824      4.2461935      50218.233      36.893836      36.893836      36.893836    
    758000   0.53206639    -7.7471189     -6.9490306      4.210346       50218.233      36.893836      36.893836      36.893836    
    759000   0.52917492    -7.7483784     -6.9546273      4.1919575      50218.233      36.893836      36.893836      36.893836    
    760000   0.52613957    -7.7437164     -6.9545183      4.2198565      50218.233      36.893836      36.893836      36.893836    
    761000   0.53215259    -7.7469182     -6.9487007      4.2229561      50218.233      36.893836      36.893836      36.893836    
    762000   0.53017026    -7.7452566     -6.9500126      4.2219598      50218.233      36.893836      36.893836      36.893836    
    763000   0.53273245    -7.7453873     -6.9462999      4.2191178      50218.233      36.893836      36.893836      36.893836    
    764000   0.52984918    -7.744938      -6.9501755      4.2174262      50218.233      36.893836      36.893836      36.893836    
    765000   0.53286533    -7.7460421     -6.9467554      4.2172592      50218.233      36.893836      36.893836      36.893836    
    766000   0.53035131    -7.745487      -6.9499714      4.2203207      50218.233      36.893836      36.893836      36.893836    
    767000   0.53073456    -7.7517477     -6.9556572      4.1690008      50218.233      36.893836      36.893836      36.893836    
    768000   0.53124142    -7.7463642     -6.9495134      4.205808       50218.233      36.893836      36.893836      36.893836    
    769000   0.52968197    -7.7492205     -6.9547089      4.1798482      50218.233      36.893836      36.893836      36.893836    
    770000   0.53206178    -7.744695      -6.9466136      4.2238089      50218.233      36.893836      36.893836      36.893836    
    771000   0.53140753    -7.7467121     -6.9496121      4.1974226      50218.233      36.893836      36.893836      36.893836    
    772000   0.53166665    -7.7480534     -6.9505647      4.1892352      50218.233      36.893836      36.893836      36.893836    
    773000   0.5329839     -7.7493556     -6.9498911      4.1857127      50218.233      36.893836      36.893836      36.893836    
    774000   0.52835629    -7.7479119     -6.9553888      4.1907367      50218.233      36.893836      36.893836      36.893836    
    775000   0.53117447    -7.7511973     -6.9544469      4.177455       50218.233      36.893836      36.893836      36.893836    
    776000   0.53279921    -7.7497578     -6.9505704      4.1875469      50218.233      36.893836      36.893836      36.893836    
    777000   0.52999391    -7.7421727     -6.9471932      4.2288713      50218.233      36.893836      36.893836      36.893836    
    778000   0.52962251    -7.7461285     -6.951706       4.2093293      50218.233      36.893836      36.893836      36.893836    
    779000   0.5315723     -7.7428831     -6.945536       4.2359818      50218.233      36.893836      36.893836      36.893836    
    780000   0.53106867    -7.7477503     -6.9511586      4.2017947      50218.233      36.893836      36.893836      36.893836    
    781000   0.53088941    -7.7476147     -6.9512919      4.2121414      50218.233      36.893836      36.893836      36.893836    
    782000   0.52988695    -7.7501256     -6.9553065      4.1887578      50218.233      36.893836      36.893836      36.893836    
    783000   0.52877356    -7.74841       -6.955261       4.1911394      50218.233      36.893836      36.893836      36.893836    
    784000   0.52921165    -7.7483222     -6.954516       4.1941534      50218.233      36.893836      36.893836      36.893836    
    785000   0.53501991    -7.7513628     -6.9488443      4.185476       50218.233      36.893836      36.893836      36.893836    
    786000   0.52887521    -7.7458969     -6.9525954      4.1999484      50218.233      36.893836      36.893836      36.893836    
    787000   0.53262451    -7.747169      -6.9482436      4.1984741      50218.233      36.893836      36.893836      36.893836    
    788000   0.5285098     -7.746109      -6.9533555      4.2119638      50218.233      36.893836      36.893836      36.893836    
    789000   0.53094334    -7.7454074     -6.9490037      4.2013726      50218.233      36.893836      36.893836      36.893836    
    790000   0.53000543    -7.7445133     -6.9495164      4.227334       50218.233      36.893836      36.893836      36.893836    
    791000   0.53018453    -7.7454226     -6.9501571      4.2027478      50218.233      36.893836      36.893836      36.893836    
    792000   0.52962398    -7.7449088     -6.9504841      4.215701       50218.233      36.893836      36.893836      36.893836    
    793000   0.52866236    -7.7465506     -6.9535683      4.2061558      50218.233      36.893836      36.893836      36.893836    
    794000   0.52967405    -7.7465491     -6.9520493      4.1952896      50218.233      36.893836      36.893836      36.893836    
    795000   0.52676625    -7.7455924     -6.9554543      4.2005053      50218.233      36.893836      36.893836      36.893836    
    796000   0.53020288    -7.7449068     -6.9496138      4.2025281      50218.233      36.893836      36.893836      36.893836    
    797000   0.52935506    -7.7546079     -6.9605866      4.1418249      50218.233      36.893836      36.893836      36.893836    
    798000   0.52854521    -7.7437397     -6.9509331      4.2185477      50218.233      36.893836      36.893836      36.893836    
    799000   0.53024236    -7.7450088     -6.9496565      4.2173497      50218.233      36.893836      36.893836      36.893836    
    800000   0.5268949     -7.7451217     -6.9547906      4.2191365      50218.233      36.893836      36.893836      36.893836    
    801000   0.53164893    -7.7474621     -6.9500001      4.200399       50218.233      36.893836      36.893836      36.893836    
    802000   0.52832918    -7.7487034     -6.9562209      4.1778474      50218.233      36.893836      36.893836      36.893836    
    803000   0.52841033    -7.7459487     -6.9533445      4.2072796      50218.233      36.893836      36.893836      36.893836    
    804000   0.53039499    -7.7442588     -6.9486776      4.2243523      50218.233      36.893836      36.893836      36.893836    
    805000   0.52840931    -7.7467798     -6.9541771      4.2068623      50218.233      36.893836      36.893836      36.893836    
    806000   0.53243587    -7.7478471     -6.9492047      4.2071953      50218.233      36.893836      36.893836      36.893836    
    807000   0.53098004    -7.7479873     -6.9515285      4.2017103      50218.233      36.893836      36.893836      36.893836    
    808000   0.53110413    -7.7425585     -6.9459136      4.2275115      50218.233      36.893836      36.893836      36.893836    
    809000   0.52864015    -7.7427182     -6.9497693      4.23229        50218.233      36.893836      36.893836      36.893836    
    810000   0.53186627    -7.743669      -6.945881       4.2321643      50218.233      36.893836      36.893836      36.893836    
    811000   0.52845273    -7.7440422     -6.9513744      4.2297086      50218.233      36.893836      36.893836      36.893836    
    812000   0.53081637    -7.7426914     -6.9464782      4.2349332      50218.233      36.893836      36.893836      36.893836    
    813000   0.52925024    -7.7470455     -6.9531814      4.213638       50218.233      36.893836      36.893836      36.893836    
    814000   0.5299328     -7.7424721     -6.9475842      4.225675       50218.233      36.893836      36.893836      36.893836    
    815000   0.52821978    -7.7434063     -6.9510878      4.2373731      50218.233      36.893836      36.893836      36.893836    
    816000   0.52886835    -7.7420009     -6.9487097      4.2399972      50218.233      36.893836      36.893836      36.893836    
    817000   0.53156259    -7.7441543     -6.9468217      4.234522       50218.233      36.893836      36.893836      36.893836    
    818000   0.53056077    -7.7463493     -6.9505194      4.2165861      50218.233      36.893836      36.893836      36.893836    
    819000   0.5303664     -7.7453078     -6.9497695      4.2294324      50218.233      36.893836      36.893836      36.893836    
    820000   0.52955942    -7.7458516     -6.9515238      4.2174315      50218.233      36.893836      36.893836      36.893836    
    821000   0.52876767    -7.7455227     -6.9523825      4.2200324      50218.233      36.893836      36.893836      36.893836    
    822000   0.52757327    -7.7498163     -6.9584676      4.1780203      50218.233      36.893836      36.893836      36.893836    
    823000   0.52853756    -7.7494712     -6.9566761      4.1770528      50218.233      36.893836      36.893836      36.893836    
    824000   0.52885674    -7.7428139     -6.94954        4.2265927      50218.233      36.893836      36.893836      36.893836    
    825000   0.5325975     -7.7479598     -6.9490749      4.2009398      50218.233      36.893836      36.893836      36.893836    
    826000   0.52981561    -7.745724      -6.9510119      4.2193502      50218.233      36.893836      36.893836      36.893836    
    827000   0.52762859    -7.7475046     -6.956073       4.2073689      50218.233      36.893836      36.893836      36.893836    
    828000   0.53116119    -7.7425427     -6.9458122      4.2345108      50218.233      36.893836      36.893836      36.893836    
    829000   0.53126986    -7.7471442     -6.9502507      4.1948783      50218.233      36.893836      36.893836      36.893836    
    830000   0.52858664    -7.7510312     -6.9581626      4.1735137      50218.233      36.893836      36.893836      36.893836    
    831000   0.53104636    -7.7504863     -6.9539281      4.18317        50218.233      36.893836      36.893836      36.893836    
    832000   0.53266488    -7.7491351     -6.9501491      4.1856036      50218.233      36.893836      36.893836      36.893836    
    833000   0.52737556    -7.7468165     -6.9557644      4.1917563      50218.233      36.893836      36.893836      36.893836    
    834000   0.52894627    -7.7487236     -6.9553155      4.1993622      50218.233      36.893836      36.893836      36.893836    
    835000   0.52929983    -7.7504382     -6.9564998      4.1860232      50218.233      36.893836      36.893836      36.893836    
    836000   0.53016832    -7.7489786     -6.9537375      4.1914385      50218.233      36.893836      36.893836      36.893836    
    837000   0.53053846    -7.7431099     -6.9473135      4.2387249      50218.233      36.893836      36.893836      36.893836    
    838000   0.52891521    -7.7490879     -6.9557264      4.186133       50218.233      36.893836      36.893836      36.893836    
    839000   0.5300377     -7.7449399     -6.9498946      4.2251424      50218.233      36.893836      36.893836      36.893836    
    840000   0.52930577    -7.7504222     -6.9564749      4.1784855      50218.233      36.893836      36.893836      36.893836    
    841000   0.52442185    -7.7481518     -6.9615303      4.1946396      50218.233      36.893836      36.893836      36.893836    
    842000   0.52944177    -7.7460638     -6.9519124      4.2159596      50218.233      36.893836      36.893836      36.893836    
    843000   0.53279438    -7.7485784     -6.9493982      4.1871699      50218.233      36.893836      36.893836      36.893836    
    844000   0.52528174    -7.7484251     -6.9605137      4.1951893      50218.233      36.893836      36.893836      36.893836    
    845000   0.53020314    -7.7452782     -6.9499848      4.2154679      50218.233      36.893836      36.893836      36.893836    
    846000   0.5288226     -7.7481735     -6.9549509      4.2016033      50218.233      36.893836      36.893836      36.893836    
    847000   0.53250573    -7.7496688     -6.9509216      4.1815102      50218.233      36.893836      36.893836      36.893836    
    848000   0.53039425    -7.7486047     -6.9530246      4.1853838      50218.233      36.893836      36.893836      36.893836    
    849000   0.5323316     -7.7512979     -6.9528119      4.1832752      50218.233      36.893836      36.893836      36.893836    
    850000   0.52726921    -7.7465988     -6.9557062      4.1934194      50218.233      36.893836      36.893836      36.893836    
    851000   0.52979921    -7.7462892     -6.9516017      4.2075189      50218.233      36.893836      36.893836      36.893836    
    852000   0.52803222    -7.7450248     -6.9529877      4.2094884      50218.233      36.893836      36.893836      36.893836    
    853000   0.53078822    -7.7505604     -6.9543894      4.1822188      50218.233      36.893836      36.893836      36.893836    
    854000   0.53350664    -7.747342      -6.9470934      4.221416       50218.233      36.893836      36.893836      36.893836    
    855000   0.5265369     -7.7488415     -6.9590474      4.1883326      50218.233      36.893836      36.893836      36.893836    
    856000   0.53103658    -7.7472279     -6.9506844      4.2095569      50218.233      36.893836      36.893836      36.893836    
    857000   0.53057103    -7.7452641     -6.9494189      4.2250424      50218.233      36.893836      36.893836      36.893836    
    858000   0.52842191    -7.746608      -6.9539864      4.1967843      50218.233      36.893836      36.893836      36.893836    
    859000   0.5296873     -7.7430067     -6.948487       4.2254681      50218.233      36.893836      36.893836      36.893836    
    860000   0.52838596    -7.7520671     -6.9594994      4.1502591      50218.233      36.893836      36.893836      36.893836    
    861000   0.53232245    -7.7473167     -6.9488444      4.2008221      50218.233      36.893836      36.893836      36.893836    
    862000   0.53009581    -7.7492257     -6.9540932      4.1913648      50218.233      36.893836      36.893836      36.893836    
    863000   0.53053824    -7.7484544     -6.9526584      4.1916925      50218.233      36.893836      36.893836      36.893836    
    864000   0.5268683     -7.7519648     -6.9616736      4.150546       50218.233      36.893836      36.893836      36.893836    
    865000   0.53168255    -7.7451991     -6.9476867      4.2151891      50218.233      36.893836      36.893836      36.893836    
    866000   0.52930875    -7.7495839     -6.955632       4.1879987      50218.233      36.893836      36.893836      36.893836    
    867000   0.53299433    -7.7477785     -6.9482983      4.2102682      50218.233      36.893836      36.893836      36.893836    
    868000   0.52811805    -7.7501695     -6.9580037      4.1813977      50218.233      36.893836      36.893836      36.893836    
    869000   0.52938959    -7.7495524     -6.9554793      4.1906256      50218.233      36.893836      36.893836      36.893836    
    870000   0.53045585    -7.7456476     -6.9499751      4.2188152      50218.233      36.893836      36.893836      36.893836    
    871000   0.52887809    -7.7501895     -6.9568836      4.1829757      50218.233      36.893836      36.893836      36.893836    
    872000   0.52932024    -7.7468591     -6.95289        4.2136961      50218.233      36.893836      36.893836      36.893836    
    873000   0.53048536    -7.7478569     -6.9521402      4.1976451      50218.233      36.893836      36.893836      36.893836    
    874000   0.53035905    -7.7476628     -6.9521355      4.2013652      50218.233      36.893836      36.893836      36.893836    
    875000   0.52763215    -7.7459292     -6.9544923      4.1992935      50218.233      36.893836      36.893836      36.893836    
    876000   0.52917374    -7.7500659     -6.9563166      4.1754896      50218.233      36.893836      36.893836      36.893836    
    877000   0.52799614    -7.7430935     -6.9511105      4.2276408      50218.233      36.893836      36.893836      36.893836    
    878000   0.53098271    -7.747451      -6.9509883      4.198574       50218.233      36.893836      36.893836      36.893836    
    879000   0.53110873    -7.7466292     -6.9499774      4.2072558      50218.233      36.893836      36.893836      36.893836    
    880000   0.52755122    -7.7449888     -6.9536732      4.2152156      50218.233      36.893836      36.893836      36.893836    
    881000   0.52939996    -7.7506627     -6.956574       4.1824314      50218.233      36.893836      36.893836      36.893836    
    882000   0.52888174    -7.7459964     -6.952685       4.2138101      50218.233      36.893836      36.893836      36.893836    
    883000   0.52665219    -7.748313      -6.958346       4.1970235      50218.233      36.893836      36.893836      36.893836    
    884000   0.53176796    -7.7490472     -6.9514066      4.1889319      50218.233      36.893836      36.893836      36.893836    
    885000   0.53170198    -7.7416833     -6.9441417      4.237832       50218.233      36.893836      36.893836      36.893836    
    886000   0.52830591    -7.7468049     -6.9543573      4.1963813      50218.233      36.893836      36.893836      36.893836    
    887000   0.53167019    -7.7449392     -6.9474453      4.2042361      50218.233      36.893836      36.893836      36.893836    
    888000   0.5280316     -7.7471298     -6.9550936      4.1873554      50218.233      36.893836      36.893836      36.893836    
    889000   0.52917813    -7.7513187     -6.9575628      4.1665303      50218.233      36.893836      36.893836      36.893836    
    890000   0.52800586    -7.7469913     -6.9549937      4.2076541      50218.233      36.893836      36.893836      36.893836    
    891000   0.53196914    -7.745488      -6.9475456      4.2160149      50218.233      36.893836      36.893836      36.893836    
    892000   0.53205709    -7.7485924     -6.9505181      4.1971138      50218.233      36.893836      36.893836      36.893836    
    893000   0.52799362    -7.7483614     -6.9563823      4.1763095      50218.233      36.893836      36.893836      36.893836    
    894000   0.53143535    -7.7496665     -6.9525248      4.174443       50218.233      36.893836      36.893836      36.893836    
    895000   0.52904452    -7.7480007     -6.9544452      4.186338       50218.233      36.893836      36.893836      36.893836    
    896000   0.53155418    -7.7489217     -6.9516018      4.1801653      50218.233      36.893836      36.893836      36.893836    
    897000   0.52782695    -7.7477246     -6.9559954      4.1853182      50218.233      36.893836      36.893836      36.893836    
    898000   0.53023357    -7.7506408     -6.9553018      4.1693105      50218.233      36.893836      36.893836      36.893836    
    899000   0.53160254    -7.7505032     -6.9531108      4.178939       50218.233      36.893836      36.893836      36.893836    
    900000   0.53202604    -7.744787      -6.9467593      4.2172442      50218.233      36.893836      36.893836      36.893836    
    901000   0.52922276    -7.7499475     -6.9561246      4.1863355      50218.233      36.893836      36.893836      36.893836    
    902000   0.52914189    -7.744143      -6.9504414      4.2242013      50218.233      36.893836      36.893836      36.893836    
    903000   0.53337904    -7.7472498     -6.9471927      4.1988345      50218.233      36.893836      36.893836      36.893836    
    904000   0.53135936    -7.7479233     -6.9508956      4.1923216      50218.233      36.893836      36.893836      36.893836    
    905000   0.53178323    -7.7469323     -6.9492688      4.1951016      50218.233      36.893836      36.893836      36.893836    
    906000   0.52993467    -7.7483892     -6.9534985      4.1783921      50218.233      36.893836      36.893836      36.893836    
    907000   0.52868667    -7.7498719     -6.9568531      4.1781767      50218.233      36.893836      36.893836      36.893836    
    908000   0.53089987    -7.7477903     -6.9514518      4.1979357      50218.233      36.893836      36.893836      36.893836    
    909000   0.52845258    -7.7482918     -6.9556242      4.1829839      50218.233      36.893836      36.893836      36.893836    
    910000   0.52816037    -7.7463284     -6.9540991      4.1981318      50218.233      36.893836      36.893836      36.893836    
    911000   0.52969169    -7.7473158     -6.9527895      4.199035       50218.233      36.893836      36.893836      36.893836    
    912000   0.53198104    -7.7530682     -6.955108       4.1607553      50218.233      36.893836      36.893836      36.893836    
    913000   0.53059031    -7.7474854     -6.9516113      4.1986818      50218.233      36.893836      36.893836      36.893836    
    914000   0.52931056    -7.7432011     -6.9492465      4.2297986      50218.233      36.893836      36.893836      36.893836    
    915000   0.53334245    -7.7518952     -6.9518929      4.1613368      50218.233      36.893836      36.893836      36.893836    
    916000   0.53054559    -7.7433803     -6.9475733      4.2292036      50218.233      36.893836      36.893836      36.893836    
    917000   0.53222818    -7.7435122     -6.9451813      4.2286619      50218.233      36.893836      36.893836      36.893836    
    918000   0.53229607    -7.7454463     -6.9470136      4.2138924      50218.233      36.893836      36.893836      36.893836    
    919000   0.53024636    -7.7477669     -6.9524087      4.1869434      50218.233      36.893836      36.893836      36.893836    
    920000   0.52932392    -7.7436017     -6.9496271      4.2284536      50218.233      36.893836      36.893836      36.893836    
    921000   0.53129506    -7.7482049     -6.9512736      4.201453       50218.233      36.893836      36.893836      36.893836    
    922000   0.52916064    -7.7482006     -6.9544709      4.1911437      50218.233      36.893836      36.893836      36.893836    
    923000   0.52897567    -7.745635      -6.9521828      4.2074311      50218.233      36.893836      36.893836      36.893836    
    924000   0.52758217    -7.7452095     -6.9538475      4.2042049      50218.233      36.893836      36.893836      36.893836    
    925000   0.52887572    -7.7470036     -6.9537013      4.2010621      50218.233      36.893836      36.893836      36.893836    
    926000   0.52919764    -7.7496018     -6.9558166      4.1665423      50218.233      36.893836      36.893836      36.893836    
    927000   0.53051772    -7.7473577     -6.9515924      4.2010824      50218.233      36.893836      36.893836      36.893836    
    928000   0.53191269    -7.7429929     -6.9451352      4.2301204      50218.233      36.893836      36.893836      36.893836    
    929000   0.53000527    -7.7449301     -6.9499335      4.2265588      50218.233      36.893836      36.893836      36.893836    
    930000   0.53159626    -7.7453647     -6.9479816      4.2177051      50218.233      36.893836      36.893836      36.893836    
    931000   0.52813786    -7.7463367     -6.9541412      4.191567       50218.233      36.893836      36.893836      36.893836    
    932000   0.52996521    -7.7453846     -6.9504481      4.2090501      50218.233      36.893836      36.893836      36.893836    
    933000   0.53007131    -7.7450632     -6.9499675      4.2169945      50218.233      36.893836      36.893836      36.893836    
    934000   0.52866224    -7.7464735     -6.9534914      4.1991664      50218.233      36.893836      36.893836      36.893836    
    935000   0.5303853     -7.7433958     -6.9478292      4.2255237      50218.233      36.893836      36.893836      36.893836    
    936000   0.52975159    -7.7535311     -6.958915       4.1593172      50218.233      36.893836      36.893836      36.893836    
    937000   0.53207763    -7.7475938     -6.9494887      4.2025411      50218.233      36.893836      36.893836      36.893836    
    938000   0.53203892    -7.7477005     -6.9496534      4.193575       50218.233      36.893836      36.893836      36.893836    
    939000   0.53151022    -7.7514141     -6.9541601      4.1622013      50218.233      36.893836      36.893836      36.893836    
    940000   0.53021632    -7.7486226     -6.9533095      4.1805972      50218.233      36.893836      36.893836      36.893836    
    941000   0.52868855    -7.7514094     -6.9583879      4.1608552      50218.233      36.893836      36.893836      36.893836    
    942000   0.53037448    -7.7487363     -6.9531858      4.1818141      50218.233      36.893836      36.893836      36.893836    
    943000   0.52689498    -7.7484701     -6.9581389      4.1789169      50218.233      36.893836      36.893836      36.893836    
    944000   0.52794306    -7.7475027     -6.9555993      4.1940748      50218.233      36.893836      36.893836      36.893836    
    945000   0.52849581    -7.750829      -6.9580966      4.1627778      50218.233      36.893836      36.893836      36.893836    
    946000   0.53150934    -7.7481612     -6.9509085      4.1991566      50218.233      36.893836      36.893836      36.893836    
    947000   0.53191034    -7.7526313     -6.9547772      4.1610929      50218.233      36.893836      36.893836      36.893836    
    948000   0.52857282    -7.7468751     -6.9540271      4.2022758      50218.233      36.893836      36.893836      36.893836    
    949000   0.53059495    -7.7480079     -6.9521268      4.1974431      50218.233      36.893836      36.893836      36.893836    
    950000   0.52982589    -7.749806      -6.9550785      4.1710898      50218.233      36.893836      36.893836      36.893836    
    951000   0.53257732    -7.7461517     -6.947297       4.2055198      50218.233      36.893836      36.893836      36.893836    
    952000   0.5298808     -7.7482326     -6.9534227      4.1835292      50218.233      36.893836      36.893836      36.893836    
    953000   0.52977845    -7.7492163     -6.95456        4.180305       50218.233      36.893836      36.893836      36.893836    
    954000   0.53282495    -7.7459914     -6.9467653      4.2138388      50218.233      36.893836      36.893836      36.893836    
    955000   0.52913767    -7.750333      -6.9566378      4.17247        50218.233      36.893836      36.893836      36.893836    
    956000   0.53225298    -7.7494428     -6.9510747      4.1791783      50218.233      36.893836      36.893836      36.893836    
    957000   0.52879209    -7.7466219     -6.953445       4.1993434      50218.233      36.893836      36.893836      36.893836    
    958000   0.53351546    -7.7471431     -6.9468813      4.2022966      50218.233      36.893836      36.893836      36.893836    
    959000   0.52831858    -7.7530291     -6.9605625      4.1586698      50218.233      36.893836      36.893836      36.893836    
    960000   0.52898892    -7.7511445     -6.9576724      4.1573194      50218.233      36.893836      36.893836      36.893836    
    961000   0.52954697    -7.7490192     -6.95471        4.1853049      50218.233      36.893836      36.893836      36.893836    
    962000   0.53043103    -7.7490256     -6.9533904      4.1869192      50218.233      36.893836      36.893836      36.893836    
    963000   0.5313463     -7.748429      -6.9514209      4.1802357      50218.233      36.893836      36.893836      36.893836    
    964000   0.53077179    -7.7453646     -6.9492183      4.2103037      50218.233      36.893836      36.893836      36.893836    
    965000   0.52702357    -7.7484203     -6.9578962      4.1811761      50218.233      36.893836      36.893836      36.893836    
    966000   0.52903443    -7.7479138     -6.9543734      4.198161       50218.233      36.893836      36.893836      36.893836    
    967000   0.52797735    -7.7484482     -6.9564935      4.1789549      50218.233      36.893836      36.893836      36.893836    
    968000   0.53140865    -7.7444448     -6.9473431      4.2216636      50218.233      36.893836      36.893836      36.893836    
    969000   0.52927504    -7.7475919     -6.9536906      4.1922681      50218.233      36.893836      36.893836      36.893836    
    970000   0.52955724    -7.7462581     -6.9519335      4.207077       50218.233      36.893836      36.893836      36.893836    
    971000   0.53006453    -7.7466166     -6.9515311      4.1909142      50218.233      36.893836      36.893836      36.893836    
    972000   0.52734085    -7.747349      -6.956349       4.1882895      50218.233      36.893836      36.893836      36.893836    
    973000   0.52950808    -7.7479848     -6.9537339      4.1906135      50218.233      36.893836      36.893836      36.893836    
    974000   0.52832102    -7.7490934     -6.9566232      4.1683956      50218.233      36.893836      36.893836      36.893836    
    975000   0.53069646    -7.7443509     -6.9483176      4.2167423      50218.233      36.893836      36.893836      36.893836    
    976000   0.53034202    -7.749176      -6.9536743      4.1849235      50218.233      36.893836      36.893836      36.893836    
    977000   0.53389418    -7.7459506     -6.9451207      4.2123391      50218.233      36.893836      36.893836      36.893836    
    978000   0.53087355    -7.751082      -6.954783       4.1700087      50218.233      36.893836      36.893836      36.893836    
    979000   0.52872193    -7.7468521     -6.9537805      4.1971829      50218.233      36.893836      36.893836      36.893836    
    980000   0.5269637     -7.7495446     -6.9591103      4.1702128      50218.233      36.893836      36.893836      36.893836    
    981000   0.52959266    -7.7463466     -6.9519689      4.1842382      50218.233      36.893836      36.893836      36.893836    
    982000   0.52999878    -7.7509911     -6.9560043      4.1547139      50218.233      36.893836      36.893836      36.893836    
    983000   0.52972012    -7.7488842     -6.9543153      4.1871128      50218.233      36.893836      36.893836      36.893836    
    984000   0.53002144    -7.750158      -6.9551372      4.1732918      50218.233      36.893836      36.893836      36.893836    
    985000   0.52826375    -7.7439097     -6.9515254      4.2209886      50218.233      36.893836      36.893836      36.893836    
    986000   0.52788275    -7.746472      -6.9546591      4.183988       50218.233      36.893836      36.893836      36.893836    
    987000   0.5308241     -7.7450474     -6.9488226      4.2029596      50218.233      36.893836      36.893836      36.893836    
    988000   0.53143116    -7.7463947     -6.9492593      4.1950621      50218.233      36.893836      36.893836      36.893836    
    989000   0.53092387    -7.7470396     -6.9506651      4.2006185      50218.233      36.893836      36.893836      36.893836    
    990000   0.52838602    -7.7460915     -6.9535238      4.1966308      50218.233      36.893836      36.893836      36.893836    
    991000   0.52962939    -7.7431644     -6.9487316      4.2222419      50218.233      36.893836      36.893836      36.893836    
    992000   0.53163164    -7.7493149     -6.9518788      4.174228       50218.233      36.893836      36.893836      36.893836    
    993000   0.52744958    -7.7486979     -6.9575348      4.1731921      50218.233      36.893836      36.893836      36.893836    
    994000   0.52813012    -7.7508036     -6.9586197      4.1666914      50218.233      36.893836      36.893836      36.893836    
    995000   0.52814153    -7.7527895     -6.9605885      4.1518323      50218.233      36.893836      36.893836      36.893836    
    996000   0.52997886    -7.7455824     -6.9506254      4.2085775      50218.233      36.893836      36.893836      36.893836    
    997000   0.53035647    -7.7501625     -6.9546391      4.170086       50218.233      36.893836      36.893836      36.893836    
    998000   0.5281319     -7.7505358     -6.9583493      4.171019       50218.233      36.893836      36.893836      36.893836    
    999000   0.52864278    -7.7459219     -6.952969       4.1950322      50218.233      36.893836      36.893836      36.893836    
   1000000   0.52962565    -7.7468927     -6.9524655      4.1998137      50218.233      36.893836      36.893836      36.893836    
Loop time of 4324.06 on 1 procs for 1000000 steps with 70304 atoms

Performance: 199812.332 tau/day, 231.264 timesteps/s, 16.259 Matom-step/s
100.0% CPU use with 1 MPI tasks x 1 OpenMP threads

MPI task timing breakdown:
Section |  min time  |  avg time  |  max time  |%varavg| %total
---------------------------------------------------------------
Pair    | 1009.1     | 1009.1     | 1009.1     |   0.0 | 23.34
Neigh   | 42.537     | 42.537     | 42.537     |   0.0 |  0.98
Comm    | 520.71     | 520.71     | 520.71     |   0.0 | 12.04
Output  | 0.74965    | 0.74965    | 0.74965    |   0.0 |  0.02
Modify  | 2299.6     | 2299.6     | 2299.6     |   0.0 | 53.18
Other   |            | 451.3      |            |       | 10.44

Nlocal:          70304 ave       70304 max       70304 min
Histogram: 1 0 0 0 0 0 0 0 0 0
Nghost:          37143 ave       37143 max       37143 min
Histogram: 1 0 0 0 0 0 0 0 0 0
Neighs:              0 ave           0 max           0 min
Histogram: 1 0 0 0 0 0 0 0 0 0

Total # of neighbors = 0
Ave neighs/atom = 0
Neighbor list builds = 210050
Dangerous builds = 0
clear
OMP_NUM_THREADS environment is not set. Defaulting to 1 thread. (src/comm.cpp:98)
  using 1 OpenMP thread(s) per MPI task
package gpu 0
jump dms525.lmp

variable T equal 525
# T = 1000* (temp in LJ unit)
variable f equal 1000
log log.${T}
log log.525
