variable TLJ equal (${T}/1000)
variable TLJ equal (200/1000)
variable NCyle equal 10
variable iStep equal (${f})
variable iStep equal (1000)
variable dumpStep equal (${f}*100)
variable dumpStep equal (1000*100)
variable runStep equal (${f}*100*${NCyle})
variable runStep equal (1000*100*${NCyle})
variable runStep equal (1000*100*10)

units       lj
atom_style  atomic
dimension 3
boundary     p p p
pair_style  lj/cut 2.5
read_data  ../data/T${T}.dat
read_data  ../data/T200.dat
Reading data file ...
  orthogonal box = (0.97250269 0.97250269 0.97250269) to (37.866338 37.866338 37.866338)
  1 by 2 by 2 MPI processor grid
  reading atoms ...
  70304 atoms
  reading velocities ...
  70304 velocities
  read_data CPU = 0.189 seconds
change_box all triclinic
Changing box ...
  triclinic box = (0.97250269 0.97250269 0.97250269) to (37.866338 37.866338 37.866338) with tilt (0 0 0)
mass 1 1
mass 2 1
pair_modify shift yes
pair_coeff  1 1 1 1
pair_coeff  1 2 1.5 0.8
pair_coeff  2 2 0.5 0.88


timestep 0.01
thermo ${iStep}
thermo 1000
reset_timestep 0
thermo_style custom step temp pe etotal press vol lx ly lz
fix             1 all nvt temp ${TLJ}  ${TLJ}  0.1
fix             1 all nvt temp 0.2  ${TLJ}  0.1
fix             1 all nvt temp 0.2  0.2  0.1
thermo_modify flush yes

fix dsf all deform 1 xy  wiggle 0.5  ${f}   units box
fix dsf all deform 1 xy  wiggle 0.5  1000   units box
fix ps1 all ave/time 1 1 ${iStep} c_thermo_press[1] c_thermo_press[2]  c_thermo_press[3] c_thermo_press[4]  c_thermo_press[5] c_thermo_press[6]  file  stress.${T}
fix ps1 all ave/time 1 1 1000 c_thermo_press[1] c_thermo_press[2]  c_thermo_press[3] c_thermo_press[4]  c_thermo_press[5] c_thermo_press[6]  file  stress.${T}
fix ps1 all ave/time 1 1 1000 c_thermo_press[1] c_thermo_press[2]  c_thermo_press[3] c_thermo_press[4]  c_thermo_press[5] c_thermo_press[6]  file  stress.200
dump            1 all custom ${dumpStep} dump.${T} id type x y z
dump            1 all custom 100000 dump.${T} id type x y z
dump            1 all custom 100000 dump.200 id type x y z
dump_modify 1 sort id
fix nodrift all momentum 1  linear 1 1 1
fix com_seed all recenter INIT INIT INIT shift all
run ${runStep}
run 1000000
Generated 0 of 1 mixed pair_coeff terms from geometric mixing rule
Per MPI rank memory allocation (min/avg/max) = 8.61 | 8.613 | 8.615 Mbytes
   Step          Temp          PotEng         TotEng         Press          Volume           Lx             Ly             Lz      
         0   0.19981505    -8.2858057     -7.9860874     -0.24815144     50218.233      36.893836      36.893836      36.893836    
      1000   0.20016987    -8.2837655     -7.983515      -0.2367536      50218.233      36.893836      36.893836      36.893836    
      2000   0.19956676    -8.2814772     -7.9821313     -0.21621993     50218.233      36.893836      36.893836      36.893836    
      3000   0.20028845    -8.2825186     -7.9820902     -0.23150838     50218.233      36.893836      36.893836      36.893836    
      4000   0.19954804    -8.2828727     -7.9835549     -0.24160477     50218.233      36.893836      36.893836      36.893836    
      5000   0.20036067    -8.2834385     -7.9829018     -0.23169348     50218.233      36.893836      36.893836      36.893836    
      6000   0.19796073    -8.2817141     -7.9847772     -0.21936926     50218.233      36.893836      36.893836      36.893836    
      7000   0.1998652     -8.283059      -7.9832655     -0.23591344     50218.233      36.893836      36.893836      36.893836    
      8000   0.20004325    -8.2819627     -7.9819021     -0.22349097     50218.233      36.893836      36.893836      36.893836    
      9000   0.19954375    -8.2817861     -7.9824747     -0.2284382      50218.233      36.893836      36.893836      36.893836    
     10000   0.20010772    -8.2807746     -7.9806173     -0.21692687     50218.233      36.893836      36.893836      36.893836    
     11000   0.20032473    -8.2818294     -7.9813466     -0.22589868     50218.233      36.893836      36.893836      36.893836    
     12000   0.20035388    -8.2801649     -7.9796384     -0.21484042     50218.233      36.893836      36.893836      36.893836    
     13000   0.20133652    -8.2823098     -7.9803093     -0.22978874     50218.233      36.893836      36.893836      36.893836    
     14000   0.19872839    -8.281065      -7.9829767     -0.22171938     50218.233      36.893836      36.893836      36.893836    
     15000   0.19964716    -8.2827623     -7.9832959     -0.23001388     50218.233      36.893836      36.893836      36.893836    
     16000   0.20059727    -8.2812603     -7.9803687     -0.216068       50218.233      36.893836      36.893836      36.893836    
     17000   0.20004045    -8.2808459     -7.9807895     -0.21779428     50218.233      36.893836      36.893836      36.893836    
     18000   0.19971678    -8.2810363     -7.9814654     -0.21869342     50218.233      36.893836      36.893836      36.893836    
     19000   0.20011384    -8.2806304     -7.9804639     -0.21110906     50218.233      36.893836      36.893836      36.893836    
     20000   0.19950383    -8.2800554     -7.9808039     -0.21392558     50218.233      36.893836      36.893836      36.893836    
     21000   0.19980701    -8.2813131     -7.9816069     -0.21540227     50218.233      36.893836      36.893836      36.893836    
     22000   0.19924771    -8.2808201     -7.9819528     -0.2221317      50218.233      36.893836      36.893836      36.893836    
     23000   0.20041835    -8.2795853     -7.978962      -0.20081585     50218.233      36.893836      36.893836      36.893836    
     24000   0.19922651    -8.2815465     -7.982711      -0.22790155     50218.233      36.893836      36.893836      36.893836    
     25000   0.19943195    -8.280522      -7.9813784     -0.21277967     50218.233      36.893836      36.893836      36.893836    
     26000   0.20091573    -8.2791248     -7.9777555     -0.20098084     50218.233      36.893836      36.893836      36.893836    
     27000   0.19946011    -8.2793969     -7.980211      -0.20444185     50218.233      36.893836      36.893836      36.893836    
     28000   0.20063929    -8.2808981     -7.9799434     -0.20772701     50218.233      36.893836      36.893836      36.893836    
     29000   0.19954       -8.2811985     -7.9818928     -0.21499697     50218.233      36.893836      36.893836      36.893836    
     30000   0.20058692    -8.2815329     -7.9806568     -0.2196481      50218.233      36.893836      36.893836      36.893836    
     31000   0.20094546    -8.2809992     -7.9795853     -0.22047709     50218.233      36.893836      36.893836      36.893836    
     32000   0.19980586    -8.281555      -7.9818505     -0.21351833     50218.233      36.893836      36.893836      36.893836    
     33000   0.20062419    -8.282182      -7.98125       -0.22371092     50218.233      36.893836      36.893836      36.893836    
     34000   0.19954374    -8.2824478     -7.9831364     -0.2260016      50218.233      36.893836      36.893836      36.893836    
     35000   0.19972789    -8.2800015     -7.9804139     -0.21442522     50218.233      36.893836      36.893836      36.893836    
     36000   0.20067903    -8.2821856     -7.9811713     -0.21458476     50218.233      36.893836      36.893836      36.893836    
     37000   0.19958389    -8.2824785     -7.9831069     -0.22302482     50218.233      36.893836      36.893836      36.893836    
     38000   0.1999543     -8.2831267     -7.9831995     -0.23719552     50218.233      36.893836      36.893836      36.893836    
     39000   0.19975597    -8.2830049     -7.9833752     -0.23557648     50218.233      36.893836      36.893836      36.893836    
     40000   0.1998211     -8.2827245     -7.9829971     -0.2264436      50218.233      36.893836      36.893836      36.893836    
     41000   0.20010028    -8.2828672     -7.982721      -0.2310458      50218.233      36.893836      36.893836      36.893836    
     42000   0.19951355    -8.2811164     -7.9818503     -0.22213435     50218.233      36.893836      36.893836      36.893836    
     43000   0.20136168    -8.2832376     -7.9811994     -0.22895979     50218.233      36.893836      36.893836      36.893836    
     44000   0.19957724    -8.283539      -7.9841774     -0.2330636      50218.233      36.893836      36.893836      36.893836    
     45000   0.19984569    -8.2817252     -7.9819609     -0.22209293     50218.233      36.893836      36.893836      36.893836    
     46000   0.20168305    -8.2828221     -7.9803019     -0.22806008     50218.233      36.893836      36.893836      36.893836    
     47000   0.20151965    -8.2814512     -7.979176      -0.21715187     50218.233      36.893836      36.893836      36.893836    
     48000   0.20034206    -8.2804025     -7.9798937     -0.21459306     50218.233      36.893836      36.893836      36.893836    
     49000   0.19946936    -8.2830562     -7.9838564     -0.22884316     50218.233      36.893836      36.893836      36.893836    
     50000   0.20006401    -8.2822788     -7.9821871     -0.22963807     50218.233      36.893836      36.893836      36.893836    
     51000   0.20032901    -8.2829354     -7.9824461     -0.23970357     50218.233      36.893836      36.893836      36.893836    
     52000   0.19945935    -8.2827143     -7.9835295     -0.22601513     50218.233      36.893836      36.893836      36.893836    
     53000   0.20048996    -8.2840289     -7.9832982     -0.24321374     50218.233      36.893836      36.893836      36.893836    
     54000   0.19998579    -8.2810107     -7.9810363     -0.22724949     50218.233      36.893836      36.893836      36.893836    
     55000   0.19959319    -8.282429      -7.9830434     -0.22316131     50218.233      36.893836      36.893836      36.893836    
     56000   0.20076745    -8.2815101     -7.9803632     -0.21667587     50218.233      36.893836      36.893836      36.893836    
     57000   0.19962488    -8.2804945     -7.9810615     -0.22131163     50218.233      36.893836      36.893836      36.893836    
     58000   0.19992017    -8.281574      -7.981698      -0.22235071     50218.233      36.893836      36.893836      36.893836    
     59000   0.20091453    -8.2830319     -7.9816644     -0.23131844     50218.233      36.893836      36.893836      36.893836    
     60000   0.19960127    -8.2818195     -7.9824219     -0.22471633     50218.233      36.893836      36.893836      36.893836    
     61000   0.19977702    -8.2825686     -7.9829074     -0.22744092     50218.233      36.893836      36.893836      36.893836    
     62000   0.19907215    -8.2818959     -7.9832919     -0.22705382     50218.233      36.893836      36.893836      36.893836    
     63000   0.20025911    -8.2805347     -7.9801503     -0.21270704     50218.233      36.893836      36.893836      36.893836    
     64000   0.19973006    -8.2826455     -7.9830547     -0.22951193     50218.233      36.893836      36.893836      36.893836    
     65000   0.20093248    -8.280797      -7.9794026     -0.21304181     50218.233      36.893836      36.893836      36.893836    
     66000   0.19957444    -8.2812366     -7.9818792     -0.21516983     50218.233      36.893836      36.893836      36.893836    
     67000   0.20096505    -8.2815926     -7.9801493     -0.21799364     50218.233      36.893836      36.893836      36.893836    
     68000   0.20052419    -8.2817065     -7.9809245     -0.22090127     50218.233      36.893836      36.893836      36.893836    
     69000   0.20059148    -8.2806691     -7.9797862     -0.21936337     50218.233      36.893836      36.893836      36.893836    
     70000   0.19939972    -8.2809985     -7.9819032     -0.21411967     50218.233      36.893836      36.893836      36.893836    
     71000   0.19984623    -8.2802        -7.980435      -0.21088922     50218.233      36.893836      36.893836      36.893836    
     72000   0.2004364     -8.2801288     -7.9794784     -0.20715316     50218.233      36.893836      36.893836      36.893836    
     73000   0.2002989     -8.2811301     -7.980686      -0.21611697     50218.233      36.893836      36.893836      36.893836    
     74000   0.20051964    -8.2820654     -7.9812902     -0.22998298     50218.233      36.893836      36.893836      36.893836    
     75000   0.20023152    -8.2797483     -7.9794053     -0.20383958     50218.233      36.893836      36.893836      36.893836    
     76000   0.20043385    -8.2798293     -7.9791828     -0.19716501     50218.233      36.893836      36.893836      36.893836    
     77000   0.19927309    -8.2797968     -7.9808914     -0.2117896      50218.233      36.893836      36.893836      36.893836    
     78000   0.20116746    -8.2822038     -7.9804569     -0.22567206     50218.233      36.893836      36.893836      36.893836    
     79000   0.20031974    -8.2809146     -7.9804393     -0.20965977     50218.233      36.893836      36.893836      36.893836    
     80000   0.20067077    -8.2814877     -7.9804859     -0.22193548     50218.233      36.893836      36.893836      36.893836    
     81000   0.19935741    -8.2812795     -7.9822476     -0.21439985     50218.233      36.893836      36.893836      36.893836    
     82000   0.20046755    -8.2799365     -7.9792395     -0.19886706     50218.233      36.893836      36.893836      36.893836    
     83000   0.1988699     -8.2821114     -7.9838108     -0.22824439     50218.233      36.893836      36.893836      36.893836    
     84000   0.20088806    -8.2831775     -7.9818497     -0.23786272     50218.233      36.893836      36.893836      36.893836    
     85000   0.19951344    -8.2817032     -7.9824373     -0.22484659     50218.233      36.893836      36.893836      36.893836    
     86000   0.20024689    -8.2821821     -7.981816      -0.22344844     50218.233      36.893836      36.893836      36.893836    
     87000   0.20043269    -8.2822345     -7.9815898     -0.22301915     50218.233      36.893836      36.893836      36.893836    
     88000   0.20026621    -8.2819342     -7.9815392     -0.22007389     50218.233      36.893836      36.893836      36.893836    
     89000   0.19926768    -8.2824578     -7.9835605     -0.22951623     50218.233      36.893836      36.893836      36.893836    
     90000   0.20015716    -8.2813117     -7.9810802     -0.21381349     50218.233      36.893836      36.893836      36.893836    
     91000   0.20030976    -8.2826137     -7.9821533     -0.22673581     50218.233      36.893836      36.893836      36.893836    
     92000   0.19944853    -8.2822388     -7.9830703     -0.22657049     50218.233      36.893836      36.893836      36.893836    
     93000   0.20122867    -8.2816525     -7.9798138     -0.22346821     50218.233      36.893836      36.893836      36.893836    
     94000   0.19968306    -8.282059      -7.9825387     -0.21879584     50218.233      36.893836      36.893836      36.893836    
     95000   0.19994176    -8.282885      -7.9829766     -0.2273341      50218.233      36.893836      36.893836      36.893836    
     96000   0.19957767    -8.2817342     -7.982372      -0.22103322     50218.233      36.893836      36.893836      36.893836    
     97000   0.19976623    -8.2796376     -7.9799925     -0.21421192     50218.233      36.893836      36.893836      36.893836    
     98000   0.20082764    -8.2822021     -7.9809649     -0.22560843     50218.233      36.893836      36.893836      36.893836    
     99000   0.1996846     -8.2813723     -7.9818497     -0.22014666     50218.233      36.893836      36.893836      36.893836    
    100000   0.20008038    -8.2820885     -7.9819722     -0.22480781     50218.233      36.893836      36.893836      36.893836    
    101000   0.20021321    -8.2821737     -7.9818581     -0.23028214     50218.233      36.893836      36.893836      36.893836    
    102000   0.19987462    -8.2830826     -7.9832749     -0.23334427     50218.233      36.893836      36.893836      36.893836    
    103000   0.20044036    -8.282666      -7.9820098     -0.22345107     50218.233      36.893836      36.893836      36.893836    
    104000   0.2002526     -8.2831009     -7.9827262     -0.23437848     50218.233      36.893836      36.893836      36.893836    
    105000   0.19998746    -8.2824139     -7.982437      -0.23432376     50218.233      36.893836      36.893836      36.893836    
    106000   0.20020683    -8.2821671     -7.9818611     -0.22499086     50218.233      36.893836      36.893836      36.893836    
    107000   0.2000392     -8.2820952     -7.9820407     -0.22679839     50218.233      36.893836      36.893836      36.893836    
    108000   0.1999236     -8.2821897     -7.9823086     -0.23357552     50218.233      36.893836      36.893836      36.893836    
    109000   0.19984081    -8.2821973     -7.9824403     -0.22560065     50218.233      36.893836      36.893836      36.893836    
    110000   0.19925964    -8.283261      -7.9843758     -0.23772594     50218.233      36.893836      36.893836      36.893836    
    111000   0.19984559    -8.2815029     -7.9817388     -0.21901241     50218.233      36.893836      36.893836      36.893836    
    112000   0.19999788    -8.2809929     -7.9810004     -0.22296209     50218.233      36.893836      36.893836      36.893836    
    113000   0.19895355    -8.2830971     -7.984671      -0.23283608     50218.233      36.893836      36.893836      36.893836    
    114000   0.20025329    -8.2819215     -7.9815458     -0.22347231     50218.233      36.893836      36.893836      36.893836    
    115000   0.20001285    -8.2810012     -7.9809862     -0.21681169     50218.233      36.893836      36.893836      36.893836    
    116000   0.20062601    -8.2815951     -7.9806604     -0.22209605     50218.233      36.893836      36.893836      36.893836    
    117000   0.19981353    -8.2808313     -7.9811153     -0.22149774     50218.233      36.893836      36.893836      36.893836    
    118000   0.19920812    -8.2807789     -7.981971      -0.21897494     50218.233      36.893836      36.893836      36.893836    
    119000   0.20178765    -8.2804078     -7.9777306     -0.21014902     50218.233      36.893836      36.893836      36.893836    
    120000   0.19958758    -8.280875      -7.9814979     -0.21074992     50218.233      36.893836      36.893836      36.893836    
    121000   0.19933824    -8.279916      -7.9809129     -0.20472784     50218.233      36.893836      36.893836      36.893836    
    122000   0.19954641    -8.2821873     -7.982872      -0.2262861      50218.233      36.893836      36.893836      36.893836    
    123000   0.20106768    -8.2811933     -7.979596      -0.21387868     50218.233      36.893836      36.893836      36.893836    
    124000   0.19966741    -8.2808956     -7.9813988     -0.21184436     50218.233      36.893836      36.893836      36.893836    
    125000   0.20095028    -8.2801445     -7.9787233     -0.21581662     50218.233      36.893836      36.893836      36.893836    
    126000   0.19946817    -8.2816054     -7.9824074     -0.22441486     50218.233      36.893836      36.893836      36.893836    
    127000   0.20079807    -8.2808098     -7.9796169     -0.21585615     50218.233      36.893836      36.893836      36.893836    
    128000   0.20055635    -8.2815005     -7.9806703     -0.21276954     50218.233      36.893836      36.893836      36.893836    
    129000   0.19965645    -8.2812632     -7.9817828     -0.21357866     50218.233      36.893836      36.893836      36.893836    
    130000   0.19967403    -8.2799458     -7.9804391     -0.21413421     50218.233      36.893836      36.893836      36.893836    
    131000   0.19998106    -8.2819617     -7.9819944     -0.21829183     50218.233      36.893836      36.893836      36.893836    
    132000   0.20036043    -8.2802019     -7.9796656     -0.20716898     50218.233      36.893836      36.893836      36.893836    
    133000   0.20020485    -8.2807266     -7.9804236     -0.21738398     50218.233      36.893836      36.893836      36.893836    
    134000   0.19972731    -8.2796632     -7.9800765     -0.20648724     50218.233      36.893836      36.893836      36.893836    
    135000   0.19996911    -8.2816309     -7.9816815     -0.21595194     50218.233      36.893836      36.893836      36.893836    
    136000   0.19932318    -8.2809017     -7.9819212     -0.21176792     50218.233      36.893836      36.893836      36.893836    
    137000   0.20041456    -8.2801746     -7.979557      -0.21382715     50218.233      36.893836      36.893836      36.893836    
    138000   0.19938214    -8.2810913     -7.9820223     -0.22091217     50218.233      36.893836      36.893836      36.893836    
    139000   0.19975162    -8.2805271     -7.9809039     -0.20678027     50218.233      36.893836      36.893836      36.893836    
    140000   0.20001717    -8.2811642     -7.9811427     -0.21876487     50218.233      36.893836      36.893836      36.893836    
    141000   0.20089871    -8.2815867     -7.980243      -0.22568563     50218.233      36.893836      36.893836      36.893836    
    142000   0.19968499    -8.2827015     -7.9831782     -0.23113739     50218.233      36.893836      36.893836      36.893836    
    143000   0.20107877    -8.2824129     -7.9807991     -0.23061947     50218.233      36.893836      36.893836      36.893836    
    144000   0.2002075     -8.2838605     -7.9835535     -0.23946314     50218.233      36.893836      36.893836      36.893836    
    145000   0.20024171    -8.2810679     -7.9807096     -0.21321549     50218.233      36.893836      36.893836      36.893836    
    146000   0.19962898    -8.2836143     -7.9841751     -0.24037451     50218.233      36.893836      36.893836      36.893836    
    147000   0.19950624    -8.2838009     -7.9845458     -0.24616231     50218.233      36.893836      36.893836      36.893836    
    148000   0.19928343    -8.2832815     -7.9843606     -0.23526612     50218.233      36.893836      36.893836      36.893836    
    149000   0.19937647    -8.2821071     -7.9830467     -0.22900981     50218.233      36.893836      36.893836      36.893836    
    150000   0.19984908    -8.2818217     -7.9820523     -0.22258966     50218.233      36.893836      36.893836      36.893836    
    151000   0.20064778    -8.2812326     -7.9802652     -0.2188673      50218.233      36.893836      36.893836      36.893836    
    152000   0.20057617    -8.2827703     -7.9819103     -0.234202       50218.233      36.893836      36.893836      36.893836    
    153000   0.1999112     -8.2814484     -7.9815859     -0.21724791     50218.233      36.893836      36.893836      36.893836    
    154000   0.20019423    -8.2837147     -7.9834276     -0.23671143     50218.233      36.893836      36.893836      36.893836    
    155000   0.19892576    -8.2827884     -7.984404      -0.22585781     50218.233      36.893836      36.893836      36.893836    
    156000   0.19936867    -8.2815284     -7.9824796     -0.21939732     50218.233      36.893836      36.893836      36.893836    
    157000   0.20132783    -8.2832765     -7.9812891     -0.23201383     50218.233      36.893836      36.893836      36.893836    
    158000   0.19946023    -8.2816415     -7.9824554     -0.21681308     50218.233      36.893836      36.893836      36.893836    
    159000   0.19902106    -8.2832082     -7.9846808     -0.23794181     50218.233      36.893836      36.893836      36.893836    
    160000   0.19865656    -8.2830936     -7.985113      -0.23260966     50218.233      36.893836      36.893836      36.893836    
    161000   0.20061583    -8.2829072     -7.9819878     -0.23397286     50218.233      36.893836      36.893836      36.893836    
    162000   0.20057683    -8.2819935     -7.9811326     -0.21857511     50218.233      36.893836      36.893836      36.893836    
    163000   0.20037593    -8.2827873     -7.9822277     -0.22738008     50218.233      36.893836      36.893836      36.893836    
    164000   0.20001959    -8.2829691     -7.982944      -0.22727869     50218.233      36.893836      36.893836      36.893836    
    165000   0.20020204    -8.28148       -7.9811812     -0.22072534     50218.233      36.893836      36.893836      36.893836    
    166000   0.19987846    -8.2809631     -7.9811496     -0.22103978     50218.233      36.893836      36.893836      36.893836    
    167000   0.20040045    -8.2812167     -7.9806203     -0.21545786     50218.233      36.893836      36.893836      36.893836    
    168000   0.19911883    -8.2811386     -7.9824646     -0.21725309     50218.233      36.893836      36.893836      36.893836    
    169000   0.20008296    -8.2817535     -7.9816334     -0.22077111     50218.233      36.893836      36.893836      36.893836    
    170000   0.20004823    -8.28076       -7.980692      -0.21832589     50218.233      36.893836      36.893836      36.893836    
    171000   0.19937401    -8.2807767     -7.9817199     -0.21337401     50218.233      36.893836      36.893836      36.893836    
    172000   0.19953318    -8.2808262     -7.9815307     -0.21136734     50218.233      36.893836      36.893836      36.893836    
    173000   0.20050906    -8.2811854     -7.9804261     -0.20879272     50218.233      36.893836      36.893836      36.893836    
    174000   0.20031026    -8.2818962     -7.9814351     -0.22344482     50218.233      36.893836      36.893836      36.893836    
    175000   0.19994464    -8.2798701     -7.9799575     -0.20787765     50218.233      36.893836      36.893836      36.893836    
    176000   0.1999894     -8.2803767     -7.9803969     -0.20680767     50218.233      36.893836      36.893836      36.893836    
    177000   0.19944778    -8.2822398     -7.9830724     -0.22755593     50218.233      36.893836      36.893836      36.893836    
    178000   0.20042492    -8.2826094     -7.9819763     -0.22385314     50218.233      36.893836      36.893836      36.893836    
    179000   0.20006161    -8.281172      -7.9810839     -0.2205648      50218.233      36.893836      36.893836      36.893836    
    180000   0.19924625    -8.2802155     -7.9813504     -0.20722823     50218.233      36.893836      36.893836      36.893836    
    181000   0.20007468    -8.281571      -7.9814633     -0.2193728      50218.233      36.893836      36.893836      36.893836    
    182000   0.20037234    -8.2810603     -7.9805061     -0.21478303     50218.233      36.893836      36.893836      36.893836    
    183000   0.20030092    -8.2796758     -7.9792287     -0.21129645     50218.233      36.893836      36.893836      36.893836    
    184000   0.19972621    -8.2834087     -7.9838236     -0.23697825     50218.233      36.893836      36.893836      36.893836    
    185000   0.19959192    -8.2828729     -7.9834893     -0.23073156     50218.233      36.893836      36.893836      36.893836    
    186000   0.20114204    -8.2813542     -7.9796454     -0.21823591     50218.233      36.893836      36.893836      36.893836    
    187000   0.19985815    -8.2830339     -7.9832509     -0.23278161     50218.233      36.893836      36.893836      36.893836    
    188000   0.19963585    -8.2806944     -7.9812449     -0.21819467     50218.233      36.893836      36.893836      36.893836    
    189000   0.19981089    -8.2830271     -7.983315      -0.22944775     50218.233      36.893836      36.893836      36.893836    
    190000   0.20034634    -8.2820195     -7.9815043     -0.22751236     50218.233      36.893836      36.893836      36.893836    
    191000   0.19938516    -8.2820136     -7.9829401     -0.22301354     50218.233      36.893836      36.893836      36.893836    
    192000   0.19903237    -8.2815532     -7.9830089     -0.21900626     50218.233      36.893836      36.893836      36.893836    
    193000   0.1983476     -8.2814385     -7.9839213     -0.2252105      50218.233      36.893836      36.893836      36.893836    
    194000   0.20163894    -8.2814268     -7.9789727     -0.21743622     50218.233      36.893836      36.893836      36.893836    
    195000   0.20015638    -8.2826209     -7.9823906     -0.23359984     50218.233      36.893836      36.893836      36.893836    
    196000   0.19923113    -8.2835513     -7.9847089     -0.2399369      50218.233      36.893836      36.893836      36.893836    
    197000   0.20144753    -8.2809331     -7.9787661     -0.21751043     50218.233      36.893836      36.893836      36.893836    
    198000   0.19937255    -8.2812737     -7.9822191     -0.22204565     50218.233      36.893836      36.893836      36.893836    
    199000   0.20073928    -8.2818983     -7.9807936     -0.22379797     50218.233      36.893836      36.893836      36.893836    
    200000   0.20094111    -8.2806665     -7.9792591     -0.21620093     50218.233      36.893836      36.893836      36.893836    
    201000   0.2000866     -8.2822235     -7.9820979     -0.22753857     50218.233      36.893836      36.893836      36.893836    
    202000   0.19998198    -8.2816189     -7.9816502     -0.21999489     50218.233      36.893836      36.893836      36.893836    
    203000   0.19877644    -8.2819432     -7.9837827     -0.22725991     50218.233      36.893836      36.893836      36.893836    
    204000   0.20121742    -8.2837151     -7.9818933     -0.23782116     50218.233      36.893836      36.893836      36.893836    
    205000   0.20007092    -8.2818294     -7.9817273     -0.22115525     50218.233      36.893836      36.893836      36.893836    
    206000   0.20049301    -8.2833572     -7.982622      -0.22139021     50218.233      36.893836      36.893836      36.893836    
    207000   0.1993263     -8.2828514     -7.9838662     -0.22479603     50218.233      36.893836      36.893836      36.893836    
    208000   0.19982978    -8.2818735     -7.9821331     -0.22239747     50218.233      36.893836      36.893836      36.893836    
    209000   0.19965527    -8.2807018     -7.9812232     -0.21822546     50218.233      36.893836      36.893836      36.893836    
    210000   0.19999243    -8.2824516     -7.9824672     -0.23224703     50218.233      36.893836      36.893836      36.893836    
    211000   0.20032604    -8.2812929     -7.9808081     -0.2210072      50218.233      36.893836      36.893836      36.893836    
    212000   0.20091976    -8.2810731     -7.9796978     -0.21427566     50218.233      36.893836      36.893836      36.893836    
    213000   0.20069078    -8.2817085     -7.9806766     -0.22408914     50218.233      36.893836      36.893836      36.893836    
    214000   0.19951086    -8.2808604     -7.9815984     -0.21407232     50218.233      36.893836      36.893836      36.893836    
    215000   0.20058396    -8.2801223     -7.9792507     -0.20944973     50218.233      36.893836      36.893836      36.893836    
    216000   0.20112927    -8.2823797     -7.9806901     -0.2327026      50218.233      36.893836      36.893836      36.893836    
    217000   0.19962917    -8.2829129     -7.9834734     -0.23324122     50218.233      36.893836      36.893836      36.893836    
    218000   0.19983738    -8.281463      -7.9817112     -0.22009569     50218.233      36.893836      36.893836      36.893836    
    219000   0.20071656    -8.2830975     -7.982027      -0.23597918     50218.233      36.893836      36.893836      36.893836    
    220000   0.20010072    -8.2813067     -7.9811599     -0.21837287     50218.233      36.893836      36.893836      36.893836    
    221000   0.19972574    -8.2802362     -7.9806518     -0.20880574     50218.233      36.893836      36.893836      36.893836    
    222000   0.20100448    -8.2814602     -7.9799577     -0.21398878     50218.233      36.893836      36.893836      36.893836    
    223000   0.19909041    -8.2809144     -7.982283      -0.21630983     50218.233      36.893836      36.893836      36.893836    
    224000   0.20018214    -8.2799825     -7.9797135     -0.21373645     50218.233      36.893836      36.893836      36.893836    
    225000   0.19996319    -8.2806927     -7.9807522     -0.20763473     50218.233      36.893836      36.893836      36.893836    
    226000   0.20096387    -8.281759      -7.9803175     -0.22137155     50218.233      36.893836      36.893836      36.893836    
    227000   0.19905653    -8.2817006     -7.98312       -0.22794153     50218.233      36.893836      36.893836      36.893836    
    228000   0.20060723    -8.2808975     -7.9799909     -0.214628       50218.233      36.893836      36.893836      36.893836    
    229000   0.19945445    -8.2813058     -7.9821283     -0.21657865     50218.233      36.893836      36.893836      36.893836    
    230000   0.20108607    -8.2813634     -7.9797385     -0.21893519     50218.233      36.893836      36.893836      36.893836    
    231000   0.20024954    -8.2799243     -7.9795543     -0.21072099     50218.233      36.893836      36.893836      36.893836    
    232000   0.19941015    -8.2789811     -7.9798702     -0.20250859     50218.233      36.893836      36.893836      36.893836    
    233000   0.19995255    -8.2817294     -7.9818048     -0.22438105     50218.233      36.893836      36.893836      36.893836    
    234000   0.20063682    -8.2809194     -7.9799684     -0.21561424     50218.233      36.893836      36.893836      36.893836    
    235000   0.20017158    -8.28291       -7.9826569     -0.22331251     50218.233      36.893836      36.893836      36.893836    
    236000   0.199686      -8.2822173     -7.9826925     -0.23002152     50218.233      36.893836      36.893836      36.893836    
    237000   0.19973456    -8.2809229     -7.9813253     -0.21614093     50218.233      36.893836      36.893836      36.893836    
    238000   0.20049273    -8.2820253     -7.9812905     -0.22780585     50218.233      36.893836      36.893836      36.893836    
    239000   0.19924763    -8.2815575     -7.9826903     -0.22333712     50218.233      36.893836      36.893836      36.893836    
    240000   0.20050291    -8.2828583     -7.9821082     -0.22849055     50218.233      36.893836      36.893836      36.893836    
    241000   0.19994577    -8.2818582     -7.9819438     -0.21962667     50218.233      36.893836      36.893836      36.893836    
    242000   0.19981905    -8.2816589     -7.9819346     -0.22581474     50218.233      36.893836      36.893836      36.893836    
    243000   0.19964073    -8.280779      -7.9813222     -0.21807159     50218.233      36.893836      36.893836      36.893836    
    244000   0.20053506    -8.28214       -7.9813416     -0.22713126     50218.233      36.893836      36.893836      36.893836    
    245000   0.2001581     -8.2812199     -7.980987      -0.22427798     50218.233      36.893836      36.893836      36.893836    
    246000   0.20047408    -8.2824842     -7.9817774     -0.22637533     50218.233      36.893836      36.893836      36.893836    
    247000   0.19888116    -8.2823649     -7.9840474     -0.22837873     50218.233      36.893836      36.893836      36.893836    
    248000   0.20053286    -8.2821139     -7.9813189     -0.22183655     50218.233      36.893836      36.893836      36.893836    
    249000   0.19968256    -8.2845731     -7.9850535     -0.24039711     50218.233      36.893836      36.893836      36.893836    
    250000   0.20037049    -8.2819043     -7.9813529     -0.22211093     50218.233      36.893836      36.893836      36.893836    
    251000   0.19906032    -8.2838627     -7.9852765     -0.24077131     50218.233      36.893836      36.893836      36.893836    
    252000   0.20007125    -8.2832728     -7.9831702     -0.23602571     50218.233      36.893836      36.893836      36.893836    
    253000   0.2011835     -8.2833314     -7.9815604     -0.23231554     50218.233      36.893836      36.893836      36.893836    
    254000   0.20067461    -8.2844101     -7.9834025     -0.24917854     50218.233      36.893836      36.893836      36.893836    
    255000   0.1997384     -8.2825558     -7.9829525     -0.22999281     50218.233      36.893836      36.893836      36.893836    
    256000   0.19972321    -8.2822259     -7.9826454     -0.22800038     50218.233      36.893836      36.893836      36.893836    
    257000   0.20016744    -8.2815783     -7.9813314     -0.21256008     50218.233      36.893836      36.893836      36.893836    
    258000   0.19891806    -8.2820092     -7.9836363     -0.22881179     50218.233      36.893836      36.893836      36.893836    
    259000   0.20069447    -8.2820647     -7.9810273     -0.22646608     50218.233      36.893836      36.893836      36.893836    
    260000   0.20041534    -8.2831488     -7.9825301     -0.23183075     50218.233      36.893836      36.893836      36.893836    
    261000   0.20024759    -8.2835134     -7.9831463     -0.23490751     50218.233      36.893836      36.893836      36.893836    
    262000   0.19896106    -8.2808637     -7.9824263     -0.21621866     50218.233      36.893836      36.893836      36.893836    
    263000   0.20064875    -8.2822754     -7.9813066     -0.22600667     50218.233      36.893836      36.893836      36.893836    
    264000   0.19931258    -8.2803811     -7.9814165     -0.2094255      50218.233      36.893836      36.893836      36.893836    
    265000   0.20023814    -8.280823      -7.9804701     -0.20931013     50218.233      36.893836      36.893836      36.893836    
    266000   0.19968275    -8.2815774     -7.9820575     -0.22273646     50218.233      36.893836      36.893836      36.893836    
    267000   0.2001145     -8.2818709     -7.9817035     -0.21763143     50218.233      36.893836      36.893836      36.893836    
    268000   0.2000711     -8.281655      -7.9815526     -0.22444208     50218.233      36.893836      36.893836      36.893836    
    269000   0.20056782    -8.2819587     -7.9811113     -0.23150001     50218.233      36.893836      36.893836      36.893836    
    270000   0.1988053     -8.2812073     -7.9830036     -0.21994058     50218.233      36.893836      36.893836      36.893836    
    271000   0.20044896    -8.2811424     -7.9804732     -0.22350907     50218.233      36.893836      36.893836      36.893836    
    272000   0.20067702    -8.2800801     -7.9790688     -0.20978307     50218.233      36.893836      36.893836      36.893836    
    273000   0.19926838    -8.2816079     -7.9827095     -0.22248952     50218.233      36.893836      36.893836      36.893836    
    274000   0.20077764    -8.2807521     -7.9795899     -0.2111165      50218.233      36.893836      36.893836      36.893836    
    275000   0.19814951    -8.2818981     -7.9846781     -0.22333528     50218.233      36.893836      36.893836      36.893836    
    276000   0.1997685     -8.280327      -7.9806785     -0.21475441     50218.233      36.893836      36.893836      36.893836    
    277000   0.1998854     -8.2822249     -7.9824011     -0.22409573     50218.233      36.893836      36.893836      36.893836    
    278000   0.20082331    -8.2798329     -7.9786023     -0.21106313     50218.233      36.893836      36.893836      36.893836    
    279000   0.20044473    -8.2797297     -7.9790668     -0.20944599     50218.233      36.893836      36.893836      36.893836    
    280000   0.1997791     -8.2811848     -7.9815204     -0.22445709     50218.233      36.893836      36.893836      36.893836    
    281000   0.19976643    -8.2819378     -7.9822924     -0.23143026     50218.233      36.893836      36.893836      36.893836    
    282000   0.20078685    -8.2814198     -7.9802438     -0.22447584     50218.233      36.893836      36.893836      36.893836    
    283000   0.19942752    -8.2824705     -7.9833335     -0.22473223     50218.233      36.893836      36.893836      36.893836    
    284000   0.20015664    -8.2822679     -7.9820373     -0.22739842     50218.233      36.893836      36.893836      36.893836    
    285000   0.19998746    -8.2819332     -7.9819563     -0.22358044     50218.233      36.893836      36.893836      36.893836    
    286000   0.1997894     -8.2813554     -7.9816755     -0.21830468     50218.233      36.893836      36.893836      36.893836    
    287000   0.20018461    -8.2833329     -7.9830602     -0.2328356      50218.233      36.893836      36.893836      36.893836    
    288000   0.1998374     -8.2820206     -7.9822687     -0.23095008     50218.233      36.893836      36.893836      36.893836    
    289000   0.20090371    -8.2829415     -7.9815903     -0.22731179     50218.233      36.893836      36.893836      36.893836    
    290000   0.19953149    -8.2820807     -7.9827877     -0.22435932     50218.233      36.893836      36.893836      36.893836    
    291000   0.20008146    -8.2805212     -7.9804033     -0.21641217     50218.233      36.893836      36.893836      36.893836    
    292000   0.20061024    -8.2837825     -7.9828714     -0.23843132     50218.233      36.893836      36.893836      36.893836    
    293000   0.19969103    -8.2817622     -7.9822299     -0.22137546     50218.233      36.893836      36.893836      36.893836    
    294000   0.19971403    -8.2810941     -7.9815273     -0.2227888      50218.233      36.893836      36.893836      36.893836    
    295000   0.20037306    -8.2819468     -7.9813915     -0.22240921     50218.233      36.893836      36.893836      36.893836    
    296000   0.20032975    -8.2828428     -7.9823524     -0.23768977     50218.233      36.893836      36.893836      36.893836    
    297000   0.20002703    -8.2821786     -7.9821423     -0.22613527     50218.233      36.893836      36.893836      36.893836    
    298000   0.19967838    -8.2832816     -7.9837682     -0.24000202     50218.233      36.893836      36.893836      36.893836    
    299000   0.20037578    -8.2802946     -7.9797352     -0.21258162     50218.233      36.893836      36.893836      36.893836    
    300000   0.19961992    -8.2838899     -7.9844643     -0.23735087     50218.233      36.893836      36.893836      36.893836    
    301000   0.20017943    -8.282616      -7.9823511     -0.23933288     50218.233      36.893836      36.893836      36.893836    
    302000   0.19940548    -8.2833482     -7.9842442     -0.23615163     50218.233      36.893836      36.893836      36.893836    
    303000   0.19984425    -8.2808588     -7.9810967     -0.2048246      50218.233      36.893836      36.893836      36.893836    
    304000   0.20011448    -8.2795629     -7.9793955     -0.20458619     50218.233      36.893836      36.893836      36.893836    
    305000   0.19989229    -8.2826842     -7.98285       -0.22982162     50218.233      36.893836      36.893836      36.893836    
    306000   0.20028266    -8.2815257     -7.981106      -0.21641302     50218.233      36.893836      36.893836      36.893836    
    307000   0.19954362    -8.2832915     -7.9839804     -0.23223591     50218.233      36.893836      36.893836      36.893836    
    308000   0.20066067    -8.2825659     -7.9815792     -0.22188457     50218.233      36.893836      36.893836      36.893836    
    309000   0.19984884    -8.2827546     -7.9829856     -0.23159552     50218.233      36.893836      36.893836      36.893836    
    310000   0.20085638    -8.2821018     -7.9808215     -0.21726964     50218.233      36.893836      36.893836      36.893836    
    311000   0.19995549    -8.2822393     -7.9823103     -0.22720588     50218.233      36.893836      36.893836      36.893836    
    312000   0.19995714    -8.2826892     -7.9827577     -0.23537635     50218.233      36.893836      36.893836      36.893836    
    313000   0.19952951    -8.2815139     -7.9822239     -0.22693189     50218.233      36.893836      36.893836      36.893836    
    314000   0.20023667    -8.2835467     -7.9831959     -0.22968819     50218.233      36.893836      36.893836      36.893836    
    315000   0.19946801    -8.2806871     -7.9814894     -0.21792678     50218.233      36.893836      36.893836      36.893836    
    316000   0.19976727    -8.2810584     -7.9814117     -0.21717496     50218.233      36.893836      36.893836      36.893836    
    317000   0.20042827    -8.2823922     -7.981754      -0.23105517     50218.233      36.893836      36.893836      36.893836    
    318000   0.19951651    -8.2813649     -7.9820944     -0.22122294     50218.233      36.893836      36.893836      36.893836    
    319000   0.19994995    -8.282431      -7.9825103     -0.22222789     50218.233      36.893836      36.893836      36.893836    
    320000   0.20047598    -8.2803194     -7.9796097     -0.20810889     50218.233      36.893836      36.893836      36.893836    
    321000   0.20029962    -8.2812411     -7.980796      -0.22069631     50218.233      36.893836      36.893836      36.893836    
    322000   0.19930079    -8.2802639     -7.981317      -0.21396498     50218.233      36.893836      36.893836      36.893836    
    323000   0.20071458    -8.280673      -7.9796054     -0.21226303     50218.233      36.893836      36.893836      36.893836    
    324000   0.20016391    -8.2812589     -7.9810172     -0.22500557     50218.233      36.893836      36.893836      36.893836    
    325000   0.19924546    -8.2810348     -7.9821709     -0.22059238     50218.233      36.893836      36.893836      36.893836    
    326000   0.2003195     -8.2806797     -7.9802047     -0.21388987     50218.233      36.893836      36.893836      36.893836    
    327000   0.19979498    -8.2817685     -7.9820803     -0.22070487     50218.233      36.893836      36.893836      36.893836    
    328000   0.20097817    -8.2809227     -7.9794598     -0.21906683     50218.233      36.893836      36.893836      36.893836    
    329000   0.19918161    -8.2810835     -7.9823153     -0.22277606     50218.233      36.893836      36.893836      36.893836    
    330000   0.20039165    -8.2822328     -7.9816496     -0.22460692     50218.233      36.893836      36.893836      36.893836    
    331000   0.20025937    -8.2814198     -7.981035      -0.21924658     50218.233      36.893836      36.893836      36.893836    
    332000   0.19932004    -8.2803925     -7.9814167     -0.21367784     50218.233      36.893836      36.893836      36.893836    
    333000   0.20026181    -8.2821092     -7.9817207     -0.22117713     50218.233      36.893836      36.893836      36.893836    
    334000   0.20001586    -8.2820737     -7.9820542     -0.22560728     50218.233      36.893836      36.893836      36.893836    
    335000   0.19942569    -8.2819832     -7.9828489     -0.22325984     50218.233      36.893836      36.893836      36.893836    
    336000   0.20048549    -8.2808214     -7.9800975     -0.2110322      50218.233      36.893836      36.893836      36.893836    
    337000   0.19923829    -8.282407      -7.9835538     -0.23208287     50218.233      36.893836      36.893836      36.893836    
    338000   0.19937257    -8.2823248     -7.9832702     -0.22355959     50218.233      36.893836      36.893836      36.893836    
    339000   0.19985764    -8.2816606     -7.9818784     -0.22556073     50218.233      36.893836      36.893836      36.893836    
    340000   0.19985943    -8.280982      -7.9811971     -0.21532694     50218.233      36.893836      36.893836      36.893836    
    341000   0.19964609    -8.2814924     -7.9820275     -0.22733648     50218.233      36.893836      36.893836      36.893836    
    342000   0.20103476    -8.2815302     -7.9799823     -0.2232157      50218.233      36.893836      36.893836      36.893836    
    343000   0.20170877    -8.2796609     -7.977102      -0.20837757     50218.233      36.893836      36.893836      36.893836    
    344000   0.19954612    -8.2805829     -7.981268      -0.21241061     50218.233      36.893836      36.893836      36.893836    
    345000   0.20005444    -8.2813255     -7.9812481     -0.21976379     50218.233      36.893836      36.893836      36.893836    
    346000   0.19988187    -8.2831498     -7.9833313     -0.23182607     50218.233      36.893836      36.893836      36.893836    
    347000   0.20018098    -8.2825464     -7.9822792     -0.22554667     50218.233      36.893836      36.893836      36.893836    
    348000   0.20016418    -8.2834793     -7.9832373     -0.23241061     50218.233      36.893836      36.893836      36.893836    
    349000   0.20029843    -8.2831554     -7.9827121     -0.23255956     50218.233      36.893836      36.893836      36.893836    
    350000   0.20010663    -8.28251       -7.9823543     -0.22387181     50218.233      36.893836      36.893836      36.893836    
    351000   0.20074941    -8.2828684     -7.9817486     -0.2325578      50218.233      36.893836      36.893836      36.893836    
    352000   0.19898778    -8.2826688     -7.9841914     -0.23185781     50218.233      36.893836      36.893836      36.893836    
    353000   0.20094935    -8.2827072     -7.9812874     -0.23127925     50218.233      36.893836      36.893836      36.893836    
    354000   0.20023573    -8.2820525     -7.9817032     -0.22327158     50218.233      36.893836      36.893836      36.893836    
    355000   0.19990206    -8.2827889     -7.9829401     -0.22607838     50218.233      36.893836      36.893836      36.893836    
    356000   0.20030582    -8.283639      -7.9831845     -0.23474813     50218.233      36.893836      36.893836      36.893836    
    357000   0.20119704    -8.2809829     -7.9791916     -0.20992604     50218.233      36.893836      36.893836      36.893836    
    358000   0.19872743    -8.2834745     -7.9853876     -0.2346645      50218.233      36.893836      36.893836      36.893836    
    359000   0.19980122    -8.2825657     -7.9828682     -0.23301787     50218.233      36.893836      36.893836      36.893836    
    360000   0.2000089     -8.2821989     -7.9821898     -0.22484242     50218.233      36.893836      36.893836      36.893836    
    361000   0.20044212    -8.2823389     -7.98168       -0.22720924     50218.233      36.893836      36.893836      36.893836    
    362000   0.20044735    -8.2800743     -7.9794076     -0.21269238     50218.233      36.893836      36.893836      36.893836    
    363000   0.20038898    -8.2812815     -7.9807023     -0.22300898     50218.233      36.893836      36.893836      36.893836    
    364000   0.19911982    -8.2821617     -7.9834862     -0.21785739     50218.233      36.893836      36.893836      36.893836    
    365000   0.20094405    -8.2807675     -7.9793557     -0.21072438     50218.233      36.893836      36.893836      36.893836    
    366000   0.19963005    -8.2820114     -7.9825706     -0.22595367     50218.233      36.893836      36.893836      36.893836    
    367000   0.19989113    -8.2804535     -7.9806211     -0.21641733     50218.233      36.893836      36.893836      36.893836    
    368000   0.20014274    -8.2804312     -7.9802213     -0.21867462     50218.233      36.893836      36.893836      36.893836    
    369000   0.19869953    -8.2800202     -7.9819751     -0.21298401     50218.233      36.893836      36.893836      36.893836    
    370000   0.20038555    -8.2800434     -7.9794693     -0.20825658     50218.233      36.893836      36.893836      36.893836    
    371000   0.20071047    -8.2807109     -7.9796495     -0.21460766     50218.233      36.893836      36.893836      36.893836    
    372000   0.20010131    -8.2810556     -7.9809079     -0.21969081     50218.233      36.893836      36.893836      36.893836    
    373000   0.20016554    -8.2791474     -7.9789034     -0.20235768     50218.233      36.893836      36.893836      36.893836    
    374000   0.2000624     -8.2820423     -7.981953      -0.22859099     50218.233      36.893836      36.893836      36.893836    
    375000   0.19882659    -8.2825292     -7.9842935     -0.22196892     50218.233      36.893836      36.893836      36.893836    
    376000   0.20002617    -8.2803901     -7.9803551     -0.21333635     50218.233      36.893836      36.893836      36.893836    
    377000   0.19976093    -8.2827657     -7.9831285     -0.22800446     50218.233      36.893836      36.893836      36.893836    
    378000   0.2010139     -8.2827748     -7.9812582     -0.22578827     50218.233      36.893836      36.893836      36.893836    
    379000   0.20065281    -8.2804465     -7.9794716     -0.20919767     50218.233      36.893836      36.893836      36.893836    
    380000   0.20001388    -8.2819976     -7.9819811     -0.22157078     50218.233      36.893836      36.893836      36.893836    
    381000   0.20018556    -8.2826918     -7.9824178     -0.2293072      50218.233      36.893836      36.893836      36.893836    
    382000   0.20009204    -8.2809698     -7.980836      -0.2210076      50218.233      36.893836      36.893836      36.893836    
    383000   0.1998935     -8.2803605     -7.9805245     -0.20796118     50218.233      36.893836      36.893836      36.893836    
    384000   0.20026106    -8.2817236     -7.9813363     -0.21826048     50218.233      36.893836      36.893836      36.893836    
    385000   0.20016629    -8.2801782     -7.979933      -0.20754932     50218.233      36.893836      36.893836      36.893836    
    386000   0.1997602     -8.2804085     -7.9807725     -0.21231179     50218.233      36.893836      36.893836      36.893836    
    387000   0.20175604    -8.2814501     -7.9788203     -0.21357829     50218.233      36.893836      36.893836      36.893836    
    388000   0.20062929    -8.2830314     -7.9820917     -0.23008201     50218.233      36.893836      36.893836      36.893836    
    389000   0.20023543    -8.2821489     -7.9818        -0.22684983     50218.233      36.893836      36.893836      36.893836    
    390000   0.19833448    -8.2805086     -7.9830111     -0.21012375     50218.233      36.893836      36.893836      36.893836    
    391000   0.20080846    -8.2802219     -7.9790135     -0.21572189     50218.233      36.893836      36.893836      36.893836    
    392000   0.19960828    -8.2833379     -7.9839297     -0.23801127     50218.233      36.893836      36.893836      36.893836    
    393000   0.20009109    -8.2824447     -7.9823123     -0.22944115     50218.233      36.893836      36.893836      36.893836    
    394000   0.20070501    -8.2834638     -7.9824106     -0.23042121     50218.233      36.893836      36.893836      36.893836    
    395000   0.19985047    -8.2820001     -7.9822287     -0.21957019     50218.233      36.893836      36.893836      36.893836    
    396000   0.19998126    -8.2828215     -7.9828539     -0.24077542     50218.233      36.893836      36.893836      36.893836    
    397000   0.20028376    -8.2838804     -7.983459      -0.24387596     50218.233      36.893836      36.893836      36.893836    
    398000   0.19999739    -8.2828846     -7.9828928     -0.22746735     50218.233      36.893836      36.893836      36.893836    
    399000   0.19962617    -8.2831229     -7.9836879     -0.23555312     50218.233      36.893836      36.893836      36.893836    
    400000   0.20017995    -8.2808765     -7.9806108     -0.22219683     50218.233      36.893836      36.893836      36.893836    
    401000   0.20026147    -8.2827098     -7.9823218     -0.23542818     50218.233      36.893836      36.893836      36.893836    
    402000   0.20077152    -8.283296      -7.982143      -0.23697426     50218.233      36.893836      36.893836      36.893836    
    403000   0.19948176    -8.281673      -7.9824546     -0.22748434     50218.233      36.893836      36.893836      36.893836    
    404000   0.20020698    -8.2827787     -7.9824725     -0.22743596     50218.233      36.893836      36.893836      36.893836    
    405000   0.20103976    -8.2810071     -7.9794518     -0.21497545     50218.233      36.893836      36.893836      36.893836    
    406000   0.19921462    -8.2834367     -7.984619      -0.23574239     50218.233      36.893836      36.893836      36.893836    
    407000   0.19920869    -8.2801862     -7.9813774     -0.21122203     50218.233      36.893836      36.893836      36.893836    
    408000   0.20086891    -8.2812492     -7.9799501     -0.22060535     50218.233      36.893836      36.893836      36.893836    
    409000   0.20061306    -8.2825326     -7.9816173     -0.22961288     50218.233      36.893836      36.893836      36.893836    
    410000   0.20001531    -8.2817439     -7.9817252     -0.21958915     50218.233      36.893836      36.893836      36.893836    
    411000   0.19856038    -8.281445      -7.9836087     -0.22827147     50218.233      36.893836      36.893836      36.893836    
    412000   0.19976779    -8.2826488     -7.9830014     -0.22690688     50218.233      36.893836      36.893836      36.893836    
    413000   0.2007231     -8.2831745     -7.9820941     -0.23565049     50218.233      36.893836      36.893836      36.893836    
    414000   0.20076293    -8.2809603     -7.9798202     -0.2151216      50218.233      36.893836      36.893836      36.893836    
    415000   0.19923027    -8.2813244     -7.9824833     -0.23092968     50218.233      36.893836      36.893836      36.893836    
    416000   0.19975622    -8.2808132     -7.9811831     -0.21487058     50218.233      36.893836      36.893836      36.893836    
    417000   0.19993569    -8.2817848     -7.9818855     -0.22346355     50218.233      36.893836      36.893836      36.893836    
    418000   0.19973738    -8.281501      -7.9818992     -0.22465696     50218.233      36.893836      36.893836      36.893836    
    419000   0.19916995    -8.2797815     -7.9810308     -0.20399349     50218.233      36.893836      36.893836      36.893836    
    420000   0.20057437    -8.2799696     -7.9791123     -0.2037221      50218.233      36.893836      36.893836      36.893836    
    421000   0.20044692    -8.2817915     -7.9811254     -0.21561792     50218.233      36.893836      36.893836      36.893836    
    422000   0.20085821    -8.2809041     -7.9796211     -0.20898777     50218.233      36.893836      36.893836      36.893836    
    423000   0.20016391    -8.2804083     -7.9801667     -0.21474736     50218.233      36.893836      36.893836      36.893836    
    424000   0.20003536    -8.2813592     -7.9813104     -0.21647274     50218.233      36.893836      36.893836      36.893836    
    425000   0.19972372    -8.2802105     -7.9806292     -0.20666564     50218.233      36.893836      36.893836      36.893836    
    426000   0.20070924    -8.2818828     -7.9808232     -0.22375735     50218.233      36.893836      36.893836      36.893836    
    427000   0.20015691    -8.2810564     -7.9808253     -0.21531929     50218.233      36.893836      36.893836      36.893836    
    428000   0.20031672    -8.2800078     -7.979537      -0.20584387     50218.233      36.893836      36.893836      36.893836    
    429000   0.2008095     -8.2797676     -7.9785577     -0.19849012     50218.233      36.893836      36.893836      36.893836    
    430000   0.20052454    -8.2815219     -7.9807394     -0.21784632     50218.233      36.893836      36.893836      36.893836    
    431000   0.19984113    -8.282985      -7.9832275     -0.23328291     50218.233      36.893836      36.893836      36.893836    
    432000   0.1995909     -8.2811727     -7.9817906     -0.21733304     50218.233      36.893836      36.893836      36.893836    
    433000   0.20052226    -8.2793391     -7.9785599     -0.20869349     50218.233      36.893836      36.893836      36.893836    
    434000   0.19935703    -8.2812298     -7.9821985     -0.22003204     50218.233      36.893836      36.893836      36.893836    
    435000   0.19974961    -8.2796425     -7.9800223     -0.20848427     50218.233      36.893836      36.893836      36.893836    
    436000   0.20069301    -8.2823299     -7.9812946     -0.22017311     50218.233      36.893836      36.893836      36.893836    
    437000   0.20141095    -8.2805319     -7.9784198     -0.21649697     50218.233      36.893836      36.893836      36.893836    
    438000   0.199917      -8.2814623     -7.981591      -0.22351709     50218.233      36.893836      36.893836      36.893836    
    439000   0.20023037    -8.2810372     -7.9806959     -0.21583228     50218.233      36.893836      36.893836      36.893836    
    440000   0.20083179    -8.2819209     -7.9806775     -0.22742197     50218.233      36.893836      36.893836      36.893836    
    441000   0.20026617    -8.2818347     -7.9814397     -0.22704548     50218.233      36.893836      36.893836      36.893836    
    442000   0.19995942    -8.283408      -7.9834731     -0.24096671     50218.233      36.893836      36.893836      36.893836    
    443000   0.20003222    -8.2824383     -7.9823942     -0.22913585     50218.233      36.893836      36.893836      36.893836    
    444000   0.19954925    -8.2838809     -7.9845613     -0.24273209     50218.233      36.893836      36.893836      36.893836    
    445000   0.20015394    -8.2823803     -7.9821537     -0.22372905     50218.233      36.893836      36.893836      36.893836    
    446000   0.19977393    -8.2825843     -7.9829277     -0.23295328     50218.233      36.893836      36.893836      36.893836    
    447000   0.20035495    -8.2841315     -7.9836034     -0.23970605     50218.233      36.893836      36.893836      36.893836    
    448000   0.20046168    -8.2834486     -7.9827603     -0.22615545     50218.233      36.893836      36.893836      36.893836    
    449000   0.1998841     -8.2815969     -7.981775      -0.22387478     50218.233      36.893836      36.893836      36.893836    
    450000   0.20021647    -8.2823818     -7.9820614     -0.22696466     50218.233      36.893836      36.893836      36.893836    
    451000   0.19928362    -8.2826813     -7.9837601     -0.2273102      50218.233      36.893836      36.893836      36.893836    
    452000   0.19956858    -8.2834878     -7.9841392     -0.24087899     50218.233      36.893836      36.893836      36.893836    
    453000   0.20006602    -8.2830815     -7.9829868     -0.2287173      50218.233      36.893836      36.893836      36.893836    
    454000   0.20018666    -8.2833433     -7.9830676     -0.23909503     50218.233      36.893836      36.893836      36.893836    
    455000   0.20003875    -8.2837008     -7.983647      -0.24190154     50218.233      36.893836      36.893836      36.893836    
    456000   0.19998798    -8.283075      -7.9830973     -0.22817266     50218.233      36.893836      36.893836      36.893836    
    457000   0.20088886    -8.2826636     -7.9813346     -0.22714912     50218.233      36.893836      36.893836      36.893836    
    458000   0.19961751    -8.2819954     -7.9825734     -0.21853776     50218.233      36.893836      36.893836      36.893836    
    459000   0.19985184    -8.2817253     -7.9819518     -0.21897642     50218.233      36.893836      36.893836      36.893836    
    460000   0.20056783    -8.2823989     -7.9815515     -0.2238727      50218.233      36.893836      36.893836      36.893836    
    461000   0.20056786    -8.2811497     -7.9803022     -0.2235745      50218.233      36.893836      36.893836      36.893836    
    462000   0.20031316    -8.2815885     -7.981123      -0.22078878     50218.233      36.893836      36.893836      36.893836    
    463000   0.2002838     -8.2825383     -7.9821168     -0.22461801     50218.233      36.893836      36.893836      36.893836    
    464000   0.20038438    -8.2809482     -7.9803759     -0.21183209     50218.233      36.893836      36.893836      36.893836    
    465000   0.19952238    -8.2802867     -7.9810074     -0.21383835     50218.233      36.893836      36.893836      36.893836    
    466000   0.19898405    -8.2818258     -7.983354      -0.22840483     50218.233      36.893836      36.893836      36.893836    
    467000   0.19914267    -8.2804173     -7.9817075     -0.21037447     50218.233      36.893836      36.893836      36.893836    
    468000   0.20042296    -8.2811963     -7.9805662     -0.21850572     50218.233      36.893836      36.893836      36.893836    
    469000   0.20040571    -8.2808677     -7.9802634     -0.21346332     50218.233      36.893836      36.893836      36.893836    
    470000   0.20104598    -8.282826      -7.9812614     -0.2272812      50218.233      36.893836      36.893836      36.893836    
    471000   0.19982875    -8.2816566     -7.9819178     -0.21615425     50218.233      36.893836      36.893836      36.893836    
    472000   0.19818374    -8.28151       -7.9842386     -0.22021937     50218.233      36.893836      36.893836      36.893836    
    473000   0.20023245    -8.2812657     -7.9809213     -0.21358601     50218.233      36.893836      36.893836      36.893836    
    474000   0.19930416    -8.2813641     -7.9824121     -0.21998499     50218.233      36.893836      36.893836      36.893836    
    475000   0.20017034    -8.2813118     -7.9810605     -0.22315321     50218.233      36.893836      36.893836      36.893836    
    476000   0.19955961    -8.2813117     -7.9819765     -0.22276422     50218.233      36.893836      36.893836      36.893836    
    477000   0.20009383    -8.2807039     -7.9805675     -0.2160465      50218.233      36.893836      36.893836      36.893836    
    478000   0.20018899    -8.2822009     -7.9819216     -0.2251868      50218.233      36.893836      36.893836      36.893836    
    479000   0.20022362    -8.2803667     -7.9800356     -0.2169792      50218.233      36.893836      36.893836      36.893836    
    480000   0.19944992    -8.2810084     -7.9818378     -0.21664763     50218.233      36.893836      36.893836      36.893836    
    481000   0.1998801     -8.2807894     -7.9809735     -0.22180655     50218.233      36.893836      36.893836      36.893836    
    482000   0.2004436     -8.2815314     -7.9808703     -0.21622299     50218.233      36.893836      36.893836      36.893836    
    483000   0.19950174    -8.2805526     -7.9813042     -0.2130917      50218.233      36.893836      36.893836      36.893836    
    484000   0.20005483    -8.2821896     -7.9821116     -0.22239759     50218.233      36.893836      36.893836      36.893836    
    485000   0.20018325    -8.2817284     -7.9814578     -0.22942767     50218.233      36.893836      36.893836      36.893836    
    486000   0.20102474    -8.2817815     -7.9802487     -0.22023879     50218.233      36.893836      36.893836      36.893836    
    487000   0.20100594    -8.2813517     -7.979847      -0.22436333     50218.233      36.893836      36.893836      36.893836    
    488000   0.20059234    -8.2824802     -7.9815959     -0.22624222     50218.233      36.893836      36.893836      36.893836    
    489000   0.19962249    -8.2814104     -7.9819809     -0.20809028     50218.233      36.893836      36.893836      36.893836    
    490000   0.19944681    -8.282367      -7.9832011     -0.22897763     50218.233      36.893836      36.893836      36.893836    
    491000   0.19913346    -8.2829186     -7.9842226     -0.23507608     50218.233      36.893836      36.893836      36.893836    
    492000   0.20072506    -8.283196      -7.9821127     -0.24224355     50218.233      36.893836      36.893836      36.893836    
    493000   0.20100116    -8.2810308     -7.9795334     -0.21910562     50218.233      36.893836      36.893836      36.893836    
    494000   0.2000154     -8.2820174     -7.9819986     -0.2248699      50218.233      36.893836      36.893836      36.893836    
    495000   0.19980144    -8.2799671     -7.9802692     -0.20284792     50218.233      36.893836      36.893836      36.893836    
    496000   0.20029409    -8.2840824     -7.9836455     -0.23664568     50218.233      36.893836      36.893836      36.893836    
    497000   0.1998274     -8.2824565     -7.9827197     -0.23064614     50218.233      36.893836      36.893836      36.893836    
    498000   0.19930191    -8.2825854     -7.9836368     -0.23038117     50218.233      36.893836      36.893836      36.893836    
    499000   0.20058446    -8.2809258     -7.9800534     -0.21162336     50218.233      36.893836      36.893836      36.893836    
    500000   0.20022386    -8.2836559     -7.9833244     -0.23216042     50218.233      36.893836      36.893836      36.893836    
    501000   0.20072795    -8.2812975     -7.9802099     -0.21770341     50218.233      36.893836      36.893836      36.893836    
    502000   0.19926842    -8.2834766     -7.9845782     -0.23945778     50218.233      36.893836      36.893836      36.893836    
    503000   0.20006298    -8.2815332     -7.981443      -0.22299589     50218.233      36.893836      36.893836      36.893836    
    504000   0.19996816    -8.2835007     -7.9835527     -0.22815911     50218.233      36.893836      36.893836      36.893836    
    505000   0.19969808    -8.2823686     -7.9828257     -0.23180653     50218.233      36.893836      36.893836      36.893836    
    506000   0.20038333    -8.2818752     -7.9813045     -0.23219084     50218.233      36.893836      36.893836      36.893836    
    507000   0.20023352    -8.2807958     -7.9804498     -0.21565634     50218.233      36.893836      36.893836      36.893836    
    508000   0.19908715    -8.2828101     -7.9841836     -0.22837281     50218.233      36.893836      36.893836      36.893836    
    509000   0.20011356    -8.2821169     -7.9819508     -0.22084898     50218.233      36.893836      36.893836      36.893836    
    510000   0.19967399    -8.2823778     -7.9828711     -0.22850105     50218.233      36.893836      36.893836      36.893836    
    511000   0.19938396    -8.2819616     -7.9828899     -0.21562032     50218.233      36.893836      36.893836      36.893836    
    512000   0.20038192    -8.2813333     -7.9807647     -0.21590345     50218.233      36.893836      36.893836      36.893836    
    513000   0.20009787    -8.2836267     -7.9834841     -0.2373967      50218.233      36.893836      36.893836      36.893836    
    514000   0.20122936    -8.2808467     -7.9790069     -0.20569573     50218.233      36.893836      36.893836      36.893836    
    515000   0.20011453    -8.2837052     -7.9835377     -0.23398406     50218.233      36.893836      36.893836      36.893836    
    516000   0.20078036    -8.2808538     -7.9796875     -0.21821684     50218.233      36.893836      36.893836      36.893836    
    517000   0.19979189    -8.2812841     -7.9816005     -0.2188923      50218.233      36.893836      36.893836      36.893836    
    518000   0.1998595     -8.2812008     -7.9814158     -0.22277385     50218.233      36.893836      36.893836      36.893836    
    519000   0.19988173    -8.2801874     -7.9803691     -0.21086004     50218.233      36.893836      36.893836      36.893836    
    520000   0.1992452     -8.2817436     -7.98288       -0.21877661     50218.233      36.893836      36.893836      36.893836    
    521000   0.19971297    -8.2805938     -7.9810286     -0.21393495     50218.233      36.893836      36.893836      36.893836    
    522000   0.20023149    -8.2801886     -7.9798457     -0.2059495      50218.233      36.893836      36.893836      36.893836    
    523000   0.20182921    -8.2814756     -7.9787361     -0.2079475      50218.233      36.893836      36.893836      36.893836    
    524000   0.19942081    -8.282478      -7.983351      -0.22287643     50218.233      36.893836      36.893836      36.893836    
    525000   0.2000301     -8.2790388     -7.9789979     -0.20136389     50218.233      36.893836      36.893836      36.893836    
    526000   0.19858225    -8.2821647     -7.9842956     -0.22995287     50218.233      36.893836      36.893836      36.893836    
    527000   0.20057534    -8.2802601     -7.9794014     -0.21170788     50218.233      36.893836      36.893836      36.893836    
    528000   0.1999575     -8.2800861     -7.9801541     -0.20697493     50218.233      36.893836      36.893836      36.893836    
    529000   0.20051436    -8.2815418     -7.9807745     -0.22522592     50218.233      36.893836      36.893836      36.893836    
    530000   0.20018033    -8.282069      -7.9818027     -0.22445966     50218.233      36.893836      36.893836      36.893836    
    531000   0.1993246     -8.2816172     -7.9826345     -0.2228744      50218.233      36.893836      36.893836      36.893836    
    532000   0.19969783    -8.2813712     -7.9818287     -0.21371218     50218.233      36.893836      36.893836      36.893836    
    533000   0.19907123    -8.2808864     -7.9822838     -0.2141823      50218.233      36.893836      36.893836      36.893836    
    534000   0.20029857    -8.2809578     -7.9805142     -0.21613174     50218.233      36.893836      36.893836      36.893836    
    535000   0.20000409    -8.28191       -7.9819082     -0.22580758     50218.233      36.893836      36.893836      36.893836    
    536000   0.20015989    -8.2814585     -7.9812229     -0.22363806     50218.233      36.893836      36.893836      36.893836    
    537000   0.20085065    -8.281523      -7.9802513     -0.22400282     50218.233      36.893836      36.893836      36.893836    
    538000   0.19902424    -8.2817609     -7.9832288     -0.2285735      50218.233      36.893836      36.893836      36.893836    
    539000   0.19904773    -8.284115      -7.9855476     -0.24225135     50218.233      36.893836      36.893836      36.893836    
    540000   0.20096913    -8.281025      -7.9795756     -0.21501317     50218.233      36.893836      36.893836      36.893836    
    541000   0.19935946    -8.2809102     -7.9818753     -0.20882062     50218.233      36.893836      36.893836      36.893836    
    542000   0.20067964    -8.2819335     -7.9809183     -0.21821879     50218.233      36.893836      36.893836      36.893836    
    543000   0.20042637    -8.2826555     -7.9820203     -0.23170291     50218.233      36.893836      36.893836      36.893836    
    544000   0.19925099    -8.2813175     -7.9824453     -0.21635824     50218.233      36.893836      36.893836      36.893836    
    545000   0.20013863    -8.2830675     -7.9828639     -0.23232587     50218.233      36.893836      36.893836      36.893836    
    546000   0.20027803    -8.2811276     -7.9807149     -0.21833074     50218.233      36.893836      36.893836      36.893836    
    547000   0.19988428    -8.2829633     -7.9831411     -0.23796208     50218.233      36.893836      36.893836      36.893836    
    548000   0.19976048    -8.2818068     -7.9821704     -0.22545243     50218.233      36.893836      36.893836      36.893836    
    549000   0.19923202    -8.2817208     -7.982877      -0.21690469     50218.233      36.893836      36.893836      36.893836    
    550000   0.20055154    -8.2815864     -7.9807634     -0.23152837     50218.233      36.893836      36.893836      36.893836    
    551000   0.19960233    -8.2813824     -7.9819832     -0.21243817     50218.233      36.893836      36.893836      36.893836    
    552000   0.1998632     -8.2838611     -7.9840705     -0.23519914     50218.233      36.893836      36.893836      36.893836    
    553000   0.20010665    -8.2824373     -7.9822816     -0.23074543     50218.233      36.893836      36.893836      36.893836    
    554000   0.20032954    -8.2809639     -7.9804739     -0.21834459     50218.233      36.893836      36.893836      36.893836    
    555000   0.20070989    -8.2836364     -7.9825758     -0.23723604     50218.233      36.893836      36.893836      36.893836    
    556000   0.20079553    -8.2830084     -7.9818194     -0.22941837     50218.233      36.893836      36.893836      36.893836    
    557000   0.1993766     -8.2836058     -7.9845452     -0.2454208      50218.233      36.893836      36.893836      36.893836    
    558000   0.19971253    -8.283548      -7.9839835     -0.23451104     50218.233      36.893836      36.893836      36.893836    
    559000   0.19968615    -8.2819168     -7.9823919     -0.23191397     50218.233      36.893836      36.893836      36.893836    
    560000   0.20090465    -8.281352      -7.9799993     -0.21873788     50218.233      36.893836      36.893836      36.893836    
    561000   0.19998436    -8.2808447     -7.9808724     -0.21712882     50218.233      36.893836      36.893836      36.893836    
    562000   0.1999671     -8.2825564     -7.98261       -0.23096804     50218.233      36.893836      36.893836      36.893836    
    563000   0.19940421    -8.2817192     -7.9826171     -0.22091879     50218.233      36.893836      36.893836      36.893836    
    564000   0.19924718    -8.2820024     -7.9831359     -0.22649808     50218.233      36.893836      36.893836      36.893836    
    565000   0.19974502    -8.2818743     -7.982261      -0.22565594     50218.233      36.893836      36.893836      36.893836    
    566000   0.19987612    -8.2813377     -7.9815277     -0.21719337     50218.233      36.893836      36.893836      36.893836    
    567000   0.19887124    -8.2820669     -7.9837643     -0.23113221     50218.233      36.893836      36.893836      36.893836    
    568000   0.19988039    -8.2808404     -7.981024      -0.2184094      50218.233      36.893836      36.893836      36.893836    
    569000   0.19983103    -8.281492      -7.9817497     -0.22657307     50218.233      36.893836      36.893836      36.893836    
    570000   0.20055335    -8.2804473     -7.9796216     -0.21660499     50218.233      36.893836      36.893836      36.893836    
    571000   0.19998015    -8.2800612     -7.9800953     -0.21129927     50218.233      36.893836      36.893836      36.893836    
    572000   0.20071287    -8.2806714     -7.9796064     -0.21007734     50218.233      36.893836      36.893836      36.893836    
    573000   0.19948785    -8.2802214     -7.9809939     -0.2191589      50218.233      36.893836      36.893836      36.893836    
    574000   0.20040405    -8.2800846     -7.9794828     -0.20942573     50218.233      36.893836      36.893836      36.893836    
    575000   0.20123713    -8.2812222     -7.9793708     -0.21972439     50218.233      36.893836      36.893836      36.893836    
    576000   0.19991568    -8.2805433     -7.9806741     -0.20788234     50218.233      36.893836      36.893836      36.893836    
    577000   0.19998193    -8.2819142     -7.9819455     -0.22398839     50218.233      36.893836      36.893836      36.893836    
    578000   0.19980195    -8.2822135     -7.9825149     -0.2242143      50218.233      36.893836      36.893836      36.893836    
    579000   0.20009368    -8.2815912     -7.9814549     -0.21630537     50218.233      36.893836      36.893836      36.893836    
    580000   0.20043673    -8.2818208     -7.98117       -0.22405649     50218.233      36.893836      36.893836      36.893836    
    581000   0.20028109    -8.2803213     -7.979904      -0.21434733     50218.233      36.893836      36.893836      36.893836    
    582000   0.19983139    -8.2813549     -7.9816121     -0.2166695      50218.233      36.893836      36.893836      36.893836    
    583000   0.20052299    -8.2838429     -7.9830627     -0.2307424      50218.233      36.893836      36.893836      36.893836    
    584000   0.20093164    -8.2819273     -7.9805341     -0.22208316     50218.233      36.893836      36.893836      36.893836    
    585000   0.1993809     -8.2814696     -7.9824025     -0.2252057      50218.233      36.893836      36.893836      36.893836    
    586000   0.20105085    -8.2813884     -7.9798164     -0.21401089     50218.233      36.893836      36.893836      36.893836    
    587000   0.19986625    -8.2806615     -7.9808664     -0.21321847     50218.233      36.893836      36.893836      36.893836    
    588000   0.200793      -8.2807837     -7.9795985     -0.21457937     50218.233      36.893836      36.893836      36.893836    
    589000   0.20041529    -8.2812717     -7.980653      -0.22233886     50218.233      36.893836      36.893836      36.893836    
    590000   0.19912782    -8.2804527     -7.9817652     -0.21645278     50218.233      36.893836      36.893836      36.893836    
    591000   0.19965329    -8.2818406     -7.982365      -0.22700636     50218.233      36.893836      36.893836      36.893836    
    592000   0.2001493     -8.2816768     -7.9814571     -0.22496516     50218.233      36.893836      36.893836      36.893836    
    593000   0.20121816    -8.2836212     -7.9817982     -0.23856517     50218.233      36.893836      36.893836      36.893836    
    594000   0.20043932    -8.2822323     -7.9815776     -0.22678801     50218.233      36.893836      36.893836      36.893836    
    595000   0.20015795    -8.2812404     -7.9810077     -0.21936108     50218.233      36.893836      36.893836      36.893836    
    596000   0.20044471    -8.2817479     -7.9810851     -0.21672538     50218.233      36.893836      36.893836      36.893836    
    597000   0.19971633    -8.2816043     -7.9820341     -0.22458501     50218.233      36.893836      36.893836      36.893836    
    598000   0.20001716    -8.2826946     -7.9826732     -0.23128179     50218.233      36.893836      36.893836      36.893836    
    599000   0.19980343    -8.2826625     -7.9829616     -0.22653171     50218.233      36.893836      36.893836      36.893836    
    600000   0.20077714    -8.2814408     -7.9802794     -0.22640734     50218.233      36.893836      36.893836      36.893836    
    601000   0.19974265    -8.2823271     -7.9827174     -0.22471112     50218.233      36.893836      36.893836      36.893836    
    602000   0.19976744    -8.2811689     -7.981522      -0.21967238     50218.233      36.893836      36.893836      36.893836    
    603000   0.20042539    -8.2824516     -7.9818178     -0.22262656     50218.233      36.893836      36.893836      36.893836    
    604000   0.19994469    -8.2827699     -7.9828571     -0.2327998      50218.233      36.893836      36.893836      36.893836    
    605000   0.1997119     -8.2835398     -7.9839762     -0.24196032     50218.233      36.893836      36.893836      36.893836    
    606000   0.19921773    -8.2832426     -7.9844202     -0.23565552     50218.233      36.893836      36.893836      36.893836    
    607000   0.19996234    -8.2807597     -7.9808205     -0.21665989     50218.233      36.893836      36.893836      36.893836    
    608000   0.19918522    -8.2829415     -7.984168      -0.22702567     50218.233      36.893836      36.893836      36.893836    
    609000   0.20017053    -8.280512      -7.9802604     -0.21704823     50218.233      36.893836      36.893836      36.893836    
    610000   0.20052218    -8.2815531     -7.9807741     -0.219049       50218.233      36.893836      36.893836      36.893836    
    611000   0.19963344    -8.2819161     -7.9824702     -0.22463904     50218.233      36.893836      36.893836      36.893836    
    612000   0.19950184    -8.2833439     -7.9840954     -0.23091711     50218.233      36.893836      36.893836      36.893836    
    613000   0.19923384    -8.2819375     -7.9830909     -0.22411579     50218.233      36.893836      36.893836      36.893836    
    614000   0.20085629    -8.2818647     -7.9805846     -0.21982862     50218.233      36.893836      36.893836      36.893836    
    615000   0.19925233    -8.280443      -7.9815687     -0.2087785      50218.233      36.893836      36.893836      36.893836    
    616000   0.20043657    -8.2813141     -7.9806635     -0.22014021     50218.233      36.893836      36.893836      36.893836    
    617000   0.20050324    -8.2799733     -7.9792227     -0.21106213     50218.233      36.893836      36.893836      36.893836    
    618000   0.1997035     -8.2818041     -7.9822531     -0.22573601     50218.233      36.893836      36.893836      36.893836    
    619000   0.19886169    -8.2818567     -7.9835684     -0.22638625     50218.233      36.893836      36.893836      36.893836    
    620000   0.201251      -8.281132      -7.9792598     -0.21025036     50218.233      36.893836      36.893836      36.893836    
    621000   0.19952729    -8.2792506     -7.9799639     -0.20543407     50218.233      36.893836      36.893836      36.893836    
    622000   0.19887571    -8.2822851     -7.9839757     -0.22618573     50218.233      36.893836      36.893836      36.893836    
    623000   0.19879876    -8.2815696     -7.9833757     -0.21782347     50218.233      36.893836      36.893836      36.893836    
    624000   0.19868606    -8.2816183     -7.9835935     -0.23073716     50218.233      36.893836      36.893836      36.893836    
    625000   0.20018294    -8.2809984     -7.9807283     -0.21913856     50218.233      36.893836      36.893836      36.893836    
    626000   0.20002273    -8.2793353     -7.9793055     -0.20292483     50218.233      36.893836      36.893836      36.893836    
    627000   0.20004764    -8.2816499     -7.9815827     -0.21949382     50218.233      36.893836      36.893836      36.893836    
    628000   0.19980681    -8.2807875     -7.9810815     -0.21734507     50218.233      36.893836      36.893836      36.893836    
    629000   0.1996541     -8.2813484     -7.9818715     -0.21656658     50218.233      36.893836      36.893836      36.893836    
    630000   0.20113799    -8.2821742     -7.9804715     -0.22338048     50218.233      36.893836      36.893836      36.893836    
    631000   0.19988619    -8.2804551     -7.9806301     -0.20886851     50218.233      36.893836      36.893836      36.893836    
    632000   0.1995936     -8.2827686     -7.9833824     -0.22767554     50218.233      36.893836      36.893836      36.893836    
    633000   0.19991034    -8.2808421     -7.9809809     -0.21405342     50218.233      36.893836      36.893836      36.893836    
    634000   0.20025476    -8.2808517     -7.9804739     -0.22032841     50218.233      36.893836      36.893836      36.893836    
    635000   0.19960859    -8.281354      -7.9819454     -0.21882679     50218.233      36.893836      36.893836      36.893836    
    636000   0.20011041    -8.2807783     -7.980617      -0.22163697     50218.233      36.893836      36.893836      36.893836    
    637000   0.19931547    -8.2809575     -7.9819886     -0.21029869     50218.233      36.893836      36.893836      36.893836    
    638000   0.19979403    -8.2820338     -7.9823471     -0.2236193      50218.233      36.893836      36.893836      36.893836    
    639000   0.19999434    -8.2832031     -7.9832158     -0.22893949     50218.233      36.893836      36.893836      36.893836    
    640000   0.19994127    -8.2813892     -7.9814816     -0.22005128     50218.233      36.893836      36.893836      36.893836    
    641000   0.19991369    -8.2824691     -7.9826028     -0.23401021     50218.233      36.893836      36.893836      36.893836    
    642000   0.20014962    -8.2813005     -7.9810804     -0.22045279     50218.233      36.893836      36.893836      36.893836    
    643000   0.20018457    -8.2822146     -7.981942      -0.22829922     50218.233      36.893836      36.893836      36.893836    
    644000   0.20078859    -8.2813566     -7.980178      -0.2175278      50218.233      36.893836      36.893836      36.893836    
    645000   0.20035549    -8.282644      -7.982115      -0.22848953     50218.233      36.893836      36.893836      36.893836    
    646000   0.19985639    -8.2814823     -7.981702      -0.22099719     50218.233      36.893836      36.893836      36.893836    
    647000   0.20043991    -8.2831352     -7.9824797     -0.23584869     50218.233      36.893836      36.893836      36.893836    
    648000   0.20067888    -8.2839884     -7.9829744     -0.23284259     50218.233      36.893836      36.893836      36.893836    
    649000   0.20004469    -8.2825955     -7.9825328     -0.22994981     50218.233      36.893836      36.893836      36.893836    
    650000   0.19966191    -8.2823244     -7.9828358     -0.22595604     50218.233      36.893836      36.893836      36.893836    
    651000   0.19961188    -8.2821053     -7.9826917     -0.22953256     50218.233      36.893836      36.893836      36.893836    
    652000   0.19929053    -8.2829472     -7.9840157     -0.23223947     50218.233      36.893836      36.893836      36.893836    
    653000   0.19909675    -8.284522      -7.9858811     -0.24571033     50218.233      36.893836      36.893836      36.893836    
    654000   0.20032482    -8.2821161     -7.9816331     -0.22168287     50218.233      36.893836      36.893836      36.893836    
    655000   0.19987079    -8.2819387     -7.9821368     -0.22557762     50218.233      36.893836      36.893836      36.893836    
    656000   0.19960292    -8.2827104     -7.9833103     -0.22694771     50218.233      36.893836      36.893836      36.893836    
    657000   0.2005124     -8.2811655     -7.9804012     -0.22054298     50218.233      36.893836      36.893836      36.893836    
    658000   0.19981034    -8.283241      -7.9835297     -0.2341491      50218.233      36.893836      36.893836      36.893836    
    659000   0.19954693    -8.2829754     -7.9836593     -0.23215209     50218.233      36.893836      36.893836      36.893836    
    660000   0.19994407    -8.2806069     -7.980695      -0.21587773     50218.233      36.893836      36.893836      36.893836    
    661000   0.19990527    -8.2819119     -7.9820582     -0.22959897     50218.233      36.893836      36.893836      36.893836    
    662000   0.19972546    -8.2818766     -7.9822927     -0.22708449     50218.233      36.893836      36.893836      36.893836    
    663000   0.20104738    -8.2817379     -7.9801711     -0.21420892     50218.233      36.893836      36.893836      36.893836    
    664000   0.19924245    -8.2806881     -7.9818287     -0.21580081     50218.233      36.893836      36.893836      36.893836    
    665000   0.19953154    -8.280288      -7.9809949     -0.21298176     50218.233      36.893836      36.893836      36.893836    
    666000   0.19889727    -8.2827646     -7.9844229     -0.23264803     50218.233      36.893836      36.893836      36.893836    
    667000   0.19898443    -8.2804808     -7.9820084     -0.21516971     50218.233      36.893836      36.893836      36.893836    
    668000   0.20007956    -8.282484      -7.9823689     -0.2222942      50218.233      36.893836      36.893836      36.893836    
    669000   0.20051727    -8.2810439     -7.9802723     -0.21960965     50218.233      36.893836      36.893836      36.893836    
    670000   0.20000191    -8.2805936     -7.980595      -0.21622267     50218.233      36.893836      36.893836      36.893836    
    671000   0.20046495    -8.2799675     -7.9792744     -0.20382992     50218.233      36.893836      36.893836      36.893836    
    672000   0.20000002    -8.2809311     -7.9809354     -0.21872652     50218.233      36.893836      36.893836      36.893836    
    673000   0.2002399     -8.280184      -7.9798284     -0.21150507     50218.233      36.893836      36.893836      36.893836    
    674000   0.20060214    -8.2817333     -7.9808344     -0.22086401     50218.233      36.893836      36.893836      36.893836    
    675000   0.19983646    -8.2807783     -7.9810279     -0.21163666     50218.233      36.893836      36.893836      36.893836    
    676000   0.19912838    -8.2804107     -7.9817224     -0.20918254     50218.233      36.893836      36.893836      36.893836    
    677000   0.20007467    -8.2808683     -7.9807606     -0.22067912     50218.233      36.893836      36.893836      36.893836    
    678000   0.19968546    -8.2823992     -7.9828753     -0.22567121     50218.233      36.893836      36.893836      36.893836    
    679000   0.20058915    -8.2811965     -7.9803171     -0.21647173     50218.233      36.893836      36.893836      36.893836    
    680000   0.19849867    -8.2805731     -7.9828293     -0.21466699     50218.233      36.893836      36.893836      36.893836    
    681000   0.19975005    -8.2798241     -7.9802033     -0.20581582     50218.233      36.893836      36.893836      36.893836    
    682000   0.19860168    -8.2806752     -7.982777      -0.21510832     50218.233      36.893836      36.893836      36.893836    
    683000   0.20040945    -8.2823169     -7.981707      -0.22232225     50218.233      36.893836      36.893836      36.893836    
    684000   0.20031648    -8.2831425     -7.9826721     -0.22424111     50218.233      36.893836      36.893836      36.893836    
    685000   0.20030515    -8.2806045     -7.9801511     -0.20705524     50218.233      36.893836      36.893836      36.893836    
    686000   0.20043052    -8.2814492     -7.9808077     -0.22103578     50218.233      36.893836      36.893836      36.893836    
    687000   0.20106389    -8.2808773     -7.9792857     -0.21422924     50218.233      36.893836      36.893836      36.893836    
    688000   0.2001468     -8.2814777     -7.9812617     -0.22447539     50218.233      36.893836      36.893836      36.893836    
    689000   0.20022684    -8.2815175     -7.9811816     -0.2150411      50218.233      36.893836      36.893836      36.893836    
    690000   0.20001978    -8.2813958     -7.9813704     -0.21645671     50218.233      36.893836      36.893836      36.893836    
    691000   0.1998367     -8.2803322     -7.9805814     -0.21463795     50218.233      36.893836      36.893836      36.893836    
    692000   0.20028587    -8.2820092     -7.9815847     -0.22575319     50218.233      36.893836      36.893836      36.893836    
    693000   0.20034663    -8.2840553     -7.9835397     -0.24284434     50218.233      36.893836      36.893836      36.893836    
    694000   0.19951283    -8.280796      -7.981531      -0.21901158     50218.233      36.893836      36.893836      36.893836    
    695000   0.20033452    -8.2813119     -7.9808144     -0.21277823     50218.233      36.893836      36.893836      36.893836    
    696000   0.20002051    -8.2834213     -7.9833948     -0.23213291     50218.233      36.893836      36.893836      36.893836    
    697000   0.20063438    -8.2824231     -7.9814758     -0.22218416     50218.233      36.893836      36.893836      36.893836    
    698000   0.19900256    -8.2834682     -7.9849686     -0.2409132      50218.233      36.893836      36.893836      36.893836    
    699000   0.20078296    -8.2823428     -7.9811727     -0.21999665     50218.233      36.893836      36.893836      36.893836    
    700000   0.19978328    -8.2835486     -7.9838779     -0.23676712     50218.233      36.893836      36.893836      36.893836    
    701000   0.1999342     -8.2824623     -7.9825653     -0.22579613     50218.233      36.893836      36.893836      36.893836    
    702000   0.20007209    -8.2826576     -7.9825537     -0.22217859     50218.233      36.893836      36.893836      36.893836    
    703000   0.2000199     -8.2819589     -7.9819333     -0.2338271      50218.233      36.893836      36.893836      36.893836    
    704000   0.20109069    -8.2821768     -7.9805451     -0.22061004     50218.233      36.893836      36.893836      36.893836    
    705000   0.2001531     -8.2824022     -7.9821769     -0.22830813     50218.233      36.893836      36.893836      36.893836    
    706000   0.20064436    -8.2826315     -7.9816692     -0.24011113     50218.233      36.893836      36.893836      36.893836    
    707000   0.19942244    -8.2816273     -7.9824979     -0.2264675      50218.233      36.893836      36.893836      36.893836    
    708000   0.19987735    -8.281469      -7.9816573     -0.21942939     50218.233      36.893836      36.893836      36.893836    
    709000   0.19920635    -8.2800811     -7.9812758     -0.21788473     50218.233      36.893836      36.893836      36.893836    
    710000   0.20110151    -8.2817245     -7.9800766     -0.21686303     50218.233      36.893836      36.893836      36.893836    
    711000   0.19918768    -8.2841714     -7.9853941     -0.23858727     50218.233      36.893836      36.893836      36.893836    
    712000   0.19896871    -8.2815979     -7.983149      -0.22222363     50218.233      36.893836      36.893836      36.893836    
    713000   0.19959572    -8.2808075     -7.9814182     -0.20934889     50218.233      36.893836      36.893836      36.893836    
    714000   0.20072207    -8.2822405     -7.9811617     -0.21875443     50218.233      36.893836      36.893836      36.893836    
    715000   0.1991909     -8.2831069     -7.9843248     -0.2283948      50218.233      36.893836      36.893836      36.893836    
    716000   0.20011459    -8.2821091     -7.9819414     -0.21879628     50218.233      36.893836      36.893836      36.893836    
    717000   0.19990446    -8.2796581     -7.9798057     -0.20265945     50218.233      36.893836      36.893836      36.893836    
    718000   0.19888626    -8.2819493     -7.9836242     -0.22187739     50218.233      36.893836      36.893836      36.893836    
    719000   0.19967783    -8.2826988     -7.9831863     -0.23239707     50218.233      36.893836      36.893836      36.893836    
    720000   0.20024841    -8.2799986     -7.9796303     -0.20890633     50218.233      36.893836      36.893836      36.893836    
    721000   0.20002384    -8.2808929     -7.9808614     -0.21092347     50218.233      36.893836      36.893836      36.893836    
    722000   0.20050564    -8.2806033     -7.9798491     -0.21576665     50218.233      36.893836      36.893836      36.893836    
    723000   0.20086696    -8.2800533     -7.9787571     -0.2047492      50218.233      36.893836      36.893836      36.893836    
    724000   0.19981749    -8.2818705     -7.9821486     -0.22935644     50218.233      36.893836      36.893836      36.893836    
    725000   0.19963084    -8.2813942     -7.9819522     -0.22086935     50218.233      36.893836      36.893836      36.893836    
    726000   0.20099998    -8.2810502     -7.9795545     -0.21465173     50218.233      36.893836      36.893836      36.893836    
    727000   0.20100017    -8.2826066     -7.9811106     -0.22155058     50218.233      36.893836      36.893836      36.893836    
    728000   0.20026546    -8.2811882     -7.9807943     -0.21496156     50218.233      36.893836      36.893836      36.893836    
    729000   0.19997233    -8.2823462     -7.982392      -0.22875131     50218.233      36.893836      36.893836      36.893836    
    730000   0.19987595    -8.2810735     -7.9812639     -0.21577656     50218.233      36.893836      36.893836      36.893836    
    731000   0.19971668    -8.2808926     -7.9813219     -0.21792113     50218.233      36.893836      36.893836      36.893836    
    732000   0.20072595    -8.2794822     -7.9783975     -0.20243575     50218.233      36.893836      36.893836      36.893836    
    733000   0.19981431    -8.2796285     -7.9799114     -0.21507568     50218.233      36.893836      36.893836      36.893836    
    734000   0.19999511    -8.2830345     -7.9830462     -0.23626796     50218.233      36.893836      36.893836      36.893836    
    735000   0.20025645    -8.2813051     -7.9809247     -0.22098061     50218.233      36.893836      36.893836      36.893836    
    736000   0.19936257    -8.2826128     -7.9835732     -0.23227909     50218.233      36.893836      36.893836      36.893836    
    737000   0.19990876    -8.2824409     -7.9825821     -0.22129494     50218.233      36.893836      36.893836      36.893836    
    738000   0.20029715    -8.2826257     -7.9821842     -0.22547211     50218.233      36.893836      36.893836      36.893836    
    739000   0.20054609    -8.2813495     -7.9805346     -0.21808795     50218.233      36.893836      36.893836      36.893836    
    740000   0.19956912    -8.2815106     -7.9821612     -0.22243062     50218.233      36.893836      36.893836      36.893836    
    741000   0.19919627    -8.2819488     -7.9831586     -0.22435532     50218.233      36.893836      36.893836      36.893836    
    742000   0.19957827    -8.2845974     -7.9852342     -0.2454033      50218.233      36.893836      36.893836      36.893836    
    743000   0.19938121    -8.2818629     -7.9827953     -0.22757012     50218.233      36.893836      36.893836      36.893836    
    744000   0.20100575    -8.2831438     -7.9816394     -0.23222171     50218.233      36.893836      36.893836      36.893836    
    745000   0.199536      -8.2828079     -7.9835081     -0.22980712     50218.233      36.893836      36.893836      36.893836    
    746000   0.19965282    -8.2824976     -7.9830226     -0.23235871     50218.233      36.893836      36.893836      36.893836    
    747000   0.19956547    -8.2840843     -7.9847403     -0.23940283     50218.233      36.893836      36.893836      36.893836    
    748000   0.19989436    -8.2809084     -7.9810712     -0.22033954     50218.233      36.893836      36.893836      36.893836    
    749000   0.20030625    -8.2821777     -7.9817226     -0.22819305     50218.233      36.893836      36.893836      36.893836    
    750000   0.1983552     -8.2820527     -7.9845241     -0.22552124     50218.233      36.893836      36.893836      36.893836    
    751000   0.20039182    -8.2830314     -7.9824479     -0.23021991     50218.233      36.893836      36.893836      36.893836    
    752000   0.19928591    -8.2841231     -7.9851985     -0.23368028     50218.233      36.893836      36.893836      36.893836    
    753000   0.20023352    -8.2818089     -7.9814629     -0.22702837     50218.233      36.893836      36.893836      36.893836    
    754000   0.20004872    -8.2837148     -7.983646      -0.24525882     50218.233      36.893836      36.893836      36.893836    
    755000   0.19880757    -8.2821483     -7.9839412     -0.2240367      50218.233      36.893836      36.893836      36.893836    
    756000   0.20009438    -8.2814847     -7.9813474     -0.22255061     50218.233      36.893836      36.893836      36.893836    
    757000   0.20002184    -8.2831076     -7.9830791     -0.23283281     50218.233      36.893836      36.893836      36.893836    
    758000   0.19988397    -8.2827111     -7.9828894     -0.22879823     50218.233      36.893836      36.893836      36.893836    
    759000   0.20027164    -8.2834658     -7.9830626     -0.23662167     50218.233      36.893836      36.893836      36.893836    
    760000   0.20052641    -8.2813358     -7.9805504     -0.21454258     50218.233      36.893836      36.893836      36.893836    
    761000   0.19955066    -8.28134       -7.9820183     -0.22213839     50218.233      36.893836      36.893836      36.893836    
    762000   0.20041306    -8.281925      -7.9813096     -0.22313996     50218.233      36.893836      36.893836      36.893836    
    763000   0.19996034    -8.2825822     -7.982646      -0.2322175      50218.233      36.893836      36.893836      36.893836    
    764000   0.20000107    -8.2812769     -7.9812795     -0.22011954     50218.233      36.893836      36.893836      36.893836    
    765000   0.20088409    -8.281976      -7.9806541     -0.22624533     50218.233      36.893836      36.893836      36.893836    
    766000   0.19977898    -8.2820227     -7.9823585     -0.22645442     50218.233      36.893836      36.893836      36.893836    
    767000   0.19931588    -8.2806181     -7.9816485     -0.21720258     50218.233      36.893836      36.893836      36.893836    
    768000   0.19998328    -8.2807746     -7.980804      -0.21553752     50218.233      36.893836      36.893836      36.893836    
    769000   0.19896331    -8.2814049     -7.9829641     -0.22035554     50218.233      36.893836      36.893836      36.893836    
    770000   0.19918969    -8.2813828     -7.9826025     -0.217584       50218.233      36.893836      36.893836      36.893836    
    771000   0.20001612    -8.279178      -7.979158      -0.20554964     50218.233      36.893836      36.893836      36.893836    
    772000   0.2007216     -8.281778      -7.9806999     -0.22364195     50218.233      36.893836      36.893836      36.893836    
    773000   0.19966079    -8.2807184     -7.9812314     -0.22373942     50218.233      36.893836      36.893836      36.893836    
    774000   0.20111861    -8.2805312     -7.9788575     -0.21779497     50218.233      36.893836      36.893836      36.893836    
    775000   0.19962706    -8.282176      -7.9827397     -0.21869229     50218.233      36.893836      36.893836      36.893836    
    776000   0.20066871    -8.2822282     -7.9812294     -0.23094735     50218.233      36.893836      36.893836      36.893836    
    777000   0.19957171    -8.2810145     -7.9816612     -0.21915284     50218.233      36.893836      36.893836      36.893836    
    778000   0.19976197    -8.2814152     -7.9817765     -0.22065354     50218.233      36.893836      36.893836      36.893836    
    779000   0.20045791    -8.2830925     -7.9824099     -0.2369329      50218.233      36.893836      36.893836      36.893836    
    780000   0.19986654    -8.2805893     -7.9807937     -0.21403646     50218.233      36.893836      36.893836      36.893836    
    781000   0.19961359    -8.280501      -7.9810849     -0.21167464     50218.233      36.893836      36.893836      36.893836    
    782000   0.20066353    -8.2811268     -7.9801358     -0.21803905     50218.233      36.893836      36.893836      36.893836    
    783000   0.20020338    -8.2810956     -7.9807948     -0.22005338     50218.233      36.893836      36.893836      36.893836    
    784000   0.20042408    -8.2829429     -7.9823111     -0.23314285     50218.233      36.893836      36.893836      36.893836    
    785000   0.20135065    -8.2816336     -7.979612      -0.21879832     50218.233      36.893836      36.893836      36.893836    
    786000   0.20006139    -8.2813163     -7.9812285     -0.22339408     50218.233      36.893836      36.893836      36.893836    
    787000   0.19904295    -8.2842135     -7.9856533     -0.24048991     50218.233      36.893836      36.893836      36.893836    
    788000   0.19876578    -8.281621      -7.9834765     -0.22151913     50218.233      36.893836      36.893836      36.893836    
    789000   0.19994242    -8.2807947     -7.9808853     -0.21648317     50218.233      36.893836      36.893836      36.893836    
    790000   0.19973747    -8.281612      -7.9820101     -0.21943106     50218.233      36.893836      36.893836      36.893836    
    791000   0.20038305    -8.2813207     -7.9807504     -0.22405144     50218.233      36.893836      36.893836      36.893836    
    792000   0.20016018    -8.2823442     -7.9821082     -0.22470307     50218.233      36.893836      36.893836      36.893836    
    793000   0.20019876    -8.2822003     -7.9819064     -0.22146595     50218.233      36.893836      36.893836      36.893836    
    794000   0.20111909    -8.2828227     -7.9811483     -0.22644209     50218.233      36.893836      36.893836      36.893836    
    795000   0.19974261    -8.2827273     -7.9831177     -0.2295169      50218.233      36.893836      36.893836      36.893836    
    796000   0.19949       -8.281391      -7.9821602     -0.22085211     50218.233      36.893836      36.893836      36.893836    
    797000   0.19885173    -8.2829488     -7.9846754     -0.23360494     50218.233      36.893836      36.893836      36.893836    
    798000   0.20013386    -8.2823013     -7.9821048     -0.22385123     50218.233      36.893836      36.893836      36.893836    
    799000   0.20044561    -8.2815372     -7.980873      -0.22088542     50218.233      36.893836      36.893836      36.893836    
    800000   0.19952232    -8.2832776     -7.9839983     -0.24232502     50218.233      36.893836      36.893836      36.893836    
    801000   0.19937386    -8.2829519     -7.9838954     -0.23235337     50218.233      36.893836      36.893836      36.893836    
    802000   0.19942521    -8.2830946     -7.983961      -0.23350882     50218.233      36.893836      36.893836      36.893836    
    803000   0.20025802    -8.2804835     -7.9801008     -0.21905466     50218.233      36.893836      36.893836      36.893836    
    804000   0.19914551    -8.2822395     -7.9835255     -0.23238165     50218.233      36.893836      36.893836      36.893836    
    805000   0.19936922    -8.2823054     -7.9832559     -0.22849566     50218.233      36.893836      36.893836      36.893836    
    806000   0.20020966    -8.2812577     -7.9809474     -0.21943946     50218.233      36.893836      36.893836      36.893836    
    807000   0.20087095    -8.2826097     -7.9813076     -0.22714572     50218.233      36.893836      36.893836      36.893836    
    808000   0.19975525    -8.2837246     -7.984096      -0.24092776     50218.233      36.893836      36.893836      36.893836    
    809000   0.20001556    -8.2825085     -7.9824894     -0.22526492     50218.233      36.893836      36.893836      36.893836    
    810000   0.19992861    -8.2818416     -7.981953      -0.22111893     50218.233      36.893836      36.893836      36.893836    
    811000   0.20010675    -8.2835518     -7.983396      -0.23995877     50218.233      36.893836      36.893836      36.893836    
    812000   0.2007088     -8.2818357     -7.9807768     -0.22129358     50218.233      36.893836      36.893836      36.893836    
    813000   0.19988689    -8.2807317     -7.9809057     -0.21544106     50218.233      36.893836      36.893836      36.893836    
    814000   0.20117835    -8.2831076     -7.9813444     -0.23449724     50218.233      36.893836      36.893836      36.893836    
    815000   0.20059744    -8.281725      -7.9808331     -0.22902873     50218.233      36.893836      36.893836      36.893836    
    816000   0.19977037    -8.2813954     -7.9817441     -0.21814795     50218.233      36.893836      36.893836      36.893836    
    817000   0.20080626    -8.2821903     -7.9809852     -0.22269473     50218.233      36.893836      36.893836      36.893836    
    818000   0.2002919     -8.2814959     -7.9810623     -0.22180431     50218.233      36.893836      36.893836      36.893836    
    819000   0.20054268    -8.2803576     -7.9795478     -0.20917937     50218.233      36.893836      36.893836      36.893836    
    820000   0.19980442    -8.2803898     -7.9806874     -0.21489954     50218.233      36.893836      36.893836      36.893836    
    821000   0.20008486    -8.2815464     -7.9814234     -0.22630316     50218.233      36.893836      36.893836      36.893836    
    822000   0.1992063     -8.2815543     -7.9827491     -0.21991139     50218.233      36.893836      36.893836      36.893836    
    823000   0.19996557    -8.2818255     -7.9818814     -0.22527732     50218.233      36.893836      36.893836      36.893836    
    824000   0.19989833    -8.2813745     -7.9815313     -0.21756125     50218.233      36.893836      36.893836      36.893836    
    825000   0.19800922    -8.2820249     -7.9850153     -0.22478185     50218.233      36.893836      36.893836      36.893836    
    826000   0.19966182    -8.2795817     -7.9800933     -0.21380104     50218.233      36.893836      36.893836      36.893836    
    827000   0.1996178     -8.2806859     -7.9812635     -0.21700872     50218.233      36.893836      36.893836      36.893836    
    828000   0.20032344    -8.280605      -7.9801242     -0.20929173     50218.233      36.893836      36.893836      36.893836    
    829000   0.19871739    -8.2812563     -7.9831845     -0.22258113     50218.233      36.893836      36.893836      36.893836    
    830000   0.19990599    -8.281176      -7.9813213     -0.21635379     50218.233      36.893836      36.893836      36.893836    
    831000   0.20076684    -8.2817701     -7.9806241     -0.21880359     50218.233      36.893836      36.893836      36.893836    
    832000   0.20095378    -8.2800865     -7.9786601     -0.20595922     50218.233      36.893836      36.893836      36.893836    
    833000   0.20040533    -8.2797013     -7.9790976     -0.20497104     50218.233      36.893836      36.893836      36.893836    
    834000   0.19851633    -8.2819936     -7.9842234     -0.2360987      50218.233      36.893836      36.893836      36.893836    
    835000   0.2006005     -8.2815326     -7.9806361     -0.21986066     50218.233      36.893836      36.893836      36.893836    
    836000   0.19974222    -8.2805943     -7.9809852     -0.22217263     50218.233      36.893836      36.893836      36.893836    
    837000   0.20043632    -8.2819315     -7.9812813     -0.21936844     50218.233      36.893836      36.893836      36.893836    
    838000   0.19963943    -8.2830382     -7.9835834     -0.22707191     50218.233      36.893836      36.893836      36.893836    
    839000   0.19864133    -8.2825427     -7.984585      -0.22624005     50218.233      36.893836      36.893836      36.893836    
    840000   0.20044031    -8.2834791     -7.9828229     -0.23814678     50218.233      36.893836      36.893836      36.893836    
    841000   0.19990935    -8.2819305     -7.9820707     -0.22342172     50218.233      36.893836      36.893836      36.893836    
    842000   0.1992947     -8.2835589     -7.9846211     -0.23313303     50218.233      36.893836      36.893836      36.893836    
    843000   0.19989011    -8.2819177     -7.9820868     -0.21229505     50218.233      36.893836      36.893836      36.893836    
    844000   0.20009289    -8.2841816     -7.9840466     -0.24549367     50218.233      36.893836      36.893836      36.893836    
    845000   0.20122164    -8.2815228     -7.9796946     -0.22661953     50218.233      36.893836      36.893836      36.893836    
    846000   0.19977908    -8.2831024     -7.983438      -0.23490491     50218.233      36.893836      36.893836      36.893836    
    847000   0.19990702    -8.2828739     -7.9830176     -0.23613831     50218.233      36.893836      36.893836      36.893836    
    848000   0.20018091    -8.2834393     -7.9831722     -0.2359842      50218.233      36.893836      36.893836      36.893836    
    849000   0.20040909    -8.2822678     -7.9816584     -0.22472933     50218.233      36.893836      36.893836      36.893836    
    850000   0.19944453    -8.2833934     -7.9842309     -0.2290201      50218.233      36.893836      36.893836      36.893836    
    851000   0.20068545    -8.2840474     -7.9830235     -0.24033372     50218.233      36.893836      36.893836      36.893836    
    852000   0.19989629    -8.2810268     -7.9811867     -0.2197808      50218.233      36.893836      36.893836      36.893836    
    853000   0.20011026    -8.2814396     -7.9812785     -0.22300202     50218.233      36.893836      36.893836      36.893836    
    854000   0.1995204     -8.2820824     -7.982806      -0.222822       50218.233      36.893836      36.893836      36.893836    
    855000   0.19831222    -8.2833704     -7.9859064     -0.23957456     50218.233      36.893836      36.893836      36.893836    
    856000   0.20001696    -8.2830655     -7.9830443     -0.23349671     50218.233      36.893836      36.893836      36.893836    
    857000   0.20062407    -8.2808574     -7.9799255     -0.21816779     50218.233      36.893836      36.893836      36.893836    
    858000   0.20020539    -8.2825698     -7.982266      -0.22794222     50218.233      36.893836      36.893836      36.893836    
    859000   0.19995432    -8.2809271     -7.9809999     -0.21494969     50218.233      36.893836      36.893836      36.893836    
    860000   0.19929226    -8.2814529     -7.9825188     -0.2227081      50218.233      36.893836      36.893836      36.893836    
    861000   0.19953703    -8.2816563     -7.982355      -0.22331341     50218.233      36.893836      36.893836      36.893836    
    862000   0.19983822    -8.2828277     -7.9830746     -0.22462987     50218.233      36.893836      36.893836      36.893836    
    863000   0.20030302    -8.2809915     -7.9805413     -0.21881443     50218.233      36.893836      36.893836      36.893836    
    864000   0.20112716    -8.2811288     -7.9794423     -0.21659537     50218.233      36.893836      36.893836      36.893836    
    865000   0.19925291    -8.2804707     -7.9815956     -0.21449732     50218.233      36.893836      36.893836      36.893836    
    866000   0.19942313    -8.2816259     -7.9824954     -0.22719154     50218.233      36.893836      36.893836      36.893836    
    867000   0.19951191    -8.2816264     -7.9823628     -0.22025756     50218.233      36.893836      36.893836      36.893836    
    868000   0.19978452    -8.2815186     -7.9818461     -0.22462847     50218.233      36.893836      36.893836      36.893836    
    869000   0.1995579     -8.2816087     -7.9822761     -0.22278661     50218.233      36.893836      36.893836      36.893836    
    870000   0.20024534    -8.2811344     -7.9807707     -0.21527825     50218.233      36.893836      36.893836      36.893836    
    871000   0.19918788    -8.2810257     -7.9822481     -0.2193318      50218.233      36.893836      36.893836      36.893836    
    872000   0.19929046    -8.2814548     -7.9825234     -0.22060903     50218.233      36.893836      36.893836      36.893836    
    873000   0.19998421    -8.2817825     -7.9818105     -0.23195582     50218.233      36.893836      36.893836      36.893836    
    874000   0.20044226    -8.280396      -7.9797369     -0.21364632     50218.233      36.893836      36.893836      36.893836    
    875000   0.19864503    -8.2802209     -7.9822576     -0.21842856     50218.233      36.893836      36.893836      36.893836    
    876000   0.2002245     -8.2792698     -7.9789373     -0.20061676     50218.233      36.893836      36.893836      36.893836    
    877000   0.19969853    -8.2792075     -7.9796639     -0.20555866     50218.233      36.893836      36.893836      36.893836    
    878000   0.20003114    -8.2797359     -7.9796935     -0.2097417      50218.233      36.893836      36.893836      36.893836    
    879000   0.20069327    -8.2810644     -7.9800288     -0.21437078     50218.233      36.893836      36.893836      36.893836    
    880000   0.20171619    -8.2802016     -7.9776317     -0.20530116     50218.233      36.893836      36.893836      36.893836    
    881000   0.20061754    -8.2810877     -7.9801656     -0.21430245     50218.233      36.893836      36.893836      36.893836    
    882000   0.20013606    -8.2806783     -7.9804785     -0.21070337     50218.233      36.893836      36.893836      36.893836    
    883000   0.19896945    -8.2809735     -7.9825235     -0.21174782     50218.233      36.893836      36.893836      36.893836    
    884000   0.20072656    -8.281688      -7.9806024     -0.22181925     50218.233      36.893836      36.893836      36.893836    
    885000   0.20076333    -8.2817122     -7.9805715     -0.22711156     50218.233      36.893836      36.893836      36.893836    
    886000   0.19963376    -8.2830608     -7.9836144     -0.23201978     50218.233      36.893836      36.893836      36.893836    
    887000   0.19972391    -8.2817854     -7.9822038     -0.22107905     50218.233      36.893836      36.893836      36.893836    
    888000   0.20108803    -8.2826586     -7.9810308     -0.23028915     50218.233      36.893836      36.893836      36.893836    
    889000   0.19946964    -8.2814758     -7.9822756     -0.22499118     50218.233      36.893836      36.893836      36.893836    
    890000   0.1995692     -8.2834709     -7.9841214     -0.23819388     50218.233      36.893836      36.893836      36.893836    
    891000   0.20066125    -8.2815664     -7.9805789     -0.22874094     50218.233      36.893836      36.893836      36.893836    
    892000   0.19991857    -8.2813259     -7.9814523     -0.21618201     50218.233      36.893836      36.893836      36.893836    
    893000   0.20007846    -8.2821595     -7.9820461     -0.22917956     50218.233      36.893836      36.893836      36.893836    
    894000   0.20030397    -8.283994      -7.9835423     -0.24216199     50218.233      36.893836      36.893836      36.893836    
    895000   0.20055377    -8.2827844     -7.981958      -0.2277943      50218.233      36.893836      36.893836      36.893836    
    896000   0.19898581    -8.2820853     -7.9836108     -0.22478895     50218.233      36.893836      36.893836      36.893836    
    897000   0.20055196    -8.2828784     -7.9820548     -0.23090544     50218.233      36.893836      36.893836      36.893836    
    898000   0.19947978    -8.2819208     -7.9827054     -0.22770352     50218.233      36.893836      36.893836      36.893836    
    899000   0.20066933    -8.2826917     -7.981692      -0.22509591     50218.233      36.893836      36.893836      36.893836    
    900000   0.20106606    -8.2828587     -7.9812639     -0.23019075     50218.233      36.893836      36.893836      36.893836    
    901000   0.20080835    -8.2837027     -7.9824945     -0.23779976     50218.233      36.893836      36.893836      36.893836    
    902000   0.2006194     -8.2802796     -7.9793548     -0.216247       50218.233      36.893836      36.893836      36.893836    
    903000   0.20064645    -8.2819443     -7.980979      -0.22636299     50218.233      36.893836      36.893836      36.893836    
    904000   0.19953399    -8.2803209     -7.9810242     -0.20915796     50218.233      36.893836      36.893836      36.893836    
    905000   0.19988536    -8.2831995     -7.9833758     -0.23531313     50218.233      36.893836      36.893836      36.893836    
    906000   0.20027881    -8.2837214     -7.9833075     -0.23609746     50218.233      36.893836      36.893836      36.893836    
    907000   0.19924847    -8.2816572     -7.9827888     -0.21827165     50218.233      36.893836      36.893836      36.893836    
    908000   0.19908652    -8.2829978     -7.9843723     -0.22832479     50218.233      36.893836      36.893836      36.893836    
    909000   0.19928902    -8.2819915     -7.9830622     -0.22292601     50218.233      36.893836      36.893836      36.893836    
    910000   0.1996092     -8.282538      -7.9831285     -0.21881614     50218.233      36.893836      36.893836      36.893836    
    911000   0.19981547    -8.2811541     -7.9814352     -0.2096155      50218.233      36.893836      36.893836      36.893836    
    912000   0.20038353    -8.2807027     -7.9801316     -0.21606519     50218.233      36.893836      36.893836      36.893836    
    913000   0.20031317    -8.2804917     -7.9800262     -0.21185309     50218.233      36.893836      36.893836      36.893836    
    914000   0.19863521    -8.2810527     -7.9831041     -0.21078456     50218.233      36.893836      36.893836      36.893836    
    915000   0.20015584    -8.2798956     -7.9796661     -0.20579876     50218.233      36.893836      36.893836      36.893836    
    916000   0.20008356    -8.2809644     -7.9808433     -0.21135183     50218.233      36.893836      36.893836      36.893836    
    917000   0.19951156    -8.2808559     -7.9815928     -0.21483462     50218.233      36.893836      36.893836      36.893836    
    918000   0.19999672    -8.2800318     -7.980041      -0.20784677     50218.233      36.893836      36.893836      36.893836    
    919000   0.19996182    -8.2808068     -7.9808683     -0.21300311     50218.233      36.893836      36.893836      36.893836    
    920000   0.2004694     -8.2826548     -7.9819549     -0.22784395     50218.233      36.893836      36.893836      36.893836    
    921000   0.19978006    -8.2823048     -7.9826389     -0.23025138     50218.233      36.893836      36.893836      36.893836    
    922000   0.20020433    -8.2830105     -7.9827083     -0.22278522     50218.233      36.893836      36.893836      36.893836    
    923000   0.20073323    -8.2823085     -7.9812129     -0.21855856     50218.233      36.893836      36.893836      36.893836    
    924000   0.19990947    -8.280519      -7.980659      -0.20973449     50218.233      36.893836      36.893836      36.893836    
    925000   0.20055332    -8.2805038     -7.9796781     -0.21204894     50218.233      36.893836      36.893836      36.893836    
    926000   0.20046704    -8.2818982     -7.9812019     -0.22454013     50218.233      36.893836      36.893836      36.893836    
    927000   0.20153375    -8.2813269     -7.9790306     -0.22263529     50218.233      36.893836      36.893836      36.893836    
    928000   0.20012219    -8.2802891     -7.9801101     -0.21031933     50218.233      36.893836      36.893836      36.893836    
    929000   0.19952116    -8.2801894     -7.9809119     -0.21030185     50218.233      36.893836      36.893836      36.893836    
    930000   0.20002249    -8.2817332     -7.9817037     -0.22054915     50218.233      36.893836      36.893836      36.893836    
    931000   0.19985961    -8.2827236     -7.9829384     -0.21967701     50218.233      36.893836      36.893836      36.893836    
    932000   0.20002029    -8.2819558     -7.9819296     -0.21847802     50218.233      36.893836      36.893836      36.893836    
    933000   0.20062469    -8.2817512     -7.9808184     -0.21929404     50218.233      36.893836      36.893836      36.893836    
    934000   0.20089439    -8.2792068     -7.9778695     -0.19849486     50218.233      36.893836      36.893836      36.893836    
    935000   0.20042274    -8.2817093     -7.9810795     -0.21516006     50218.233      36.893836      36.893836      36.893836    
    936000   0.20012569    -8.280152      -7.9799677     -0.21328914     50218.233      36.893836      36.893836      36.893836    
    937000   0.20038433    -8.2813314     -7.9807592     -0.21993664     50218.233      36.893836      36.893836      36.893836    
    938000   0.20039608    -8.2812531     -7.9806633     -0.22078442     50218.233      36.893836      36.893836      36.893836    
    939000   0.20039899    -8.2821338     -7.9815396     -0.22662195     50218.233      36.893836      36.893836      36.893836    
    940000   0.20063817    -8.283296      -7.982343      -0.22240892     50218.233      36.893836      36.893836      36.893836    
    941000   0.20053457    -8.2824977     -7.9817001     -0.22240375     50218.233      36.893836      36.893836      36.893836    
    942000   0.20111193    -8.2838742     -7.9822106     -0.23574057     50218.233      36.893836      36.893836      36.893836    
    943000   0.19968424    -8.2826204     -7.9830983     -0.23034685     50218.233      36.893836      36.893836      36.893836    
    944000   0.19873518    -8.28008       -7.9819815     -0.20668445     50218.233      36.893836      36.893836      36.893836    
    945000   0.20040542    -8.2837239     -7.9831201     -0.23612935     50218.233      36.893836      36.893836      36.893836    
    946000   0.20003883    -8.2820872     -7.9820332     -0.22031742     50218.233      36.893836      36.893836      36.893836    
    947000   0.19929105    -8.2820243     -7.983092      -0.22844638     50218.233      36.893836      36.893836      36.893836    
    948000   0.19991494    -8.2833099     -7.9834417     -0.23169588     50218.233      36.893836      36.893836      36.893836    
    949000   0.20041625    -8.2827351     -7.982115      -0.23138337     50218.233      36.893836      36.893836      36.893836    
    950000   0.19980762    -8.2830878     -7.9833807     -0.23472498     50218.233      36.893836      36.893836      36.893836    
    951000   0.20016075    -8.2828181     -7.9825813     -0.23079407     50218.233      36.893836      36.893836      36.893836    
    952000   0.19879809    -8.282776      -7.9845831     -0.22848082     50218.233      36.893836      36.893836      36.893836    
    953000   0.19931059    -8.2837811     -7.9848195     -0.23628688     50218.233      36.893836      36.893836      36.893836    
    954000   0.20061639    -8.2815637     -7.9806434     -0.220769       50218.233      36.893836      36.893836      36.893836    
    955000   0.20116052    -8.2839596     -7.9822231     -0.24069174     50218.233      36.893836      36.893836      36.893836    
    956000   0.19991045    -8.2824756     -7.9826142     -0.23037114     50218.233      36.893836      36.893836      36.893836    
    957000   0.20024822    -8.2818891     -7.981521      -0.22416449     50218.233      36.893836      36.893836      36.893836    
    958000   0.19905314    -8.2818034     -7.9832279     -0.23016704     50218.233      36.893836      36.893836      36.893836    
    959000   0.19996335    -8.2825014     -7.9825606     -0.23038507     50218.233      36.893836      36.893836      36.893836    
    960000   0.19997044    -8.2815045     -7.9815531     -0.22399033     50218.233      36.893836      36.893836      36.893836    
    961000   0.20070618    -8.2821765     -7.9811215     -0.22420688     50218.233      36.893836      36.893836      36.893836    
    962000   0.19971691    -8.2821608     -7.9825897     -0.22266102     50218.233      36.893836      36.893836      36.893836    
    963000   0.199742      -8.2808033     -7.9811946     -0.21440278     50218.233      36.893836      36.893836      36.893836    
    964000   0.19907194    -8.2813836     -7.98278       -0.21946705     50218.233      36.893836      36.893836      36.893836    
    965000   0.20101333    -8.2824406     -7.9809249     -0.21959984     50218.233      36.893836      36.893836      36.893836    
    966000   0.19983835    -8.2807039     -7.9809507     -0.21919778     50218.233      36.893836      36.893836      36.893836    
    967000   0.20104137    -8.2816337     -7.980076      -0.22287775     50218.233      36.893836      36.893836      36.893836    
    968000   0.20201262    -8.2814141     -7.9783994     -0.21631117     50218.233      36.893836      36.893836      36.893836    
    969000   0.1998851     -8.2802536     -7.9804302     -0.20738074     50218.233      36.893836      36.893836      36.893836    
    970000   0.20049716    -8.2813567     -7.9806153     -0.21354092     50218.233      36.893836      36.893836      36.893836    
    971000   0.19935633    -8.2805227     -7.9814925     -0.21690034     50218.233      36.893836      36.893836      36.893836    
    972000   0.19976403    -8.2815774     -7.9819356     -0.21812076     50218.233      36.893836      36.893836      36.893836    
    973000   0.20048238    -8.28134       -7.9806207     -0.22101026     50218.233      36.893836      36.893836      36.893836    
    974000   0.20029338    -8.2818453     -7.9814095     -0.2293984      50218.233      36.893836      36.893836      36.893836    
    975000   0.19915172    -8.2818328     -7.9831095     -0.22553081     50218.233      36.893836      36.893836      36.893836    
    976000   0.19873644    -8.2810155     -7.9829151     -0.21401624     50218.233      36.893836      36.893836      36.893836    
    977000   0.20009062    -8.2816541     -7.9815224     -0.22010465     50218.233      36.893836      36.893836      36.893836    
    978000   0.20011164    -8.279982      -7.9798189     -0.20486198     50218.233      36.893836      36.893836      36.893836    
    979000   0.1994459     -8.2815873     -7.9824227     -0.22398402     50218.233      36.893836      36.893836      36.893836    
    980000   0.19945646    -8.2815793     -7.9823989     -0.2240709      50218.233      36.893836      36.893836      36.893836    
    981000   0.19988018    -8.2809039     -7.9810879     -0.21034577     50218.233      36.893836      36.893836      36.893836    
    982000   0.19952809    -8.2810601     -7.9817723     -0.21703183     50218.233      36.893836      36.893836      36.893836    
    983000   0.20026076    -8.2811397     -7.9807528     -0.21998396     50218.233      36.893836      36.893836      36.893836    
    984000   0.20009203    -8.2810955     -7.9809617     -0.21598052     50218.233      36.893836      36.893836      36.893836    
    985000   0.20122523    -8.2812746     -7.979441      -0.21631747     50218.233      36.893836      36.893836      36.893836    
    986000   0.19982527    -8.2828146     -7.983081      -0.22718276     50218.233      36.893836      36.893836      36.893836    
    987000   0.19903568    -8.2827927     -7.9842435     -0.22956731     50218.233      36.893836      36.893836      36.893836    
    988000   0.20062173    -8.2823183     -7.98139       -0.2276574      50218.233      36.893836      36.893836      36.893836    
    989000   0.20016492    -8.283557      -7.9833139     -0.23318946     50218.233      36.893836      36.893836      36.893836    
    990000   0.20001981    -8.2808986     -7.9808732     -0.2134163      50218.233      36.893836      36.893836      36.893836    
    991000   0.2003455     -8.2816625     -7.9811485     -0.22560813     50218.233      36.893836      36.893836      36.893836    
    992000   0.19793208    -8.2811033     -7.9842094     -0.22177058     50218.233      36.893836      36.893836      36.893836    
    993000   0.200452      -8.2826869     -7.9820132     -0.22874566     50218.233      36.893836      36.893836      36.893836    
    994000   0.20012602    -8.2831517     -7.982967      -0.23602751     50218.233      36.893836      36.893836      36.893836    
    995000   0.19836335    -8.282307      -7.9847662     -0.22702324     50218.233      36.893836      36.893836      36.893836    
    996000   0.19876795    -8.282363      -7.9842153     -0.23011485     50218.233      36.893836      36.893836      36.893836    
    997000   0.2006436     -8.282591      -7.9816298     -0.23613209     50218.233      36.893836      36.893836      36.893836    
    998000   0.19971453    -8.2829687     -7.9834012     -0.2312074      50218.233      36.893836      36.893836      36.893836    
    999000   0.20089493    -8.2812447     -7.9799066     -0.21101157     50218.233      36.893836      36.893836      36.893836    
   1000000   0.20018742    -8.2826503     -7.9823735     -0.22503215     50218.233      36.893836      36.893836      36.893836    
Loop time of 1495.22 on 4 procs for 1000000 steps with 70304 atoms

Performance: 577840.104 tau/day, 668.796 timesteps/s, 47.019 Matom-step/s
95.0% CPU use with 4 MPI tasks x 1 OpenMP threads

MPI task timing breakdown:
Section |  min time  |  avg time  |  max time  |%varavg| %total
---------------------------------------------------------------
Pair    | 397.56     | 509.45     | 602.47     | 344.3 | 34.07
Neigh   | 3.839      | 4.0841     | 4.203      |   7.1 |  0.27
Comm    | 201.39     | 204.94     | 206.58     |  14.7 | 13.71
Output  | 0.19891    | 0.20766    | 0.22618    |   2.4 |  0.01
Modify  | 602.17     | 696.47     | 808.11     | 294.3 | 46.58
Other   |            | 80.07      |            |       |  5.36

Nlocal:          17576 ave       17632 max       17517 min
Histogram: 1 0 0 0 1 0 1 0 0 1
Nghost:          16817 ave       16853 max       16786 min
Histogram: 1 0 1 0 0 0 1 0 0 1
Neighs:              0 ave           0 max           0 min
Histogram: 4 0 0 0 0 0 0 0 0 0

Total # of neighbors = 0
Ave neighs/atom = 0
Neighbor list builds = 131526
Dangerous builds = 0
clear
OMP_NUM_THREADS environment is not set. Defaulting to 1 thread. (src/comm.cpp:98)
  using 1 OpenMP thread(s) per MPI task
package gpu 0
jump dms180.lmp

variable T equal 180
# T = 1000* (temp in LJ unit)
variable f equal 1000
log log.${T}
log log.180
