variable TLJ equal (${T}/1000)
variable TLJ equal (620/1000)
variable NCyle equal 10
variable iStep equal (${f})
variable iStep equal (1000)
variable dumpStep equal (${f}*100)
variable dumpStep equal (1000*100)
variable runStep equal (${f}*100*${NCyle})
variable runStep equal (1000*100*${NCyle})
variable runStep equal (1000*100*10)

units       lj
atom_style  atomic
dimension 3
boundary     p p p
pair_style  lj/cut 2.5
read_data  ../data/T${T}.dat
read_data  ../data/T620.dat
Reading data file ...
  orthogonal box = (0.97250269 0.97250269 0.97250269) to (37.866338 37.866338 37.866338)
  1 by 1 by 5 MPI processor grid
  reading atoms ...
  70304 atoms
  reading velocities ...
  70304 velocities
  read_data CPU = 0.209 seconds
change_box all triclinic
Changing box ...
  triclinic box = (0.97250269 0.97250269 0.97250269) to (37.866338 37.866338 37.866338) with tilt (0 0 0)
mass 1 1
mass 2 1
pair_modify shift yes
pair_coeff  1 1 1 1
pair_coeff  1 2 1.5 0.8
pair_coeff  2 2 0.5 0.88


timestep 0.01
thermo ${iStep}
thermo 1000
reset_timestep 0
thermo_style custom step temp pe etotal press vol lx ly lz
fix             1 all nvt temp ${TLJ}  ${TLJ}  0.1
fix             1 all nvt temp 0.62  ${TLJ}  0.1
fix             1 all nvt temp 0.62  0.62  0.1
thermo_modify flush yes

fix dsf all deform 1 xy  wiggle 0.5  ${f}   units box
fix dsf all deform 1 xy  wiggle 0.5  1000   units box
fix ps1 all ave/time 1 1 ${iStep} c_thermo_press[1] c_thermo_press[2]  c_thermo_press[3] c_thermo_press[4]  c_thermo_press[5] c_thermo_press[6]  file  stress.${T}
fix ps1 all ave/time 1 1 1000 c_thermo_press[1] c_thermo_press[2]  c_thermo_press[3] c_thermo_press[4]  c_thermo_press[5] c_thermo_press[6]  file  stress.${T}
fix ps1 all ave/time 1 1 1000 c_thermo_press[1] c_thermo_press[2]  c_thermo_press[3] c_thermo_press[4]  c_thermo_press[5] c_thermo_press[6]  file  stress.620
dump            1 all custom ${dumpStep} dump.${T} id type x y z
dump            1 all custom 100000 dump.${T} id type x y z
dump            1 all custom 100000 dump.620 id type x y z
dump_modify 1 sort id
fix nodrift all momentum 1  linear 1 1 1
fix com_seed all recenter INIT INIT INIT shift all
run ${runStep}
run 1000000
Generated 0 of 1 mixed pair_coeff terms from geometric mixing rule
Per MPI rank memory allocation (min/avg/max) = 6.667 | 8.47 | 8.924 Mbytes
   Step          Temp          PotEng         TotEng         Press          Volume           Lx             Ly             Lz      
         0   0.61776232    -7.5712607     -6.6446304      5.6119626      50218.233      36.893836      36.893836      36.893836    
      1000   0.61876253    -7.5588813     -6.6307507      5.7179365      50218.233      36.893836      36.893836      36.893836    
      2000   0.62210608    -7.552126      -6.6189802      5.7596203      50218.233      36.893836      36.893836      36.893836    
      3000   0.61988043    -7.5580729     -6.6282654      5.7170775      50218.233      36.893836      36.893836      36.893836    
      4000   0.61970653    -7.5621141     -6.6325675      5.6815465      50218.233      36.893836      36.893836      36.893836    
      5000   0.61318611    -7.5578183     -6.6380522      5.7107106      50218.233      36.893836      36.893836      36.893836    
      6000   0.61709858    -7.5551349     -6.6295002      5.724226       50218.233      36.893836      36.893836      36.893836    
      7000   0.61976488    -7.5564701     -6.626836       5.7211675      50218.233      36.893836      36.893836      36.893836    
      8000   0.61652897    -7.5580889     -6.6333086      5.7170685      50218.233      36.893836      36.893836      36.893836    
      9000   0.61713723    -7.5575838     -6.6318912      5.7172861      50218.233      36.893836      36.893836      36.893836    
     10000   0.62058837    -7.5570569     -6.6261876      5.7222133      50218.233      36.893836      36.893836      36.893836    
     11000   0.62088142    -7.5642092     -6.6329003      5.6754459      50218.233      36.893836      36.893836      36.893836    
     12000   0.6214202     -7.5542944     -6.6221774      5.727967       50218.233      36.893836      36.893836      36.893836    
     13000   0.62018546    -7.5561674     -6.6259025      5.734686       50218.233      36.893836      36.893836      36.893836    
     14000   0.62121359    -7.5576136     -6.6258065      5.7266214      50218.233      36.893836      36.893836      36.893836    
     15000   0.61690697    -7.5573489     -6.6320016      5.7141771      50218.233      36.893836      36.893836      36.893836    
     16000   0.61952232    -7.5623119     -6.6330416      5.6809062      50218.233      36.893836      36.893836      36.893836    
     17000   0.61793608    -7.5556048     -6.6287138      5.7356026      50218.233      36.893836      36.893836      36.893836    
     18000   0.62107534    -7.5584203     -6.6268205      5.7181445      50218.233      36.893836      36.893836      36.893836    
     19000   0.61710226    -7.5570656     -6.6314254      5.7289787      50218.233      36.893836      36.893836      36.893836    
     20000   0.61964721    -7.5562163     -6.6267587      5.7257163      50218.233      36.893836      36.893836      36.893836    
     21000   0.61533095    -7.5545153     -6.631532       5.7256392      50218.233      36.893836      36.893836      36.893836    
     22000   0.61920074    -7.5572399     -6.628452       5.7048468      50218.233      36.893836      36.893836      36.893836    
     23000   0.61805178    -7.5592401     -6.6321756      5.7112459      50218.233      36.893836      36.893836      36.893836    
     24000   0.62280927    -7.5576392     -6.6234386      5.7237988      50218.233      36.893836      36.893836      36.893836    
     25000   0.6202544     -7.5532797     -6.6229113      5.7486084      50218.233      36.893836      36.893836      36.893836    
     26000   0.6228772     -7.5609021     -6.6265996      5.7060916      50218.233      36.893836      36.893836      36.893836    
     27000   0.61783327    -7.5606145     -6.6338777      5.6918881      50218.233      36.893836      36.893836      36.893836    
     28000   0.61999053    -7.5517312     -6.6217586      5.7700412      50218.233      36.893836      36.893836      36.893836    
     29000   0.61983654    -7.5575706     -6.627829       5.7196822      50218.233      36.893836      36.893836      36.893836    
     30000   0.62352772    -7.5614174     -6.6261391      5.7084829      50218.233      36.893836      36.893836      36.893836    
     31000   0.61647921    -7.5544104     -6.6297047      5.7371526      50218.233      36.893836      36.893836      36.893836    
     32000   0.62050133    -7.554759      -6.6240202      5.7468338      50218.233      36.893836      36.893836      36.893836    
     33000   0.62125425    -7.5515037     -6.6196356      5.7714372      50218.233      36.893836      36.893836      36.893836    
     34000   0.62039283    -7.5578343     -6.6272583      5.7201628      50218.233      36.893836      36.893836      36.893836    
     35000   0.61646768    -7.5542214     -6.629533       5.7275806      50218.233      36.893836      36.893836      36.893836    
     36000   0.6213927     -7.5572582     -6.6251824      5.7234698      50218.233      36.893836      36.893836      36.893836    
     37000   0.61973767    -7.5523169     -6.6227236      5.7725613      50218.233      36.893836      36.893836      36.893836    
     38000   0.62078907    -7.5579028     -6.6267325      5.7231074      50218.233      36.893836      36.893836      36.893836    
     39000   0.61898996    -7.5540888     -6.625617       5.7533371      50218.233      36.893836      36.893836      36.893836    
     40000   0.62078725    -7.5525552     -6.6213876      5.7617274      50218.233      36.893836      36.893836      36.893836    
     41000   0.61887116    -7.5536607     -6.6253672      5.7418522      50218.233      36.893836      36.893836      36.893836    
     42000   0.62037814    -7.5572143     -6.6266603      5.723192       50218.233      36.893836      36.893836      36.893836    
     43000   0.61932504    -7.5586232     -6.6296489      5.7157439      50218.233      36.893836      36.893836      36.893836    
     44000   0.61914949    -7.5520662     -6.6233552      5.7537379      50218.233      36.893836      36.893836      36.893836    
     45000   0.61858255    -7.550405      -6.6225444      5.7773947      50218.233      36.893836      36.893836      36.893836    
     46000   0.62125458    -7.5588381     -6.6269694      5.7096994      50218.233      36.893836      36.893836      36.893836    
     47000   0.6217218     -7.550866      -6.6182965      5.7846537      50218.233      36.893836      36.893836      36.893836    
     48000   0.61915274    -7.5612157     -6.6324998      5.6927184      50218.233      36.893836      36.893836      36.893836    
     49000   0.61809992    -7.5487043     -6.6215676      5.7799236      50218.233      36.893836      36.893836      36.893836    
     50000   0.62017546    -7.5527049     -6.6224549      5.7528413      50218.233      36.893836      36.893836      36.893836    
     51000   0.62036798    -7.5540911     -6.6235524      5.7450347      50218.233      36.893836      36.893836      36.893836    
     52000   0.62462725    -7.5535144     -6.6165869      5.7614371      50218.233      36.893836      36.893836      36.893836    
     53000   0.6215836     -7.5456026     -6.6132405      5.8066855      50218.233      36.893836      36.893836      36.893836    
     54000   0.6199266     -7.5505942     -6.6207175      5.7573117      50218.233      36.893836      36.893836      36.893836    
     55000   0.61885861    -7.5510313     -6.6227566      5.7770598      50218.233      36.893836      36.893836      36.893836    
     56000   0.61932803    -7.5524799     -6.6235011      5.7562201      50218.233      36.893836      36.893836      36.893836    
     57000   0.61980336    -7.5578139     -6.6281221      5.712591       50218.233      36.893836      36.893836      36.893836    
     58000   0.62029199    -7.5565333     -6.6261085      5.7284588      50218.233      36.893836      36.893836      36.893836    
     59000   0.62068613    -7.5460776     -6.6150616      5.8100572      50218.233      36.893836      36.893836      36.893836    
     60000   0.61775108    -7.5521221     -6.6255086      5.7455074      50218.233      36.893836      36.893836      36.893836    
     61000   0.61749771    -7.5479961     -6.6217627      5.7848443      50218.233      36.893836      36.893836      36.893836    
     62000   0.61983112    -7.5553126     -6.6255792      5.7470904      50218.233      36.893836      36.893836      36.893836    
     63000   0.61876485    -7.5544404     -6.6263063      5.7341402      50218.233      36.893836      36.893836      36.893836    
     64000   0.620247      -7.5557892     -6.6254319      5.7306407      50218.233      36.893836      36.893836      36.893836    
     65000   0.62018271    -7.5523097     -6.6220489      5.7630381      50218.233      36.893836      36.893836      36.893836    
     66000   0.6188405     -7.5541254     -6.6258779      5.7450129      50218.233      36.893836      36.893836      36.893836    
     67000   0.61792912    -7.5566909     -6.6298104      5.7165307      50218.233      36.893836      36.893836      36.893836    
     68000   0.62021664    -7.5586469     -6.6283352      5.7176237      50218.233      36.893836      36.893836      36.893836    
     69000   0.61901667    -7.5549905     -6.6264787      5.7334461      50218.233      36.893836      36.893836      36.893836    
     70000   0.62096186    -7.5541046     -6.6226751      5.756239       50218.233      36.893836      36.893836      36.893836    
     71000   0.6212105     -7.5478334     -6.616031       5.7954351      50218.233      36.893836      36.893836      36.893836    
     72000   0.62195681    -7.5527405     -6.6198186      5.7644254      50218.233      36.893836      36.893836      36.893836    
     73000   0.62014065    -7.5552847     -6.625087       5.7222767      50218.233      36.893836      36.893836      36.893836    
     74000   0.62011836    -7.5582015     -6.6280372      5.6924387      50218.233      36.893836      36.893836      36.893836    
     75000   0.6205936     -7.5562487     -6.6253715      5.7165648      50218.233      36.893836      36.893836      36.893836    
     76000   0.61871904    -7.5536934     -6.625628       5.7438354      50218.233      36.893836      36.893836      36.893836    
     77000   0.62122106    -7.5489246     -6.6171063      5.788389       50218.233      36.893836      36.893836      36.893836    
     78000   0.61974026    -7.5564163     -6.6268191      5.7163247      50218.233      36.893836      36.893836      36.893836    
     79000   0.62164531    -7.5482816     -6.6158269      5.7962718      50218.233      36.893836      36.893836      36.893836    
     80000   0.62069472    -7.5551039     -6.6240751      5.7394864      50218.233      36.893836      36.893836      36.893836    
     81000   0.62133754    -7.5465698     -6.6145767      5.7889237      50218.233      36.893836      36.893836      36.893836    
     82000   0.61659943    -7.5479695     -6.6230835      5.7934384      50218.233      36.893836      36.893836      36.893836    
     83000   0.62119798    -7.5507897     -6.619006       5.7792936      50218.233      36.893836      36.893836      36.893836    
     84000   0.62194795    -7.5501208     -6.6172121      5.7867691      50218.233      36.893836      36.893836      36.893836    
     85000   0.61780848    -7.5526379     -6.6259384      5.7633774      50218.233      36.893836      36.893836      36.893836    
     86000   0.61924261    -7.5496653     -6.6208146      5.7796111      50218.233      36.893836      36.893836      36.893836    
     87000   0.62153553    -7.5481292     -6.6158392      5.7982512      50218.233      36.893836      36.893836      36.893836    
     88000   0.62382546    -7.5549441     -6.6192192      5.7368162      50218.233      36.893836      36.893836      36.893836    
     89000   0.61922869    -7.5507868     -6.621957       5.7638576      50218.233      36.893836      36.893836      36.893836    
     90000   0.61934346    -7.553526      -6.624524       5.754874       50218.233      36.893836      36.893836      36.893836    
     91000   0.62398638    -7.5515965     -6.6156302      5.769257       50218.233      36.893836      36.893836      36.893836    
     92000   0.62046798    -7.5498355     -6.6191468      5.7580245      50218.233      36.893836      36.893836      36.893836    
     93000   0.61781183    -7.554331      -6.6276265      5.7402876      50218.233      36.893836      36.893836      36.893836    
     94000   0.61703351    -7.5498807     -6.6243436      5.7624999      50218.233      36.893836      36.893836      36.893836    
     95000   0.61866817    -7.5524428     -6.6244537      5.744968       50218.233      36.893836      36.893836      36.893836    
     96000   0.62093464    -7.5497059     -6.6183172      5.7792324      50218.233      36.893836      36.893836      36.893836    
     97000   0.61646168    -7.5499181     -6.6252387      5.7744356      50218.233      36.893836      36.893836      36.893836    
     98000   0.62055356    -7.550784      -6.6199669      5.764354       50218.233      36.893836      36.893836      36.893836    
     99000   0.61787919    -7.5539206     -6.627115       5.7395152      50218.233      36.893836      36.893836      36.893836    
    100000   0.61803947    -7.5495917     -6.6225457      5.7705955      50218.233      36.893836      36.893836      36.893836    
    101000   0.61989602    -7.5522256     -6.6223948      5.7663009      50218.233      36.893836      36.893836      36.893836    
    102000   0.61887405    -7.5525697     -6.6242718      5.7427883      50218.233      36.893836      36.893836      36.893836    
    103000   0.61847708    -7.5517325     -6.6240301      5.7553444      50218.233      36.893836      36.893836      36.893836    
    104000   0.62113675    -7.556034      -6.6243421      5.7267971      50218.233      36.893836      36.893836      36.893836    
    105000   0.62051003    -7.5433296     -6.6125778      5.8220536      50218.233      36.893836      36.893836      36.893836    
    106000   0.62124339    -7.5529635     -6.6211117      5.7589786      50218.233      36.893836      36.893836      36.893836    
    107000   0.62228283    -7.5499026     -6.6164916      5.7713158      50218.233      36.893836      36.893836      36.893836    
    108000   0.62222987    -7.5530056     -6.619674       5.7502875      50218.233      36.893836      36.893836      36.893836    
    109000   0.61900444    -7.5533071     -6.6248136      5.753028       50218.233      36.893836      36.893836      36.893836    
    110000   0.6203919     -7.55144       -6.6208654      5.7555356      50218.233      36.893836      36.893836      36.893836    
    111000   0.61946174    -7.5517302     -6.6225508      5.7624888      50218.233      36.893836      36.893836      36.893836    
    112000   0.62010661    -7.5513059     -6.6211592      5.7739695      50218.233      36.893836      36.893836      36.893836    
    113000   0.61890054    -7.5499249     -6.6215873      5.7720044      50218.233      36.893836      36.893836      36.893836    
    114000   0.6178441     -7.5496583     -6.6229053      5.7760313      50218.233      36.893836      36.893836      36.893836    
    115000   0.62253544    -7.5486654     -6.6148756      5.781071       50218.233      36.893836      36.893836      36.893836    
    116000   0.61710795    -7.553309      -6.6276603      5.7492777      50218.233      36.893836      36.893836      36.893836    
    117000   0.62365252    -7.5468        -6.6113345      5.8160527      50218.233      36.893836      36.893836      36.893836    
    118000   0.61899055    -7.557477      -6.6290044      5.7307394      50218.233      36.893836      36.893836      36.893836    
    119000   0.61993484    -7.5487622     -6.6188731      5.8118525      50218.233      36.893836      36.893836      36.893836    
    120000   0.62201467    -7.5540543     -6.6210455      5.7619651      50218.233      36.893836      36.893836      36.893836    
    121000   0.61929922    -7.5505765     -6.6216409      5.7819686      50218.233      36.893836      36.893836      36.893836    
    122000   0.62203796    -7.5521682     -6.6191245      5.7668008      50218.233      36.893836      36.893836      36.893836    
    123000   0.6225714     -7.5505627     -6.6167189      5.77093        50218.233      36.893836      36.893836      36.893836    
    124000   0.62077652    -7.5531178     -6.6219662      5.7537995      50218.233      36.893836      36.893836      36.893836    
    125000   0.61861847    -7.5578229     -6.6299084      5.7103441      50218.233      36.893836      36.893836      36.893836    
    126000   0.62246205    -7.5572094     -6.6235296      5.722407       50218.233      36.893836      36.893836      36.893836    
    127000   0.6215207     -7.5532176     -6.6209498      5.748093       50218.233      36.893836      36.893836      36.893836    
    128000   0.62052885    -7.551565      -6.620785       5.7488885      50218.233      36.893836      36.893836      36.893836    
    129000   0.61959127    -7.5571913     -6.6278176      5.7156161      50218.233      36.893836      36.893836      36.893836    
    130000   0.61739056    -7.551584      -6.6255113      5.7455598      50218.233      36.893836      36.893836      36.893836    
    131000   0.62021925    -7.560228      -6.6299124      5.6904426      50218.233      36.893836      36.893836      36.893836    
    132000   0.61836635    -7.5522971     -6.6247608      5.7433073      50218.233      36.893836      36.893836      36.893836    
    133000   0.61603037    -7.5498231     -6.6257907      5.7695059      50218.233      36.893836      36.893836      36.893836    
    134000   0.62030083    -7.5546806     -6.6242426      5.7449055      50218.233      36.893836      36.893836      36.893836    
    135000   0.61924378    -7.5527262     -6.6238738      5.7640358      50218.233      36.893836      36.893836      36.893836    
    136000   0.62078989    -7.5514626     -6.620291       5.7649972      50218.233      36.893836      36.893836      36.893836    
    137000   0.6193829     -7.5515753     -6.6225142      5.7733607      50218.233      36.893836      36.893836      36.893836    
    138000   0.61979096    -7.5503806     -6.6207074      5.7761356      50218.233      36.893836      36.893836      36.893836    
    139000   0.62155457    -7.5565256     -6.624207       5.7248242      50218.233      36.893836      36.893836      36.893836    
    140000   0.61900718    -7.5531389     -6.6246413      5.7408001      50218.233      36.893836      36.893836      36.893836    
    141000   0.62109296    -7.5521307     -6.6205045      5.7589804      50218.233      36.893836      36.893836      36.893836    
    142000   0.62105108    -7.5540043     -6.6224409      5.7493109      50218.233      36.893836      36.893836      36.893836    
    143000   0.6179336     -7.5486871     -6.6217999      5.7671426      50218.233      36.893836      36.893836      36.893836    
    144000   0.61669804    -7.5543637     -6.6293298      5.728031       50218.233      36.893836      36.893836      36.893836    
    145000   0.61861264    -7.5517195     -6.6238138      5.7557674      50218.233      36.893836      36.893836      36.893836    
    146000   0.61665714    -7.5551478     -6.6301752      5.7270031      50218.233      36.893836      36.893836      36.893836    
    147000   0.62389514    -7.552443      -6.6166135      5.768617       50218.233      36.893836      36.893836      36.893836    
    148000   0.62192896    -7.5542198     -6.6213396      5.7462411      50218.233      36.893836      36.893836      36.893836    
    149000   0.61836075    -7.5554661     -6.6279382      5.7368029      50218.233      36.893836      36.893836      36.893836    
    150000   0.62506267    -7.5538177     -6.616237       5.7740496      50218.233      36.893836      36.893836      36.893836    
    151000   0.62002439    -7.5519435     -6.6219202      5.7645506      50218.233      36.893836      36.893836      36.893836    
    152000   0.61839471    -7.5592134     -6.6316345      5.7038541      50218.233      36.893836      36.893836      36.893836    
    153000   0.61674044    -7.5592032     -6.6341057      5.6992852      50218.233      36.893836      36.893836      36.893836    
    154000   0.6216998     -7.5536667     -6.6211303      5.7547794      50218.233      36.893836      36.893836      36.893836    
    155000   0.62236019    -7.5521836     -6.6186566      5.7622272      50218.233      36.893836      36.893836      36.893836    
    156000   0.61687747    -7.5589757     -6.6336727      5.7087638      50218.233      36.893836      36.893836      36.893836    
    157000   0.62117962    -7.5515654     -6.6198092      5.7562229      50218.233      36.893836      36.893836      36.893836    
    158000   0.61966775    -7.5528267     -6.6233383      5.7587548      50218.233      36.893836      36.893836      36.893836    
    159000   0.62031002    -7.5495565     -6.6191047      5.7737169      50218.233      36.893836      36.893836      36.893836    
    160000   0.61516615    -7.5535126     -6.6307765      5.740284       50218.233      36.893836      36.893836      36.893836    
    161000   0.62058966    -7.5514743     -6.6206031      5.7562841      50218.233      36.893836      36.893836      36.893836    
    162000   0.61842017    -7.5506745     -6.6230574      5.7660845      50218.233      36.893836      36.893836      36.893836    
    163000   0.62346147    -7.5470244     -6.6118455      5.7994869      50218.233      36.893836      36.893836      36.893836    
    164000   0.6172263     -7.5471386     -6.6213123      5.778798       50218.233      36.893836      36.893836      36.893836    
    165000   0.62037028    -7.5516911     -6.6211489      5.7561291      50218.233      36.893836      36.893836      36.893836    
    166000   0.61901024    -7.5562571     -6.6277549      5.7268687      50218.233      36.893836      36.893836      36.893836    
    167000   0.62078327    -7.5492225     -6.6180608      5.7771243      50218.233      36.893836      36.893836      36.893836    
    168000   0.61542037    -7.5467104     -6.623593       5.7926162      50218.233      36.893836      36.893836      36.893836    
    169000   0.62040951    -7.5570568     -6.6264558      5.7304468      50218.233      36.893836      36.893836      36.893836    
    170000   0.6186416     -7.5494467     -6.6214975      5.7774256      50218.233      36.893836      36.893836      36.893836    
    171000   0.62056662    -7.5547733     -6.6239366      5.7367115      50218.233      36.893836      36.893836      36.893836    
    172000   0.61863395    -7.5550375     -6.6270997      5.7361547      50218.233      36.893836      36.893836      36.893836    
    173000   0.62160989    -7.5548697     -6.6224681      5.7429647      50218.233      36.893836      36.893836      36.893836    
    174000   0.61886974    -7.5512957     -6.6230043      5.7724854      50218.233      36.893836      36.893836      36.893836    
    175000   0.61764152    -7.551975      -6.6255259      5.7534888      50218.233      36.893836      36.893836      36.893836    
    176000   0.62093152    -7.5528611     -6.6214771      5.7517156      50218.233      36.893836      36.893836      36.893836    
    177000   0.62143405    -7.5514038     -6.619266       5.7758754      50218.233      36.893836      36.893836      36.893836    
    178000   0.61907997    -7.552983      -6.6243762      5.7595317      50218.233      36.893836      36.893836      36.893836    
    179000   0.61816114    -7.5543251     -6.6270966      5.7499761      50218.233      36.893836      36.893836      36.893836    
    180000   0.62377882    -7.5508995     -6.6152446      5.7744519      50218.233      36.893836      36.893836      36.893836    
    181000   0.61963337    -7.5506113     -6.6211744      5.7730311      50218.233      36.893836      36.893836      36.893836    
    182000   0.6210368     -7.5498802     -6.6183383      5.7881823      50218.233      36.893836      36.893836      36.893836    
    183000   0.62121271    -7.5504458     -6.61864        5.7716546      50218.233      36.893836      36.893836      36.893836    
    184000   0.61792814    -7.5493255     -6.6224465      5.761442       50218.233      36.893836      36.893836      36.893836    
    185000   0.62306313    -7.5505033     -6.6159219      5.7648607      50218.233      36.893836      36.893836      36.893836    
    186000   0.6215468     -7.550855      -6.618548       5.7684993      50218.233      36.893836      36.893836      36.893836    
    187000   0.61830691    -7.550182      -6.6227348      5.7566006      50218.233      36.893836      36.893836      36.893836    
    188000   0.61966213    -7.548814      -6.619334       5.7653558      50218.233      36.893836      36.893836      36.893836    
    189000   0.62053727    -7.5532133     -6.6224206      5.7416181      50218.233      36.893836      36.893836      36.893836    
    190000   0.62031073    -7.5562911     -6.6258382      5.7225986      50218.233      36.893836      36.893836      36.893836    
    191000   0.62034468    -7.5529139     -6.6224101      5.7525984      50218.233      36.893836      36.893836      36.893836    
    192000   0.61807945    -7.5510389     -6.6239329      5.7589476      50218.233      36.893836      36.893836      36.893836    
    193000   0.62127587    -7.5460116     -6.614111       5.8089373      50218.233      36.893836      36.893836      36.893836    
    194000   0.6185732     -7.5510535     -6.6232069      5.7640456      50218.233      36.893836      36.893836      36.893836    
    195000   0.61907404    -7.550215      -6.6216172      5.7605845      50218.233      36.893836      36.893836      36.893836    
    196000   0.61894857    -7.5516414     -6.6232317      5.7544562      50218.233      36.893836      36.893836      36.893836    
    197000   0.62069649    -7.549402      -6.6183705      5.7737552      50218.233      36.893836      36.893836      36.893836    
    198000   0.62062334    -7.5554812     -6.6245594      5.7308307      50218.233      36.893836      36.893836      36.893836    
    199000   0.61976445    -7.5519077     -6.6222743      5.7677707      50218.233      36.893836      36.893836      36.893836    
    200000   0.61900424    -7.5501001     -6.6216069      5.788125       50218.233      36.893836      36.893836      36.893836    
    201000   0.62160535    -7.5545506     -6.6221559      5.738755       50218.233      36.893836      36.893836      36.893836    
    202000   0.62229624    -7.5542872     -6.6208562      5.7405489      50218.233      36.893836      36.893836      36.893836    
    203000   0.61576435    -7.5524886     -6.6288553      5.7416177      50218.233      36.893836      36.893836      36.893836    
    204000   0.62017946    -7.5551877     -6.6249317      5.7294652      50218.233      36.893836      36.893836      36.893836    
    205000   0.6209984     -7.5502989     -6.6188146      5.769495       50218.233      36.893836      36.893836      36.893836    
    206000   0.62064372    -7.5486321     -6.6176798      5.7828329      50218.233      36.893836      36.893836      36.893836    
    207000   0.62154647    -7.5566111     -6.6243046      5.7302255      50218.233      36.893836      36.893836      36.893836    
    208000   0.6207589     -7.5542075     -6.6230824      5.7394704      50218.233      36.893836      36.893836      36.893836    
    209000   0.61677079    -7.5466564     -6.6215134      5.7812555      50218.233      36.893836      36.893836      36.893836    
    210000   0.61969504    -7.5516201     -6.6220907      5.7621752      50218.233      36.893836      36.893836      36.893836    
    211000   0.62058752    -7.5472091     -6.6163411      5.7848661      50218.233      36.893836      36.893836      36.893836    
    212000   0.62127004    -7.5494189     -6.6175271      5.7805807      50218.233      36.893836      36.893836      36.893836    
    213000   0.62216665    -7.5484257     -6.615189       5.795679       50218.233      36.893836      36.893836      36.893836    
    214000   0.6182714     -7.5483915     -6.6209976      5.77908        50218.233      36.893836      36.893836      36.893836    
    215000   0.62139333    -7.5495078     -6.6174311      5.7868495      50218.233      36.893836      36.893836      36.893836    
    216000   0.62057803    -7.5500783     -6.6192245      5.7698902      50218.233      36.893836      36.893836      36.893836    
    217000   0.61813372    -7.5473981     -6.6202107      5.7889317      50218.233      36.893836      36.893836      36.893836    
    218000   0.62096977    -7.5548146     -6.6233732      5.7490973      50218.233      36.893836      36.893836      36.893836    
    219000   0.62012371    -7.5481654     -6.6179931      5.7764244      50218.233      36.893836      36.893836      36.893836    
    220000   0.62168499    -7.5496563     -6.6171421      5.7918851      50218.233      36.893836      36.893836      36.893836    
    221000   0.6155461     -7.5541624     -6.6308564      5.731868       50218.233      36.893836      36.893836      36.893836    
    222000   0.62330539    -7.5513746     -6.6164298      5.7646003      50218.233      36.893836      36.893836      36.893836    
    223000   0.62058797    -7.5492591     -6.6183904      5.7754804      50218.233      36.893836      36.893836      36.893836    
    224000   0.62026653    -7.5543782     -6.6239917      5.7253877      50218.233      36.893836      36.893836      36.893836    
    225000   0.61981313    -7.5533573     -6.6236509      5.7432353      50218.233      36.893836      36.893836      36.893836    
    226000   0.61737641    -7.5509475     -6.6248961      5.7563181      50218.233      36.893836      36.893836      36.893836    
    227000   0.61836247    -7.5524253     -6.6248948      5.7579902      50218.233      36.893836      36.893836      36.893836    
    228000   0.61803395    -7.5546529     -6.6276152      5.7301437      50218.233      36.893836      36.893836      36.893836    
    229000   0.61993194    -7.5533874     -6.6235027      5.7521307      50218.233      36.893836      36.893836      36.893836    
    230000   0.62022135    -7.5498668     -6.619548       5.7681576      50218.233      36.893836      36.893836      36.893836    
    231000   0.61772217    -7.5460554     -6.6194853      5.8072767      50218.233      36.893836      36.893836      36.893836    
    232000   0.61976872    -7.5489622     -6.6193224      5.792353       50218.233      36.893836      36.893836      36.893836    
    233000   0.61940454    -7.5497442     -6.6206506      5.7748372      50218.233      36.893836      36.893836      36.893836    
    234000   0.62153817    -7.5489671     -6.6166731      5.7792472      50218.233      36.893836      36.893836      36.893836    
    235000   0.61823954    -7.5460139     -6.6186678      5.8039326      50218.233      36.893836      36.893836      36.893836    
    236000   0.62259201    -7.552332      -6.6184573      5.7549813      50218.233      36.893836      36.893836      36.893836    
    237000   0.61549888    -7.5515514     -6.6283162      5.7609398      50218.233      36.893836      36.893836      36.893836    
    238000   0.62042832    -7.5507806     -6.6201513      5.7689499      50218.233      36.893836      36.893836      36.893836    
    239000   0.62088352    -7.5493771     -6.618065       5.7813067      50218.233      36.893836      36.893836      36.893836    
    240000   0.62239003    -7.5493259     -6.6157541      5.7817351      50218.233      36.893836      36.893836      36.893836    
    241000   0.61777328    -7.5539738     -6.6273271      5.744909       50218.233      36.893836      36.893836      36.893836    
    242000   0.61905267    -7.5502381     -6.6216723      5.7704244      50218.233      36.893836      36.893836      36.893836    
    243000   0.62139442    -7.5495412     -6.6174628      5.7867829      50218.233      36.893836      36.893836      36.893836    
    244000   0.62108586    -7.5504241     -6.6188086      5.7660484      50218.233      36.893836      36.893836      36.893836    
    245000   0.62076715    -7.5526004     -6.6214629      5.7576018      50218.233      36.893836      36.893836      36.893836    
    246000   0.62345483    -7.5526574     -6.6174885      5.7519333      50218.233      36.893836      36.893836      36.893836    
    247000   0.6216147     -7.5495748     -6.617166       5.7791737      50218.233      36.893836      36.893836      36.893836    
    248000   0.62062642    -7.5521507     -6.6212243      5.7503587      50218.233      36.893836      36.893836      36.893836    
    249000   0.61984067    -7.5399914     -6.6102436      5.8457544      50218.233      36.893836      36.893836      36.893836    
    250000   0.62092589    -7.5487451     -6.6173695      5.7842588      50218.233      36.893836      36.893836      36.893836    
    251000   0.62010745    -7.5528261     -6.6226782      5.7555044      50218.233      36.893836      36.893836      36.893836    
    252000   0.61803461    -7.5516839     -6.6246452      5.7606625      50218.233      36.893836      36.893836      36.893836    
    253000   0.61926838    -7.5532908     -6.6244014      5.7437456      50218.233      36.893836      36.893836      36.893836    
    254000   0.62148701    -7.5481623     -6.6159451      5.7960314      50218.233      36.893836      36.893836      36.893836    
    255000   0.62100224    -7.5516585     -6.6201684      5.7660896      50218.233      36.893836      36.893836      36.893836    
    256000   0.62028708    -7.5542478     -6.6238304      5.7357297      50218.233      36.893836      36.893836      36.893836    
    257000   0.61678997    -7.5518807     -6.6267089      5.7538793      50218.233      36.893836      36.893836      36.893836    
    258000   0.61761854    -7.5502719     -6.6238573      5.7597321      50218.233      36.893836      36.893836      36.893836    
    259000   0.62091997    -7.5486854     -6.6173187      5.7726037      50218.233      36.893836      36.893836      36.893836    
    260000   0.61970232    -7.5559642     -6.626424       5.7326775      50218.233      36.893836      36.893836      36.893836    
    261000   0.61746096    -7.5519072     -6.625729       5.75553        50218.233      36.893836      36.893836      36.893836    
    262000   0.62212977    -7.5505295     -6.6173482      5.7652967      50218.233      36.893836      36.893836      36.893836    
    263000   0.62195234    -7.547515      -6.6145997      5.7934806      50218.233      36.893836      36.893836      36.893836    
    264000   0.61975345    -7.5477333     -6.6181164      5.8082263      50218.233      36.893836      36.893836      36.893836    
    265000   0.61792488    -7.5518254     -6.6249513      5.7569513      50218.233      36.893836      36.893836      36.893836    
    266000   0.62029386    -7.5475559     -6.6171283      5.7900782      50218.233      36.893836      36.893836      36.893836    
    267000   0.61421941    -7.5574115     -6.6360955      5.7184493      50218.233      36.893836      36.893836      36.893836    
    268000   0.62233521    -7.5501697     -6.6166802      5.7731433      50218.233      36.893836      36.893836      36.893836    
    269000   0.62160602    -7.5547381     -6.6223424      5.7384905      50218.233      36.893836      36.893836      36.893836    
    270000   0.61878659    -7.554553      -6.6263863      5.7406688      50218.233      36.893836      36.893836      36.893836    
    271000   0.61862615    -7.5502165     -6.6222905      5.777443       50218.233      36.893836      36.893836      36.893836    
    272000   0.61991559    -7.5515728     -6.6217127      5.7613806      50218.233      36.893836      36.893836      36.893836    
    273000   0.62040448    -7.5509938     -6.6204003      5.768382       50218.233      36.893836      36.893836      36.893836    
    274000   0.62216678    -7.5461268     -6.6128899      5.8041634      50218.233      36.893836      36.893836      36.893836    
    275000   0.62070301    -7.549385      -6.6183437      5.7754402      50218.233      36.893836      36.893836      36.893836    
    276000   0.62245643    -7.5477167     -6.6140453      5.7785156      50218.233      36.893836      36.893836      36.893836    
    277000   0.61966817    -7.549304      -6.619815       5.7780949      50218.233      36.893836      36.893836      36.893836    
    278000   0.62366501    -7.5510859     -6.6156017      5.7682444      50218.233      36.893836      36.893836      36.893836    
    279000   0.62187691    -7.5503768     -6.6175747      5.7851162      50218.233      36.893836      36.893836      36.893836    
    280000   0.62623051    -7.5511479     -6.6118155      5.7847912      50218.233      36.893836      36.893836      36.893836    
    281000   0.61956504    -7.5520783     -6.6227439      5.7644265      50218.233      36.893836      36.893836      36.893836    
    282000   0.62132866    -7.5559897     -6.62401        5.7274404      50218.233      36.893836      36.893836      36.893836    
    283000   0.62211811    -7.5537492     -6.6205853      5.7546021      50218.233      36.893836      36.893836      36.893836    
    284000   0.62358741    -7.5474943     -6.6121264      5.7983888      50218.233      36.893836      36.893836      36.893836    
    285000   0.61967508    -7.5551103     -6.6256109      5.7456613      50218.233      36.893836      36.893836      36.893836    
    286000   0.62045979    -7.551297      -6.6206205      5.7641872      50218.233      36.893836      36.893836      36.893836    
    287000   0.62089746    -7.5510873     -6.6197544      5.7706356      50218.233      36.893836      36.893836      36.893836    
    288000   0.61826627    -7.5498725     -6.6224863      5.7713716      50218.233      36.893836      36.893836      36.893836    
    289000   0.6176641     -7.5521168     -6.6256338      5.7589419      50218.233      36.893836      36.893836      36.893836    
    290000   0.61977406    -7.5578133     -6.6281655      5.7185374      50218.233      36.893836      36.893836      36.893836    
    291000   0.61964601    -7.5528851     -6.6234293      5.7550885      50218.233      36.893836      36.893836      36.893836    
    292000   0.62135821    -7.5562642     -6.6242402      5.7367706      50218.233      36.893836      36.893836      36.893836    
    293000   0.62247664    -7.5584557     -6.624754       5.7141225      50218.233      36.893836      36.893836      36.893836    
    294000   0.61897438    -7.5579977     -6.6295494      5.7170488      50218.233      36.893836      36.893836      36.893836    
    295000   0.6194222     -7.5557313     -6.6266112      5.7222979      50218.233      36.893836      36.893836      36.893836    
    296000   0.62199764    -7.5453022     -6.6123191      5.82747        50218.233      36.893836      36.893836      36.893836    
    297000   0.6183764     -7.5556656     -6.6281142      5.7239825      50218.233      36.893836      36.893836      36.893836    
    298000   0.62246459    -7.5525885     -6.6189049      5.7524044      50218.233      36.893836      36.893836      36.893836    
    299000   0.61968655    -7.5502038     -6.6206872      5.7629824      50218.233      36.893836      36.893836      36.893836    
    300000   0.61885265    -7.5503403     -6.6220746      5.7797186      50218.233      36.893836      36.893836      36.893836    
    301000   0.62065276    -7.5508712     -6.6199053      5.7767518      50218.233      36.893836      36.893836      36.893836    
    302000   0.61998525    -7.5552539     -6.6252893      5.7479738      50218.233      36.893836      36.893836      36.893836    
    303000   0.61756299    -7.5530341     -6.6267028      5.7492745      50218.233      36.893836      36.893836      36.893836    
    304000   0.62334781    -7.5502493     -6.6152409      5.7729246      50218.233      36.893836      36.893836      36.893836    
    305000   0.61718794    -7.5541867     -6.628418       5.7409041      50218.233      36.893836      36.893836      36.893836    
    306000   0.61792475    -7.5501277     -6.6232538      5.772009       50218.233      36.893836      36.893836      36.893836    
    307000   0.62122505    -7.5503031     -6.6184788      5.7683109      50218.233      36.893836      36.893836      36.893836    
    308000   0.62327295    -7.5521231     -6.617227       5.7396758      50218.233      36.893836      36.893836      36.893836    
    309000   0.61786715    -7.5527228     -6.6259353      5.7355151      50218.233      36.893836      36.893836      36.893836    
    310000   0.61762634    -7.5516548     -6.6252285      5.751941       50218.233      36.893836      36.893836      36.893836    
    311000   0.62170271    -7.5580147     -6.6254739      5.7243482      50218.233      36.893836      36.893836      36.893836    
    312000   0.62031148    -7.5542326     -6.6237787      5.7373066      50218.233      36.893836      36.893836      36.893836    
    313000   0.62048393    -7.5610946     -6.630382       5.6970226      50218.233      36.893836      36.893836      36.893836    
    314000   0.61954751    -7.5529904     -6.6236824      5.7451454      50218.233      36.893836      36.893836      36.893836    
    315000   0.62046024    -7.5499603     -6.6192832      5.770329       50218.233      36.893836      36.893836      36.893836    
    316000   0.61954613    -7.5549733     -6.6256673      5.7475534      50218.233      36.893836      36.893836      36.893836    
    317000   0.62011286    -7.5548174     -6.6246613      5.7406392      50218.233      36.893836      36.893836      36.893836    
    318000   0.61929782    -7.552888      -6.6239545      5.7583592      50218.233      36.893836      36.893836      36.893836    
    319000   0.61875289    -7.5549226     -6.6268064      5.7339833      50218.233      36.893836      36.893836      36.893836    
    320000   0.61803226    -7.5505716     -6.6235364      5.7634495      50218.233      36.893836      36.893836      36.893836    
    321000   0.61810719    -7.5548857     -6.6277381      5.7362211      50218.233      36.893836      36.893836      36.893836    
    322000   0.62322938    -7.5509969     -6.6161662      5.7737907      50218.233      36.893836      36.893836      36.893836    
    323000   0.61979131    -7.5545392     -6.6248654      5.7505081      50218.233      36.893836      36.893836      36.893836    
    324000   0.62313957    -7.5550484     -6.6203523      5.7498701      50218.233      36.893836      36.893836      36.893836    
    325000   0.61561563    -7.5497406     -6.6263303      5.7644607      50218.233      36.893836      36.893836      36.893836    
    326000   0.61837249    -7.5563425     -6.6287969      5.7362477      50218.233      36.893836      36.893836      36.893836    
    327000   0.62381397    -7.5535951     -6.6178874      5.7519311      50218.233      36.893836      36.893836      36.893836    
    328000   0.61957381    -7.557149      -6.6278015      5.7268636      50218.233      36.893836      36.893836      36.893836    
    329000   0.61850576    -7.5529639     -6.6252185      5.7468152      50218.233      36.893836      36.893836      36.893836    
    330000   0.62178957    -7.5522889     -6.6196178      5.7593192      50218.233      36.893836      36.893836      36.893836    
    331000   0.62075092    -7.5549047     -6.6237915      5.737477       50218.233      36.893836      36.893836      36.893836    
    332000   0.62188106    -7.5574715     -6.6246632      5.7249779      50218.233      36.893836      36.893836      36.893836    
    333000   0.62020288    -7.5555104     -6.6252193      5.7426255      50218.233      36.893836      36.893836      36.893836    
    334000   0.61892794    -7.559562      -6.6311833      5.7040204      50218.233      36.893836      36.893836      36.893836    
    335000   0.62198895    -7.5553384     -6.6223682      5.7331225      50218.233      36.893836      36.893836      36.893836    
    336000   0.61961482    -7.5559678     -6.6265588      5.7347762      50218.233      36.893836      36.893836      36.893836    
    337000   0.61592742    -7.5494178     -6.6255398      5.7721899      50218.233      36.893836      36.893836      36.893836    
    338000   0.61897483    -7.5552854     -6.6268363      5.735245       50218.233      36.893836      36.893836      36.893836    
    339000   0.62157783    -7.5535546     -6.6212011      5.7292124      50218.233      36.893836      36.893836      36.893836    
    340000   0.61929263    -7.5567856     -6.6278599      5.7145293      50218.233      36.893836      36.893836      36.893836    
    341000   0.62021253    -7.551365      -6.6210595      5.7635906      50218.233      36.893836      36.893836      36.893836    
    342000   0.61901371    -7.5543839     -6.6258765      5.7420799      50218.233      36.893836      36.893836      36.893836    
    343000   0.6224904     -7.5567164     -6.6229941      5.724846       50218.233      36.893836      36.893836      36.893836    
    344000   0.6171646     -7.5546251     -6.6288914      5.7371029      50218.233      36.893836      36.893836      36.893836    
    345000   0.61939342    -7.558189      -6.6291121      5.7266058      50218.233      36.893836      36.893836      36.893836    
    346000   0.61754919    -7.554159      -6.6278484      5.7451911      50218.233      36.893836      36.893836      36.893836    
    347000   0.62025813    -7.5600234     -6.6296495      5.6976023      50218.233      36.893836      36.893836      36.893836    
    348000   0.62007462    -7.555607      -6.6255083      5.7359242      50218.233      36.893836      36.893836      36.893836    
    349000   0.61884658    -7.5516379     -6.6233813      5.7594831      50218.233      36.893836      36.893836      36.893836    
    350000   0.61739087    -7.5540836     -6.6280104      5.7328598      50218.233      36.893836      36.893836      36.893836    
    351000   0.61812983    -7.551676      -6.6244945      5.7542445      50218.233      36.893836      36.893836      36.893836    
    352000   0.62268699    -7.5530172     -6.619          5.7529929      50218.233      36.893836      36.893836      36.893836    
    353000   0.6190105     -7.5562118     -6.6277093      5.7237434      50218.233      36.893836      36.893836      36.893836    
    354000   0.62485792    -7.5530796     -6.6158061      5.7606991      50218.233      36.893836      36.893836      36.893836    
    355000   0.6180268     -7.5557418     -6.6287148      5.7223095      50218.233      36.893836      36.893836      36.893836    
    356000   0.62143371    -7.5505027     -6.6183654      5.7739254      50218.233      36.893836      36.893836      36.893836    
    357000   0.61832794    -7.5521371     -6.6246584      5.7582457      50218.233      36.893836      36.893836      36.893836    
    358000   0.61805291    -7.5546435     -6.6275773      5.744676       50218.233      36.893836      36.893836      36.893836    
    359000   0.61978124    -7.5549323     -6.6252737      5.7381892      50218.233      36.893836      36.893836      36.893836    
    360000   0.62101352    -7.5527982     -6.6212911      5.7667489      50218.233      36.893836      36.893836      36.893836    
    361000   0.61683923    -7.5557871     -6.6305414      5.7272909      50218.233      36.893836      36.893836      36.893836    
    362000   0.61922074    -7.5525161     -6.6236982      5.7605066      50218.233      36.893836      36.893836      36.893836    
    363000   0.62038552    -7.5524092     -6.6218442      5.7535315      50218.233      36.893836      36.893836      36.893836    
    364000   0.62032505    -7.5529716     -6.6224973      5.7429029      50218.233      36.893836      36.893836      36.893836    
    365000   0.61790839    -7.5513546     -6.6245052      5.7618719      50218.233      36.893836      36.893836      36.893836    
    366000   0.62247077    -7.5514432     -6.6177503      5.7671444      50218.233      36.893836      36.893836      36.893836    
    367000   0.61734318    -7.5562727     -6.6302711      5.7367848      50218.233      36.893836      36.893836      36.893836    
    368000   0.61714319    -7.5504313     -6.6247297      5.7737042      50218.233      36.893836      36.893836      36.893836    
    369000   0.61878759    -7.5467269     -6.6185587      5.7985796      50218.233      36.893836      36.893836      36.893836    
    370000   0.62290772    -7.5584798     -6.6241315      5.7262531      50218.233      36.893836      36.893836      36.893836    
    371000   0.61859789    -7.5576383     -6.6297547      5.726577       50218.233      36.893836      36.893836      36.893836    
    372000   0.62069295    -7.5481594     -6.6171332      5.7746297      50218.233      36.893836      36.893836      36.893836    
    373000   0.61800274    -7.5509225     -6.6239315      5.7770843      50218.233      36.893836      36.893836      36.893836    
    374000   0.62047287    -7.5510098     -6.6203137      5.775906       50218.233      36.893836      36.893836      36.893836    
    375000   0.61871469    -7.5548335     -6.6267747      5.73573        50218.233      36.893836      36.893836      36.893836    
    376000   0.62072265    -7.5567205     -6.6256498      5.7292227      50218.233      36.893836      36.893836      36.893836    
    377000   0.62074119    -7.5539457     -6.6228471      5.7306855      50218.233      36.893836      36.893836      36.893836    
    378000   0.62158973    -7.5540349     -6.6216636      5.7392309      50218.233      36.893836      36.893836      36.893836    
    379000   0.62292829    -7.5529452     -6.618566       5.7499311      50218.233      36.893836      36.893836      36.893836    
    380000   0.62095954    -7.5496436     -6.6182175      5.765836       50218.233      36.893836      36.893836      36.893836    
    381000   0.61971181    -7.5509905     -6.621436       5.7756307      50218.233      36.893836      36.893836      36.893836    
    382000   0.62040139    -7.5500264     -6.6194375      5.7656674      50218.233      36.893836      36.893836      36.893836    
    383000   0.62186428    -7.5473097     -6.6145266      5.805596       50218.233      36.893836      36.893836      36.893836    
    384000   0.62112321    -7.5506234     -6.6189518      5.7771277      50218.233      36.893836      36.893836      36.893836    
    385000   0.61777721    -7.5460926     -6.61944        5.8052138      50218.233      36.893836      36.893836      36.893836    
    386000   0.61986412    -7.5559687     -6.6261857      5.7130685      50218.233      36.893836      36.893836      36.893836    
    387000   0.61814294    -7.5505414     -6.6233402      5.7642315      50218.233      36.893836      36.893836      36.893836    
    388000   0.61872307    -7.5504766     -6.6224052      5.7640537      50218.233      36.893836      36.893836      36.893836    
    389000   0.61857986    -7.5538362     -6.6259796      5.7566574      50218.233      36.893836      36.893836      36.893836    
    390000   0.6189563     -7.550662      -6.6222407      5.7623153      50218.233      36.893836      36.893836      36.893836    
    391000   0.61875162    -7.549943      -6.6218287      5.7774421      50218.233      36.893836      36.893836      36.893836    
    392000   0.62386467    -7.5542036     -6.6184199      5.7450969      50218.233      36.893836      36.893836      36.893836    
    393000   0.6214433     -7.5588608     -6.6267091      5.6911547      50218.233      36.893836      36.893836      36.893836    
    394000   0.61884672    -7.5527711     -6.6245143      5.7618007      50218.233      36.893836      36.893836      36.893836    
    395000   0.61871752    -7.5565854     -6.6285223      5.733559       50218.233      36.893836      36.893836      36.893836    
    396000   0.61834961    -7.5563956     -6.6288844      5.7217438      50218.233      36.893836      36.893836      36.893836    
    397000   0.6164754     -7.5558243     -6.6311243      5.7329062      50218.233      36.893836      36.893836      36.893836    
    398000   0.61808215    -7.5556836     -6.6285736      5.7432094      50218.233      36.893836      36.893836      36.893836    
    399000   0.62548956    -7.5563852     -6.6181642      5.7252874      50218.233      36.893836      36.893836      36.893836    
    400000   0.61947563    -7.5544887     -6.6252885      5.7392281      50218.233      36.893836      36.893836      36.893836    
    401000   0.61954929    -7.5564662     -6.6271555      5.7211228      50218.233      36.893836      36.893836      36.893836    
    402000   0.62036662    -7.5537609     -6.6232242      5.7451798      50218.233      36.893836      36.893836      36.893836    
    403000   0.62017252    -7.5559869     -6.6257413      5.7246755      50218.233      36.893836      36.893836      36.893836    
    404000   0.61994432    -7.551345      -6.6214418      5.7462385      50218.233      36.893836      36.893836      36.893836    
    405000   0.61995141    -7.5539568     -6.624043       5.7297768      50218.233      36.893836      36.893836      36.893836    
    406000   0.62233385    -7.5546577     -6.6211702      5.7526749      50218.233      36.893836      36.893836      36.893836    
    407000   0.62051633    -7.5556526     -6.6248913      5.722879       50218.233      36.893836      36.893836      36.893836    
    408000   0.62195714    -7.5591903     -6.6262678      5.709315       50218.233      36.893836      36.893836      36.893836    
    409000   0.62081471    -7.5579927     -6.6267839      5.7137862      50218.233      36.893836      36.893836      36.893836    
    410000   0.61730517    -7.5516057     -6.6256611      5.7579363      50218.233      36.893836      36.893836      36.893836    
    411000   0.61964985    -7.5537983     -6.6243367      5.7356285      50218.233      36.893836      36.893836      36.893836    
    412000   0.61724927    -7.5564592     -6.6305985      5.725698       50218.233      36.893836      36.893836      36.893836    
    413000   0.619729      -7.5525423     -6.622962       5.7509308      50218.233      36.893836      36.893836      36.893836    
    414000   0.62297553    -7.5520956     -6.6176456      5.7483975      50218.233      36.893836      36.893836      36.893836    
    415000   0.61893545    -7.5520473     -6.6236573      5.7488056      50218.233      36.893836      36.893836      36.893836    
    416000   0.62027206    -7.5583953     -6.6280005      5.7178942      50218.233      36.893836      36.893836      36.893836    
    417000   0.62006186    -7.5528755     -6.6227959      5.7428694      50218.233      36.893836      36.893836      36.893836    
    418000   0.61789635    -7.5551143     -6.628283       5.7210287      50218.233      36.893836      36.893836      36.893836    
    419000   0.62348174    -7.5523965     -6.6171872      5.7569281      50218.233      36.893836      36.893836      36.893836    
    420000   0.62150187    -7.5551602     -6.6229207      5.7454453      50218.233      36.893836      36.893836      36.893836    
    421000   0.61618384    -7.5526191     -6.6283565      5.7633331      50218.233      36.893836      36.893836      36.893836    
    422000   0.6210014     -7.5507865     -6.6192976      5.7624396      50218.233      36.893836      36.893836      36.893836    
    423000   0.62049193    -7.5529015     -6.6221768      5.7509288      50218.233      36.893836      36.893836      36.893836    
    424000   0.62604321    -7.5521518     -6.6131004      5.7706635      50218.233      36.893836      36.893836      36.893836    
    425000   0.62045437    -7.5530813     -6.622413       5.7656893      50218.233      36.893836      36.893836      36.893836    
    426000   0.619586      -7.5535075     -6.6241417      5.7478077      50218.233      36.893836      36.893836      36.893836    
    427000   0.62137572    -7.5503585     -6.6183081      5.7834803      50218.233      36.893836      36.893836      36.893836    
    428000   0.62067293    -7.5522202     -6.621224       5.7575943      50218.233      36.893836      36.893836      36.893836    
    429000   0.61949352    -7.5543267     -6.6250996      5.7533313      50218.233      36.893836      36.893836      36.893836    
    430000   0.62250188    -7.5462667     -6.6125271      5.8050716      50218.233      36.893836      36.893836      36.893836    
    431000   0.62238359    -7.5456072     -6.6120451      5.8187967      50218.233      36.893836      36.893836      36.893836    
    432000   0.62141889    -7.5501618     -6.6180468      5.7860074      50218.233      36.893836      36.893836      36.893836    
    433000   0.61681503    -7.5447915     -6.6195821      5.8132888      50218.233      36.893836      36.893836      36.893836    
    434000   0.61974508    -7.5472646     -6.6176602      5.8006241      50218.233      36.893836      36.893836      36.893836    
    435000   0.62171664    -7.5490319     -6.6164702      5.7806088      50218.233      36.893836      36.893836      36.893836    
    436000   0.6185553     -7.5547607     -6.6269409      5.7421346      50218.233      36.893836      36.893836      36.893836    
    437000   0.62054165    -7.5507562     -6.619957       5.7621667      50218.233      36.893836      36.893836      36.893836    
    438000   0.61878502    -7.5559336     -6.6277693      5.7299162      50218.233      36.893836      36.893836      36.893836    
    439000   0.62110667    -7.5509753     -6.6193285      5.7686427      50218.233      36.893836      36.893836      36.893836    
    440000   0.61989303    -7.5511074     -6.6212811      5.7668472      50218.233      36.893836      36.893836      36.893836    
    441000   0.62115091    -7.549135      -6.6174219      5.7790097      50218.233      36.893836      36.893836      36.893836    
    442000   0.62365103    -7.5516766     -6.6162133      5.7654278      50218.233      36.893836      36.893836      36.893836    
    443000   0.62311017    -7.5488967     -6.6142447      5.7690053      50218.233      36.893836      36.893836      36.893836    
    444000   0.62081238    -7.546823      -6.6156177      5.7999419      50218.233      36.893836      36.893836      36.893836    
    445000   0.6226295     -7.5464043     -6.6124733      5.8073102      50218.233      36.893836      36.893836      36.893836    
    446000   0.62023507    -7.5492642     -6.6189248      5.7741005      50218.233      36.893836      36.893836      36.893836    
    447000   0.61931904    -7.5528979     -6.6239325      5.7525096      50218.233      36.893836      36.893836      36.893836    
    448000   0.62093059    -7.5511964     -6.6198138      5.7530595      50218.233      36.893836      36.893836      36.893836    
    449000   0.62103999    -7.5494783     -6.6179316      5.7726974      50218.233      36.893836      36.893836      36.893836    
    450000   0.61890498    -7.5511934     -6.6228491      5.757989       50218.233      36.893836      36.893836      36.893836    
    451000   0.62037137    -7.5526076     -6.6220638      5.7518501      50218.233      36.893836      36.893836      36.893836    
    452000   0.61870849    -7.5496855     -6.621636       5.7661827      50218.233      36.893836      36.893836      36.893836    
    453000   0.62037617    -7.5476684     -6.6171174      5.7798397      50218.233      36.893836      36.893836      36.893836    
    454000   0.62028638    -7.5477347     -6.6173184      5.7871714      50218.233      36.893836      36.893836      36.893836    
    455000   0.61754742    -7.5514329     -6.6251249      5.7606776      50218.233      36.893836      36.893836      36.893836    
    456000   0.61916839    -7.5534899     -6.6247505      5.738759       50218.233      36.893836      36.893836      36.893836    
    457000   0.62144331    -7.5542954     -6.6221437      5.7536299      50218.233      36.893836      36.893836      36.893836    
    458000   0.61759502    -7.5539012     -6.6275218      5.7408338      50218.233      36.893836      36.893836      36.893836    
    459000   0.61689199    -7.5520402     -6.6267154      5.752312       50218.233      36.893836      36.893836      36.893836    
    460000   0.61774217    -7.5495825     -6.6229825      5.7706337      50218.233      36.893836      36.893836      36.893836    
    461000   0.61874584    -7.5519198     -6.6238143      5.7491259      50218.233      36.893836      36.893836      36.893836    
    462000   0.6217868     -7.550928      -6.618261       5.7692571      50218.233      36.893836      36.893836      36.893836    
    463000   0.61767621    -7.5467402     -6.6202391      5.7954161      50218.233      36.893836      36.893836      36.893836    
    464000   0.62192902    -7.5497186     -6.6168383      5.778595       50218.233      36.893836      36.893836      36.893836    
    465000   0.62035737    -7.5512708     -6.620748       5.7757372      50218.233      36.893836      36.893836      36.893836    
    466000   0.61842352    -7.5529647     -6.6253426      5.7630478      50218.233      36.893836      36.893836      36.893836    
    467000   0.61911373    -7.5498399     -6.6211825      5.7805896      50218.233      36.893836      36.893836      36.893836    
    468000   0.61856906    -7.5530247     -6.6251844      5.7483347      50218.233      36.893836      36.893836      36.893836    
    469000   0.61685845    -7.5435852     -6.6183107      5.8130665      50218.233      36.893836      36.893836      36.893836    
    470000   0.61965599    -7.549082      -6.6196112      5.7869486      50218.233      36.893836      36.893836      36.893836    
    471000   0.61973185    -7.5546134     -6.6250289      5.7473984      50218.233      36.893836      36.893836      36.893836    
    472000   0.61955586    -7.5562476     -6.626927       5.7163718      50218.233      36.893836      36.893836      36.893836    
    473000   0.61779677    -7.5577765     -6.6310946      5.7118697      50218.233      36.893836      36.893836      36.893836    
    474000   0.61904447    -7.5537751     -6.6252216      5.7512536      50218.233      36.893836      36.893836      36.893836    
    475000   0.62009182    -7.5496383     -6.6195138      5.7873797      50218.233      36.893836      36.893836      36.893836    
    476000   0.62011671    -7.5516014     -6.6214396      5.7726146      50218.233      36.893836      36.893836      36.893836    
    477000   0.61664335    -7.5516153     -6.6266635      5.7586637      50218.233      36.893836      36.893836      36.893836    
    478000   0.61957117    -7.5471301     -6.6177865      5.7874789      50218.233      36.893836      36.893836      36.893836    
    479000   0.61887528    -7.5487967     -6.620497       5.7665711      50218.233      36.893836      36.893836      36.893836    
    480000   0.61828       -7.5518513     -6.6244445      5.7611452      50218.233      36.893836      36.893836      36.893836    
    481000   0.61694791    -7.5534955     -6.6280868      5.7436268      50218.233      36.893836      36.893836      36.893836    
    482000   0.62192644    -7.5511107     -6.6182343      5.7621973      50218.233      36.893836      36.893836      36.893836    
    483000   0.61809867    -7.5588055     -6.6316707      5.7094387      50218.233      36.893836      36.893836      36.893836    
    484000   0.62039839    -7.5524073     -6.621823       5.76105        50218.233      36.893836      36.893836      36.893836    
    485000   0.61598626    -7.5517379     -6.6277717      5.7530158      50218.233      36.893836      36.893836      36.893836    
    486000   0.61913709    -7.5491777     -6.6204853      5.7855924      50218.233      36.893836      36.893836      36.893836    
    487000   0.62117181    -7.5577002     -6.6259558      5.7272505      50218.233      36.893836      36.893836      36.893836    
    488000   0.61723352    -7.5496679     -6.6238308      5.7675646      50218.233      36.893836      36.893836      36.893836    
    489000   0.62013806    -7.5541122     -6.6239183      5.7477234      50218.233      36.893836      36.893836      36.893836    
    490000   0.62064678    -7.556931      -6.6259741      5.7123577      50218.233      36.893836      36.893836      36.893836    
    491000   0.61919288    -7.5513611     -6.622585       5.7652772      50218.233      36.893836      36.893836      36.893836    
    492000   0.61899792    -7.5506887     -6.6222051      5.7536175      50218.233      36.893836      36.893836      36.893836    
    493000   0.6194498     -7.5501074     -6.6209459      5.7665782      50218.233      36.893836      36.893836      36.893836    
    494000   0.62383715    -7.5566232     -6.6208808      5.7236221      50218.233      36.893836      36.893836      36.893836    
    495000   0.62180044    -7.5507541     -6.6180667      5.7805843      50218.233      36.893836      36.893836      36.893836    
    496000   0.61932974    -7.5489693     -6.6199879      5.7780052      50218.233      36.893836      36.893836      36.893836    
    497000   0.61856485    -7.5494104     -6.6215764      5.7750091      50218.233      36.893836      36.893836      36.893836    
    498000   0.62176563    -7.5555818     -6.6229466      5.7299938      50218.233      36.893836      36.893836      36.893836    
    499000   0.61899228    -7.553241      -6.6247658      5.7510741      50218.233      36.893836      36.893836      36.893836    
    500000   0.61923179    -7.5598458     -6.6310113      5.6955031      50218.233      36.893836      36.893836      36.893836    
    501000   0.61940223    -7.5454772     -6.6163871      5.8015932      50218.233      36.893836      36.893836      36.893836    
    502000   0.62249175    -7.5543919     -6.6206675      5.7423229      50218.233      36.893836      36.893836      36.893836    
    503000   0.62123642    -7.5580936     -6.6262522      5.7236743      50218.233      36.893836      36.893836      36.893836    
    504000   0.622874      -7.5504597     -6.616162       5.7836342      50218.233      36.893836      36.893836      36.893836    
    505000   0.6182446     -7.5532511     -6.6258974      5.7488054      50218.233      36.893836      36.893836      36.893836    
    506000   0.61813984    -7.5582039     -6.6310073      5.7194478      50218.233      36.893836      36.893836      36.893836    
    507000   0.61874121    -7.5542383     -6.6261397      5.7337273      50218.233      36.893836      36.893836      36.893836    
    508000   0.62233331    -7.5479872     -6.6145005      5.7954752      50218.233      36.893836      36.893836      36.893836    
    509000   0.6201292     -7.5468713     -6.6166908      5.8109572      50218.233      36.893836      36.893836      36.893836    
    510000   0.61896563    -7.5534902     -6.625055       5.7578388      50218.233      36.893836      36.893836      36.893836    
    511000   0.61924879    -7.5508107     -6.6219508      5.7660764      50218.233      36.893836      36.893836      36.893836    
    512000   0.61818149    -7.5521138     -6.6248548      5.7605966      50218.233      36.893836      36.893836      36.893836    
    513000   0.62124092    -7.5550976     -6.6232495      5.7369366      50218.233      36.893836      36.893836      36.893836    
    514000   0.61802834    -7.5519185     -6.6248892      5.7544095      50218.233      36.893836      36.893836      36.893836    
    515000   0.61974691    -7.5539036     -6.6242964      5.7391365      50218.233      36.893836      36.893836      36.893836    
    516000   0.61910375    -7.547992      -6.6193495      5.7867164      50218.233      36.893836      36.893836      36.893836    
    517000   0.62510535    -7.5497317     -6.612087       5.7764836      50218.233      36.893836      36.893836      36.893836    
    518000   0.61988319    -7.5531055     -6.6232939      5.7484084      50218.233      36.893836      36.893836      36.893836    
    519000   0.62024911    -7.5539636     -6.6236032      5.7454678      50218.233      36.893836      36.893836      36.893836    
    520000   0.61995113    -7.5521938     -6.6222804      5.7597598      50218.233      36.893836      36.893836      36.893836    
    521000   0.61875348    -7.5610107     -6.6328937      5.6784052      50218.233      36.893836      36.893836      36.893836    
    522000   0.61936104    -7.5470678     -6.6180395      5.7965301      50218.233      36.893836      36.893836      36.893836    
    523000   0.62207808    -7.5579043     -6.6248005      5.7128699      50218.233      36.893836      36.893836      36.893836    
    524000   0.61789919    -7.5536987     -6.6268631      5.7345573      50218.233      36.893836      36.893836      36.893836    
    525000   0.61781137    -7.5549121     -6.6282082      5.7216136      50218.233      36.893836      36.893836      36.893836    
    526000   0.61579604    -7.5540406     -6.6303597      5.7219786      50218.233      36.893836      36.893836      36.893836    
    527000   0.61813699    -7.5527423     -6.62555        5.7577343      50218.233      36.893836      36.893836      36.893836    
    528000   0.61984869    -7.5524735     -6.6227136      5.756756       50218.233      36.893836      36.893836      36.893836    
    529000   0.62053589    -7.5512242     -6.6204336      5.760427       50218.233      36.893836      36.893836      36.893836    
    530000   0.61816003    -7.5532573     -6.6260304      5.7435585      50218.233      36.893836      36.893836      36.893836    
    531000   0.6169225     -7.5467014     -6.6213308      5.7782878      50218.233      36.893836      36.893836      36.893836    
    532000   0.61793574    -7.5504139     -6.6235235      5.7776734      50218.233      36.893836      36.893836      36.893836    
    533000   0.62100021    -7.5527755     -6.6212884      5.7508576      50218.233      36.893836      36.893836      36.893836    
    534000   0.62281014    -7.5511011     -6.6168992      5.7675967      50218.233      36.893836      36.893836      36.893836    
    535000   0.6188423     -7.5520315     -6.6237812      5.752473       50218.233      36.893836      36.893836      36.893836    
    536000   0.6189283     -7.5490448     -6.6206656      5.7815748      50218.233      36.893836      36.893836      36.893836    
    537000   0.62032999    -7.5459009     -6.6154192      5.8089551      50218.233      36.893836      36.893836      36.893836    
    538000   0.62070716    -7.5504343     -6.6193868      5.7698249      50218.233      36.893836      36.893836      36.893836    
    539000   0.61862449    -7.5494838     -6.6215603      5.7522178      50218.233      36.893836      36.893836      36.893836    
    540000   0.62014077    -7.5539506     -6.6237527      5.7373989      50218.233      36.893836      36.893836      36.893836    
    541000   0.61759677    -7.5514149     -6.6250329      5.7394355      50218.233      36.893836      36.893836      36.893836    
    542000   0.617541      -7.5516854     -6.6253871      5.7675509      50218.233      36.893836      36.893836      36.893836    
    543000   0.62014373    -7.5506672     -6.6204648      5.7648116      50218.233      36.893836      36.893836      36.893836    
    544000   0.62234491    -7.5532601     -6.619756       5.7480169      50218.233      36.893836      36.893836      36.893836    
    545000   0.62163736    -7.5565862     -6.6241434      5.7397276      50218.233      36.893836      36.893836      36.893836    
    546000   0.62199592    -7.5533235     -6.6203429      5.7549924      50218.233      36.893836      36.893836      36.893836    
    547000   0.62166357    -7.5558251     -6.623343       5.7441393      50218.233      36.893836      36.893836      36.893836    
    548000   0.62386667    -7.5572964     -6.6215097      5.7220295      50218.233      36.893836      36.893836      36.893836    
    549000   0.61924177    -7.5561337     -6.6272842      5.7296448      50218.233      36.893836      36.893836      36.893836    
    550000   0.61960806    -7.554406      -6.6250071      5.7302832      50218.233      36.893836      36.893836      36.893836    
    551000   0.62272009    -7.5556743     -6.6216074      5.7336132      50218.233      36.893836      36.893836      36.893836    
    552000   0.62404282    -7.5498667     -6.6138158      5.7927234      50218.233      36.893836      36.893836      36.893836    
    553000   0.62195638    -7.5521581     -6.6192368      5.751048       50218.233      36.893836      36.893836      36.893836    
    554000   0.61989438    -7.5567663     -6.6269379      5.7197319      50218.233      36.893836      36.893836      36.893836    
    555000   0.618327      -7.5522973     -6.62482        5.7630579      50218.233      36.893836      36.893836      36.893836    
    556000   0.62295593    -7.5600497     -6.6256291      5.6995453      50218.233      36.893836      36.893836      36.893836    
    557000   0.62205147    -7.5548555     -6.6217915      5.7329801      50218.233      36.893836      36.893836      36.893836    
    558000   0.62538018    -7.5538011     -6.6157442      5.7585393      50218.233      36.893836      36.893836      36.893836    
    559000   0.62187374    -7.5509541     -6.6181567      5.7621913      50218.233      36.893836      36.893836      36.893836    
    560000   0.61621736    -7.5504753     -6.6261624      5.7713705      50218.233      36.893836      36.893836      36.893836    
    561000   0.61908965    -7.5539887     -6.6253675      5.7476971      50218.233      36.893836      36.893836      36.893836    
    562000   0.61895688    -7.5542019     -6.6257798      5.7513341      50218.233      36.893836      36.893836      36.893836    
    563000   0.61604188    -7.5522083     -6.6281586      5.746336       50218.233      36.893836      36.893836      36.893836    
    564000   0.62140432    -7.5520459     -6.6199527      5.7512306      50218.233      36.893836      36.893836      36.893836    
    565000   0.61874911    -7.5530565     -6.6249461      5.7593832      50218.233      36.893836      36.893836      36.893836    
    566000   0.61945383    -7.5540618     -6.6248943      5.7446375      50218.233      36.893836      36.893836      36.893836    
    567000   0.61903926    -7.5559678     -6.6274221      5.734132       50218.233      36.893836      36.893836      36.893836    
    568000   0.6166757     -7.5522336     -6.6272332      5.7455773      50218.233      36.893836      36.893836      36.893836    
    569000   0.62112911    -7.5515881     -6.6199077      5.7511843      50218.233      36.893836      36.893836      36.893836    
    570000   0.6198597     -7.55332       -6.6235437      5.7490798      50218.233      36.893836      36.893836      36.893836    
    571000   0.61836681    -7.5557808     -6.6282438      5.7239577      50218.233      36.893836      36.893836      36.893836    
    572000   0.62226693    -7.5525963     -6.6192092      5.7440667      50218.233      36.893836      36.893836      36.893836    
    573000   0.61836816    -7.5550267     -6.6274877      5.7099717      50218.233      36.893836      36.893836      36.893836    
    574000   0.61997952    -7.552182      -6.622226       5.7447357      50218.233      36.893836      36.893836      36.893836    
    575000   0.62058822    -7.5546336     -6.6237645      5.7398619      50218.233      36.893836      36.893836      36.893836    
    576000   0.61970512    -7.5548495     -6.6253051      5.739841       50218.233      36.893836      36.893836      36.893836    
    577000   0.61895972    -7.5535029     -6.6250766      5.7577313      50218.233      36.893836      36.893836      36.893836    
    578000   0.61927269    -7.5522644     -6.6233685      5.7542061      50218.233      36.893836      36.893836      36.893836    
    579000   0.6221669     -7.5498933     -6.6166562      5.7655425      50218.233      36.893836      36.893836      36.893836    
    580000   0.61833183    -7.5567287     -6.6292441      5.7128988      50218.233      36.893836      36.893836      36.893836    
    581000   0.62087643    -7.5603665     -6.6290651      5.6933152      50218.233      36.893836      36.893836      36.893836    
    582000   0.62285025    -7.5600572     -6.6257951      5.7067467      50218.233      36.893836      36.893836      36.893836    
    583000   0.61995419    -7.557894      -6.6279759      5.7165984      50218.233      36.893836      36.893836      36.893836    
    584000   0.61947117    -7.5536559     -6.6244623      5.7471567      50218.233      36.893836      36.893836      36.893836    
    585000   0.61938974    -7.5496102     -6.6205388      5.7705904      50218.233      36.893836      36.893836      36.893836    
    586000   0.61980498    -7.553275      -6.6235808      5.7378494      50218.233      36.893836      36.893836      36.893836    
    587000   0.62112608    -7.5550835     -6.6234077      5.7390988      50218.233      36.893836      36.893836      36.893836    
    588000   0.61813568    -7.554224      -6.6270337      5.7332361      50218.233      36.893836      36.893836      36.893836    
    589000   0.62109399    -7.552636      -6.6210083      5.7375163      50218.233      36.893836      36.893836      36.893836    
    590000   0.62073107    -7.5569501     -6.6258667      5.7214821      50218.233      36.893836      36.893836      36.893836    
    591000   0.62490953    -7.5523045     -6.6149535      5.7672851      50218.233      36.893836      36.893836      36.893836    
    592000   0.61867535    -7.5531315     -6.6251317      5.7464221      50218.233      36.893836      36.893836      36.893836    
    593000   0.61710845    -7.5453986     -6.619749       5.8034662      50218.233      36.893836      36.893836      36.893836    
    594000   0.62282319    -7.5499966     -6.6157751      5.7737853      50218.233      36.893836      36.893836      36.893836    
    595000   0.62144995    -7.5535098     -6.6213482      5.7533611      50218.233      36.893836      36.893836      36.893836    
    596000   0.61533105    -7.5489736     -6.6259902      5.7745812      50218.233      36.893836      36.893836      36.893836    
    597000   0.62086088    -7.5557613     -6.6244833      5.7329889      50218.233      36.893836      36.893836      36.893836    
    598000   0.61979674    -7.5493246     -6.6196428      5.7733439      50218.233      36.893836      36.893836      36.893836    
    599000   0.62416004    -7.5525955     -6.6163687      5.7533596      50218.233      36.893836      36.893836      36.893836    
    600000   0.62205535    -7.5566154     -6.6235456      5.7148209      50218.233      36.893836      36.893836      36.893836    
    601000   0.62198693    -7.5535185     -6.6205514      5.7417949      50218.233      36.893836      36.893836      36.893836    
    602000   0.61656831    -7.5553181     -6.6304788      5.7304419      50218.233      36.893836      36.893836      36.893836    
    603000   0.61866606    -7.5515066     -6.6235207      5.7580131      50218.233      36.893836      36.893836      36.893836    
    604000   0.61839754    -7.5507907     -6.6232076      5.7606493      50218.233      36.893836      36.893836      36.893836    
    605000   0.61983731    -7.5580591     -6.6283163      5.7162376      50218.233      36.893836      36.893836      36.893836    
    606000   0.6222674     -7.5514296     -6.6180418      5.7682925      50218.233      36.893836      36.893836      36.893836    
    607000   0.62184893    -7.5552165     -6.6224564      5.7415969      50218.233      36.893836      36.893836      36.893836    
    608000   0.61917239    -7.5504241     -6.6216787      5.7757034      50218.233      36.893836      36.893836      36.893836    
    609000   0.62134738    -7.5519386     -6.6199308      5.7664618      50218.233      36.893836      36.893836      36.893836    
    610000   0.61911483    -7.5519564     -6.6232974      5.7475776      50218.233      36.893836      36.893836      36.893836    
    611000   0.62005616    -7.5573002     -6.6272292      5.7238385      50218.233      36.893836      36.893836      36.893836    
    612000   0.61959478    -7.5507388     -6.6213599      5.7723737      50218.233      36.893836      36.893836      36.893836    
    613000   0.62237636    -7.556463      -6.6229118      5.7318353      50218.233      36.893836      36.893836      36.893836    
    614000   0.62141366    -7.551985      -6.6198777      5.757154       50218.233      36.893836      36.893836      36.893836    
    615000   0.61981288    -7.5541048     -6.6243987      5.7427786      50218.233      36.893836      36.893836      36.893836    
    616000   0.62118764    -7.5561772     -6.624409       5.7355568      50218.233      36.893836      36.893836      36.893836    
    617000   0.61981002    -7.5532866     -6.6235848      5.7385358      50218.233      36.893836      36.893836      36.893836    
    618000   0.62452754    -7.5590859     -6.6223079      5.7175165      50218.233      36.893836      36.893836      36.893836    
    619000   0.6226647     -7.5561287     -6.622145       5.7340024      50218.233      36.893836      36.893836      36.893836    
    620000   0.61783026    -7.5523803     -6.6256481      5.7414316      50218.233      36.893836      36.893836      36.893836    
    621000   0.62271896    -7.5522579     -6.6181927      5.7566311      50218.233      36.893836      36.893836      36.893836    
    622000   0.62023887    -7.5545253     -6.6241802      5.7384813      50218.233      36.893836      36.893836      36.893836    
    623000   0.61749838    -7.5556483     -6.6294139      5.7298018      50218.233      36.893836      36.893836      36.893836    
    624000   0.62294512    -7.5577185     -6.6233141      5.7214865      50218.233      36.893836      36.893836      36.893836    
    625000   0.6216719     -7.5584021     -6.6259075      5.708163       50218.233      36.893836      36.893836      36.893836    
    626000   0.62001198    -7.5547963     -6.6247916      5.7445248      50218.233      36.893836      36.893836      36.893836    
    627000   0.62054851    -7.5539677     -6.6231582      5.7442633      50218.233      36.893836      36.893836      36.893836    
    628000   0.62213186    -7.553624      -6.6204395      5.7544327      50218.233      36.893836      36.893836      36.893836    
    629000   0.62298397    -7.5596046     -6.6251419      5.7098211      50218.233      36.893836      36.893836      36.893836    
    630000   0.62004767    -7.5546867     -6.6246284      5.7434795      50218.233      36.893836      36.893836      36.893836    
    631000   0.61993884    -7.5500498     -6.6201548      5.7769595      50218.233      36.893836      36.893836      36.893836    
    632000   0.61923438    -7.5549135     -6.6260751      5.7393097      50218.233      36.893836      36.893836      36.893836    
    633000   0.61916548    -7.5486036     -6.6198686      5.7891362      50218.233      36.893836      36.893836      36.893836    
    634000   0.62052008    -7.5515373     -6.6207705      5.7641359      50218.233      36.893836      36.893836      36.893836    
    635000   0.61933411    -7.5525631     -6.6235751      5.7581647      50218.233      36.893836      36.893836      36.893836    
    636000   0.61773726    -7.5485595     -6.6219667      5.7919431      50218.233      36.893836      36.893836      36.893836    
    637000   0.61825745    -7.5455964     -6.6182235      5.8020432      50218.233      36.893836      36.893836      36.893836    
    638000   0.62025138    -7.5558717     -6.6255079      5.7368126      50218.233      36.893836      36.893836      36.893836    
    639000   0.61965892    -7.5510573     -6.6215821      5.7673933      50218.233      36.893836      36.893836      36.893836    
    640000   0.62560341    -7.5550151     -6.6166233      5.7449442      50218.233      36.893836      36.893836      36.893836    
    641000   0.62240534    -7.55134       -6.6177453      5.7691536      50218.233      36.893836      36.893836      36.893836    
    642000   0.62158783    -7.5488933     -6.6165248      5.785791       50218.233      36.893836      36.893836      36.893836    
    643000   0.62118424    -7.5567084     -6.6249453      5.7308211      50218.233      36.893836      36.893836      36.893836    
    644000   0.62133912    -7.5566002     -6.6246047      5.7154103      50218.233      36.893836      36.893836      36.893836    
    645000   0.62078849    -7.5596683     -6.6284988      5.6988358      50218.233      36.893836      36.893836      36.893836    
    646000   0.61866462    -7.5480803     -6.6200966      5.771868       50218.233      36.893836      36.893836      36.893836    
    647000   0.61944431    -7.5518227     -6.6226695      5.7735023      50218.233      36.893836      36.893836      36.893836    
    648000   0.62176502    -7.549276      -6.6166417      5.7740628      50218.233      36.893836      36.893836      36.893836    
    649000   0.62125901    -7.5534215     -6.6215463      5.7424492      50218.233      36.893836      36.893836      36.893836    
    650000   0.62165546    -7.5555521     -6.6230822      5.7340461      50218.233      36.893836      36.893836      36.893836    
    651000   0.61956825    -7.5591508     -6.6298116      5.6963303      50218.233      36.893836      36.893836      36.893836    
    652000   0.619423      -7.55145       -6.6223287      5.751635       50218.233      36.893836      36.893836      36.893836    
    653000   0.61670517    -7.5553183     -6.6302737      5.7149714      50218.233      36.893836      36.893836      36.893836    
    654000   0.62056628    -7.5488176     -6.6179814      5.7772839      50218.233      36.893836      36.893836      36.893836    
    655000   0.62123543    -7.5547839     -6.622944       5.7401436      50218.233      36.893836      36.893836      36.893836    
    656000   0.61841827    -7.5600514     -6.6324372      5.6997246      50218.233      36.893836      36.893836      36.893836    
    657000   0.61679156    -7.5534323     -6.6282581      5.7499436      50218.233      36.893836      36.893836      36.893836    
    658000   0.62190634    -7.5506476     -6.6178014      5.7791997      50218.233      36.893836      36.893836      36.893836    
    659000   0.6230938     -7.5523584     -6.617731       5.7652247      50218.233      36.893836      36.893836      36.893836    
    660000   0.6191035     -7.552178      -6.623536       5.7618569      50218.233      36.893836      36.893836      36.893836    
    661000   0.62353151    -7.5534632     -6.6181792      5.7450671      50218.233      36.893836      36.893836      36.893836    
    662000   0.6209089     -7.5539907     -6.6226406      5.7444953      50218.233      36.893836      36.893836      36.893836    
    663000   0.61932483    -7.5568944     -6.6279204      5.703931       50218.233      36.893836      36.893836      36.893836    
    664000   0.61865974    -7.5551217     -6.6271453      5.7412053      50218.233      36.893836      36.893836      36.893836    
    665000   0.62104083    -7.55591       -6.624362       5.7318731      50218.233      36.893836      36.893836      36.893836    
    666000   0.61949376    -7.549486      -6.6202585      5.782689       50218.233      36.893836      36.893836      36.893836    
    667000   0.62169838    -7.5523125     -6.6197782      5.7683702      50218.233      36.893836      36.893836      36.893836    
    668000   0.62137129    -7.5530798     -6.6210361      5.7523991      50218.233      36.893836      36.893836      36.893836    
    669000   0.62252119    -7.5497305     -6.615962       5.7840578      50218.233      36.893836      36.893836      36.893836    
    670000   0.62528328    -7.5516505     -6.613739       5.7632685      50218.233      36.893836      36.893836      36.893836    
    671000   0.62013307    -7.5527503     -6.622564       5.7383848      50218.233      36.893836      36.893836      36.893836    
    672000   0.62240255    -7.5577273     -6.6241368      5.721364       50218.233      36.893836      36.893836      36.893836    
    673000   0.62120822    -7.5559186     -6.6241195      5.7410947      50218.233      36.893836      36.893836      36.893836    
    674000   0.61855639    -7.5565397     -6.6287183      5.7155833      50218.233      36.893836      36.893836      36.893836    
    675000   0.61768868    -7.5568084     -6.6302886      5.7231755      50218.233      36.893836      36.893836      36.893836    
    676000   0.61994498    -7.5583933     -6.6284891      5.7069774      50218.233      36.893836      36.893836      36.893836    
    677000   0.62121184    -7.5497156     -6.6179111      5.7718535      50218.233      36.893836      36.893836      36.893836    
    678000   0.62023365    -7.5541783     -6.6238411      5.7345361      50218.233      36.893836      36.893836      36.893836    
    679000   0.62321586    -7.5537492     -6.6189387      5.7484679      50218.233      36.893836      36.893836      36.893836    
    680000   0.61910929    -7.5551008     -6.6264501      5.7274595      50218.233      36.893836      36.893836      36.893836    
    681000   0.62146295    -7.5564574     -6.6242762      5.7268743      50218.233      36.893836      36.893836      36.893836    
    682000   0.61982631    -7.55265       -6.6229238      5.7592074      50218.233      36.893836      36.893836      36.893836    
    683000   0.61507194    -7.5527697     -6.6301749      5.7453771      50218.233      36.893836      36.893836      36.893836    
    684000   0.62273704    -7.5541187     -6.6200264      5.7527979      50218.233      36.893836      36.893836      36.893836    
    685000   0.62272737    -7.5530136     -6.6189359      5.7433422      50218.233      36.893836      36.893836      36.893836    
    686000   0.6189929     -7.5545436     -6.6260675      5.7434767      50218.233      36.893836      36.893836      36.893836    
    687000   0.6170369     -7.552077      -6.6265348      5.7497831      50218.233      36.893836      36.893836      36.893836    
    688000   0.61981532    -7.5484544     -6.6187447      5.7872421      50218.233      36.893836      36.893836      36.893836    
    689000   0.61857936    -7.5500798     -6.6222239      5.7677621      50218.233      36.893836      36.893836      36.893836    
    690000   0.6169506     -7.5519625     -6.6265498      5.7538625      50218.233      36.893836      36.893836      36.893836    
    691000   0.61910403    -7.5441444     -6.6155016      5.808962       50218.233      36.893836      36.893836      36.893836    
    692000   0.6192708     -7.5537121     -6.6248192      5.7425443      50218.233      36.893836      36.893836      36.893836    
    693000   0.61950137    -7.5518048     -6.622566       5.7647317      50218.233      36.893836      36.893836      36.893836    
    694000   0.62061137    -7.5494665     -6.6185627      5.7780625      50218.233      36.893836      36.893836      36.893836    
    695000   0.62159171    -7.5447893     -6.612415       5.8179901      50218.233      36.893836      36.893836      36.893836    
    696000   0.62269778    -7.5460447     -6.6120113      5.81235        50218.233      36.893836      36.893836      36.893836    
    697000   0.62106141    -7.5502968     -6.6187179      5.778797       50218.233      36.893836      36.893836      36.893836    
    698000   0.61938358    -7.5500013     -6.6209391      5.783716       50218.233      36.893836      36.893836      36.893836    
    699000   0.62366187    -7.5511166     -6.6156371      5.7881386      50218.233      36.893836      36.893836      36.893836    
    700000   0.62036455    -7.5462311     -6.6156976      5.8067173      50218.233      36.893836      36.893836      36.893836    
    701000   0.61919027    -7.5511138     -6.6223416      5.7663653      50218.233      36.893836      36.893836      36.893836    
    702000   0.61880696    -7.546405      -6.6182077      5.7988645      50218.233      36.893836      36.893836      36.893836    
    703000   0.62225749    -7.5507166     -6.6173436      5.7681062      50218.233      36.893836      36.893836      36.893836    
    704000   0.61815114    -7.5484232     -6.6212097      5.7848564      50218.233      36.893836      36.893836      36.893836    
    705000   0.6217969     -7.5534706     -6.6207885      5.7575674      50218.233      36.893836      36.893836      36.893836    
    706000   0.62346391    -7.5481062     -6.6129236      5.7987918      50218.233      36.893836      36.893836      36.893836    
    707000   0.62186605    -7.5484938     -6.615708       5.7863609      50218.233      36.893836      36.893836      36.893836    
    708000   0.62108115    -7.5441238     -6.6125153      5.8206625      50218.233      36.893836      36.893836      36.893836    
    709000   0.6240593     -7.5428558     -6.6067802      5.8301576      50218.233      36.893836      36.893836      36.893836    
    710000   0.61870386    -7.5485626     -6.62052        5.7750856      50218.233      36.893836      36.893836      36.893836    
    711000   0.61977495    -7.545177      -6.6155278      5.795368       50218.233      36.893836      36.893836      36.893836    
    712000   0.61850152    -7.5520566     -6.6243175      5.7492635      50218.233      36.893836      36.893836      36.893836    
    713000   0.61910208    -7.5462783     -6.6176384      5.7874831      50218.233      36.893836      36.893836      36.893836    
    714000   0.61732433    -7.553327      -6.6273536      5.7377327      50218.233      36.893836      36.893836      36.893836    
    715000   0.61804892    -7.5516223     -6.6245621      5.7663872      50218.233      36.893836      36.893836      36.893836    
    716000   0.62047129    -7.5515043     -6.6208106      5.7587473      50218.233      36.893836      36.893836      36.893836    
    717000   0.6182662     -7.5525739     -6.6251878      5.7437945      50218.233      36.893836      36.893836      36.893836    
    718000   0.62081851    -7.5478675     -6.616653       5.7776236      50218.233      36.893836      36.893836      36.893836    
    719000   0.61835673    -7.5478088     -6.6202869      5.7875008      50218.233      36.893836      36.893836      36.893836    
    720000   0.61905549    -7.5494211     -6.6208511      5.767903       50218.233      36.893836      36.893836      36.893836    
    721000   0.61951538    -7.5457297     -6.6164699      5.8053441      50218.233      36.893836      36.893836      36.893836    
    722000   0.62219005    -7.5460974     -6.6128256      5.8072067      50218.233      36.893836      36.893836      36.893836    
    723000   0.61881502    -7.5571264     -6.6289171      5.7074882      50218.233      36.893836      36.893836      36.893836    
    724000   0.6212345     -7.5498318     -6.6179933      5.7675718      50218.233      36.893836      36.893836      36.893836    
    725000   0.62358149    -7.5499652     -6.6146062      5.7880125      50218.233      36.893836      36.893836      36.893836    
    726000   0.6178615     -7.5467568     -6.6199777      5.797387       50218.233      36.893836      36.893836      36.893836    
    727000   0.6179438     -7.552941      -6.6260385      5.7444315      50218.233      36.893836      36.893836      36.893836    
    728000   0.62018199    -7.5473718     -6.617112       5.7984477      50218.233      36.893836      36.893836      36.893836    
    729000   0.61787754    -7.5498556     -6.6230524      5.7751218      50218.233      36.893836      36.893836      36.893836    
    730000   0.6197922     -7.5466921     -6.6170171      5.7934468      50218.233      36.893836      36.893836      36.893836    
    731000   0.619624      -7.5558575     -6.6264348      5.7299105      50218.233      36.893836      36.893836      36.893836    
    732000   0.62129137    -7.5511891     -6.6192653      5.7661827      50218.233      36.893836      36.893836      36.893836    
    733000   0.61814179    -7.5474652     -6.6202657      5.7723736      50218.233      36.893836      36.893836      36.893836    
    734000   0.62207536    -7.5482509     -6.6151511      5.7962854      50218.233      36.893836      36.893836      36.893836    
    735000   0.62155625    -7.5511426     -6.6188215      5.7713182      50218.233      36.893836      36.893836      36.893836    
    736000   0.61891121    -7.5520747     -6.6237211      5.7665633      50218.233      36.893836      36.893836      36.893836    
    737000   0.61903871    -7.5504826     -6.6219378      5.771214       50218.233      36.893836      36.893836      36.893836    
    738000   0.61877111    -7.5537784     -6.6256349      5.7370775      50218.233      36.893836      36.893836      36.893836    
    739000   0.62262312    -7.5507294     -6.616808       5.7597413      50218.233      36.893836      36.893836      36.893836    
    740000   0.62315358    -7.5459518     -6.6112347      5.8107319      50218.233      36.893836      36.893836      36.893836    
    741000   0.61937822    -7.5489477     -6.6198935      5.7804838      50218.233      36.893836      36.893836      36.893836    
    742000   0.62136333    -7.5537914     -6.6217596      5.7389761      50218.233      36.893836      36.893836      36.893836    
    743000   0.61793257    -7.5515672     -6.6246815      5.7537128      50218.233      36.893836      36.893836      36.893836    
    744000   0.62511481    -7.5531344     -6.6154755      5.754747       50218.233      36.893836      36.893836      36.893836    
    745000   0.62121074    -7.5564287     -6.6246259      5.7232252      50218.233      36.893836      36.893836      36.893836    
    746000   0.62041139    -7.5521624     -6.6215585      5.758082       50218.233      36.893836      36.893836      36.893836    
    747000   0.62240799    -7.5524163     -6.6188176      5.761659       50218.233      36.893836      36.893836      36.893836    
    748000   0.6207436     -7.5496023     -6.6185002      5.7664516      50218.233      36.893836      36.893836      36.893836    
    749000   0.61764873    -7.5531741     -6.6267142      5.7507863      50218.233      36.893836      36.893836      36.893836    
    750000   0.62106162    -7.5494823     -6.6179031      5.7838873      50218.233      36.893836      36.893836      36.893836    
    751000   0.61670755    -7.5531917     -6.6281436      5.7391297      50218.233      36.893836      36.893836      36.893836    
    752000   0.62301572    -7.5552611     -6.6207508      5.7347767      50218.233      36.893836      36.893836      36.893836    
    753000   0.62023158    -7.5532368     -6.6229027      5.7574383      50218.233      36.893836      36.893836      36.893836    
    754000   0.61947499    -7.5586027     -6.6294034      5.7130455      50218.233      36.893836      36.893836      36.893836    
    755000   0.61979445    -7.5510519     -6.6213734      5.7744792      50218.233      36.893836      36.893836      36.893836    
    756000   0.61937406    -7.5558634     -6.6268156      5.7301069      50218.233      36.893836      36.893836      36.893836    
    757000   0.6213015     -7.5519506     -6.6200116      5.7645974      50218.233      36.893836      36.893836      36.893836    
    758000   0.61899434    -7.5540119     -6.6255336      5.7377406      50218.233      36.893836      36.893836      36.893836    
    759000   0.61958694    -7.5564987     -6.6271315      5.7160333      50218.233      36.893836      36.893836      36.893836    
    760000   0.62310622    -7.5564556     -6.6218096      5.7372441      50218.233      36.893836      36.893836      36.893836    
    761000   0.62221195    -7.5510009     -6.6176962      5.7675623      50218.233      36.893836      36.893836      36.893836    
    762000   0.61818692    -7.5544178     -6.6271506      5.7358611      50218.233      36.893836      36.893836      36.893836    
    763000   0.6187257     -7.5569747     -6.6288993      5.7194246      50218.233      36.893836      36.893836      36.893836    
    764000   0.61960296    -7.56134       -6.6319488      5.6904594      50218.233      36.893836      36.893836      36.893836    
    765000   0.61922847    -7.5568338     -6.6280044      5.7286091      50218.233      36.893836      36.893836      36.893836    
    766000   0.6228805     -7.5505497     -6.6162422      5.7722302      50218.233      36.893836      36.893836      36.893836    
    767000   0.62117404    -7.5601619     -6.6284141      5.7056838      50218.233      36.893836      36.893836      36.893836    
    768000   0.62178576    -7.5554749     -6.6228096      5.7359018      50218.233      36.893836      36.893836      36.893836    
    769000   0.62252079    -7.5523133     -6.6185454      5.7469701      50218.233      36.893836      36.893836      36.893836    
    770000   0.62352117    -7.5537465     -6.618478       5.7482052      50218.233      36.893836      36.893836      36.893836    
    771000   0.62123312    -7.5522742     -6.6204378      5.7657184      50218.233      36.893836      36.893836      36.893836    
    772000   0.61725005    -7.5549442     -6.6290823      5.7225836      50218.233      36.893836      36.893836      36.893836    
    773000   0.62027813    -7.5581382     -6.6277342      5.7183431      50218.233      36.893836      36.893836      36.893836    
    774000   0.62225634    -7.5550969     -6.6217256      5.7415021      50218.233      36.893836      36.893836      36.893836    
    775000   0.62124144    -7.5591601     -6.6273112      5.7056154      50218.233      36.893836      36.893836      36.893836    
    776000   0.61811672    -7.5539309     -6.626769       5.7494523      50218.233      36.893836      36.893836      36.893836    
    777000   0.61797956    -7.5539234     -6.6269673      5.7400119      50218.233      36.893836      36.893836      36.893836    
    778000   0.62032583    -7.547182      -6.6167065      5.7921285      50218.233      36.893836      36.893836      36.893836    
    779000   0.62064078    -7.5508629     -6.6199149      5.7669741      50218.233      36.893836      36.893836      36.893836    
    780000   0.6185984     -7.5540235     -6.6261391      5.7376096      50218.233      36.893836      36.893836      36.893836    
    781000   0.61968203    -7.5583662     -6.6288563      5.7180903      50218.233      36.893836      36.893836      36.893836    
    782000   0.61553915    -7.5549717     -6.6316761      5.7364772      50218.233      36.893836      36.893836      36.893836    
    783000   0.61821302    -7.5532632     -6.6259569      5.7415752      50218.233      36.893836      36.893836      36.893836    
    784000   0.62119607    -7.5560256     -6.6242448      5.7296581      50218.233      36.893836      36.893836      36.893836    
    785000   0.6209761     -7.5536338     -6.6221829      5.7492166      50218.233      36.893836      36.893836      36.893836    
    786000   0.62482512    -7.5517349     -6.6145106      5.7606984      50218.233      36.893836      36.893836      36.893836    
    787000   0.62502075    -7.5529417     -6.6154239      5.7548558      50218.233      36.893836      36.893836      36.893836    
    788000   0.61805431    -7.5577729     -6.6307046      5.7144434      50218.233      36.893836      36.893836      36.893836    
    789000   0.61999452    -7.5538697     -6.6238911      5.730692       50218.233      36.893836      36.893836      36.893836    
    790000   0.61844346    -7.5477875     -6.6201355      5.7720802      50218.233      36.893836      36.893836      36.893836    
    791000   0.61681179    -7.5462954     -6.6210909      5.7943777      50218.233      36.893836      36.893836      36.893836    
    792000   0.62012066    -7.5497615     -6.6195937      5.7772541      50218.233      36.893836      36.893836      36.893836    
    793000   0.61949381    -7.5563278     -6.6271003      5.7187374      50218.233      36.893836      36.893836      36.893836    
    794000   0.62025618    -7.5512856     -6.6209146      5.7617485      50218.233      36.893836      36.893836      36.893836    
    795000   0.62016171    -7.5515086     -6.6212792      5.7571603      50218.233      36.893836      36.893836      36.893836    
    796000   0.61749219    -7.5577124     -6.6314873      5.6961794      50218.233      36.893836      36.893836      36.893836    
    797000   0.62142125    -7.5524045     -6.6202859      5.7493754      50218.233      36.893836      36.893836      36.893836    
    798000   0.61835959    -7.5474012     -6.619875       5.7875018      50218.233      36.893836      36.893836      36.893836    
    799000   0.62154609    -7.55255       -6.6202441      5.7463897      50218.233      36.893836      36.893836      36.893836    
    800000   0.61995082    -7.5533646     -6.6234516      5.7568355      50218.233      36.893836      36.893836      36.893836    
    801000   0.62128517    -7.5583951     -6.6264806      5.708505       50218.233      36.893836      36.893836      36.893836    
    802000   0.62020154    -7.554089      -6.6237999      5.7402915      50218.233      36.893836      36.893836      36.893836    
    803000   0.622675      -7.5519216     -6.6179223      5.7535381      50218.233      36.893836      36.893836      36.893836    
    804000   0.61845426    -7.5503319     -6.6226637      5.7621524      50218.233      36.893836      36.893836      36.893836    
    805000   0.6164204     -7.5561109     -6.6314935      5.7173586      50218.233      36.893836      36.893836      36.893836    
    806000   0.62100908    -7.5518208     -6.6203204      5.7552935      50218.233      36.893836      36.893836      36.893836    
    807000   0.61838393    -7.5513966     -6.6238339      5.7543586      50218.233      36.893836      36.893836      36.893836    
    808000   0.62071987    -7.5525428     -6.6214763      5.7547763      50218.233      36.893836      36.893836      36.893836    
    809000   0.6193908     -7.5525446     -6.6234716      5.7510957      50218.233      36.893836      36.893836      36.893836    
    810000   0.62079807    -7.5479099     -6.6167261      5.7902874      50218.233      36.893836      36.893836      36.893836    
    811000   0.62144945    -7.5501354     -6.6179745      5.7911819      50218.233      36.893836      36.893836      36.893836    
    812000   0.616741      -7.5531012     -6.6280028      5.7546578      50218.233      36.893836      36.893836      36.893836    
    813000   0.62175087    -7.5542925     -6.6216795      5.7423839      50218.233      36.893836      36.893836      36.893836    
    814000   0.61930619    -7.5504508     -6.6215048      5.7707188      50218.233      36.893836      36.893836      36.893836    
    815000   0.62255142    -7.5519234     -6.6181095      5.7652882      50218.233      36.893836      36.893836      36.893836    
    816000   0.62287932    -7.5546887     -6.620383       5.7523603      50218.233      36.893836      36.893836      36.893836    
    817000   0.61847214    -7.5532908     -6.6255958      5.749901       50218.233      36.893836      36.893836      36.893836    
    818000   0.62138124    -7.5508657     -6.6188071      5.7605026      50218.233      36.893836      36.893836      36.893836    
    819000   0.61918138    -7.556402      -6.6276431      5.7188775      50218.233      36.893836      36.893836      36.893836    
    820000   0.62098813    -7.558663      -6.6271941      5.7163287      50218.233      36.893836      36.893836      36.893836    
    821000   0.62027202    -7.551243      -6.6208482      5.7609855      50218.233      36.893836      36.893836      36.893836    
    822000   0.62070952    -7.5531921     -6.622141       5.7461194      50218.233      36.893836      36.893836      36.893836    
    823000   0.6183932     -7.5545149     -6.6269383      5.7255338      50218.233      36.893836      36.893836      36.893836    
    824000   0.62099788    -7.5559189     -6.6244353      5.7269427      50218.233      36.893836      36.893836      36.893836    
    825000   0.62137567    -7.5534071     -6.6213569      5.7557623      50218.233      36.893836      36.893836      36.893836    
    826000   0.62119179    -7.5558607     -6.6240863      5.7397735      50218.233      36.893836      36.893836      36.893836    
    827000   0.61989058    -7.5567375     -6.6269149      5.7326163      50218.233      36.893836      36.893836      36.893836    
    828000   0.62030467    -7.5478536     -6.6174098      5.7835745      50218.233      36.893836      36.893836      36.893836    
    829000   0.62050269    -7.5526017     -6.6218609      5.7540465      50218.233      36.893836      36.893836      36.893836    
    830000   0.62110385    -7.5511562     -6.6195137      5.7701931      50218.233      36.893836      36.893836      36.893836    
    831000   0.61996968    -7.551079      -6.6211377      5.766034       50218.233      36.893836      36.893836      36.893836    
    832000   0.61671732    -7.5525769     -6.6275141      5.7558562      50218.233      36.893836      36.893836      36.893836    
    833000   0.62056337    -7.5433619     -6.6125301      5.8213048      50218.233      36.893836      36.893836      36.893836    
    834000   0.61932814    -7.5467092     -6.6177302      5.7963354      50218.233      36.893836      36.893836      36.893836    
    835000   0.62174989    -7.5513905     -6.6187789      5.7487868      50218.233      36.893836      36.893836      36.893836    
    836000   0.62221284    -7.5540801     -6.6207741      5.7448627      50218.233      36.893836      36.893836      36.893836    
    837000   0.61833206    -7.5510391     -6.6235542      5.7621131      50218.233      36.893836      36.893836      36.893836    
    838000   0.62276276    -7.5539928     -6.6198619      5.7582973      50218.233      36.893836      36.893836      36.893836    
    839000   0.62004747    -7.5521124     -6.6220544      5.7573352      50218.233      36.893836      36.893836      36.893836    
    840000   0.61649753    -7.5527917     -6.6280586      5.748167       50218.233      36.893836      36.893836      36.893836    
    841000   0.62086322    -7.5541426     -6.622861       5.7558805      50218.233      36.893836      36.893836      36.893836    
    842000   0.62372655    -7.555618      -6.6200415      5.7281189      50218.233      36.893836      36.893836      36.893836    
    843000   0.62093089    -7.556999      -6.6256159      5.7190538      50218.233      36.893836      36.893836      36.893836    
    844000   0.62262634    -7.5546982     -6.620772       5.7515972      50218.233      36.893836      36.893836      36.893836    
    845000   0.62142964    -7.5513104     -6.6191792      5.7602871      50218.233      36.893836      36.893836      36.893836    
    846000   0.62194223    -7.5533581     -6.620458       5.7592525      50218.233      36.893836      36.893836      36.893836    
    847000   0.61843015    -7.5505125     -6.6228805      5.7762107      50218.233      36.893836      36.893836      36.893836    
    848000   0.61956348    -7.5504713     -6.6211393      5.7733729      50218.233      36.893836      36.893836      36.893836    
    849000   0.61754156    -7.550028      -6.6237288      5.7633899      50218.233      36.893836      36.893836      36.893836    
    850000   0.62086899    -7.5523181     -6.6210279      5.7579691      50218.233      36.893836      36.893836      36.893836    
    851000   0.62172815    -7.55278       -6.620201       5.7692854      50218.233      36.893836      36.893836      36.893836    
    852000   0.6244698     -7.5492126     -6.6125212      5.8018889      50218.233      36.893836      36.893836      36.893836    
    853000   0.61792338    -7.5471564     -6.6202845      5.7881347      50218.233      36.893836      36.893836      36.893836    
    854000   0.61932037    -7.5496214     -6.6206541      5.768407       50218.233      36.893836      36.893836      36.893836    
    855000   0.61714647    -7.5510457     -6.6253391      5.7671358      50218.233      36.893836      36.893836      36.893836    
    856000   0.6190543     -7.5537623     -6.625194       5.7335931      50218.233      36.893836      36.893836      36.893836    
    857000   0.62056174    -7.5515759     -6.6207466      5.7572448      50218.233      36.893836      36.893836      36.893836    
    858000   0.61906413    -7.5602104     -6.6316274      5.6989722      50218.233      36.893836      36.893836      36.893836    
    859000   0.62170865    -7.5538594     -6.6213097      5.7508119      50218.233      36.893836      36.893836      36.893836    
    860000   0.62133215    -7.5508342     -6.6188492      5.7675527      50218.233      36.893836      36.893836      36.893836    
    861000   0.62283227    -7.5499045     -6.6156694      5.7795664      50218.233      36.893836      36.893836      36.893836    
    862000   0.62074435    -7.5546335     -6.6235302      5.7441841      50218.233      36.893836      36.893836      36.893836    
    863000   0.61923876    -7.5544683     -6.6256234      5.7370296      50218.233      36.893836      36.893836      36.893836    
    864000   0.62015734    -7.54974       -6.6195172      5.7759109      50218.233      36.893836      36.893836      36.893836    
    865000   0.61937634    -7.5579414     -6.6288901      5.7141044      50218.233      36.893836      36.893836      36.893836    
    866000   0.6230639     -7.5548549     -6.6202724      5.7520716      50218.233      36.893836      36.893836      36.893836    
    867000   0.62120191    -7.5558088     -6.6240192      5.738357       50218.233      36.893836      36.893836      36.893836    
    868000   0.61832651    -7.5540345     -6.626558       5.7445109      50218.233      36.893836      36.893836      36.893836    
    869000   0.61895325    -7.5476482     -6.6192316      5.7943967      50218.233      36.893836      36.893836      36.893836    
    870000   0.61829854    -7.5559718     -6.6285371      5.7400457      50218.233      36.893836      36.893836      36.893836    
    871000   0.62453731    -7.5493493     -6.6125567      5.7910835      50218.233      36.893836      36.893836      36.893836    
    872000   0.618003      -7.5516709     -6.6246796      5.7734118      50218.233      36.893836      36.893836      36.893836    
    873000   0.61746601    -7.5428685     -6.6166826      5.8314124      50218.233      36.893836      36.893836      36.893836    
    874000   0.619801      -7.549153      -6.6194647      5.7877863      50218.233      36.893836      36.893836      36.893836    
    875000   0.62009757    -7.553465      -6.6233319      5.7431268      50218.233      36.893836      36.893836      36.893836    
    876000   0.62089504    -7.5565858     -6.6252565      5.7163434      50218.233      36.893836      36.893836      36.893836    
    877000   0.61645159    -7.5537456     -6.6290814      5.7417995      50218.233      36.893836      36.893836      36.893836    
    878000   0.62017651    -7.5512047     -6.6209531      5.7616742      50218.233      36.893836      36.893836      36.893836    
    879000   0.6181708     -7.5504123     -6.6231693      5.7609808      50218.233      36.893836      36.893836      36.893836    
    880000   0.62092853    -7.5498397     -6.6184601      5.7767496      50218.233      36.893836      36.893836      36.893836    
    881000   0.62182206    -7.550785      -6.6180651      5.758592       50218.233      36.893836      36.893836      36.893836    
    882000   0.61981744    -7.5505303     -6.6208174      5.7750325      50218.233      36.893836      36.893836      36.893836    
    883000   0.62224801    -7.5539314     -6.6205726      5.7538492      50218.233      36.893836      36.893836      36.893836    
    884000   0.62045422    -7.5501927     -6.6195246      5.7858436      50218.233      36.893836      36.893836      36.893836    
    885000   0.62282521    -7.5557539     -6.6215294      5.7298102      50218.233      36.893836      36.893836      36.893836    
    886000   0.62137041    -7.5538265     -6.6217841      5.7460957      50218.233      36.893836      36.893836      36.893836    
    887000   0.62346659    -7.5537292     -6.6185426      5.7572682      50218.233      36.893836      36.893836      36.893836    
    888000   0.62054385    -7.5516575     -6.6208549      5.767891       50218.233      36.893836      36.893836      36.893836    
    889000   0.61999338    -7.5524125     -6.6224357      5.7625963      50218.233      36.893836      36.893836      36.893836    
    890000   0.62285612    -7.5592275     -6.6249566      5.7144411      50218.233      36.893836      36.893836      36.893836    
    891000   0.62029332    -7.5424741     -6.6120474      5.8216563      50218.233      36.893836      36.893836      36.893836    
    892000   0.62201912    -7.5556588     -6.6226434      5.7325106      50218.233      36.893836      36.893836      36.893836    
    893000   0.61754361    -7.5539001     -6.6275979      5.7522302      50218.233      36.893836      36.893836      36.893836    
    894000   0.62150285    -7.548699      -6.616458       5.787183       50218.233      36.893836      36.893836      36.893836    
    895000   0.62034519    -7.5526944     -6.6221899      5.7566915      50218.233      36.893836      36.893836      36.893836    
    896000   0.61860682    -7.5543787     -6.6264816      5.7410572      50218.233      36.893836      36.893836      36.893836    
    897000   0.62314896    -7.5555927     -6.6208826      5.7398615      50218.233      36.893836      36.893836      36.893836    
    898000   0.62067177    -7.5548166     -6.6238221      5.726228       50218.233      36.893836      36.893836      36.893836    
    899000   0.61891219    -7.5502199     -6.6218649      5.7588177      50218.233      36.893836      36.893836      36.893836    
    900000   0.62327448    -7.5564076     -6.6215091      5.7259216      50218.233      36.893836      36.893836      36.893836    
    901000   0.62052113    -7.5518599     -6.6210915      5.7559855      50218.233      36.893836      36.893836      36.893836    
    902000   0.61801601    -7.5521001     -6.6250893      5.7634507      50218.233      36.893836      36.893836      36.893836    
    903000   0.61928949    -7.553771      -6.62485        5.7458581      50218.233      36.893836      36.893836      36.893836    
    904000   0.6171932     -7.5469827     -6.6212061      5.7922628      50218.233      36.893836      36.893836      36.893836    
    905000   0.62289985    -7.5573135     -6.622977       5.7357303      50218.233      36.893836      36.893836      36.893836    
    906000   0.62133049    -7.5530453     -6.6210628      5.7608279      50218.233      36.893836      36.893836      36.893836    
    907000   0.6219379     -7.5500274     -6.6171338      5.7812404      50218.233      36.893836      36.893836      36.893836    
    908000   0.61956194    -7.5518078     -6.6224781      5.7621946      50218.233      36.893836      36.893836      36.893836    
    909000   0.61850993    -7.5545983     -6.6268466      5.7359858      50218.233      36.893836      36.893836      36.893836    
    910000   0.61853834    -7.5515819     -6.6237876      5.7582312      50218.233      36.893836      36.893836      36.893836    
    911000   0.61906161    -7.5563328     -6.6277536      5.7272924      50218.233      36.893836      36.893836      36.893836    
    912000   0.6194586     -7.5521674     -6.6229927      5.7558609      50218.233      36.893836      36.893836      36.893836    
    913000   0.62095506    -7.5555537     -6.6241344      5.7365272      50218.233      36.893836      36.893836      36.893836    
    914000   0.62167527    -7.5549624     -6.6224628      5.7406151      50218.233      36.893836      36.893836      36.893836    
    915000   0.61980239    -7.5512333     -6.6215429      5.7623001      50218.233      36.893836      36.893836      36.893836    
    916000   0.6184207     -7.55181       -6.6241922      5.7460467      50218.233      36.893836      36.893836      36.893836    
    917000   0.62229865    -7.5542114     -6.6207767      5.7556278      50218.233      36.893836      36.893836      36.893836    
    918000   0.6230313     -7.5526822     -6.6181485      5.7488781      50218.233      36.893836      36.893836      36.893836    
    919000   0.62048161    -7.5551722     -6.6244631      5.7387613      50218.233      36.893836      36.893836      36.893836    
    920000   0.62289021    -7.5520505     -6.6177285      5.7717535      50218.233      36.893836      36.893836      36.893836    
    921000   0.62199447    -7.552415      -6.6194366      5.7538825      50218.233      36.893836      36.893836      36.893836    
    922000   0.61777219    -7.5515326     -6.6248875      5.7643191      50218.233      36.893836      36.893836      36.893836    
    923000   0.6206654     -7.5504721     -6.6194872      5.7684377      50218.233      36.893836      36.893836      36.893836    
    924000   0.62209344    -7.5462879     -6.613161       5.7970742      50218.233      36.893836      36.893836      36.893836    
    925000   0.62082249    -7.5512682     -6.6200477      5.7716233      50218.233      36.893836      36.893836      36.893836    
    926000   0.62133225    -7.5516281     -6.6196429      5.7721279      50218.233      36.893836      36.893836      36.893836    
    927000   0.61912022    -7.5482041     -6.619537       5.783358       50218.233      36.893836      36.893836      36.893836    
    928000   0.62241763    -7.5461296     -6.6125165      5.8051711      50218.233      36.893836      36.893836      36.893836    
    929000   0.61874685    -7.5540091     -6.625902       5.7550797      50218.233      36.893836      36.893836      36.893836    
    930000   0.62122346    -7.5498267     -6.6180048      5.7791793      50218.233      36.893836      36.893836      36.893836    
    931000   0.61605642    -7.5610867     -6.6370152      5.6841803      50218.233      36.893836      36.893836      36.893836    
    932000   0.61959341    -7.5529808     -6.6236039      5.756767       50218.233      36.893836      36.893836      36.893836    
    933000   0.62475554    -7.554445      -6.617325       5.7514565      50218.233      36.893836      36.893836      36.893836    
    934000   0.62043933    -7.5558557     -6.62521        5.7393128      50218.233      36.893836      36.893836      36.893836    
    935000   0.61714761    -7.5538663     -6.6281581      5.7575074      50218.233      36.893836      36.893836      36.893836    
    936000   0.61895262    -7.5513416     -6.6229259      5.7689166      50218.233      36.893836      36.893836      36.893836    
    937000   0.61812469    -7.5537974     -6.6266236      5.7493152      50218.233      36.893836      36.893836      36.893836    
    938000   0.61526684    -7.5578866     -6.6349995      5.7065198      50218.233      36.893836      36.893836      36.893836    
    939000   0.61739558    -7.5546284     -6.6285482      5.7380756      50218.233      36.893836      36.893836      36.893836    
    940000   0.62248628    -7.5566266     -6.6229105      5.727898       50218.233      36.893836      36.893836      36.893836    
    941000   0.6187676     -7.5491462     -6.621008       5.7714149      50218.233      36.893836      36.893836      36.893836    
    942000   0.62047766    -7.5602211     -6.6295179      5.694705       50218.233      36.893836      36.893836      36.893836    
    943000   0.61768656    -7.5565836     -6.6300669      5.727018       50218.233      36.893836      36.893836      36.893836    
    944000   0.62145454    -7.5607955     -6.628627       5.695851       50218.233      36.893836      36.893836      36.893836    
    945000   0.61858169    -7.555852      -6.6279927      5.7284775      50218.233      36.893836      36.893836      36.893836    
    946000   0.62120173    -7.5546122     -6.6228228      5.7405802      50218.233      36.893836      36.893836      36.893836    
    947000   0.62460425    -7.5518707     -6.6149777      5.7713525      50218.233      36.893836      36.893836      36.893836    
    948000   0.62043433    -7.5570605     -6.6264223      5.7228936      50218.233      36.893836      36.893836      36.893836    
    949000   0.62070885    -7.5540617     -6.6230117      5.7380837      50218.233      36.893836      36.893836      36.893836    
    950000   0.62443254    -7.5512329     -6.6145974      5.7690618      50218.233      36.893836      36.893836      36.893836    
    951000   0.6194796     -7.5590774     -6.6298712      5.7016315      50218.233      36.893836      36.893836      36.893836    
    952000   0.62087378    -7.5534571     -6.6221597      5.7483553      50218.233      36.893836      36.893836      36.893836    
    953000   0.61968391    -7.5571586     -6.6276459      5.7088405      50218.233      36.893836      36.893836      36.893836    
    954000   0.61960245    -7.5610042     -6.6316137      5.6776502      50218.233      36.893836      36.893836      36.893836    
    955000   0.62061074    -7.5536374     -6.6227346      5.739501       50218.233      36.893836      36.893836      36.893836    
    956000   0.61767715    -7.5531219     -6.6266194      5.7402679      50218.233      36.893836      36.893836      36.893836    
    957000   0.61837142    -7.5543434     -6.6267995      5.7378231      50218.233      36.893836      36.893836      36.893836    
    958000   0.61720003    -7.5570993     -6.6313124      5.7097396      50218.233      36.893836      36.893836      36.893836    
    959000   0.62188464    -7.556867      -6.6240533      5.7237769      50218.233      36.893836      36.893836      36.893836    
    960000   0.61912667    -7.5544241     -6.6257473      5.7441183      50218.233      36.893836      36.893836      36.893836    
    961000   0.62285828    -7.5568512     -6.6225771      5.7147262      50218.233      36.893836      36.893836      36.893836    
    962000   0.61851787    -7.5570521     -6.6292885      5.7255217      50218.233      36.893836      36.893836      36.893836    
    963000   0.61618277    -7.5551903     -6.6309293      5.7272559      50218.233      36.893836      36.893836      36.893836    
    964000   0.61937937    -7.5549297     -6.6258739      5.7299815      50218.233      36.893836      36.893836      36.893836    
    965000   0.62127615    -7.555804      -6.623903       5.7407128      50218.233      36.893836      36.893836      36.893836    
    966000   0.62119534    -7.5562109     -6.6244312      5.72438        50218.233      36.893836      36.893836      36.893836    
    967000   0.62529184    -7.5598886     -6.6219642      5.7027767      50218.233      36.893836      36.893836      36.893836    
    968000   0.61845601    -7.5594841     -6.6318133      5.7078872      50218.233      36.893836      36.893836      36.893836    
    969000   0.61997994    -7.5660434     -6.6360867      5.6664686      50218.233      36.893836      36.893836      36.893836    
    970000   0.62180789    -7.5566741     -6.6239755      5.7394556      50218.233      36.893836      36.893836      36.893836    
    971000   0.62120531    -7.5499748     -6.6181801      5.7774215      50218.233      36.893836      36.893836      36.893836    
    972000   0.61895829    -7.5516973     -6.6232731      5.7618496      50218.233      36.893836      36.893836      36.893836    
    973000   0.62150386    -7.5591402     -6.6268977      5.7100583      50218.233      36.893836      36.893836      36.893836    
    974000   0.62089523    -7.5523653     -6.6210357      5.7628147      50218.233      36.893836      36.893836      36.893836    
    975000   0.62212622    -7.5524154     -6.6192393      5.7606296      50218.233      36.893836      36.893836      36.893836    
    976000   0.62093767    -7.5589959     -6.6276026      5.7061637      50218.233      36.893836      36.893836      36.893836    
    977000   0.61958825    -7.5509344     -6.6215652      5.7729257      50218.233      36.893836      36.893836      36.893836    
    978000   0.62095554    -7.5515685     -6.6201485      5.7712875      50218.233      36.893836      36.893836      36.893836    
    979000   0.61928384    -7.5548288     -6.6259162      5.7450899      50218.233      36.893836      36.893836      36.893836    
    980000   0.61871358    -7.5561029     -6.6280457      5.7165321      50218.233      36.893836      36.893836      36.893836    
    981000   0.62366853    -7.5564472     -6.6209577      5.733211       50218.233      36.893836      36.893836      36.893836    
    982000   0.6176982     -7.556548      -6.6300139      5.7248367      50218.233      36.893836      36.893836      36.893836    
    983000   0.62093075    -7.5576563     -6.6262734      5.7216594      50218.233      36.893836      36.893836      36.893836    
    984000   0.62073116    -7.5546699     -6.6235864      5.7556781      50218.233      36.893836      36.893836      36.893836    
    985000   0.62097249    -7.5574935     -6.6260481      5.7120547      50218.233      36.893836      36.893836      36.893836    
    986000   0.62235172    -7.5581708     -6.6246565      5.715976       50218.233      36.893836      36.893836      36.893836    
    987000   0.621266      -7.5520277     -6.6201419      5.7563338      50218.233      36.893836      36.893836      36.893836    
    988000   0.61846192    -7.5482109     -6.6205312      5.7897347      50218.233      36.893836      36.893836      36.893836    
    989000   0.62065449    -7.5518624     -6.6208939      5.7824043      50218.233      36.893836      36.893836      36.893836    
    990000   0.62221489    -7.5518046     -6.6184955      5.7677525      50218.233      36.893836      36.893836      36.893836    
    991000   0.62084319    -7.5569896     -6.6257381      5.7245843      50218.233      36.893836      36.893836      36.893836    
    992000   0.62296743    -7.5577808     -6.623343       5.7278922      50218.233      36.893836      36.893836      36.893836    
    993000   0.625539      -7.557208      -6.6189129      5.7161284      50218.233      36.893836      36.893836      36.893836    
    994000   0.62221026    -7.5513498     -6.6180477      5.7662169      50218.233      36.893836      36.893836      36.893836    
    995000   0.61839424    -7.5532495     -6.6256714      5.7512043      50218.233      36.893836      36.893836      36.893836    
    996000   0.62074559    -7.5537467     -6.6226416      5.7503559      50218.233      36.893836      36.893836      36.893836    
    997000   0.61967579    -7.5546959     -6.6251954      5.7307794      50218.233      36.893836      36.893836      36.893836    
    998000   0.61830013    -7.5482918     -6.6208548      5.7809259      50218.233      36.893836      36.893836      36.893836    
    999000   0.62050261    -7.5587506     -6.6280099      5.6995993      50218.233      36.893836      36.893836      36.893836    
   1000000   0.62068467    -7.5482756     -6.6172618      5.7846248      50218.233      36.893836      36.893836      36.893836    
Loop time of 1650.94 on 5 procs for 1000000 steps with 70304 atoms

Performance: 523337.420 tau/day, 605.715 timesteps/s, 42.584 Matom-step/s
94.7% CPU use with 5 MPI tasks x 1 OpenMP threads

MPI task timing breakdown:
Section |  min time  |  avg time  |  max time  |%varavg| %total
---------------------------------------------------------------
Pair    | 641.58     | 681.72     | 721.67     | 127.4 | 41.29
Neigh   | 5.567      | 5.8738     | 6.1156     |   9.8 |  0.36
Comm    | 247.14     | 249.53     | 251.6      |  10.1 | 15.11
Output  | 0.17861    | 0.18895    | 0.21547    |   3.1 |  0.01
Modify  | 589.57     | 632.84     | 673.94     | 135.5 | 38.33
Other   |            | 80.79      |            |       |  4.89

Nlocal:        14060.8 ave       14104 max       14018 min
Histogram: 1 0 0 1 1 0 1 0 0 1
Nghost:        18769.4 ave       18866 max       18723 min
Histogram: 1 1 2 0 0 0 0 0 0 1
Neighs:              0 ave           0 max           0 min
Histogram: 5 0 0 0 0 0 0 0 0 0

Total # of neighbors = 0
Ave neighs/atom = 0
Neighbor list builds = 240069
Dangerous builds = 0
Total wall time: 1:50:21
