variable TLJ equal (${T}/1000)
variable TLJ equal (595/1000)
variable NCyle equal 10
variable iStep equal (${f})
variable iStep equal (1000)
variable dumpStep equal (${f}*100)
variable dumpStep equal (1000*100)
variable runStep equal (${f}*100*${NCyle})
variable runStep equal (1000*100*${NCyle})
variable runStep equal (1000*100*10)

units       lj
atom_style  atomic
dimension 3
boundary     p p p
pair_style  lj/cut 2.5
read_data  ../data/T${T}.dat
read_data  ../data/T595.dat
Reading data file ...
  orthogonal box = (0.97250269 0.97250269 0.97250269) to (37.866338 37.866338 37.866338)
  1 by 1 by 1 MPI processor grid
  reading atoms ...
  70304 atoms
  reading velocities ...
  70304 velocities
  read_data CPU = 0.224 seconds
change_box all triclinic
Changing box ...
  triclinic box = (0.97250269 0.97250269 0.97250269) to (37.866338 37.866338 37.866338) with tilt (0 0 0)
mass 1 1
mass 2 1
pair_modify shift yes
pair_coeff  1 1 1 1
pair_coeff  1 2 1.5 0.8
pair_coeff  2 2 0.5 0.88


timestep 0.01
thermo ${iStep}
thermo 1000
reset_timestep 0
thermo_style custom step temp pe etotal press vol lx ly lz
fix             1 all nvt temp ${TLJ}  ${TLJ}  0.1
fix             1 all nvt temp 0.595  ${TLJ}  0.1
fix             1 all nvt temp 0.595  0.595  0.1
thermo_modify flush yes

fix dsf all deform 1 xy  wiggle 0.5  ${f}   units box
fix dsf all deform 1 xy  wiggle 0.5  1000   units box
fix ps1 all ave/time 1 1 ${iStep} c_thermo_press[1] c_thermo_press[2]  c_thermo_press[3] c_thermo_press[4]  c_thermo_press[5] c_thermo_press[6]  file  stress.${T}
fix ps1 all ave/time 1 1 1000 c_thermo_press[1] c_thermo_press[2]  c_thermo_press[3] c_thermo_press[4]  c_thermo_press[5] c_thermo_press[6]  file  stress.${T}
fix ps1 all ave/time 1 1 1000 c_thermo_press[1] c_thermo_press[2]  c_thermo_press[3] c_thermo_press[4]  c_thermo_press[5] c_thermo_press[6]  file  stress.595
dump            1 all custom ${dumpStep} dump.${T} id type x y z
dump            1 all custom 100000 dump.${T} id type x y z
dump            1 all custom 100000 dump.595 id type x y z
dump_modify 1 sort id
fix nodrift all momentum 1  linear 1 1 1
fix com_seed all recenter INIT INIT INIT shift all
run ${runStep}
run 1000000
Generated 0 of 1 mixed pair_coeff terms from geometric mixing rule
Per MPI rank memory allocation (min/avg/max) = 21.18 | 21.18 | 21.18 Mbytes
   Step          Temp          PotEng         TotEng         Press          Volume           Lx             Ly             Lz      
         0   0.59431783    -7.6251806     -6.7337165      5.1808993      50218.233      36.893836      36.893836      36.893836    
      1000   0.59499969    -7.6086948     -6.716208       5.3015536      50218.233      36.893836      36.893836      36.893836    
      2000   0.59707147    -7.6060367     -6.7104423      5.3171845      50218.233      36.893836      36.893836      36.893836    
      3000   0.59366461    -7.6167113     -6.7262271      5.2432775      50218.233      36.893836      36.893836      36.893836    
      4000   0.59457259    -7.6097716     -6.7179254      5.2967003      50218.233      36.893836      36.893836      36.893836    
      5000   0.59560302    -7.6037972     -6.7104054      5.3357841      50218.233      36.893836      36.893836      36.893836    
      6000   0.59548908    -7.6064233     -6.7132024      5.3235029      50218.233      36.893836      36.893836      36.893836    
      7000   0.59417495    -7.6080952     -6.7168455      5.3073041      50218.233      36.893836      36.893836      36.893836    
      8000   0.59662035    -7.6016162     -6.7066984      5.3559425      50218.233      36.893836      36.893836      36.893836    
      9000   0.59228121    -7.6061095     -6.7177003      5.3239375      50218.233      36.893836      36.893836      36.893836    
     10000   0.59710661    -7.6046755     -6.7090284      5.3251872      50218.233      36.893836      36.893836      36.893836    
     11000   0.59397953    -7.6052186     -6.714262       5.331701       50218.233      36.893836      36.893836      36.893836    
     12000   0.59332328    -7.6061428     -6.7161706      5.3182728      50218.233      36.893836      36.893836      36.893836    
     13000   0.59661785    -7.6045088     -6.7095948      5.3349185      50218.233      36.893836      36.893836      36.893836    
     14000   0.59485371    -7.6050416     -6.7127737      5.323896       50218.233      36.893836      36.893836      36.893836    
     15000   0.59353257    -7.6095812     -6.719295       5.294304       50218.233      36.893836      36.893836      36.893836    
     16000   0.59444556    -7.6088525     -6.7171968      5.3055426      50218.233      36.893836      36.893836      36.893836    
     17000   0.59257471    -7.60777       -6.7189206      5.3042176      50218.233      36.893836      36.893836      36.893836    
     18000   0.5965021     -7.609253      -6.7145126      5.2958015      50218.233      36.893836      36.893836      36.893836    
     19000   0.5932748     -7.6152896     -6.72539        5.235964       50218.233      36.893836      36.893836      36.893836    
     20000   0.5952243     -7.6059912     -6.7131675      5.3208755      50218.233      36.893836      36.893836      36.893836    
     21000   0.59677212    -7.6131773     -6.7180318      5.2712942      50218.233      36.893836      36.893836      36.893836    
     22000   0.59354869    -7.608706      -6.7183956      5.294159       50218.233      36.893836      36.893836      36.893836    
     23000   0.59427235    -7.6069917     -6.7155958      5.3178127      50218.233      36.893836      36.893836      36.893836    
     24000   0.59455924    -7.610042      -6.7182158      5.2904046      50218.233      36.893836      36.893836      36.893836    
     25000   0.59682183    -7.612613      -6.717393       5.2833477      50218.233      36.893836      36.893836      36.893836    
     26000   0.59394881    -7.6080868     -6.7171762      5.3163008      50218.233      36.893836      36.893836      36.893836    
     27000   0.59406515    -7.6038387     -6.7127537      5.3331338      50218.233      36.893836      36.893836      36.893836    
     28000   0.59771696    -7.6085618     -6.7119991      5.3092944      50218.233      36.893836      36.893836      36.893836    
     29000   0.59500201    -7.6119121     -6.7194218      5.2897712      50218.233      36.893836      36.893836      36.893836    
     30000   0.59735903    -7.6062094     -6.7101836      5.3174027      50218.233      36.893836      36.893836      36.893836    
     31000   0.59442277    -7.6131008     -6.7214794      5.2753116      50218.233      36.893836      36.893836      36.893836    
     32000   0.59571658    -7.6104704     -6.7169083      5.2906679      50218.233      36.893836      36.893836      36.893836    
     33000   0.59388865    -7.6123812     -6.7215609      5.267785       50218.233      36.893836      36.893836      36.893836    
     34000   0.59768665    -7.6110552     -6.714538       5.2921048      50218.233      36.893836      36.893836      36.893836    
     35000   0.59546357    -7.6107271     -6.7175444      5.3009816      50218.233      36.893836      36.893836      36.893836    
     36000   0.5947415     -7.6132842     -6.7211846      5.2774754      50218.233      36.893836      36.893836      36.893836    
     37000   0.59878056    -7.6056658     -6.7075078      5.3264175      50218.233      36.893836      36.893836      36.893836    
     38000   0.59721778    -7.6110052     -6.7151912      5.2852114      50218.233      36.893836      36.893836      36.893836    
     39000   0.5967868     -7.6111342     -6.7159668      5.288221       50218.233      36.893836      36.893836      36.893836    
     40000   0.59422953    -7.6108392     -6.7195076      5.2950409      50218.233      36.893836      36.893836      36.893836    
     41000   0.59524586    -7.6088086     -6.7159525      5.316821       50218.233      36.893836      36.893836      36.893836    
     42000   0.59528441    -7.6109411     -6.7180272      5.3000181      50218.233      36.893836      36.893836      36.893836    
     43000   0.59515222    -7.6080041     -6.7152885      5.326452       50218.233      36.893836      36.893836      36.893836    
     44000   0.59278083    -7.6108583     -6.7216997      5.2930149      50218.233      36.893836      36.893836      36.893836    
     45000   0.59225353    -7.6124365     -6.7240689      5.2750152      50218.233      36.893836      36.893836      36.893836    
     46000   0.59707602    -7.6069554     -6.7113541      5.3191126      50218.233      36.893836      36.893836      36.893836    
     47000   0.59505289    -7.601915      -6.7093484      5.3503205      50218.233      36.893836      36.893836      36.893836    
     48000   0.59385361    -7.6077589     -6.7169912      5.3089046      50218.233      36.893836      36.893836      36.893836    
     49000   0.59450374    -7.6069739     -6.7152309      5.3284539      50218.233      36.893836      36.893836      36.893836    
     50000   0.59517532    -7.6114342     -6.7186839      5.2975655      50218.233      36.893836      36.893836      36.893836    
     51000   0.59459363    -7.6100032     -6.7181254      5.2950036      50218.233      36.893836      36.893836      36.893836    
     52000   0.59622125    -7.6102168     -6.7158977      5.2913443      50218.233      36.893836      36.893836      36.893836    
     53000   0.59350616    -7.6032697     -6.7130231      5.3425313      50218.233      36.893836      36.893836      36.893836    
     54000   0.59498818    -7.6046923     -6.7122227      5.3446075      50218.233      36.893836      36.893836      36.893836    
     55000   0.59411881    -7.6054149     -6.7142493      5.3302683      50218.233      36.893836      36.893836      36.893836    
     56000   0.59198425    -7.6067359     -6.7187722      5.3075015      50218.233      36.893836      36.893836      36.893836    
     57000   0.59351026    -7.6066022     -6.7163494      5.3075784      50218.233      36.893836      36.893836      36.893836    
     58000   0.59872082    -7.609814      -6.7117455      5.300158       50218.233      36.893836      36.893836      36.893836    
     59000   0.59715161    -7.607293      -6.7115784      5.3099184      50218.233      36.893836      36.893836      36.893836    
     60000   0.59175407    -7.6075902     -6.7199717      5.3105129      50218.233      36.893836      36.893836      36.893836    
     61000   0.59370261    -7.6045743     -6.7140331      5.3324684      50218.233      36.893836      36.893836      36.893836    
     62000   0.59471123    -7.6089485     -6.7168944      5.3103283      50218.233      36.893836      36.893836      36.893836    
     63000   0.59762209    -7.6088092     -6.7123889      5.3060771      50218.233      36.893836      36.893836      36.893836    
     64000   0.59583929    -7.6116508     -6.7179046      5.2662629      50218.233      36.893836      36.893836      36.893836    
     65000   0.59336939    -7.6081675     -6.7181261      5.3021459      50218.233      36.893836      36.893836      36.893836    
     66000   0.59924864    -7.6053074     -6.7064472      5.330497       50218.233      36.893836      36.893836      36.893836    
     67000   0.59588564    -7.602283      -6.7084673      5.3583889      50218.233      36.893836      36.893836      36.893836    
     68000   0.59085202    -7.6039714     -6.717706       5.3321302      50218.233      36.893836      36.893836      36.893836    
     69000   0.59904718    -7.6081479     -6.7095899      5.3267891      50218.233      36.893836      36.893836      36.893836    
     70000   0.59513645    -7.6071606     -6.7144686      5.3160044      50218.233      36.893836      36.893836      36.893836    
     71000   0.59530302    -7.6045478     -6.711606       5.3365864      50218.233      36.893836      36.893836      36.893836    
     72000   0.59299775    -7.6122107     -6.7227267      5.2750639      50218.233      36.893836      36.893836      36.893836    
     73000   0.59590937    -7.6076654     -6.7138141      5.3111919      50218.233      36.893836      36.893836      36.893836    
     74000   0.59325447    -7.6084194     -6.7185503      5.3044601      50218.233      36.893836      36.893836      36.893836    
     75000   0.59672182    -7.6065182     -6.7114482      5.3207399      50218.233      36.893836      36.893836      36.893836    
     76000   0.59723295    -7.6082442     -6.7124075      5.3067123      50218.233      36.893836      36.893836      36.893836    
     77000   0.59353582    -7.6087719     -6.7184809      5.3133311      50218.233      36.893836      36.893836      36.893836    
     78000   0.59598416    -7.6019993     -6.7080358      5.3632288      50218.233      36.893836      36.893836      36.893836    
     79000   0.59858621    -7.604636      -6.7067695      5.34188        50218.233      36.893836      36.893836      36.893836    
     80000   0.59395767    -7.6089335     -6.7180096      5.3123179      50218.233      36.893836      36.893836      36.893836    
     81000   0.59249059    -7.6038057     -6.7150825      5.3444933      50218.233      36.893836      36.893836      36.893836    
     82000   0.5971928     -7.6089035     -6.713127       5.3137375      50218.233      36.893836      36.893836      36.893836    
     83000   0.59466595    -7.6075719     -6.7155857      5.3131963      50218.233      36.893836      36.893836      36.893836    
     84000   0.59643695    -7.6088787     -6.714236       5.3137313      50218.233      36.893836      36.893836      36.893836    
     85000   0.59362722    -7.610467      -6.7200388      5.2902798      50218.233      36.893836      36.893836      36.893836    
     86000   0.59501111    -7.6069691     -6.7144651      5.3118213      50218.233      36.893836      36.893836      36.893836    
     87000   0.59423941    -7.610626      -6.7192795      5.2757983      50218.233      36.893836      36.893836      36.893836    
     88000   0.59537426    -7.6069145     -6.7138658      5.3207645      50218.233      36.893836      36.893836      36.893836    
     89000   0.5957047     -7.6034133     -6.709869       5.3552678      50218.233      36.893836      36.893836      36.893836    
     90000   0.59317358    -7.6058336     -6.7160859      5.3377583      50218.233      36.893836      36.893836      36.893836    
     91000   0.59602985    -7.6083801     -6.714348       5.3158315      50218.233      36.893836      36.893836      36.893836    
     92000   0.59775344    -7.607227      -6.7106096      5.3264793      50218.233      36.893836      36.893836      36.893836    
     93000   0.59630536    -7.6037137     -6.7092684      5.3594746      50218.233      36.893836      36.893836      36.893836    
     94000   0.59467132    -7.6041381     -6.7121438      5.3519427      50218.233      36.893836      36.893836      36.893836    
     95000   0.59363368    -7.6082241     -6.7177862      5.3131441      50218.233      36.893836      36.893836      36.893836    
     96000   0.59158294    -7.6046692     -6.7173075      5.3297569      50218.233      36.893836      36.893836      36.893836    
     97000   0.59459982    -7.6068724     -6.7149853      5.3173125      50218.233      36.893836      36.893836      36.893836    
     98000   0.59905806    -7.6038965     -6.7053221      5.3504379      50218.233      36.893836      36.893836      36.893836    
     99000   0.59466911    -7.6051116     -6.7131206      5.3356876      50218.233      36.893836      36.893836      36.893836    
    100000   0.59378237    -7.6010805     -6.7104196      5.3682584      50218.233      36.893836      36.893836      36.893836    
    101000   0.59468142    -7.6036262     -6.7116168      5.3442149      50218.233      36.893836      36.893836      36.893836    
    102000   0.59444247    -7.6043911     -6.7127401      5.326128       50218.233      36.893836      36.893836      36.893836    
    103000   0.59607472    -7.6049237     -6.7108244      5.341209       50218.233      36.893836      36.893836      36.893836    
    104000   0.59444097    -7.6120427     -6.7203939      5.2639694      50218.233      36.893836      36.893836      36.893836    
    105000   0.59646142    -7.602941      -6.7082616      5.3539958      50218.233      36.893836      36.893836      36.893836    
    106000   0.59240649    -7.6098028     -6.7212057      5.2867004      50218.233      36.893836      36.893836      36.893836    
    107000   0.59838468    -7.595628      -6.6980637      5.4061624      50218.233      36.893836      36.893836      36.893836    
    108000   0.59176583    -7.6051138     -6.7174777      5.3334788      50218.233      36.893836      36.893836      36.893836    
    109000   0.5946289     -7.6046548     -6.7127242      5.3238289      50218.233      36.893836      36.893836      36.893836    
    110000   0.59759095    -7.6034324     -6.7070588      5.3397038      50218.233      36.893836      36.893836      36.893836    
    111000   0.59993952    -7.6050846     -6.7051881      5.3434796      50218.233      36.893836      36.893836      36.893836    
    112000   0.59296716    -7.6049731     -6.7155351      5.3230718      50218.233      36.893836      36.893836      36.893836    
    113000   0.59548535    -7.6054178     -6.7122024      5.3283401      50218.233      36.893836      36.893836      36.893836    
    114000   0.59358252    -7.603546      -6.7131849      5.3411233      50218.233      36.893836      36.893836      36.893836    
    115000   0.59453346    -7.602696      -6.7109085      5.3481592      50218.233      36.893836      36.893836      36.893836    
    116000   0.59458347    -7.606364      -6.7145015      5.3204195      50218.233      36.893836      36.893836      36.893836    
    117000   0.59734871    -7.6054155     -6.7094052      5.3274106      50218.233      36.893836      36.893836      36.893836    
    118000   0.59640334    -7.6019996     -6.7074073      5.3655929      50218.233      36.893836      36.893836      36.893836    
    119000   0.5951845     -7.6064607     -6.7136966      5.3250687      50218.233      36.893836      36.893836      36.893836    
    120000   0.59291829    -7.6012629     -6.7118981      5.3596684      50218.233      36.893836      36.893836      36.893836    
    121000   0.59664333    -7.6014621     -6.7065098      5.349443       50218.233      36.893836      36.893836      36.893836    
    122000   0.59734406    -7.6009221     -6.7049187      5.3616939      50218.233      36.893836      36.893836      36.893836    
    123000   0.59845148    -7.6060582     -6.7083937      5.329171       50218.233      36.893836      36.893836      36.893836    
    124000   0.59658323    -7.6074072     -6.7125451      5.3163613      50218.233      36.893836      36.893836      36.893836    
    125000   0.59557973    -7.605737      -6.7123801      5.3211202      50218.233      36.893836      36.893836      36.893836    
    126000   0.60022689    -7.6070826     -6.706755       5.3189653      50218.233      36.893836      36.893836      36.893836    
    127000   0.59479748    -7.6030176     -6.7108341      5.358857       50218.233      36.893836      36.893836      36.893836    
    128000   0.59669712    -7.607945      -6.7129121      5.3182762      50218.233      36.893836      36.893836      36.893836    
    129000   0.59065177    -7.6087218     -6.7227568      5.2942538      50218.233      36.893836      36.893836      36.893836    
    130000   0.59797629    -7.6035003     -6.7065486      5.3447146      50218.233      36.893836      36.893836      36.893836    
    131000   0.59768654    -7.6142348     -6.7177177      5.2717129      50218.233      36.893836      36.893836      36.893836    
    132000   0.59374834    -7.6066362     -6.7160264      5.3122888      50218.233      36.893836      36.893836      36.893836    
    133000   0.59354849    -7.6056831     -6.715373       5.3329422      50218.233      36.893836      36.893836      36.893836    
    134000   0.59715062    -7.6100996     -6.7143864      5.3017194      50218.233      36.893836      36.893836      36.893836    
    135000   0.59611072    -7.605167      -6.7110136      5.3318024      50218.233      36.893836      36.893836      36.893836    
    136000   0.59345176    -7.6082394     -6.7180744      5.3036512      50218.233      36.893836      36.893836      36.893836    
    137000   0.59279417    -7.6053679     -6.7161893      5.319254       50218.233      36.893836      36.893836      36.893836    
    138000   0.59659514    -7.6087899     -6.7139099      5.298064       50218.233      36.893836      36.893836      36.893836    
    139000   0.59470821    -7.605129      -6.7130794      5.3224208      50218.233      36.893836      36.893836      36.893836    
    140000   0.59455459    -7.6067459     -6.7149267      5.3031579      50218.233      36.893836      36.893836      36.893836    
    141000   0.59653591    -7.6065294     -6.7117382      5.3152611      50218.233      36.893836      36.893836      36.893836    
    142000   0.59502171    -7.6091426     -6.7166228      5.297029       50218.233      36.893836      36.893836      36.893836    
    143000   0.59426581    -7.6070706     -6.7156845      5.3162556      50218.233      36.893836      36.893836      36.893836    
    144000   0.59339266    -7.6043267     -6.7142503      5.3375571      50218.233      36.893836      36.893836      36.893836    
    145000   0.59333539    -7.6104368     -6.7204464      5.2908344      50218.233      36.893836      36.893836      36.893836    
    146000   0.59292069    -7.6109265     -6.7215581      5.2852985      50218.233      36.893836      36.893836      36.893836    
    147000   0.59461465    -7.6074418     -6.7155325      5.3164551      50218.233      36.893836      36.893836      36.893836    
    148000   0.59742749    -7.6063316     -6.7102031      5.3315668      50218.233      36.893836      36.893836      36.893836    
    149000   0.59760302    -7.6066771     -6.7102853      5.3310296      50218.233      36.893836      36.893836      36.893836    
    150000   0.59212818    -7.602761      -6.7145814      5.345682       50218.233      36.893836      36.893836      36.893836    
    151000   0.59375458    -7.6046124     -6.7139932      5.3363686      50218.233      36.893836      36.893836      36.893836    
    152000   0.59688388    -7.6015571     -6.706244       5.3599319      50218.233      36.893836      36.893836      36.893836    
    153000   0.59635544    -7.6007767     -6.7062563      5.3640066      50218.233      36.893836      36.893836      36.893836    
    154000   0.59199023    -7.5983346     -6.7103619      5.3752128      50218.233      36.893836      36.893836      36.893836    
    155000   0.59403391    -7.6054924     -6.7144542      5.3281128      50218.233      36.893836      36.893836      36.893836    
    156000   0.59586912    -7.6013021     -6.7075111      5.3670074      50218.233      36.893836      36.893836      36.893836    
    157000   0.59495978    -7.6105282     -6.7181012      5.2870226      50218.233      36.893836      36.893836      36.893836    
    158000   0.59524458    -7.6043456     -6.7114914      5.3325953      50218.233      36.893836      36.893836      36.893836    
    159000   0.59373007    -7.6075173     -6.7169349      5.3136282      50218.233      36.893836      36.893836      36.893836    
    160000   0.59615369    -7.6053127     -6.7110949      5.3259384      50218.233      36.893836      36.893836      36.893836    
    161000   0.59765935    -7.6029708     -6.7064946      5.3515146      50218.233      36.893836      36.893836      36.893836    
    162000   0.59932291    -7.6043224     -6.7053509      5.3326783      50218.233      36.893836      36.893836      36.893836    
    163000   0.59466449    -7.6025854     -6.7106013      5.3505825      50218.233      36.893836      36.893836      36.893836    
    164000   0.59549414    -7.6049605     -6.711732       5.3233752      50218.233      36.893836      36.893836      36.893836    
    165000   0.59786152    -7.6049421     -6.7081626      5.3332721      50218.233      36.893836      36.893836      36.893836    
    166000   0.594604      -7.6039384     -6.7120451      5.3420445      50218.233      36.893836      36.893836      36.893836    
    167000   0.59614705    -7.6038075     -6.7095997      5.3324921      50218.233      36.893836      36.893836      36.893836    
    168000   0.59629784    -7.603569      -6.7091349      5.3380109      50218.233      36.893836      36.893836      36.893836    
    169000   0.59451062    -7.6062375     -6.7144843      5.3284163      50218.233      36.893836      36.893836      36.893836    
    170000   0.5973037     -7.6061133     -6.7101705      5.3410761      50218.233      36.893836      36.893836      36.893836    
    171000   0.5925285     -7.6089006     -6.7201205      5.3073296      50218.233      36.893836      36.893836      36.893836    
    172000   0.59459087    -7.6104813     -6.7186077      5.2858399      50218.233      36.893836      36.893836      36.893836    
    173000   0.59476153    -7.6001937     -6.7080641      5.3756544      50218.233      36.893836      36.893836      36.893836    
    174000   0.59272409    -7.6072722     -6.7181987      5.3086986      50218.233      36.893836      36.893836      36.893836    
    175000   0.59584433    -7.6098        -6.7160462      5.304336       50218.233      36.893836      36.893836      36.893836    
    176000   0.59708945    -7.6087949     -6.7131735      5.3132726      50218.233      36.893836      36.893836      36.893836    
    177000   0.59706501    -7.6049383     -6.7093535      5.3378037      50218.233      36.893836      36.893836      36.893836    
    178000   0.59416688    -7.606251      -6.7150134      5.3365561      50218.233      36.893836      36.893836      36.893836    
    179000   0.59839586    -7.6097165     -6.7121354      5.3076606      50218.233      36.893836      36.893836      36.893836    
    180000   0.59590646    -7.6131905     -6.7193435      5.2814668      50218.233      36.893836      36.893836      36.893836    
    181000   0.59521233    -7.6129661     -6.7201603      5.2804468      50218.233      36.893836      36.893836      36.893836    
    182000   0.5965421     -7.6056011     -6.7108007      5.3260998      50218.233      36.893836      36.893836      36.893836    
    183000   0.59556074    -7.6082221     -6.7148937      5.3018783      50218.233      36.893836      36.893836      36.893836    
    184000   0.59427787    -7.6070993     -6.7156952      5.3247262      50218.233      36.893836      36.893836      36.893836    
    185000   0.59528455    -7.6091021     -6.716188       5.3009217      50218.233      36.893836      36.893836      36.893836    
    186000   0.59874274    -7.6054451     -6.7073438      5.3403815      50218.233      36.893836      36.893836      36.893836    
    187000   0.59597583    -7.606817      -6.712866       5.3301875      50218.233      36.893836      36.893836      36.893836    
    188000   0.59507857    -7.6077127     -6.7151076      5.3157065      50218.233      36.893836      36.893836      36.893836    
    189000   0.59527016    -7.6023189     -6.7094264      5.3592719      50218.233      36.893836      36.893836      36.893836    
    190000   0.59356532    -7.6058568     -6.7155215      5.3192502      50218.233      36.893836      36.893836      36.893836    
    191000   0.59890749    -7.61217       -6.7138215      5.2798834      50218.233      36.893836      36.893836      36.893836    
    192000   0.59329568    -7.6060046     -6.7160737      5.3304179      50218.233      36.893836      36.893836      36.893836    
    193000   0.59624802    -7.6043767     -6.7100174      5.3442478      50218.233      36.893836      36.893836      36.893836    
    194000   0.59410453    -7.6099317     -6.7187876      5.2957011      50218.233      36.893836      36.893836      36.893836    
    195000   0.59458639    -7.6052758     -6.7134089      5.3462621      50218.233      36.893836      36.893836      36.893836    
    196000   0.5936208     -7.6095313     -6.7191127      5.2930083      50218.233      36.893836      36.893836      36.893836    
    197000   0.59445519    -7.6103555     -6.7186854      5.2960365      50218.233      36.893836      36.893836      36.893836    
    198000   0.5951616     -7.6094435     -6.7167139      5.31006        50218.233      36.893836      36.893836      36.893836    
    199000   0.59503958    -7.6061321     -6.7135855      5.3358579      50218.233      36.893836      36.893836      36.893836    
    200000   0.59351562    -7.6096614     -6.7194006      5.3090641      50218.233      36.893836      36.893836      36.893836    
    201000   0.59870338    -7.6083679     -6.7103256      5.3265422      50218.233      36.893836      36.893836      36.893836    
    202000   0.5936321     -7.6017959     -6.7113604      5.3678093      50218.233      36.893836      36.893836      36.893836    
    203000   0.59342932    -7.6057903     -6.715659       5.333611       50218.233      36.893836      36.893836      36.893836    
    204000   0.59536635    -7.6082967     -6.7152599      5.3170603      50218.233      36.893836      36.893836      36.893836    
    205000   0.59444342    -7.6014819     -6.7098295      5.367426       50218.233      36.893836      36.893836      36.893836    
    206000   0.59643701    -7.6054927     -6.7108499      5.3355359      50218.233      36.893836      36.893836      36.893836    
    207000   0.59373372    -7.6097252     -6.7191373      5.3102854      50218.233      36.893836      36.893836      36.893836    
    208000   0.59767448    -7.6052267     -6.7087277      5.354039       50218.233      36.893836      36.893836      36.893836    
    209000   0.59589728    -7.6044537     -6.7106205      5.3487146      50218.233      36.893836      36.893836      36.893836    
    210000   0.59509905    -7.6050564     -6.7124205      5.3386082      50218.233      36.893836      36.893836      36.893836    
    211000   0.59435768    -7.610078      -6.7185542      5.3080462      50218.233      36.893836      36.893836      36.893836    
    212000   0.59697322    -7.6086109     -6.7131638      5.3175771      50218.233      36.893836      36.893836      36.893836    
    213000   0.59700141    -7.6059928     -6.7105035      5.3388317      50218.233      36.893836      36.893836      36.893836    
    214000   0.59144081    -7.6086375     -6.7214889      5.2989258      50218.233      36.893836      36.893836      36.893836    
    215000   0.5950972     -7.6023051     -6.709672       5.3710711      50218.233      36.893836      36.893836      36.893836    
    216000   0.59334102    -7.6056629     -6.715664       5.3395592      50218.233      36.893836      36.893836      36.893836    
    217000   0.59250643    -7.6012183     -6.7124713      5.3703599      50218.233      36.893836      36.893836      36.893836    
    218000   0.59750258    -7.6060937     -6.7098526      5.3405938      50218.233      36.893836      36.893836      36.893836    
    219000   0.59566038    -7.6045808     -6.711103       5.3386728      50218.233      36.893836      36.893836      36.893836    
    220000   0.59935363    -7.6030566     -6.704039       5.3546735      50218.233      36.893836      36.893836      36.893836    
    221000   0.59401308    -7.6041778     -6.7131708      5.3449095      50218.233      36.893836      36.893836      36.893836    
    222000   0.59569545    -7.6008952     -6.7073648      5.3643382      50218.233      36.893836      36.893836      36.893836    
    223000   0.59667798    -7.6080938     -6.7130895      5.3232197      50218.233      36.893836      36.893836      36.893836    
    224000   0.59292346    -7.5999379     -6.7105654      5.36519        50218.233      36.893836      36.893836      36.893836    
    225000   0.59667009    -7.6093852     -6.7143928      5.3015877      50218.233      36.893836      36.893836      36.893836    
    226000   0.59202819    -7.6079194     -6.7198897      5.3163826      50218.233      36.893836      36.893836      36.893836    
    227000   0.59380702    -7.6055321     -6.7148343      5.3288391      50218.233      36.893836      36.893836      36.893836    
    228000   0.59542308    -7.6018123     -6.7086904      5.3649913      50218.233      36.893836      36.893836      36.893836    
    229000   0.59637417    -7.6055593     -6.7110108      5.3327459      50218.233      36.893836      36.893836      36.893836    
    230000   0.59377337    -7.6010287     -6.7103813      5.3761384      50218.233      36.893836      36.893836      36.893836    
    231000   0.59436582    -7.6083192     -6.7167832      5.3138611      50218.233      36.893836      36.893836      36.893836    
    232000   0.59587089    -7.6089564     -6.7151628      5.3081916      50218.233      36.893836      36.893836      36.893836    
    233000   0.59406865    -7.6095496     -6.7184593      5.2989218      50218.233      36.893836      36.893836      36.893836    
    234000   0.59400264    -7.6114084     -6.7204172      5.2887931      50218.233      36.893836      36.893836      36.893836    
    235000   0.59360473    -7.6051989     -6.7148045      5.3340421      50218.233      36.893836      36.893836      36.893836    
    236000   0.59467027    -7.6055207     -6.713528       5.3425379      50218.233      36.893836      36.893836      36.893836    
    237000   0.59177015    -7.6001761     -6.7125335      5.3777334      50218.233      36.893836      36.893836      36.893836    
    238000   0.59490491    -7.6064707     -6.714126       5.3238915      50218.233      36.893836      36.893836      36.893836    
    239000   0.59354938    -7.6096686     -6.7193572      5.3018735      50218.233      36.893836      36.893836      36.893836    
    240000   0.59375938    -7.605712      -6.7150856      5.3357803      50218.233      36.893836      36.893836      36.893836    
    241000   0.5943705     -7.6049434     -6.7134004      5.3381504      50218.233      36.893836      36.893836      36.893836    
    242000   0.59575378    -7.6016572     -6.7080393      5.3703773      50218.233      36.893836      36.893836      36.893836    
    243000   0.59351567    -7.5991688     -6.708908       5.3734335      50218.233      36.893836      36.893836      36.893836    
    244000   0.59729307    -7.6041002     -6.7081734      5.3392525      50218.233      36.893836      36.893836      36.893836    
    245000   0.59633945    -7.6081386     -6.7136421      5.3037758      50218.233      36.893836      36.893836      36.893836    
    246000   0.59697503    -7.602037      -6.7065872      5.3565212      50218.233      36.893836      36.893836      36.893836    
    247000   0.59453794    -7.605836      -6.7140418      5.3263617      50218.233      36.893836      36.893836      36.893836    
    248000   0.59715026    -7.6032523     -6.7075396      5.3495491      50218.233      36.893836      36.893836      36.893836    
    249000   0.5914735     -7.6022633     -6.7150656      5.3495421      50218.233      36.893836      36.893836      36.893836    
    250000   0.59368637    -7.6046446     -6.7141277      5.3378242      50218.233      36.893836      36.893836      36.893836    
    251000   0.59561252    -7.6042672     -6.7108611      5.3341418      50218.233      36.893836      36.893836      36.893836    
    252000   0.59456519    -7.6052163     -6.7133812      5.3341527      50218.233      36.893836      36.893836      36.893836    
    253000   0.59603573    -7.6008727     -6.7068319      5.3551738      50218.233      36.893836      36.893836      36.893836    
    254000   0.59820027    -7.6036975     -6.7064099      5.340255       50218.233      36.893836      36.893836      36.893836    
    255000   0.59349422    -7.6103818     -6.7201531      5.3052603      50218.233      36.893836      36.893836      36.893836    
    256000   0.59503357    -7.6093418     -6.7168042      5.3067292      50218.233      36.893836      36.893836      36.893836    
    257000   0.59748695    -7.6027287     -6.706511       5.344263       50218.233      36.893836      36.893836      36.893836    
    258000   0.59825775    -7.6069526     -6.7095787      5.3348985      50218.233      36.893836      36.893836      36.893836    
    259000   0.59896349    -7.6066768     -6.7082443      5.3266184      50218.233      36.893836      36.893836      36.893836    
    260000   0.59656441    -7.6037056     -6.7088717      5.3338451      50218.233      36.893836      36.893836      36.893836    
    261000   0.59472566    -7.6082907     -6.7162149      5.3178546      50218.233      36.893836      36.893836      36.893836    
    262000   0.59268915    -7.6056647     -6.7166436      5.3315428      50218.233      36.893836      36.893836      36.893836    
    263000   0.59632965    -7.6031152     -6.7086334      5.3515546      50218.233      36.893836      36.893836      36.893836    
    264000   0.59324503    -7.601881      -6.7120261      5.3462812      50218.233      36.893836      36.893836      36.893836    
    265000   0.59757851    -7.6054197     -6.7090647      5.3385486      50218.233      36.893836      36.893836      36.893836    
    266000   0.59405709    -7.6038718     -6.7127988      5.3485318      50218.233      36.893836      36.893836      36.893836    
    267000   0.5950854     -7.607128      -6.7145126      5.3255523      50218.233      36.893836      36.893836      36.893836    
    268000   0.59530467    -7.605396      -6.7124517      5.3400597      50218.233      36.893836      36.893836      36.893836    
    269000   0.59627161    -7.6055257     -6.711131       5.3499572      50218.233      36.893836      36.893836      36.893836    
    270000   0.59314262    -7.6080787     -6.7183774      5.3103647      50218.233      36.893836      36.893836      36.893836    
    271000   0.59686479    -7.6087154     -6.713431       5.3074355      50218.233      36.893836      36.893836      36.893836    
    272000   0.59549777    -7.6012201     -6.7079861      5.3560152      50218.233      36.893836      36.893836      36.893836    
    273000   0.59457198    -7.6085093     -6.7166641      5.3213043      50218.233      36.893836      36.893836      36.893836    
    274000   0.59654143    -7.6070549     -6.7122554      5.3284084      50218.233      36.893836      36.893836      36.893836    
    275000   0.59598506    -7.6062121     -6.7122472      5.3163031      50218.233      36.893836      36.893836      36.893836    
    276000   0.59658811    -7.6052259     -6.7103564      5.3319793      50218.233      36.893836      36.893836      36.893836    
    277000   0.5968637     -7.604753      -6.7094701      5.3302135      50218.233      36.893836      36.893836      36.893836    
    278000   0.59368589    -7.6075131     -6.7169969      5.3101295      50218.233      36.893836      36.893836      36.893836    
    279000   0.59506645    -7.6031053     -6.7105183      5.3451095      50218.233      36.893836      36.893836      36.893836    
    280000   0.59440312    -7.5997735     -6.7081815      5.370421       50218.233      36.893836      36.893836      36.893836    
    281000   0.59576535    -7.604838      -6.7112026      5.3360856      50218.233      36.893836      36.893836      36.893836    
    282000   0.59498723    -7.6050243     -6.7125562      5.3486186      50218.233      36.893836      36.893836      36.893836    
    283000   0.59381536    -7.6025882     -6.7118779      5.3522167      50218.233      36.893836      36.893836      36.893836    
    284000   0.59460621    -7.6054494     -6.7135528      5.3284653      50218.233      36.893836      36.893836      36.893836    
    285000   0.59379052    -7.599674      -6.7090009      5.3720579      50218.233      36.893836      36.893836      36.893836    
    286000   0.59570334    -7.6003513     -6.706809       5.3742192      50218.233      36.893836      36.893836      36.893836    
    287000   0.59796699    -7.6056496     -6.7087119      5.3331818      50218.233      36.893836      36.893836      36.893836    
    288000   0.59559658    -7.6097146     -6.7163324      5.2997362      50218.233      36.893836      36.893836      36.893836    
    289000   0.59258875    -7.6077922     -6.7189217      5.3277142      50218.233      36.893836      36.893836      36.893836    
    290000   0.5922533     -7.6085104     -6.7201431      5.3114706      50218.233      36.893836      36.893836      36.893836    
    291000   0.59298646    -7.6124244     -6.7229574      5.2809135      50218.233      36.893836      36.893836      36.893836    
    292000   0.59642928    -7.6125912     -6.71796        5.2865585      50218.233      36.893836      36.893836      36.893836    
    293000   0.59601062    -7.6024731     -6.7084699      5.3468344      50218.233      36.893836      36.893836      36.893836    
    294000   0.59539334    -7.6045263     -6.711449       5.3489244      50218.233      36.893836      36.893836      36.893836    
    295000   0.59364193    -7.6065478     -6.7160976      5.3178728      50218.233      36.893836      36.893836      36.893836    
    296000   0.59391531    -7.6131591     -6.7222988      5.2670086      50218.233      36.893836      36.893836      36.893836    
    297000   0.59308325    -7.6035828     -6.7139706      5.3505158      50218.233      36.893836      36.893836      36.893836    
    298000   0.5958221     -7.6104088     -6.7166884      5.3059582      50218.233      36.893836      36.893836      36.893836    
    299000   0.59813938    -7.6055099     -6.7083136      5.3434601      50218.233      36.893836      36.893836      36.893836    
    300000   0.59712516    -7.6060738     -6.7103988      5.3237592      50218.233      36.893836      36.893836      36.893836    
    301000   0.59499356    -7.603966      -6.7114884      5.3417844      50218.233      36.893836      36.893836      36.893836    
    302000   0.59500238    -7.6063763     -6.7138854      5.3279555      50218.233      36.893836      36.893836      36.893836    
    303000   0.59391169    -7.6097059     -6.718851       5.3087654      50218.233      36.893836      36.893836      36.893836    
    304000   0.59430495    -7.6061602     -6.7147154      5.3259122      50218.233      36.893836      36.893836      36.893836    
    305000   0.59488135    -7.6069707     -6.7146614      5.3178145      50218.233      36.893836      36.893836      36.893836    
    306000   0.59257607    -7.6070161     -6.7181646      5.3158275      50218.233      36.893836      36.893836      36.893836    
    307000   0.59552951    -7.6112729     -6.7179913      5.2717145      50218.233      36.893836      36.893836      36.893836    
    308000   0.5967269     -7.6088891     -6.7138115      5.3057791      50218.233      36.893836      36.893836      36.893836    
    309000   0.59174133    -7.6058628     -6.7182634      5.3265152      50218.233      36.893836      36.893836      36.893836    
    310000   0.5920591     -7.6084053     -6.7203293      5.3092444      50218.233      36.893836      36.893836      36.893836    
    311000   0.59624435    -7.6096304     -6.7152766      5.287996       50218.233      36.893836      36.893836      36.893836    
    312000   0.59601161    -7.6072061     -6.7132014      5.3188933      50218.233      36.893836      36.893836      36.893836    
    313000   0.59415251    -7.6077074     -6.7164913      5.309391       50218.233      36.893836      36.893836      36.893836    
    314000   0.596275      -7.6083873     -6.7139875      5.3139165      50218.233      36.893836      36.893836      36.893836    
    315000   0.59501962    -7.6083662     -6.7158494      5.3091104      50218.233      36.893836      36.893836      36.893836    
    316000   0.59311801    -7.6105161     -6.7208518      5.2949554      50218.233      36.893836      36.893836      36.893836    
    317000   0.59483853    -7.6061734     -6.7139283      5.322997       50218.233      36.893836      36.893836      36.893836    
    318000   0.59354325    -7.6037176     -6.7134154      5.3507288      50218.233      36.893836      36.893836      36.893836    
    319000   0.59854379    -7.6102954     -6.7124925      5.3063241      50218.233      36.893836      36.893836      36.893836    
    320000   0.5966691     -7.6097718     -6.7147809      5.2961913      50218.233      36.893836      36.893836      36.893836    
    321000   0.59634696    -7.6046567     -6.7101489      5.3436321      50218.233      36.893836      36.893836      36.893836    
    322000   0.5926865     -7.6098627     -6.7208456      5.2931682      50218.233      36.893836      36.893836      36.893836    
    323000   0.59333705    -7.6026066     -6.7126137      5.3654936      50218.233      36.893836      36.893836      36.893836    
    324000   0.59348784    -7.6080994     -6.7178803      5.318842       50218.233      36.893836      36.893836      36.893836    
    325000   0.593923      -7.6077643     -6.7168925      5.3183206      50218.233      36.893836      36.893836      36.893836    
    326000   0.59550022    -7.6106734     -6.7174357      5.3004913      50218.233      36.893836      36.893836      36.893836    
    327000   0.59245759    -7.6092406     -6.7205669      5.2971865      50218.233      36.893836      36.893836      36.893836    
    328000   0.5946036     -7.6064328     -6.7145401      5.3305671      50218.233      36.893836      36.893836      36.893836    
    329000   0.59593419    -7.6086014     -6.7147128      5.3187699      50218.233      36.893836      36.893836      36.893836    
    330000   0.59623426    -7.6073656     -6.7130269      5.3145809      50218.233      36.893836      36.893836      36.893836    
    331000   0.5917436     -7.6081716     -6.7205688      5.316858       50218.233      36.893836      36.893836      36.893836    
    332000   0.59569138    -7.607179      -6.7136547      5.3274478      50218.233      36.893836      36.893836      36.893836    
    333000   0.59228929    -7.6100115     -6.7215902      5.2991556      50218.233      36.893836      36.893836      36.893836    
    334000   0.59068587    -7.610726      -6.7247098      5.2945588      50218.233      36.893836      36.893836      36.893836    
    335000   0.59300984    -7.6093431     -6.719841       5.3070647      50218.233      36.893836      36.893836      36.893836    
    336000   0.59631355    -7.6073411     -6.7128835      5.3293217      50218.233      36.893836      36.893836      36.893836    
    337000   0.59259914    -7.6124388     -6.7235527      5.2720743      50218.233      36.893836      36.893836      36.893836    
    338000   0.59684368    -7.6100191     -6.7147663      5.3090092      50218.233      36.893836      36.893836      36.893836    
    339000   0.59229264    -7.6076251     -6.7191988      5.3175415      50218.233      36.893836      36.893836      36.893836    
    340000   0.59715561    -7.604724      -6.7090033      5.345772       50218.233      36.893836      36.893836      36.893836    
    341000   0.59391133    -7.6092131     -6.7183588      5.3174449      50218.233      36.893836      36.893836      36.893836    
    342000   0.59116648    -7.6088253     -6.7220882      5.310854       50218.233      36.893836      36.893836      36.893836    
    343000   0.59499065    -7.6087796     -6.7163063      5.3193026      50218.233      36.893836      36.893836      36.893836    
    344000   0.59551928    -7.6085236     -6.7152574      5.3084623      50218.233      36.893836      36.893836      36.893836    
    345000   0.59396299    -7.6095542     -6.7186224      5.3080749      50218.233      36.893836      36.893836      36.893836    
    346000   0.5930915     -7.6053604     -6.7157358      5.3308124      50218.233      36.893836      36.893836      36.893836    
    347000   0.59283417    -7.6108977     -6.7216591      5.287176       50218.233      36.893836      36.893836      36.893836    
    348000   0.5928512     -7.6066929     -6.7174287      5.3272308      50218.233      36.893836      36.893836      36.893836    
    349000   0.5938636     -7.6094589     -6.7186762      5.3006812      50218.233      36.893836      36.893836      36.893836    
    350000   0.59287402    -7.6092195     -6.7199212      5.3050922      50218.233      36.893836      36.893836      36.893836    
    351000   0.59416339    -7.6072608     -6.7160284      5.313458       50218.233      36.893836      36.893836      36.893836    
    352000   0.59437019    -7.6064885     -6.7149459      5.3266051      50218.233      36.893836      36.893836      36.893836    
    353000   0.59921818    -7.611114      -6.7122996      5.3006039      50218.233      36.893836      36.893836      36.893836    
    354000   0.59371466    -7.612601      -6.7220416      5.2853656      50218.233      36.893836      36.893836      36.893836    
    355000   0.5978583     -7.6136441     -6.7168694      5.2613375      50218.233      36.893836      36.893836      36.893836    
    356000   0.59319714    -7.6026353     -6.7128523      5.3430966      50218.233      36.893836      36.893836      36.893836    
    357000   0.5980265     -7.6089186     -6.7118916      5.320265       50218.233      36.893836      36.893836      36.893836    
    358000   0.59695191    -7.6083082     -6.712893       5.3063383      50218.233      36.893836      36.893836      36.893836    
    359000   0.59318004    -7.6089004     -6.719143       5.3144429      50218.233      36.893836      36.893836      36.893836    
    360000   0.59437265    -7.6053133     -6.713767       5.3228633      50218.233      36.893836      36.893836      36.893836    
    361000   0.59358557    -7.6073378     -6.7169721      5.3220542      50218.233      36.893836      36.893836      36.893836    
    362000   0.59282324    -7.606548      -6.7173258      5.316677       50218.233      36.893836      36.893836      36.893836    
    363000   0.59658027    -7.6072835     -6.7124258      5.3278189      50218.233      36.893836      36.893836      36.893836    
    364000   0.59291488    -7.604546      -6.7151864      5.3437313      50218.233      36.893836      36.893836      36.893836    
    365000   0.59532537    -7.6057906     -6.7128153      5.3426506      50218.233      36.893836      36.893836      36.893836    
    366000   0.59469768    -7.6065553     -6.7145215      5.3227553      50218.233      36.893836      36.893836      36.893836    
    367000   0.59769002    -7.60576       -6.7092378      5.3396581      50218.233      36.893836      36.893836      36.893836    
    368000   0.59592248    -7.6025006     -6.7086296      5.3599029      50218.233      36.893836      36.893836      36.893836    
    369000   0.59535165    -7.6055417     -6.7125269      5.3322525      50218.233      36.893836      36.893836      36.893836    
    370000   0.59356972    -7.6078127     -6.7174708      5.326468       50218.233      36.893836      36.893836      36.893836    
    371000   0.59447337    -7.603214      -6.7115167      5.3571006      50218.233      36.893836      36.893836      36.893836    
    372000   0.59368747    -7.6038073     -6.7132887      5.3444945      50218.233      36.893836      36.893836      36.893836    
    373000   0.59595871    -7.6011418     -6.7072164      5.3767543      50218.233      36.893836      36.893836      36.893836    
    374000   0.59532027    -7.6078717     -6.714904       5.3213541      50218.233      36.893836      36.893836      36.893836    
    375000   0.59715821    -7.6008607     -6.7051362      5.3621279      50218.233      36.893836      36.893836      36.893836    
    376000   0.59137571    -7.6040931     -6.7170422      5.3389995      50218.233      36.893836      36.893836      36.893836    
    377000   0.5957645     -7.6042166     -6.7105826      5.3530754      50218.233      36.893836      36.893836      36.893836    
    378000   0.59517273    -7.6018437     -6.7090973      5.3581762      50218.233      36.893836      36.893836      36.893836    
    379000   0.59735714    -7.6086132     -6.7125903      5.3137237      50218.233      36.893836      36.893836      36.893836    
    380000   0.59493065    -7.6082807     -6.7158974      5.3063583      50218.233      36.893836      36.893836      36.893836    
    381000   0.59527921    -7.6041968     -6.7112907      5.3458288      50218.233      36.893836      36.893836      36.893836    
    382000   0.59456212    -7.6066556     -6.7148251      5.3220435      50218.233      36.893836      36.893836      36.893836    
    383000   0.59271306    -7.6036284     -6.7145714      5.3447054      50218.233      36.893836      36.893836      36.893836    
    384000   0.59535831    -7.6056884     -6.7126636      5.3296316      50218.233      36.893836      36.893836      36.893836    
    385000   0.59390793    -7.605649      -6.7147997      5.3289594      50218.233      36.893836      36.893836      36.893836    
    386000   0.59881964    -7.602977      -6.7047603      5.3531966      50218.233      36.893836      36.893836      36.893836    
    387000   0.59402303    -7.6035947     -6.7125729      5.3413887      50218.233      36.893836      36.893836      36.893836    
    388000   0.59387027    -7.6098107     -6.7190179      5.297651       50218.233      36.893836      36.893836      36.893836    
    389000   0.59575461    -7.6044063     -6.7107871      5.3461787      50218.233      36.893836      36.893836      36.893836    
    390000   0.59481369    -7.6047423     -6.7125344      5.3333805      50218.233      36.893836      36.893836      36.893836    
    391000   0.59452738    -7.6057536     -6.7139752      5.3343907      50218.233      36.893836      36.893836      36.893836    
    392000   0.5971032     -7.602601      -6.706959       5.3556457      50218.233      36.893836      36.893836      36.893836    
    393000   0.59606547    -7.6081414     -6.714056       5.3177821      50218.233      36.893836      36.893836      36.893836    
    394000   0.59650524    -7.6134212     -6.7186761      5.2828033      50218.233      36.893836      36.893836      36.893836    
    395000   0.59404684    -7.6057563     -6.7146987      5.3325417      50218.233      36.893836      36.893836      36.893836    
    396000   0.59421096    -7.6081412     -6.7168375      5.3150653      50218.233      36.893836      36.893836      36.893836    
    397000   0.59624524    -7.6064769     -6.7121218      5.3360301      50218.233      36.893836      36.893836      36.893836    
    398000   0.59176705    -7.6032731     -6.7156351      5.3454712      50218.233      36.893836      36.893836      36.893836    
    399000   0.59196689    -7.6069616     -6.7190239      5.3302707      50218.233      36.893836      36.893836      36.893836    
    400000   0.59327702    -7.6058368     -6.7159339      5.3382336      50218.233      36.893836      36.893836      36.893836    
    401000   0.59577782    -7.6022158     -6.7085618      5.3613856      50218.233      36.893836      36.893836      36.893836    
    402000   0.59220919    -7.60901       -6.7207088      5.3085988      50218.233      36.893836      36.893836      36.893836    
    403000   0.5946293     -7.6085039     -6.7165726      5.3107016      50218.233      36.893836      36.893836      36.893836    
    404000   0.59650337    -7.6006741     -6.7059318      5.3708487      50218.233      36.893836      36.893836      36.893836    
    405000   0.59573874    -7.6024302     -6.7088348      5.3588816      50218.233      36.893836      36.893836      36.893836    
    406000   0.59723592    -7.6050485     -6.7092073      5.3466882      50218.233      36.893836      36.893836      36.893836    
    407000   0.5960248     -7.6074853     -6.7134608      5.3255534      50218.233      36.893836      36.893836      36.893836    
    408000   0.59402904    -7.6061135     -6.7150826      5.3282843      50218.233      36.893836      36.893836      36.893836    
    409000   0.59264667    -7.6024462     -6.7134889      5.3317581      50218.233      36.893836      36.893836      36.893836    
    410000   0.59402813    -7.6024622     -6.7114327      5.351832       50218.233      36.893836      36.893836      36.893836    
    411000   0.59244282    -7.6033711     -6.7147195      5.3415986      50218.233      36.893836      36.893836      36.893836    
    412000   0.59485494    -7.6028414     -6.7105717      5.3389551      50218.233      36.893836      36.893836      36.893836    
    413000   0.59419294    -7.6057327     -6.714456       5.3215417      50218.233      36.893836      36.893836      36.893836    
    414000   0.59500696    -7.6054245     -6.7129267      5.3367265      50218.233      36.893836      36.893836      36.893836    
    415000   0.59385987    -7.6060646     -6.7152874      5.3233442      50218.233      36.893836      36.893836      36.893836    
    416000   0.59300765    -7.6022257     -6.7127269      5.3536025      50218.233      36.893836      36.893836      36.893836    
    417000   0.59611639    -7.6034303     -6.7092684      5.3613568      50218.233      36.893836      36.893836      36.893836    
    418000   0.59839434    -7.6055418     -6.7079631      5.3372024      50218.233      36.893836      36.893836      36.893836    
    419000   0.59364557    -7.6054705     -6.7150148      5.3349057      50218.233      36.893836      36.893836      36.893836    
    420000   0.59426801    -7.6035246     -6.7121353      5.3394126      50218.233      36.893836      36.893836      36.893836    
    421000   0.59786466    -7.6023397     -6.7055554      5.3651815      50218.233      36.893836      36.893836      36.893836    
    422000   0.59801273    -7.6066399     -6.7096336      5.3341656      50218.233      36.893836      36.893836      36.893836    
    423000   0.59469608    -7.6022523     -6.7102208      5.3703839      50218.233      36.893836      36.893836      36.893836    
    424000   0.59576053    -7.6034101     -6.709782       5.3685373      50218.233      36.893836      36.893836      36.893836    
    425000   0.59185923    -7.6055774     -6.7178012      5.3299183      50218.233      36.893836      36.893836      36.893836    
    426000   0.59586849    -7.602742      -6.708952       5.3675948      50218.233      36.893836      36.893836      36.893836    
    427000   0.59175851    -7.6069503     -6.7193251      5.3242609      50218.233      36.893836      36.893836      36.893836    
    428000   0.59301008    -7.5983798     -6.7088773      5.3850129      50218.233      36.893836      36.893836      36.893836    
    429000   0.5923335     -7.604764      -6.7162764      5.3446716      50218.233      36.893836      36.893836      36.893836    
    430000   0.59185379    -7.6057653     -6.7179973      5.3384455      50218.233      36.893836      36.893836      36.893836    
    431000   0.59588349    -7.6056163     -6.7118038      5.3325424      50218.233      36.893836      36.893836      36.893836    
    432000   0.59822995    -7.6003029     -6.7029707      5.3746371      50218.233      36.893836      36.893836      36.893836    
    433000   0.59418754    -7.6079121     -6.7166435      5.3220833      50218.233      36.893836      36.893836      36.893836    
    434000   0.593515      -7.6009379     -6.7106781      5.3649224      50218.233      36.893836      36.893836      36.893836    
    435000   0.59505635    -7.6047723     -6.7122005      5.3340061      50218.233      36.893836      36.893836      36.893836    
    436000   0.59147719    -7.6101712     -6.722968       5.3022518      50218.233      36.893836      36.893836      36.893836    
    437000   0.59816586    -7.6038077     -6.7065717      5.3528283      50218.233      36.893836      36.893836      36.893836    
    438000   0.59363505    -7.6035244     -6.7130845      5.3384123      50218.233      36.893836      36.893836      36.893836    
    439000   0.59308225    -7.6045471     -6.7149363      5.3313016      50218.233      36.893836      36.893836      36.893836    
    440000   0.59618765    -7.5997792     -6.7055105      5.3730562      50218.233      36.893836      36.893836      36.893836    
    441000   0.59624812    -7.6023231     -6.7079636      5.3497313      50218.233      36.893836      36.893836      36.893836    
    442000   0.5940754     -7.6034639     -6.7123635      5.3445422      50218.233      36.893836      36.893836      36.893836    
    443000   0.59539306    -7.6064488     -6.7133719      5.3320197      50218.233      36.893836      36.893836      36.893836    
    444000   0.59581624    -7.6036645     -6.7099529      5.3481098      50218.233      36.893836      36.893836      36.893836    
    445000   0.593696      -7.605656      -6.7151246      5.3306746      50218.233      36.893836      36.893836      36.893836    
    446000   0.59046419    -7.601461      -6.7157773      5.3600476      50218.233      36.893836      36.893836      36.893836    
    447000   0.59434095    -7.605998      -6.7144993      5.3223975      50218.233      36.893836      36.893836      36.893836    
    448000   0.59602348    -7.6034232     -6.7094007      5.3399507      50218.233      36.893836      36.893836      36.893836    
    449000   0.59593459    -7.6022939     -6.7084048      5.3590322      50218.233      36.893836      36.893836      36.893836    
    450000   0.59581644    -7.599769      -6.706057       5.3740578      50218.233      36.893836      36.893836      36.893836    
    451000   0.59529534    -7.6055308     -6.7126005      5.3276214      50218.233      36.893836      36.893836      36.893836    
    452000   0.59372098    -7.604275      -6.7137062      5.3362504      50218.233      36.893836      36.893836      36.893836    
    453000   0.59514061    -7.6066245     -6.7139263      5.3174561      50218.233      36.893836      36.893836      36.893836    
    454000   0.59507504    -7.6043385     -6.7117387      5.3448987      50218.233      36.893836      36.893836      36.893836    
    455000   0.59453415    -7.6038443     -6.7120558      5.3614089      50218.233      36.893836      36.893836      36.893836    
    456000   0.59330285    -7.6040824     -6.7141407      5.3453251      50218.233      36.893836      36.893836      36.893836    
    457000   0.59629438    -7.60899       -6.7145612      5.3142525      50218.233      36.893836      36.893836      36.893836    
    458000   0.59475808    -7.6062183     -6.7140938      5.3272         50218.233      36.893836      36.893836      36.893836    
    459000   0.59748759    -7.6052528     -6.7090342      5.3462854      50218.233      36.893836      36.893836      36.893836    
    460000   0.59426791    -7.6016374     -6.7102482      5.3589133      50218.233      36.893836      36.893836      36.893836    
    461000   0.59109104    -7.6033321     -6.7167082      5.3364438      50218.233      36.893836      36.893836      36.893836    
    462000   0.59664026    -7.6029171     -6.7079695      5.3463778      50218.233      36.893836      36.893836      36.893836    
    463000   0.59367799    -7.6050396     -6.7145353      5.3462419      50218.233      36.893836      36.893836      36.893836    
    464000   0.59225189    -7.5994031     -6.7110379      5.3691085      50218.233      36.893836      36.893836      36.893836    
    465000   0.59666934    -7.6020025     -6.7070112      5.3603996      50218.233      36.893836      36.893836      36.893836    
    466000   0.59549807    -7.6044777     -6.7112433      5.3466587      50218.233      36.893836      36.893836      36.893836    
    467000   0.59661467    -7.607016      -6.7121068      5.3115164      50218.233      36.893836      36.893836      36.893836    
    468000   0.59378584    -7.6032016     -6.7125355      5.3486323      50218.233      36.893836      36.893836      36.893836    
    469000   0.59654746    -7.6069138     -6.7121054      5.3314173      50218.233      36.893836      36.893836      36.893836    
    470000   0.59216135    -7.6013986     -6.7131693      5.3712765      50218.233      36.893836      36.893836      36.893836    
    471000   0.59604155    -7.6023229     -6.7082732      5.3474536      50218.233      36.893836      36.893836      36.893836    
    472000   0.59653021    -7.6015459     -6.7067633      5.3699906      50218.233      36.893836      36.893836      36.893836    
    473000   0.59521061    -7.6019872     -6.709184       5.3504512      50218.233      36.893836      36.893836      36.893836    
    474000   0.59480104    -7.6020502     -6.7098613      5.354147       50218.233      36.893836      36.893836      36.893836    
    475000   0.59584628    -7.6108077     -6.717051       5.3076322      50218.233      36.893836      36.893836      36.893836    
    476000   0.59323167    -7.6012121     -6.7113773      5.3660998      50218.233      36.893836      36.893836      36.893836    
    477000   0.5959229     -7.6089738     -6.7151022      5.3108737      50218.233      36.893836      36.893836      36.893836    
    478000   0.59670737    -7.60593       -6.7108817      5.33165        50218.233      36.893836      36.893836      36.893836    
    479000   0.59573426    -7.6066823     -6.7130936      5.319532       50218.233      36.893836      36.893836      36.893836    
    480000   0.59400645    -7.6027841     -6.7117871      5.3616657      50218.233      36.893836      36.893836      36.893836    
    481000   0.59610004    -7.6072342     -6.7130969      5.3351032      50218.233      36.893836      36.893836      36.893836    
    482000   0.59681022    -7.599405      -6.7042024      5.3839024      50218.233      36.893836      36.893836      36.893836    
    483000   0.59592461    -7.6056058     -6.7117316      5.3318026      50218.233      36.893836      36.893836      36.893836    
    484000   0.59683834    -7.6074933     -6.7122485      5.32166        50218.233      36.893836      36.893836      36.893836    
    485000   0.59691643    -7.6040316     -6.7086697      5.3557362      50218.233      36.893836      36.893836      36.893836    
    486000   0.59550774    -7.6062824     -6.7130335      5.3279144      50218.233      36.893836      36.893836      36.893836    
    487000   0.59344334    -7.599571      -6.7094187      5.3822821      50218.233      36.893836      36.893836      36.893836    
    488000   0.59748033    -7.6072014     -6.7109936      5.3361209      50218.233      36.893836      36.893836      36.893836    
    489000   0.59102147    -7.6046335     -6.7181139      5.3298091      50218.233      36.893836      36.893836      36.893836    
    490000   0.59504935    -7.6033926     -6.7108313      5.3552203      50218.233      36.893836      36.893836      36.893836    
    491000   0.59779755    -7.6053048     -6.7086212      5.3396772      50218.233      36.893836      36.893836      36.893836    
    492000   0.59370283    -7.6007042     -6.7101627      5.3606402      50218.233      36.893836      36.893836      36.893836    
    493000   0.5935165     -7.6046313     -6.7143692      5.3255909      50218.233      36.893836      36.893836      36.893836    
    494000   0.59677199    -7.6064934     -6.7113482      5.3373409      50218.233      36.893836      36.893836      36.893836    
    495000   0.59670299    -7.6047221     -6.7096804      5.3322342      50218.233      36.893836      36.893836      36.893836    
    496000   0.59577109    -7.6034438     -6.7097999      5.3551891      50218.233      36.893836      36.893836      36.893836    
    497000   0.59454135    -7.6068171     -6.7150178      5.3364139      50218.233      36.893836      36.893836      36.893836    
    498000   0.59451598    -7.604203      -6.7124417      5.3403755      50218.233      36.893836      36.893836      36.893836    
    499000   0.59519233    -7.6003998     -6.707624       5.3644279      50218.233      36.893836      36.893836      36.893836    
    500000   0.59605563    -7.6063702     -6.7122995      5.3291163      50218.233      36.893836      36.893836      36.893836    
    501000   0.5972251     -7.6009016     -6.7050767      5.3741864      50218.233      36.893836      36.893836      36.893836    
    502000   0.59578717    -7.5992756     -6.7056076      5.380238       50218.233      36.893836      36.893836      36.893836    
    503000   0.59193983    -7.6038801     -6.715983       5.3307084      50218.233      36.893836      36.893836      36.893836    
    504000   0.59531693    -7.6005896     -6.7076269      5.365748       50218.233      36.893836      36.893836      36.893836    
    505000   0.59894383    -7.6022176     -6.7038147      5.377628       50218.233      36.893836      36.893836      36.893836    
    506000   0.59614294    -7.6032723     -6.7090706      5.3588922      50218.233      36.893836      36.893836      36.893836    
    507000   0.59236708    -7.5971075     -6.7085695      5.383691       50218.233      36.893836      36.893836      36.893836    
    508000   0.59359202    -7.5987999     -6.7084245      5.3830657      50218.233      36.893836      36.893836      36.893836    
    509000   0.5979611     -7.5983766     -6.7014477      5.3860326      50218.233      36.893836      36.893836      36.893836    
    510000   0.59117297    -7.6037068     -6.7169599      5.3374569      50218.233      36.893836      36.893836      36.893836    
    511000   0.59313822    -7.6020241     -6.7123294      5.3388365      50218.233      36.893836      36.893836      36.893836    
    512000   0.59397687    -7.6014543     -6.7105016      5.3521835      50218.233      36.893836      36.893836      36.893836    
    513000   0.59501957    -7.6021095     -6.7095928      5.3560032      50218.233      36.893836      36.893836      36.893836    
    514000   0.59360141    -7.6041134     -6.713724       5.3426821      50218.233      36.893836      36.893836      36.893836    
    515000   0.59752163    -7.6058826     -6.7096129      5.3323623      50218.233      36.893836      36.893836      36.893836    
    516000   0.59528477    -7.6050248     -6.7121104      5.344891       50218.233      36.893836      36.893836      36.893836    
    517000   0.59456627    -7.6110133     -6.7191766      5.2778803      50218.233      36.893836      36.893836      36.893836    
    518000   0.5929329     -7.6007519     -6.7113652      5.3634458      50218.233      36.893836      36.893836      36.893836    
    519000   0.5921601     -7.5995526     -6.711325       5.3641071      50218.233      36.893836      36.893836      36.893836    
    520000   0.59304652    -7.6000305     -6.7104734      5.3769241      50218.233      36.893836      36.893836      36.893836    
    521000   0.59747229    -7.5992841     -6.7030884      5.3724058      50218.233      36.893836      36.893836      36.893836    
    522000   0.59815551    -7.6078935     -6.710673       5.316728       50218.233      36.893836      36.893836      36.893836    
    523000   0.59747224    -7.6033007     -6.7071051      5.3634329      50218.233      36.893836      36.893836      36.893836    
    524000   0.59464858    -7.6042024     -6.7122422      5.3361877      50218.233      36.893836      36.893836      36.893836    
    525000   0.59445762    -7.6041478     -6.7124741      5.3464415      50218.233      36.893836      36.893836      36.893836    
    526000   0.59182626    -7.6035777     -6.715851       5.3406272      50218.233      36.893836      36.893836      36.893836    
    527000   0.59213356    -7.604529      -6.7163413      5.33451        50218.233      36.893836      36.893836      36.893836    
    528000   0.59727791    -7.6048586     -6.7089545      5.3257068      50218.233      36.893836      36.893836      36.893836    
    529000   0.59672162    -7.6019302     -6.7068605      5.3688043      50218.233      36.893836      36.893836      36.893836    
    530000   0.59403339    -7.6051876     -6.7141502      5.3351809      50218.233      36.893836      36.893836      36.893836    
    531000   0.59601403    -7.6007232     -6.7067149      5.3570922      50218.233      36.893836      36.893836      36.893836    
    532000   0.59633769    -7.6068284     -6.7123346      5.3186934      50218.233      36.893836      36.893836      36.893836    
    533000   0.59446461    -7.6046264     -6.7129422      5.3428242      50218.233      36.893836      36.893836      36.893836    
    534000   0.59433429    -7.6084531     -6.7169644      5.2999211      50218.233      36.893836      36.893836      36.893836    
    535000   0.58936665    -7.5999817     -6.7159443      5.3677343      50218.233      36.893836      36.893836      36.893836    
    536000   0.59378872    -7.6049202     -6.7142497      5.3283071      50218.233      36.893836      36.893836      36.893836    
    537000   0.59484361    -7.6053422     -6.7130894      5.3252441      50218.233      36.893836      36.893836      36.893836    
    538000   0.59407442    -7.6044746     -6.7133756      5.3301636      50218.233      36.893836      36.893836      36.893836    
    539000   0.59819298    -7.605719      -6.7084423      5.3330912      50218.233      36.893836      36.893836      36.893836    
    540000   0.59722764    -7.6020181     -6.7061894      5.348929       50218.233      36.893836      36.893836      36.893836    
    541000   0.59463813    -7.6071166     -6.7151721      5.3141923      50218.233      36.893836      36.893836      36.893836    
    542000   0.5928387     -7.605357      -6.7161116      5.3208501      50218.233      36.893836      36.893836      36.893836    
    543000   0.59557834    -7.6014373     -6.7080825      5.3553219      50218.233      36.893836      36.893836      36.893836    
    544000   0.5922477     -7.604811      -6.7164521      5.3307896      50218.233      36.893836      36.893836      36.893836    
    545000   0.59313046    -7.6038117     -6.7141286      5.3304945      50218.233      36.893836      36.893836      36.893836    
    546000   0.59730172    -7.6104699     -6.7145301      5.298605       50218.233      36.893836      36.893836      36.893836    
    547000   0.59650564    -7.6102082     -6.7154625      5.2956727      50218.233      36.893836      36.893836      36.893836    
    548000   0.59188637    -7.6054045     -6.7175876      5.3371204      50218.233      36.893836      36.893836      36.893836    
    549000   0.59564222    -7.6043891     -6.7109385      5.3387792      50218.233      36.893836      36.893836      36.893836    
    550000   0.59565073    -7.6010211     -6.7075577      5.3656815      50218.233      36.893836      36.893836      36.893836    
    551000   0.59551885    -7.6020378     -6.7087722      5.3538989      50218.233      36.893836      36.893836      36.893836    
    552000   0.59595552    -7.6016886     -6.707768       5.3661329      50218.233      36.893836      36.893836      36.893836    
    553000   0.5922521     -7.6015338     -6.7131683      5.3595274      50218.233      36.893836      36.893836      36.893836    
    554000   0.59725852    -7.6053593     -6.7094843      5.3185972      50218.233      36.893836      36.893836      36.893836    
    555000   0.59577504    -7.6029423     -6.7092925      5.356153       50218.233      36.893836      36.893836      36.893836    
    556000   0.59395388    -7.6067228     -6.7158046      5.3265423      50218.233      36.893836      36.893836      36.893836    
    557000   0.59517037    -7.6072678     -6.714525       5.3288675      50218.233      36.893836      36.893836      36.893836    
    558000   0.59449322    -7.6075049     -6.7157778      5.310514       50218.233      36.893836      36.893836      36.893836    
    559000   0.59315113    -7.6110563     -6.7213422      5.2860913      50218.233      36.893836      36.893836      36.893836    
    560000   0.59679301    -7.6047686     -6.7095918      5.3354906      50218.233      36.893836      36.893836      36.893836    
    561000   0.59645728    -7.6007471     -6.7060739      5.3530473      50218.233      36.893836      36.893836      36.893836    
    562000   0.59366467    -7.6063757     -6.7158913      5.3261345      50218.233      36.893836      36.893836      36.893836    
    563000   0.59852224    -7.6085647     -6.7107941      5.3247281      50218.233      36.893836      36.893836      36.893836    
    564000   0.59437938    -7.6066683     -6.7151119      5.3204779      50218.233      36.893836      36.893836      36.893836    
    565000   0.59459744    -7.6039447     -6.7120612      5.3467277      50218.233      36.893836      36.893836      36.893836    
    566000   0.594087      -7.6091447     -6.7180268      5.3044008      50218.233      36.893836      36.893836      36.893836    
    567000   0.59587819    -7.6033518     -6.7095473      5.3575032      50218.233      36.893836      36.893836      36.893836    
    568000   0.59715087    -7.60306       -6.7073464      5.3538689      50218.233      36.893836      36.893836      36.893836    
    569000   0.59340071    -7.6022677     -6.7121793      5.3682429      50218.233      36.893836      36.893836      36.893836    
    570000   0.59456925    -7.5989683     -6.7071272      5.3804442      50218.233      36.893836      36.893836      36.893836    
    571000   0.59505026    -7.6025465     -6.7099838      5.351461       50218.233      36.893836      36.893836      36.893836    
    572000   0.59676806    -7.6042219     -6.7090826      5.3290936      50218.233      36.893836      36.893836      36.893836    
    573000   0.59384155    -7.6106078     -6.7198582      5.287033       50218.233      36.893836      36.893836      36.893836    
    574000   0.59519913    -7.6049251     -6.7121391      5.3322702      50218.233      36.893836      36.893836      36.893836    
    575000   0.59497133    -7.6067659     -6.7143216      5.3277168      50218.233      36.893836      36.893836      36.893836    
    576000   0.59379962    -7.5996504     -6.7089636      5.3692586      50218.233      36.893836      36.893836      36.893836    
    577000   0.59408518    -7.6034457     -6.7123306      5.3443467      50218.233      36.893836      36.893836      36.893836    
    578000   0.59416275    -7.6018913     -6.7106599      5.349704       50218.233      36.893836      36.893836      36.893836    
    579000   0.59410708    -7.6033894     -6.7122415      5.3386018      50218.233      36.893836      36.893836      36.893836    
    580000   0.59544833    -7.6097304     -6.7165706      5.3056666      50218.233      36.893836      36.893836      36.893836    
    581000   0.59645492    -7.5986688     -6.7039992      5.3847301      50218.233      36.893836      36.893836      36.893836    
    582000   0.59364678    -7.611093      -6.7206355      5.2905918      50218.233      36.893836      36.893836      36.893836    
    583000   0.59357503    -7.6055755     -6.7152256      5.3315314      50218.233      36.893836      36.893836      36.893836    
    584000   0.59661467    -7.6054826     -6.7105734      5.3343551      50218.233      36.893836      36.893836      36.893836    
    585000   0.59671888    -7.6029673     -6.7079017      5.3607164      50218.233      36.893836      36.893836      36.893836    
    586000   0.597449      -7.6013689     -6.7052082      5.3649793      50218.233      36.893836      36.893836      36.893836    
    587000   0.59391955    -7.6054441     -6.7145774      5.3280339      50218.233      36.893836      36.893836      36.893836    
    588000   0.59486665    -7.6055286     -6.7132413      5.33599        50218.233      36.893836      36.893836      36.893836    
    589000   0.59090962    -7.6057983     -6.7194465      5.3215265      50218.233      36.893836      36.893836      36.893836    
    590000   0.59596559    -7.6063148     -6.7123791      5.3288355      50218.233      36.893836      36.893836      36.893836    
    591000   0.59248876    -7.6051876     -6.7164671      5.3245964      50218.233      36.893836      36.893836      36.893836    
    592000   0.59804937    -7.6073845     -6.7103232      5.3242048      50218.233      36.893836      36.893836      36.893836    
    593000   0.59330143    -7.6055326     -6.7155931      5.3278034      50218.233      36.893836      36.893836      36.893836    
    594000   0.5956124     -7.605212      -6.7118061      5.3371775      50218.233      36.893836      36.893836      36.893836    
    595000   0.59357514    -7.6073526     -6.7170025      5.3165602      50218.233      36.893836      36.893836      36.893836    
    596000   0.59429011    -7.6079004     -6.716478       5.3199392      50218.233      36.893836      36.893836      36.893836    
    597000   0.59431517    -7.6059565     -6.7144964      5.329769       50218.233      36.893836      36.893836      36.893836    
    598000   0.59498173    -7.6037759     -6.711316       5.3549101      50218.233      36.893836      36.893836      36.893836    
    599000   0.59451653    -7.6070179     -6.7152558      5.307498       50218.233      36.893836      36.893836      36.893836    
    600000   0.59440085    -7.6060363     -6.7144477      5.3247538      50218.233      36.893836      36.893836      36.893836    
    601000   0.5933688     -7.6066947     -6.7166541      5.3223698      50218.233      36.893836      36.893836      36.893836    
    602000   0.59211741    -7.6077403     -6.7195768      5.3104994      50218.233      36.893836      36.893836      36.893836    
    603000   0.59206924    -7.606932      -6.7188408      5.3166549      50218.233      36.893836      36.893836      36.893836    
    604000   0.59182733    -7.6006082     -6.7128798      5.3583794      50218.233      36.893836      36.893836      36.893836    
    605000   0.5935716     -7.6027066     -6.7123618      5.3503732      50218.233      36.893836      36.893836      36.893836    
    606000   0.59272878    -7.60781       -6.7187294      5.3119649      50218.233      36.893836      36.893836      36.893836    
    607000   0.59666628    -7.6007536     -6.7057669      5.3657059      50218.233      36.893836      36.893836      36.893836    
    608000   0.59423055    -7.6044802     -6.713147       5.3411721      50218.233      36.893836      36.893836      36.893836    
    609000   0.59295649    -7.6055688     -6.7161467      5.3267906      50218.233      36.893836      36.893836      36.893836    
    610000   0.5983909     -7.6057249     -6.7081513      5.3487919      50218.233      36.893836      36.893836      36.893836    
    611000   0.59622189    -7.6017572     -6.7074371      5.3524618      50218.233      36.893836      36.893836      36.893836    
    612000   0.59438863    -7.5997776     -6.7082073      5.3782485      50218.233      36.893836      36.893836      36.893836    
    613000   0.59462075    -7.6123356     -6.7204172      5.2853349      50218.233      36.893836      36.893836      36.893836    
    614000   0.5962478     -7.6027463     -6.7083873      5.3461571      50218.233      36.893836      36.893836      36.893836    
    615000   0.59205582    -7.6068692     -6.7187981      5.3080412      50218.233      36.893836      36.893836      36.893836    
    616000   0.59342533    -7.604006      -6.7138807      5.3436172      50218.233      36.893836      36.893836      36.893836    
    617000   0.59407642    -7.6032696     -6.7121677      5.3439923      50218.233      36.893836      36.893836      36.893836    
    618000   0.5954543     -7.6046386     -6.7114699      5.3422652      50218.233      36.893836      36.893836      36.893836    
    619000   0.59243455    -7.6046133     -6.7159742      5.3363747      50218.233      36.893836      36.893836      36.893836    
    620000   0.59631982    -7.6053267     -6.7108597      5.3303157      50218.233      36.893836      36.893836      36.893836    
    621000   0.59384753    -7.5980265     -6.7072678      5.3789271      50218.233      36.893836      36.893836      36.893836    
    622000   0.59369936    -7.608691      -6.7181546      5.3030605      50218.233      36.893836      36.893836      36.893836    
    623000   0.59497336    -7.6040788     -6.7116315      5.3477091      50218.233      36.893836      36.893836      36.893836    
    624000   0.59525132    -7.6083679     -6.7155036      5.3310399      50218.233      36.893836      36.893836      36.893836    
    625000   0.59558532    -7.6079594     -6.7145941      5.3178265      50218.233      36.893836      36.893836      36.893836    
    626000   0.59455418    -7.6087146     -6.716896       5.3106867      50218.233      36.893836      36.893836      36.893836    
    627000   0.59269907    -7.6068878     -6.7178518      5.3172483      50218.233      36.893836      36.893836      36.893836    
    628000   0.59649449    -7.6078449     -6.7131159      5.3158683      50218.233      36.893836      36.893836      36.893836    
    629000   0.59552477    -7.6038019     -6.7105275      5.3398992      50218.233      36.893836      36.893836      36.893836    
    630000   0.59399292    -7.5994131     -6.7084364      5.3768587      50218.233      36.893836      36.893836      36.893836    
    631000   0.59522541    -7.6007337     -6.7079083      5.3687457      50218.233      36.893836      36.893836      36.893836    
    632000   0.59763055    -7.6000798     -6.7036467      5.3755434      50218.233      36.893836      36.893836      36.893836    
    633000   0.59697209    -7.6055643     -6.7101189      5.3389954      50218.233      36.893836      36.893836      36.893836    
    634000   0.59468889    -7.6031833     -6.7111627      5.348466       50218.233      36.893836      36.893836      36.893836    
    635000   0.5988749     -7.5999763     -6.7016768      5.3654011      50218.233      36.893836      36.893836      36.893836    
    636000   0.59343256    -7.6027164     -6.7125802      5.3597338      50218.233      36.893836      36.893836      36.893836    
    637000   0.59319253    -7.6037709     -6.7139948      5.3442759      50218.233      36.893836      36.893836      36.893836    
    638000   0.59483529    -7.6009278     -6.7086875      5.3670529      50218.233      36.893836      36.893836      36.893836    
    639000   0.59521723    -7.6047427     -6.7119295      5.3583274      50218.233      36.893836      36.893836      36.893836    
    640000   0.59339913    -7.5995522     -6.7094662      5.3828671      50218.233      36.893836      36.893836      36.893836    
    641000   0.59283421    -7.6019029     -6.7126643      5.3662192      50218.233      36.893836      36.893836      36.893836    
    642000   0.59574279    -7.601001      -6.7073996      5.383272       50218.233      36.893836      36.893836      36.893836    
    643000   0.59396937    -7.6017889     -6.7108475      5.3718668      50218.233      36.893836      36.893836      36.893836    
    644000   0.59494392    -7.605162      -6.7127588      5.3388275      50218.233      36.893836      36.893836      36.893836    
    645000   0.59476173    -7.6045509     -6.712421       5.3363573      50218.233      36.893836      36.893836      36.893836    
    646000   0.59105621    -7.6008211     -6.7142494      5.366663       50218.233      36.893836      36.893836      36.893836    
    647000   0.59284199    -7.6022009     -6.7129506      5.3593517      50218.233      36.893836      36.893836      36.893836    
    648000   0.59644888    -7.6004072     -6.7057466      5.3762675      50218.233      36.893836      36.893836      36.893836    
    649000   0.59544215    -7.6039037     -6.7107531      5.3456504      50218.233      36.893836      36.893836      36.893836    
    650000   0.59664485    -7.6045895     -6.7096349      5.3420805      50218.233      36.893836      36.893836      36.893836    
    651000   0.59729111    -7.6077354     -6.7118114      5.3260607      50218.233      36.893836      36.893836      36.893836    
    652000   0.59390512    -7.6027759     -6.7119308      5.3548261      50218.233      36.893836      36.893836      36.893836    
    653000   0.5987073     -7.6014306     -6.7033824      5.373503       50218.233      36.893836      36.893836      36.893836    
    654000   0.59306678    -7.6000909     -6.7105034      5.3788224      50218.233      36.893836      36.893836      36.893836    
    655000   0.59587882    -7.6047614     -6.7109558      5.3460772      50218.233      36.893836      36.893836      36.893836    
    656000   0.59767616    -7.5957393     -6.6992378      5.4114326      50218.233      36.893836      36.893836      36.893836    
    657000   0.59610729    -7.6015766     -6.7074283      5.3624671      50218.233      36.893836      36.893836      36.893836    
    658000   0.59375399    -7.6004871     -6.7098688      5.3704594      50218.233      36.893836      36.893836      36.893836    
    659000   0.59473269    -7.6030388     -6.7109525      5.3537961      50218.233      36.893836      36.893836      36.893836    
    660000   0.59449931    -7.6056132     -6.7138769      5.3270827      50218.233      36.893836      36.893836      36.893836    
    661000   0.59664905    -7.6040373     -6.7090764      5.343547       50218.233      36.893836      36.893836      36.893836    
    662000   0.59358709    -7.6005773     -6.7102094      5.3657031      50218.233      36.893836      36.893836      36.893836    
    663000   0.59544356    -7.6050759     -6.7119232      5.3328627      50218.233      36.893836      36.893836      36.893836    
    664000   0.59798578    -7.6004229     -6.703457       5.3650256      50218.233      36.893836      36.893836      36.893836    
    665000   0.59224067    -7.6000866     -6.7117382      5.3622143      50218.233      36.893836      36.893836      36.893836    
    666000   0.59398542    -7.6023579     -6.7113925      5.3497847      50218.233      36.893836      36.893836      36.893836    
    667000   0.59705358    -7.6018465     -6.7062789      5.3675264      50218.233      36.893836      36.893836      36.893836    
    668000   0.5913969     -7.6034457     -6.716363       5.3431603      50218.233      36.893836      36.893836      36.893836    
    669000   0.59642408    -7.6016003     -6.7069769      5.3610068      50218.233      36.893836      36.893836      36.893836    
    670000   0.59605404    -7.6048694     -6.710801       5.3349889      50218.233      36.893836      36.893836      36.893836    
    671000   0.59407825    -7.6009371     -6.7098324      5.367846       50218.233      36.893836      36.893836      36.893836    
    672000   0.59486532    -7.6017007     -6.7094154      5.3486835      50218.233      36.893836      36.893836      36.893836    
    673000   0.5923762     -7.5987133     -6.7101616      5.376286       50218.233      36.893836      36.893836      36.893836    
    674000   0.59153442    -7.598409      -6.71112        5.370762       50218.233      36.893836      36.893836      36.893836    
    675000   0.59613428    -7.6032508     -6.7090621      5.351035       50218.233      36.893836      36.893836      36.893836    
    676000   0.59558049    -7.6047057     -6.7113477      5.3367397      50218.233      36.893836      36.893836      36.893836    
    677000   0.59367481    -7.6014901     -6.7109905      5.3515878      50218.233      36.893836      36.893836      36.893836    
    678000   0.59443078    -7.6036343     -6.7120008      5.3558907      50218.233      36.893836      36.893836      36.893836    
    679000   0.59444949    -7.6069865     -6.715325       5.3195948      50218.233      36.893836      36.893836      36.893836    
    680000   0.59547642    -7.6100679     -6.716866       5.3011918      50218.233      36.893836      36.893836      36.893836    
    681000   0.59592625    -7.6074226     -6.7135459      5.320774       50218.233      36.893836      36.893836      36.893836    
    682000   0.59392661    -7.6087923     -6.717915       5.30346        50218.233      36.893836      36.893836      36.893836    
    683000   0.59085862    -7.606097      -6.7198217      5.3219959      50218.233      36.893836      36.893836      36.893836    
    684000   0.59411263    -7.6058331     -6.7146768      5.3237127      50218.233      36.893836      36.893836      36.893836    
    685000   0.59391553    -7.6086823     -6.7178217      5.3088872      50218.233      36.893836      36.893836      36.893836    
    686000   0.59416813    -7.6061545     -6.714915       5.3341159      50218.233      36.893836      36.893836      36.893836    
    687000   0.59367303    -7.6052071     -6.7147102      5.3326992      50218.233      36.893836      36.893836      36.893836    
    688000   0.59676453    -7.6055822     -6.7104481      5.3374292      50218.233      36.893836      36.893836      36.893836    
    689000   0.59377535    -7.6056027     -6.7149524      5.3474781      50218.233      36.893836      36.893836      36.893836    
    690000   0.59425659    -7.6066929     -6.7153207      5.3268425      50218.233      36.893836      36.893836      36.893836    
    691000   0.59825221    -7.6099238     -6.7125583      5.3057598      50218.233      36.893836      36.893836      36.893836    
    692000   0.59534345    -7.6094308     -6.7164283      5.3071704      50218.233      36.893836      36.893836      36.893836    
    693000   0.59446885    -7.6059962     -6.7143056      5.3374808      50218.233      36.893836      36.893836      36.893836    
    694000   0.59900926    -7.6056702     -6.7071691      5.3401899      50218.233      36.893836      36.893836      36.893836    
    695000   0.59587784    -7.6044256     -6.7106216      5.3454927      50218.233      36.893836      36.893836      36.893836    
    696000   0.59606703    -7.6101854     -6.7160976      5.3008992      50218.233      36.893836      36.893836      36.893836    
    697000   0.59576067    -7.6111844     -6.7175561      5.2950276      50218.233      36.893836      36.893836      36.893836    
    698000   0.59353975    -7.605255      -6.7149581      5.32396        50218.233      36.893836      36.893836      36.893836    
    699000   0.59060723    -7.6061361     -6.7202378      5.3153753      50218.233      36.893836      36.893836      36.893836    
    700000   0.59464588    -7.6062938     -6.7143377      5.3200179      50218.233      36.893836      36.893836      36.893836    
    701000   0.59639698    -7.6040455     -6.7094627      5.3476601      50218.233      36.893836      36.893836      36.893836    
    702000   0.59469301    -7.5984776     -6.7064507      5.3892393      50218.233      36.893836      36.893836      36.893836    
    703000   0.59712608    -7.6067474     -6.711071       5.3172683      50218.233      36.893836      36.893836      36.893836    
    704000   0.59779183    -7.6044269     -6.7077519      5.3371078      50218.233      36.893836      36.893836      36.893836    
    705000   0.5947226     -7.6075897     -6.7155185      5.3162713      50218.233      36.893836      36.893836      36.893836    
    706000   0.59525239    -7.5988701     -6.7060042      5.3883633      50218.233      36.893836      36.893836      36.893836    
    707000   0.59587892    -7.6004972     -6.7066916      5.3589833      50218.233      36.893836      36.893836      36.893836    
    708000   0.59352624    -7.6024413     -6.7121646      5.35115        50218.233      36.893836      36.893836      36.893836    
    709000   0.59249625    -7.6063666     -6.7176349      5.3178016      50218.233      36.893836      36.893836      36.893836    
    710000   0.593251      -7.6029001     -6.7130363      5.3382013      50218.233      36.893836      36.893836      36.893836    
    711000   0.59714784    -7.5991888     -6.7034798      5.3846473      50218.233      36.893836      36.893836      36.893836    
    712000   0.59569854    -7.6004805     -6.7069454      5.3642349      50218.233      36.893836      36.893836      36.893836    
    713000   0.59442421    -7.6016596     -6.7100359      5.3685276      50218.233      36.893836      36.893836      36.893836    
    714000   0.59750259    -7.6025478     -6.7063067      5.3484518      50218.233      36.893836      36.893836      36.893836    
    715000   0.59395929    -7.6064339     -6.7155077      5.3290866      50218.233      36.893836      36.893836      36.893836    
    716000   0.59529225    -7.6037315     -6.7108058      5.3496768      50218.233      36.893836      36.893836      36.893836    
    717000   0.59581764    -7.6016796     -6.7079658      5.3606164      50218.233      36.893836      36.893836      36.893836    
    718000   0.59616918    -7.6077744     -6.7135334      5.3176833      50218.233      36.893836      36.893836      36.893836    
    719000   0.59486721    -7.602682      -6.7103939      5.357444       50218.233      36.893836      36.893836      36.893836    
    720000   0.59555575    -7.6011371     -6.7078162      5.3685241      50218.233      36.893836      36.893836      36.893836    
    721000   0.59636136    -7.604296      -6.7097667      5.3390712      50218.233      36.893836      36.893836      36.893836    
    722000   0.59628767    -7.607773      -6.7133542      5.3174085      50218.233      36.893836      36.893836      36.893836    
    723000   0.59384306    -7.6081734     -6.7174215      5.309387       50218.233      36.893836      36.893836      36.893836    
    724000   0.59821892    -7.6015314     -6.7042158      5.3697321      50218.233      36.893836      36.893836      36.893836    
    725000   0.5971244     -7.6026229     -6.706949       5.3530541      50218.233      36.893836      36.893836      36.893836    
    726000   0.59387068    -7.6040565     -6.7132632      5.3434556      50218.233      36.893836      36.893836      36.893836    
    727000   0.59326415    -7.6065099     -6.7166264      5.3185776      50218.233      36.893836      36.893836      36.893836    
    728000   0.5987786     -7.6017522     -6.7035971      5.3581639      50218.233      36.893836      36.893836      36.893836    
    729000   0.59713946    -7.606604      -6.7109076      5.3152876      50218.233      36.893836      36.893836      36.893836    
    730000   0.5918388     -7.6069719     -6.7192263      5.3111942      50218.233      36.893836      36.893836      36.893836    
    731000   0.59485512    -7.6059073     -6.7136373      5.3167305      50218.233      36.893836      36.893836      36.893836    
    732000   0.59412711    -7.602987      -6.711809       5.3428713      50218.233      36.893836      36.893836      36.893836    
    733000   0.59404686    -7.6044535     -6.7133959      5.3325461      50218.233      36.893836      36.893836      36.893836    
    734000   0.59524619    -7.6059714     -6.7131148      5.3359956      50218.233      36.893836      36.893836      36.893836    
    735000   0.59631795    -7.6043065     -6.7098423      5.349687       50218.233      36.893836      36.893836      36.893836    
    736000   0.5974748     -7.6051512     -6.7089518      5.3277539      50218.233      36.893836      36.893836      36.893836    
    737000   0.59448011    -7.6040684     -6.7123609      5.3322327      50218.233      36.893836      36.893836      36.893836    
    738000   0.59452886    -7.6082144     -6.7164338      5.3058633      50218.233      36.893836      36.893836      36.893836    
    739000   0.59333636    -7.6041931     -6.7142012      5.3458785      50218.233      36.893836      36.893836      36.893836    
    740000   0.59463267    -7.6042272     -6.7122909      5.3290681      50218.233      36.893836      36.893836      36.893836    
    741000   0.59633884    -7.6088607     -6.7143652      5.3068496      50218.233      36.893836      36.893836      36.893836    
    742000   0.59273705    -7.6077087     -6.7186157      5.3177081      50218.233      36.893836      36.893836      36.893836    
    743000   0.59367691    -7.6034225     -6.7129198      5.3381292      50218.233      36.893836      36.893836      36.893836    
    744000   0.59464065    -7.6006144     -6.7086661      5.3706841      50218.233      36.893836      36.893836      36.893836    
    745000   0.59493598    -7.6061353     -6.713744       5.3240547      50218.233      36.893836      36.893836      36.893836    
    746000   0.59775039    -7.5997087     -6.7030959      5.3737452      50218.233      36.893836      36.893836      36.893836    
    747000   0.59451422    -7.6077604     -6.7160017      5.323728       50218.233      36.893836      36.893836      36.893836    
    748000   0.59581682    -7.6050198     -6.7113072      5.348076       50218.233      36.893836      36.893836      36.893836    
    749000   0.59484935    -7.6072775     -6.7150162      5.313981       50218.233      36.893836      36.893836      36.893836    
    750000   0.59547567    -7.6055334     -6.7123326      5.3352411      50218.233      36.893836      36.893836      36.893836    
    751000   0.59416434    -7.6113996     -6.7201658      5.2871313      50218.233      36.893836      36.893836      36.893836    
    752000   0.59611412    -7.6054137     -6.7112553      5.3284302      50218.233      36.893836      36.893836      36.893836    
    753000   0.59446771    -7.6087881     -6.7170992      5.3097131      50218.233      36.893836      36.893836      36.893836    
    754000   0.59400667    -7.6077651     -6.7167678      5.3183518      50218.233      36.893836      36.893836      36.893836    
    755000   0.59503084    -7.6032998     -6.7107663      5.3305887      50218.233      36.893836      36.893836      36.893836    
    756000   0.5955696     -7.6027154     -6.7093737      5.3528771      50218.233      36.893836      36.893836      36.893836    
    757000   0.59663071    -7.6047451     -6.7098118      5.3365099      50218.233      36.893836      36.893836      36.893836    
    758000   0.59887763    -7.6038726     -6.7055689      5.3589611      50218.233      36.893836      36.893836      36.893836    
    759000   0.59656434    -7.6033643     -6.7085305      5.33416        50218.233      36.893836      36.893836      36.893836    
    760000   0.59340682    -7.6021248     -6.7120272      5.3622541      50218.233      36.893836      36.893836      36.893836    
    761000   0.59486572    -7.6022461     -6.7099602      5.3505275      50218.233      36.893836      36.893836      36.893836    
    762000   0.59711684    -7.6011121     -6.7054496      5.3657285      50218.233      36.893836      36.893836      36.893836    
    763000   0.5912779     -7.6051067     -6.7182025      5.3330736      50218.233      36.893836      36.893836      36.893836    
    764000   0.59486662    -7.6050675     -6.7127802      5.3341611      50218.233      36.893836      36.893836      36.893836    
    765000   0.59564221    -7.6049186     -6.711468       5.3405677      50218.233      36.893836      36.893836      36.893836    
    766000   0.5935337     -7.6033682     -6.7130803      5.3408254      50218.233      36.893836      36.893836      36.893836    
    767000   0.59564789    -7.6033355     -6.7098764      5.3412068      50218.233      36.893836      36.893836      36.893836    
    768000   0.59357835    -7.6052426     -6.7148877      5.3161471      50218.233      36.893836      36.893836      36.893836    
    769000   0.5958817     -7.6087512     -6.7149414      5.30821        50218.233      36.893836      36.893836      36.893836    
    770000   0.59728836    -7.607564      -6.7116442      5.3223297      50218.233      36.893836      36.893836      36.893836    
    771000   0.59514053    -7.6038764     -6.7111783      5.3391247      50218.233      36.893836      36.893836      36.893836    
    772000   0.59078308    -7.6091964     -6.7230344      5.2996006      50218.233      36.893836      36.893836      36.893836    
    773000   0.59502677    -7.6048537     -6.7123262      5.3299965      50218.233      36.893836      36.893836      36.893836    
    774000   0.59407726    -7.6047067     -6.7136035      5.3330949      50218.233      36.893836      36.893836      36.893836    
    775000   0.5970641     -7.607313      -6.7117296      5.3097098      50218.233      36.893836      36.893836      36.893836    
    776000   0.5959643     -7.6023947     -6.708461       5.3562036      50218.233      36.893836      36.893836      36.893836    
    777000   0.59781807    -7.6034892     -6.7067749      5.3419068      50218.233      36.893836      36.893836      36.893836    
    778000   0.59433769    -7.6063871     -6.7148932      5.3285831      50218.233      36.893836      36.893836      36.893836    
    779000   0.59139909    -7.6057622     -6.7186761      5.3152172      50218.233      36.893836      36.893836      36.893836    
    780000   0.59483177    -7.606441      -6.714206       5.3326866      50218.233      36.893836      36.893836      36.893836    
    781000   0.59617808    -7.6089321     -6.7146777      5.3095431      50218.233      36.893836      36.893836      36.893836    
    782000   0.59542845    -7.6029525     -6.7098226      5.3415927      50218.233      36.893836      36.893836      36.893836    
    783000   0.59469352    -7.6043615     -6.712334       5.3493017      50218.233      36.893836      36.893836      36.893836    
    784000   0.59566714    -7.6074479     -6.7139599      5.3160705      50218.233      36.893836      36.893836      36.893836    
    785000   0.59328313    -7.6018302     -6.7119182      5.3622699      50218.233      36.893836      36.893836      36.893836    
    786000   0.59628996    -7.6072425     -6.7128203      5.3132391      50218.233      36.893836      36.893836      36.893836    
    787000   0.59424201    -7.6068417     -6.7154914      5.3190735      50218.233      36.893836      36.893836      36.893836    
    788000   0.59396566    -7.6057255     -6.7147897      5.322836       50218.233      36.893836      36.893836      36.893836    
    789000   0.59587104    -7.6065063     -6.7127125      5.3201606      50218.233      36.893836      36.893836      36.893836    
    790000   0.5939295     -7.6086941     -6.7178125      5.3090049      50218.233      36.893836      36.893836      36.893836    
    791000   0.59116626    -7.6063657     -6.7196289      5.3160639      50218.233      36.893836      36.893836      36.893836    
    792000   0.59543016    -7.604926      -6.7117935      5.3395713      50218.233      36.893836      36.893836      36.893836    
    793000   0.59550474    -7.6089827     -6.7157383      5.3034246      50218.233      36.893836      36.893836      36.893836    
    794000   0.59548004    -7.6110624     -6.7178551      5.302607       50218.233      36.893836      36.893836      36.893836    
    795000   0.59923474    -7.6081244     -6.7092851      5.3238075      50218.233      36.893836      36.893836      36.893836    
    796000   0.59710195    -7.6051902     -6.70955        5.3397217      50218.233      36.893836      36.893836      36.893836    
    797000   0.59450027    -7.6063009     -6.7145632      5.3300766      50218.233      36.893836      36.893836      36.893836    
    798000   0.59740671    -7.6058409     -6.7097436      5.3433341      50218.233      36.893836      36.893836      36.893836    
    799000   0.60090509    -7.602633      -6.7012882      5.3674692      50218.233      36.893836      36.893836      36.893836    
    800000   0.59835925    -7.6078662     -6.7103401      5.3186066      50218.233      36.893836      36.893836      36.893836    
    801000   0.59199495    -7.6019264     -6.7139466      5.3506006      50218.233      36.893836      36.893836      36.893836    
    802000   0.59746553    -7.6045596     -6.708374       5.3549769      50218.233      36.893836      36.893836      36.893836    
    803000   0.59667579    -7.6046342     -6.7096333      5.3447409      50218.233      36.893836      36.893836      36.893836    
    804000   0.59696946    -7.6075023     -6.7120609      5.3209797      50218.233      36.893836      36.893836      36.893836    
    805000   0.58894621    -7.6043014     -6.7208946      5.3194682      50218.233      36.893836      36.893836      36.893836    
    806000   0.5942224     -7.6098675     -6.7185466      5.2976831      50218.233      36.893836      36.893836      36.893836    
    807000   0.59394067    -7.6053739     -6.7144756      5.3236735      50218.233      36.893836      36.893836      36.893836    
    808000   0.5954352     -7.6029789     -6.7098388      5.3459592      50218.233      36.893836      36.893836      36.893836    
    809000   0.59202804    -7.6031992     -6.7151698      5.3329773      50218.233      36.893836      36.893836      36.893836    
    810000   0.59301677    -7.6050964     -6.7155839      5.3309978      50218.233      36.893836      36.893836      36.893836    
    811000   0.59575947    -7.6052168     -6.7115903      5.3355572      50218.233      36.893836      36.893836      36.893836    
    812000   0.59351831    -7.6024017     -6.7121369      5.3507721      50218.233      36.893836      36.893836      36.893836    
    813000   0.59931178    -7.6020991     -6.7031443      5.3560577      50218.233      36.893836      36.893836      36.893836    
    814000   0.59132167    -7.6085099     -6.72154        5.3053987      50218.233      36.893836      36.893836      36.893836    
    815000   0.59862997    -7.6041933     -6.7062611      5.3350984      50218.233      36.893836      36.893836      36.893836    
    816000   0.59345546    -7.6065541     -6.7163835      5.3245082      50218.233      36.893836      36.893836      36.893836    
    817000   0.59289397    -7.6079527     -6.7186244      5.3094239      50218.233      36.893836      36.893836      36.893836    
    818000   0.59178063    -7.6037027     -6.7160444      5.3332767      50218.233      36.893836      36.893836      36.893836    
    819000   0.593965      -7.6079745     -6.7170397      5.3026908      50218.233      36.893836      36.893836      36.893836    
    820000   0.59354437    -7.6066806     -6.7163767      5.3273047      50218.233      36.893836      36.893836      36.893836    
    821000   0.59360969    -7.60864       -6.7182381      5.3026909      50218.233      36.893836      36.893836      36.893836    
    822000   0.59370545    -7.6036199     -6.7130744      5.3347666      50218.233      36.893836      36.893836      36.893836    
    823000   0.59557535    -7.6051677     -6.7118174      5.3308166      50218.233      36.893836      36.893836      36.893836    
    824000   0.59532691    -7.6077051     -6.7147274      5.3078624      50218.233      36.893836      36.893836      36.893836    
    825000   0.5954473     -7.6068286     -6.7136704      5.3128861      50218.233      36.893836      36.893836      36.893836    
    826000   0.59364797    -7.6086218     -6.7181625      5.303269       50218.233      36.893836      36.893836      36.893836    
    827000   0.59360718    -7.5954689     -6.7050708      5.3985933      50218.233      36.893836      36.893836      36.893836    
    828000   0.59651474    -7.6064995     -6.7117402      5.3403001      50218.233      36.893836      36.893836      36.893836    
    829000   0.59454305    -7.6107844     -6.7189825      5.2916053      50218.233      36.893836      36.893836      36.893836    
    830000   0.59479136    -7.6061444     -6.7139701      5.3311628      50218.233      36.893836      36.893836      36.893836    
    831000   0.59499257    -7.6043397     -6.7118635      5.3369154      50218.233      36.893836      36.893836      36.893836    
    832000   0.59561449    -7.6063047     -6.7128956      5.3250334      50218.233      36.893836      36.893836      36.893836    
    833000   0.59668177    -7.6088094     -6.7137995      5.3109323      50218.233      36.893836      36.893836      36.893836    
    834000   0.59555553    -7.6065648     -6.7132442      5.3279725      50218.233      36.893836      36.893836      36.893836    
    835000   0.59278533    -7.5997908     -6.7106254      5.3680703      50218.233      36.893836      36.893836      36.893836    
    836000   0.59771944    -7.6010772     -6.7045108      5.3596546      50218.233      36.893836      36.893836      36.893836    
    837000   0.59699157    -7.6085553     -6.7130807      5.3214768      50218.233      36.893836      36.893836      36.893836    
    838000   0.59453492    -7.6007535     -6.7089638      5.3871741      50218.233      36.893836      36.893836      36.893836    
    839000   0.59411367    -7.6046272     -6.7134694      5.3361592      50218.233      36.893836      36.893836      36.893836    
    840000   0.59765558    -7.603417      -6.7069464      5.3470612      50218.233      36.893836      36.893836      36.893836    
    841000   0.59718296    -7.605853      -6.7100913      5.3301548      50218.233      36.893836      36.893836      36.893836    
    842000   0.59312118    -7.6074191     -6.71775        5.2936137      50218.233      36.893836      36.893836      36.893836    
    843000   0.59053428    -7.6090529     -6.7232641      5.297533       50218.233      36.893836      36.893836      36.893836    
    844000   0.59658407    -7.6077498     -6.7128865      5.3154874      50218.233      36.893836      36.893836      36.893836    
    845000   0.59699528    -7.6097179     -6.7142377      5.3116231      50218.233      36.893836      36.893836      36.893836    
    846000   0.59347946    -7.6050905     -6.714884       5.3198942      50218.233      36.893836      36.893836      36.893836    
    847000   0.59618101    -7.6054988     -6.71124        5.336721       50218.233      36.893836      36.893836      36.893836    
    848000   0.59644265    -7.6138651     -6.7192139      5.266599       50218.233      36.893836      36.893836      36.893836    
    849000   0.59456644    -7.6076964     -6.7158594      5.3217037      50218.233      36.893836      36.893836      36.893836    
    850000   0.59691231    -7.6055927     -6.7102369      5.321158       50218.233      36.893836      36.893836      36.893836    
    851000   0.59564372    -7.607231      -6.7137781      5.3303649      50218.233      36.893836      36.893836      36.893836    
    852000   0.59446442    -7.6069662     -6.7152823      5.3224064      50218.233      36.893836      36.893836      36.893836    
    853000   0.59476618    -7.6026373     -6.7105007      5.3630386      50218.233      36.893836      36.893836      36.893836    
    854000   0.59563658    -7.6122668     -6.7188246      5.2931467      50218.233      36.893836      36.893836      36.893836    
    855000   0.5946453     -7.6078276     -6.7158724      5.323316       50218.233      36.893836      36.893836      36.893836    
    856000   0.59354093    -7.6099305     -6.7196318      5.2948102      50218.233      36.893836      36.893836      36.893836    
    857000   0.59468268    -7.6055061     -6.7134948      5.3257076      50218.233      36.893836      36.893836      36.893836    
    858000   0.59265223    -7.6036756     -6.7147099      5.3486005      50218.233      36.893836      36.893836      36.893836    
    859000   0.59467069    -7.6055102     -6.7135168      5.3368164      50218.233      36.893836      36.893836      36.893836    
    860000   0.59390105    -7.6020537     -6.7112148      5.3745996      50218.233      36.893836      36.893836      36.893836    
    861000   0.59412373    -7.6063956     -6.7152227      5.3303911      50218.233      36.893836      36.893836      36.893836    
    862000   0.59617377    -7.6074167     -6.7131688      5.3100029      50218.233      36.893836      36.893836      36.893836    
    863000   0.59210713    -7.6046537     -6.7165056      5.3377603      50218.233      36.893836      36.893836      36.893836    
    864000   0.59431682    -7.6073603     -6.7158977      5.3222333      50218.233      36.893836      36.893836      36.893836    
    865000   0.59610477    -7.6037144     -6.70957        5.3440462      50218.233      36.893836      36.893836      36.893836    
    866000   0.59703536    -7.6068362     -6.7112958      5.3146964      50218.233      36.893836      36.893836      36.893836    
    867000   0.59513058    -7.6058417     -6.7131585      5.3309261      50218.233      36.893836      36.893836      36.893836    
    868000   0.59228181    -7.6047847     -6.7163746      5.3449638      50218.233      36.893836      36.893836      36.893836    
    869000   0.5893547     -7.6029246     -6.7189051      5.3399039      50218.233      36.893836      36.893836      36.893836    
    870000   0.59545089    -7.6064822     -6.7133185      5.3337428      50218.233      36.893836      36.893836      36.893836    
    871000   0.59402672    -7.600918      -6.7098906      5.3615399      50218.233      36.893836      36.893836      36.893836    
    872000   0.5958485     -7.6033529     -6.7095928      5.3525458      50218.233      36.893836      36.893836      36.893836    
    873000   0.59497638    -7.6018548     -6.7094029      5.3735384      50218.233      36.893836      36.893836      36.893836    
    874000   0.59572519    -7.6084947     -6.7149196      5.298815       50218.233      36.893836      36.893836      36.893836    
    875000   0.59391308    -7.6007847     -6.7099277      5.3646908      50218.233      36.893836      36.893836      36.893836    
    876000   0.59620804    -7.6043609     -6.7100616      5.3393886      50218.233      36.893836      36.893836      36.893836    
    877000   0.59656279    -7.6025983     -6.7077668      5.3612017      50218.233      36.893836      36.893836      36.893836    
    878000   0.59485498    -7.6010878     -6.708818       5.3737943      50218.233      36.893836      36.893836      36.893836    
    879000   0.59365212    -7.6032076     -6.7127421      5.3418078      50218.233      36.893836      36.893836      36.893836    
    880000   0.5956065     -7.603163      -6.709766       5.3568021      50218.233      36.893836      36.893836      36.893836    
    881000   0.59400772    -7.6051766     -6.7141777      5.3337821      50218.233      36.893836      36.893836      36.893836    
    882000   0.5941533     -7.6085804     -6.7173631      5.3118019      50218.233      36.893836      36.893836      36.893836    
    883000   0.59669221    -7.6048368     -6.7098112      5.3355848      50218.233      36.893836      36.893836      36.893836    
    884000   0.59347335    -7.604544      -6.7143466      5.3356317      50218.233      36.893836      36.893836      36.893836    
    885000   0.5963167     -7.6077515     -6.7132891      5.3122032      50218.233      36.893836      36.893836      36.893836    
    886000   0.59739269    -7.6094057     -6.7133294      5.3114763      50218.233      36.893836      36.893836      36.893836    
    887000   0.59540022    -7.6079001     -6.7148125      5.3246377      50218.233      36.893836      36.893836      36.893836    
    888000   0.59498279    -7.6100401     -6.7175786      5.2984004      50218.233      36.893836      36.893836      36.893836    
    889000   0.59468561    -7.6011797     -6.709164       5.3633666      50218.233      36.893836      36.893836      36.893836    
    890000   0.59201914    -7.6089719     -6.7209559      5.3023687      50218.233      36.893836      36.893836      36.893836    
    891000   0.595289      -7.6044476     -6.7115268      5.3432389      50218.233      36.893836      36.893836      36.893836    
    892000   0.5955192     -7.6054458     -6.7121797      5.3294239      50218.233      36.893836      36.893836      36.893836    
    893000   0.59443532    -7.6021551     -6.7105148      5.3598528      50218.233      36.893836      36.893836      36.893836    
    894000   0.59143246    -7.6062192     -6.7190832      5.3150378      50218.233      36.893836      36.893836      36.893836    
    895000   0.59573847    -7.6013914     -6.7077964      5.3660025      50218.233      36.893836      36.893836      36.893836    
    896000   0.59539475    -7.6009291     -6.7078497      5.3631906      50218.233      36.893836      36.893836      36.893836    
    897000   0.59387125    -7.6006716     -6.7098774      5.3632825      50218.233      36.893836      36.893836      36.893836    
    898000   0.59596133    -7.5964849     -6.7025556      5.3984651      50218.233      36.893836      36.893836      36.893836    
    899000   0.59507554    -7.6014121     -6.7088115      5.3565624      50218.233      36.893836      36.893836      36.893836    
    900000   0.59621973    -7.5963705     -6.7020537      5.4074653      50218.233      36.893836      36.893836      36.893836    
    901000   0.59091611    -7.6035091     -6.7171475      5.3574662      50218.233      36.893836      36.893836      36.893836    
    902000   0.59624836    -7.6022062     -6.7078464      5.3582803      50218.233      36.893836      36.893836      36.893836    
    903000   0.59951479    -7.6018937     -6.7026344      5.3719416      50218.233      36.893836      36.893836      36.893836    
    904000   0.59751467    -7.6029054     -6.7066461      5.3648053      50218.233      36.893836      36.893836      36.893836    
    905000   0.5937934     -7.6021463     -6.7114688      5.3617262      50218.233      36.893836      36.893836      36.893836    
    906000   0.59253693    -7.5970977     -6.708305       5.3809779      50218.233      36.893836      36.893836      36.893836    
    907000   0.59542553    -7.6016123     -6.7084867      5.3545748      50218.233      36.893836      36.893836      36.893836    
    908000   0.59745985    -7.6041356     -6.7079586      5.3507014      50218.233      36.893836      36.893836      36.893836    
    909000   0.59173147    -7.6028001     -6.7152155      5.3576005      50218.233      36.893836      36.893836      36.893836    
    910000   0.5949392     -7.6013668     -6.7089707      5.3644788      50218.233      36.893836      36.893836      36.893836    
    911000   0.59300356    -7.6030633     -6.7135706      5.3378514      50218.233      36.893836      36.893836      36.893836    
    912000   0.59225158    -7.6012252     -6.7128605      5.3606807      50218.233      36.893836      36.893836      36.893836    
    913000   0.59768272    -7.5983254     -6.701814       5.392065       50218.233      36.893836      36.893836      36.893836    
    914000   0.5937795     -7.5992731     -6.7086165      5.387712       50218.233      36.893836      36.893836      36.893836    
    915000   0.5949124     -7.6077161     -6.7153602      5.317137       50218.233      36.893836      36.893836      36.893836    
    916000   0.59599179    -7.6046946     -6.7107196      5.3420744      50218.233      36.893836      36.893836      36.893836    
    917000   0.59710533    -7.6079131     -6.7122678      5.3143583      50218.233      36.893836      36.893836      36.893836    
    918000   0.59244032    -7.599786      -6.7111382      5.3683956      50218.233      36.893836      36.893836      36.893836    
    919000   0.59871806    -7.6062166     -6.7081523      5.3307965      50218.233      36.893836      36.893836      36.893836    
    920000   0.59458371    -7.6047845     -6.7129217      5.3481903      50218.233      36.893836      36.893836      36.893836    
    921000   0.59388454    -7.5992466     -6.7084324      5.3768474      50218.233      36.893836      36.893836      36.893836    
    922000   0.59438015    -7.6024818     -6.7109243      5.3514897      50218.233      36.893836      36.893836      36.893836    
    923000   0.5946676     -7.6082932     -6.7163045      5.308406       50218.233      36.893836      36.893836      36.893836    
    924000   0.59421581    -7.6057146     -6.7144036      5.3393041      50218.233      36.893836      36.893836      36.893836    
    925000   0.59424273    -7.6069687     -6.7156173      5.3239945      50218.233      36.893836      36.893836      36.893836    
    926000   0.59634346    -7.6050632     -6.7105607      5.3407695      50218.233      36.893836      36.893836      36.893836    
    927000   0.59606835    -7.6021861     -6.7080963      5.3634779      50218.233      36.893836      36.893836      36.893836    
    928000   0.59563211    -7.6045727     -6.7111373      5.3328996      50218.233      36.893836      36.893836      36.893836    
    929000   0.599711      -7.6050252     -6.7054715      5.3391836      50218.233      36.893836      36.893836      36.893836    
    930000   0.59713278    -7.6044314     -6.7087449      5.3370033      50218.233      36.893836      36.893836      36.893836    
    931000   0.59203896    -7.6058049     -6.7177591      5.3231442      50218.233      36.893836      36.893836      36.893836    
    932000   0.5965649     -7.6020963     -6.7072617      5.3463094      50218.233      36.893836      36.893836      36.893836    
    933000   0.59299766    -7.6028531     -6.7133692      5.3523464      50218.233      36.893836      36.893836      36.893836    
    934000   0.59626215    -7.5991432     -6.7047627      5.3756714      50218.233      36.893836      36.893836      36.893836    
    935000   0.59527464    -7.5998887     -6.7069894      5.3816436      50218.233      36.893836      36.893836      36.893836    
    936000   0.59316585    -7.6047043     -6.7149682      5.3410411      50218.233      36.893836      36.893836      36.893836    
    937000   0.59310531    -7.6055075     -6.7158622      5.3222148      50218.233      36.893836      36.893836      36.893836    
    938000   0.59388734    -7.6101939     -6.7193756      5.3122796      50218.233      36.893836      36.893836      36.893836    
    939000   0.5954896     -7.6088014     -6.7155797      5.305626       50218.233      36.893836      36.893836      36.893836    
    940000   0.59735703    -7.6079247     -6.7119019      5.3142735      50218.233      36.893836      36.893836      36.893836    
    941000   0.5917198     -7.6051171     -6.71755        5.3431193      50218.233      36.893836      36.893836      36.893836    
    942000   0.59390328    -7.6058133     -6.7149711      5.3239193      50218.233      36.893836      36.893836      36.893836    
    943000   0.59526937    -7.6043616     -6.7114703      5.3481277      50218.233      36.893836      36.893836      36.893836    
    944000   0.59662383    -7.6049866     -6.7100636      5.3455268      50218.233      36.893836      36.893836      36.893836    
    945000   0.59769283    -7.6008266     -6.7043002      5.3555783      50218.233      36.893836      36.893836      36.893836    
    946000   0.59201755    -7.6092582     -6.7212445      5.3024349      50218.233      36.893836      36.893836      36.893836    
    947000   0.5969901     -7.6056945     -6.710222       5.3438289      50218.233      36.893836      36.893836      36.893836    
    948000   0.59238798    -7.6069958     -6.7184265      5.3141068      50218.233      36.893836      36.893836      36.893836    
    949000   0.59499626    -7.6090139     -6.7165322      5.3022465      50218.233      36.893836      36.893836      36.893836    
    950000   0.59683468    -7.6082472     -6.7130079      5.3175621      50218.233      36.893836      36.893836      36.893836    
    951000   0.5942435     -7.6097995     -6.7184469      5.3059022      50218.233      36.893836      36.893836      36.893836    
    952000   0.59078874    -7.6090864     -6.7229159      5.308818       50218.233      36.893836      36.893836      36.893836    
    953000   0.5924079     -7.605151      -6.7165518      5.3315174      50218.233      36.893836      36.893836      36.893836    
    954000   0.5929596     -7.6028405     -6.7134137      5.355294       50218.233      36.893836      36.893836      36.893836    
    955000   0.59607529    -7.6049215     -6.7108213      5.3367711      50218.233      36.893836      36.893836      36.893836    
    956000   0.59475402    -7.6010381     -6.7089197      5.3586702      50218.233      36.893836      36.893836      36.893836    
    957000   0.59500606    -7.6082569     -6.7157605      5.3196474      50218.233      36.893836      36.893836      36.893836    
    958000   0.59508286    -7.6031264     -6.7105148      5.3554853      50218.233      36.893836      36.893836      36.893836    
    959000   0.5984104     -7.6052838     -6.7076809      5.337182       50218.233      36.893836      36.893836      36.893836    
    960000   0.59712858    -7.6098565     -6.7141763      5.2885057      50218.233      36.893836      36.893836      36.893836    
    961000   0.59344722    -7.6108906     -6.7207324      5.2958089      50218.233      36.893836      36.893836      36.893836    
    962000   0.59528859    -7.6125214     -6.7196012      5.2810816      50218.233      36.893836      36.893836      36.893836    
    963000   0.59758904    -7.6035455     -6.7071747      5.3585817      50218.233      36.893836      36.893836      36.893836    
    964000   0.59157519    -7.6091665     -6.7218163      5.2963083      50218.233      36.893836      36.893836      36.893836    
    965000   0.59633723    -7.6062063     -6.7117131      5.3329556      50218.233      36.893836      36.893836      36.893836    
    966000   0.59399798    -7.6113655     -6.7203812      5.2782814      50218.233      36.893836      36.893836      36.893836    
    967000   0.59860944    -7.6057283     -6.707827       5.3435781      50218.233      36.893836      36.893836      36.893836    
    968000   0.59362129    -7.6068911     -6.7164718      5.3177654      50218.233      36.893836      36.893836      36.893836    
    969000   0.59458535    -7.6136056     -6.7217403      5.2780775      50218.233      36.893836      36.893836      36.893836    
    970000   0.59356146    -7.6074933     -6.7171638      5.3174859      50218.233      36.893836      36.893836      36.893836    
    971000   0.59372399    -7.6095412     -6.7189679      5.3023747      50218.233      36.893836      36.893836      36.893836    
    972000   0.59100096    -7.6041753     -6.7176865      5.3362909      50218.233      36.893836      36.893836      36.893836    
    973000   0.59427178    -7.6099585     -6.7185636      5.3000938      50218.233      36.893836      36.893836      36.893836    
    974000   0.59628078    -7.6058504     -6.7114419      5.3375826      50218.233      36.893836      36.893836      36.893836    
    975000   0.59557305    -7.6041149     -6.710768       5.3416641      50218.233      36.893836      36.893836      36.893836    
    976000   0.59541908    -7.6079021     -6.7147862      5.3320772      50218.233      36.893836      36.893836      36.893836    
    977000   0.59776662    -7.6083741     -6.711737       5.3177495      50218.233      36.893836      36.893836      36.893836    
    978000   0.59494253    -7.6032954     -6.7108943      5.3580703      50218.233      36.893836      36.893836      36.893836    
    979000   0.59444348    -7.6039469     -6.7122943      5.3460334      50218.233      36.893836      36.893836      36.893836    
    980000   0.59523526    -7.6019836     -6.7091434      5.3473677      50218.233      36.893836      36.893836      36.893836    
    981000   0.59722427    -7.601202      -6.7053783      5.3693422      50218.233      36.893836      36.893836      36.893836    
    982000   0.59208531    -7.6071094     -6.718994       5.3018169      50218.233      36.893836      36.893836      36.893836    
    983000   0.59428682    -7.6030214     -6.7116038      5.3463618      50218.233      36.893836      36.893836      36.893836    
    984000   0.59748575    -7.6091187     -6.7129029      5.3071871      50218.233      36.893836      36.893836      36.893836    
    985000   0.59831039    -7.6093142     -6.7118614      5.3107258      50218.233      36.893836      36.893836      36.893836    
    986000   0.59421655    -7.6088465     -6.7175343      5.3084156      50218.233      36.893836      36.893836      36.893836    
    987000   0.59630302    -7.6055767     -6.7111349      5.3300683      50218.233      36.893836      36.893836      36.893836    
    988000   0.58821426    -7.6090676     -6.7267588      5.301384       50218.233      36.893836      36.893836      36.893836    
    989000   0.59334068    -7.604485      -6.7144866      5.3438094      50218.233      36.893836      36.893836      36.893836    
    990000   0.59615283    -7.6089389     -6.7147224      5.307104       50218.233      36.893836      36.893836      36.893836    
    991000   0.59416886    -7.6030713     -6.7118307      5.3429803      50218.233      36.893836      36.893836      36.893836    
    992000   0.59391416    -7.6063947     -6.7155361      5.3367813      50218.233      36.893836      36.893836      36.893836    
    993000   0.596233      -7.6081835     -6.7138467      5.3132788      50218.233      36.893836      36.893836      36.893836    
    994000   0.59416148    -7.60163       -6.7104005      5.3684364      50218.233      36.893836      36.893836      36.893836    
    995000   0.59704278    -7.6074743     -6.7119229      5.3097869      50218.233      36.893836      36.893836      36.893836    
    996000   0.5966055     -7.6009832     -6.7060877      5.3630181      50218.233      36.893836      36.893836      36.893836    
    997000   0.5938353     -7.6033324     -6.7125921      5.3443935      50218.233      36.893836      36.893836      36.893836    
    998000   0.59300466    -7.6042181     -6.7147237      5.3346745      50218.233      36.893836      36.893836      36.893836    
    999000   0.5925533     -7.6058493     -6.717032       5.3276032      50218.233      36.893836      36.893836      36.893836    
   1000000   0.59576669    -7.6056392     -6.7120019      5.3290214      50218.233      36.893836      36.893836      36.893836    
Loop time of 4386.45 on 1 procs for 1000000 steps with 70304 atoms

Performance: 196970.126 tau/day, 227.975 timesteps/s, 16.028 Matom-step/s
100.0% CPU use with 1 MPI tasks x 1 OpenMP threads

MPI task timing breakdown:
Section |  min time  |  avg time  |  max time  |%varavg| %total
---------------------------------------------------------------
Pair    | 1080.4     | 1080.4     | 1080.4     |   0.0 | 24.63
Neigh   | 47.476     | 47.476     | 47.476     |   0.0 |  1.08
Comm    | 544.8      | 544.8      | 544.8      |   0.0 | 12.42
Output  | 0.7457     | 0.7457     | 0.7457     |   0.0 |  0.02
Modify  | 2273.8     | 2273.8     | 2273.8     |   0.0 | 51.84
Other   |            | 439.3      |            |       | 10.01

Nlocal:          70304 ave       70304 max       70304 min
Histogram: 1 0 0 0 0 0 0 0 0 0
Nghost:          37152 ave       37152 max       37152 min
Histogram: 1 0 0 0 0 0 0 0 0 0
Neighs:              0 ave           0 max           0 min
Histogram: 1 0 0 0 0 0 0 0 0 0

Total # of neighbors = 0
Ave neighs/atom = 0
Neighbor list builds = 231350
Dangerous builds = 0
clear
OMP_NUM_THREADS environment is not set. Defaulting to 1 thread. (src/comm.cpp:98)
  using 1 OpenMP thread(s) per MPI task
package gpu 0
jump dms590.lmp

variable T equal 590
# T = 1000* (temp in LJ unit)
variable f equal 1000
log log.${T}
log log.590
