variable TLJ equal (${T}/1000)
variable TLJ equal (440/1000)
variable NCyle equal 10
variable iStep equal (${f})
variable iStep equal (1000)
variable dumpStep equal (${f}*100)
variable dumpStep equal (1000*100)
variable runStep equal (${f}*100*${NCyle})
variable runStep equal (1000*100*${NCyle})
variable runStep equal (1000*100*10)

units       lj
atom_style  atomic
dimension 3
boundary     p p p
pair_style  lj/cut 2.5
read_data  ../data/T${T}.dat
read_data  ../data/T440.dat
Reading data file ...
  orthogonal box = (0.97250269 0.97250269 0.97250269) to (37.866338 37.866338 37.866338)
  1 by 2 by 2 MPI processor grid
  reading atoms ...
  70304 atoms
  reading velocities ...
  70304 velocities
  read_data CPU = 0.189 seconds
change_box all triclinic
Changing box ...
  triclinic box = (0.97250269 0.97250269 0.97250269) to (37.866338 37.866338 37.866338) with tilt (0 0 0)
mass 1 1
mass 2 1
pair_modify shift yes
pair_coeff  1 1 1 1
pair_coeff  1 2 1.5 0.8
pair_coeff  2 2 0.5 0.88


timestep 0.01
thermo ${iStep}
thermo 1000
reset_timestep 0
thermo_style custom step temp pe etotal press vol lx ly lz
fix             1 all nvt temp ${TLJ}  ${TLJ}  0.1
fix             1 all nvt temp 0.44  ${TLJ}  0.1
fix             1 all nvt temp 0.44  0.44  0.1
thermo_modify flush yes

fix dsf all deform 1 xy  wiggle 0.5  ${f}   units box
fix dsf all deform 1 xy  wiggle 0.5  1000   units box
fix ps1 all ave/time 1 1 ${iStep} c_thermo_press[1] c_thermo_press[2]  c_thermo_press[3] c_thermo_press[4]  c_thermo_press[5] c_thermo_press[6]  file  stress.${T}
fix ps1 all ave/time 1 1 1000 c_thermo_press[1] c_thermo_press[2]  c_thermo_press[3] c_thermo_press[4]  c_thermo_press[5] c_thermo_press[6]  file  stress.${T}
fix ps1 all ave/time 1 1 1000 c_thermo_press[1] c_thermo_press[2]  c_thermo_press[3] c_thermo_press[4]  c_thermo_press[5] c_thermo_press[6]  file  stress.440
dump            1 all custom ${dumpStep} dump.${T} id type x y z
dump            1 all custom 100000 dump.${T} id type x y z
dump            1 all custom 100000 dump.440 id type x y z
dump_modify 1 sort id
fix nodrift all momentum 1  linear 1 1 1
fix com_seed all recenter INIT INIT INIT shift all
run ${runStep}
run 1000000
Generated 0 of 1 mixed pair_coeff terms from geometric mixing rule
Per MPI rank memory allocation (min/avg/max) = 8.61 | 8.613 | 8.617 Mbytes
   Step          Temp          PotEng         TotEng         Press          Volume           Lx             Ly             Lz      
         0   0.44063242    -7.9306102     -7.269671       2.7216203      50218.233      36.893836      36.893836      36.893836    
      1000   0.43966544    -7.9280086     -7.2685198      2.7377482      50218.233      36.893836      36.893836      36.893836    
      2000   0.44159419    -7.9248622     -7.2624804      2.7703637      50218.233      36.893836      36.893836      36.893836    
      3000   0.43971422    -7.9235383     -7.2639764      2.770047       50218.233      36.893836      36.893836      36.893836    
      4000   0.43870548    -7.9252553     -7.2672064      2.7581993      50218.233      36.893836      36.893836      36.893836    
      5000   0.44013734    -7.9257657     -7.265569       2.757402       50218.233      36.893836      36.893836      36.893836    
      6000   0.43966478    -7.9237371     -7.2642493      2.769933       50218.233      36.893836      36.893836      36.893836    
      7000   0.44101267    -7.9257074     -7.2641978      2.7536742      50218.233      36.893836      36.893836      36.893836    
      8000   0.44258135    -7.9262278     -7.2623652      2.7478039      50218.233      36.893836      36.893836      36.893836    
      9000   0.44270319    -7.9257376     -7.2616922      2.76574        50218.233      36.893836      36.893836      36.893836    
     10000   0.43937943    -7.930628      -7.2715682      2.715571       50218.233      36.893836      36.893836      36.893836    
     11000   0.44233017    -7.9251764     -7.2616906      2.7683484      50218.233      36.893836      36.893836      36.893836    
     12000   0.4395389     -7.9242574     -7.2649584      2.7555507      50218.233      36.893836      36.893836      36.893836    
     13000   0.43920902    -7.9281194     -7.2693152      2.7226531      50218.233      36.893836      36.893836      36.893836    
     14000   0.43909448    -7.9269662     -7.2683339      2.7488687      50218.233      36.893836      36.893836      36.893836    
     15000   0.43863177    -7.9258167     -7.2678784      2.7570492      50218.233      36.893836      36.893836      36.893836    
     16000   0.43947415    -7.9229225     -7.2637207      2.7735839      50218.233      36.893836      36.893836      36.893836    
     17000   0.44137727    -7.9232104     -7.2611539      2.7676704      50218.233      36.893836      36.893836      36.893836    
     18000   0.43854494    -7.9240792     -7.2662711      2.7663254      50218.233      36.893836      36.893836      36.893836    
     19000   0.43756902    -7.9246883     -7.2683441      2.7736157      50218.233      36.893836      36.893836      36.893836    
     20000   0.4383375     -7.9237905     -7.2662936      2.7678943      50218.233      36.893836      36.893836      36.893836    
     21000   0.44281725    -7.9214994     -7.2572829      2.7886754      50218.233      36.893836      36.893836      36.893836    
     22000   0.44055949    -7.9226047     -7.2617748      2.7779016      50218.233      36.893836      36.893836      36.893836    
     23000   0.44010876    -7.9244925     -7.2643388      2.7637946      50218.233      36.893836      36.893836      36.893836    
     24000   0.43799609    -7.9281562     -7.2711715      2.7404891      50218.233      36.893836      36.893836      36.893836    
     25000   0.43974866    -7.9289014     -7.2692877      2.7339164      50218.233      36.893836      36.893836      36.893836    
     26000   0.44130585    -7.9254432     -7.2634939      2.7539918      50218.233      36.893836      36.893836      36.893836    
     27000   0.4368668     -7.9235965     -7.2683057      2.7648638      50218.233      36.893836      36.893836      36.893836    
     28000   0.44035377    -7.926664      -7.2661427      2.7427506      50218.233      36.893836      36.893836      36.893836    
     29000   0.44193922    -7.9286966     -7.2657972      2.7376863      50218.233      36.893836      36.893836      36.893836    
     30000   0.44009866    -7.9253807     -7.2652421      2.7515713      50218.233      36.893836      36.893836      36.893836    
     31000   0.43946576    -7.9257615     -7.2665722      2.7573074      50218.233      36.893836      36.893836      36.893836    
     32000   0.43885856    -7.9257882     -7.2675097      2.7448534      50218.233      36.893836      36.893836      36.893836    
     33000   0.44239795    -7.9245747     -7.2609872      2.7636237      50218.233      36.893836      36.893836      36.893836    
     34000   0.43927408    -7.9217523     -7.2628506      2.7818405      50218.233      36.893836      36.893836      36.893836    
     35000   0.44151176    -7.9264057     -7.2641475      2.7453638      50218.233      36.893836      36.893836      36.893836    
     36000   0.44132395    -7.9269753     -7.2649988      2.757477       50218.233      36.893836      36.893836      36.893836    
     37000   0.43942759    -7.9271951     -7.268063       2.7380821      50218.233      36.893836      36.893836      36.893836    
     38000   0.43885964    -7.925026      -7.2667459      2.7524657      50218.233      36.893836      36.893836      36.893836    
     39000   0.43968113    -7.9273595     -7.2678472      2.7450926      50218.233      36.893836      36.893836      36.893836    
     40000   0.44016907    -7.9244577     -7.2642135      2.7592846      50218.233      36.893836      36.893836      36.893836    
     41000   0.44093875    -7.9260173     -7.2646185      2.7567939      50218.233      36.893836      36.893836      36.893836    
     42000   0.44030509    -7.9280188     -7.2675705      2.7466027      50218.233      36.893836      36.893836      36.893836    
     43000   0.44208196    -7.9267731     -7.2636596      2.7465708      50218.233      36.893836      36.893836      36.893836    
     44000   0.43817466    -7.92576       -7.2685073      2.7589165      50218.233      36.893836      36.893836      36.893836    
     45000   0.43933488    -7.9261643     -7.2671714      2.75083        50218.233      36.893836      36.893836      36.893836    
     46000   0.44121475    -7.9267686     -7.2649559      2.751572       50218.233      36.893836      36.893836      36.893836    
     47000   0.43962502    -7.9261111     -7.266683       2.7465031      50218.233      36.893836      36.893836      36.893836    
     48000   0.44008714    -7.925205      -7.2650837      2.758046       50218.233      36.893836      36.893836      36.893836    
     49000   0.44006425    -7.9270385     -7.2669515      2.7509834      50218.233      36.893836      36.893836      36.893836    
     50000   0.43910167    -7.9256638     -7.2670207      2.7469035      50218.233      36.893836      36.893836      36.893836    
     51000   0.44028209    -7.9236505     -7.2632367      2.7615188      50218.233      36.893836      36.893836      36.893836    
     52000   0.43846358    -7.9257721     -7.2680861      2.7474951      50218.233      36.893836      36.893836      36.893836    
     53000   0.44059296    -7.9287132     -7.2678331      2.7333487      50218.233      36.893836      36.893836      36.893836    
     54000   0.44035439    -7.9242729     -7.2637507      2.7652945      50218.233      36.893836      36.893836      36.893836    
     55000   0.43858459    -7.9264206     -7.2685531      2.7376336      50218.233      36.893836      36.893836      36.893836    
     56000   0.43834443    -7.9272493     -7.269742       2.7374543      50218.233      36.893836      36.893836      36.893836    
     57000   0.43786479    -7.927396      -7.2706082      2.7407147      50218.233      36.893836      36.893836      36.893836    
     58000   0.43984482    -7.9248411     -7.2650833      2.7650591      50218.233      36.893836      36.893836      36.893836    
     59000   0.43746048    -7.9257445     -7.2695631      2.7501313      50218.233      36.893836      36.893836      36.893836    
     60000   0.43874614    -7.9269438     -7.2688339      2.7457906      50218.233      36.893836      36.893836      36.893836    
     61000   0.43898993    -7.9255473     -7.2670717      2.7467147      50218.233      36.893836      36.893836      36.893836    
     62000   0.43802348    -7.9250918     -7.2680659      2.7557665      50218.233      36.893836      36.893836      36.893836    
     63000   0.43832538    -7.9251661     -7.2676874      2.7615051      50218.233      36.893836      36.893836      36.893836    
     64000   0.44152338    -7.9261759     -7.2639003      2.7533932      50218.233      36.893836      36.893836      36.893836    
     65000   0.4408636     -7.9269293     -7.2656433      2.7455616      50218.233      36.893836      36.893836      36.893836    
     66000   0.43899147    -7.9231795     -7.2647016      2.7741637      50218.233      36.893836      36.893836      36.893836    
     67000   0.43781508    -7.93018       -7.2734667      2.7195181      50218.233      36.893836      36.893836      36.893836    
     68000   0.43855145    -7.9274914     -7.2696736      2.7476669      50218.233      36.893836      36.893836      36.893836    
     69000   0.44306426    -7.9270611     -7.2624742      2.7453236      50218.233      36.893836      36.893836      36.893836    
     70000   0.4386195     -7.9273192     -7.2693993      2.7384794      50218.233      36.893836      36.893836      36.893836    
     71000   0.44212916    -7.9280493     -7.264865       2.7329712      50218.233      36.893836      36.893836      36.893836    
     72000   0.44143174    -7.9244048     -7.2622666      2.7654994      50218.233      36.893836      36.893836      36.893836    
     73000   0.43847227    -7.925191      -7.267492       2.7567928      50218.233      36.893836      36.893836      36.893836    
     74000   0.43991667    -7.926059      -7.2661934      2.7442887      50218.233      36.893836      36.893836      36.893836    
     75000   0.43833325    -7.9281828     -7.2706922      2.734018       50218.233      36.893836      36.893836      36.893836    
     76000   0.44016735    -7.9237336     -7.263492       2.7637422      50218.233      36.893836      36.893836      36.893836    
     77000   0.43795292    -7.9256242     -7.2687042      2.7511361      50218.233      36.893836      36.893836      36.893836    
     78000   0.44083042    -7.9251207     -7.2638845      2.7580212      50218.233      36.893836      36.893836      36.893836    
     79000   0.43930243    -7.9242338     -7.2652896      2.7695332      50218.233      36.893836      36.893836      36.893836    
     80000   0.43834628    -7.9232282     -7.2657181      2.7651108      50218.233      36.893836      36.893836      36.893836    
     81000   0.43989826    -7.9258576     -7.2660196      2.7473263      50218.233      36.893836      36.893836      36.893836    
     82000   0.43986964    -7.9246673     -7.2648722      2.7610943      50218.233      36.893836      36.893836      36.893836    
     83000   0.44105505    -7.9259844     -7.2644112      2.7502321      50218.233      36.893836      36.893836      36.893836    
     84000   0.44048238    -7.9240242     -7.2633101      2.7634104      50218.233      36.893836      36.893836      36.893836    
     85000   0.43948488    -7.923519      -7.264301       2.7714986      50218.233      36.893836      36.893836      36.893836    
     86000   0.44071684    -7.9288347     -7.2677689      2.7366666      50218.233      36.893836      36.893836      36.893836    
     87000   0.43947024    -7.9284944     -7.2692985      2.7385798      50218.233      36.893836      36.893836      36.893836    
     88000   0.44088444    -7.9275831     -7.2662658      2.7409023      50218.233      36.893836      36.893836      36.893836    
     89000   0.44090795    -7.928115      -7.2667625      2.7317743      50218.233      36.893836      36.893836      36.893836    
     90000   0.43967769    -7.9254827     -7.2659756      2.7579673      50218.233      36.893836      36.893836      36.893836    
     91000   0.44232964    -7.9240937     -7.2606087      2.7717331      50218.233      36.893836      36.893836      36.893836    
     92000   0.44011259    -7.9256217     -7.2654622      2.748723       50218.233      36.893836      36.893836      36.893836    
     93000   0.4429858     -7.9256181     -7.2611488      2.7562336      50218.233      36.893836      36.893836      36.893836    
     94000   0.44026167    -7.9264061     -7.266023       2.7363041      50218.233      36.893836      36.893836      36.893836    
     95000   0.43941283    -7.9248806     -7.2657707      2.7568736      50218.233      36.893836      36.893836      36.893836    
     96000   0.43964534    -7.9276346     -7.2681759      2.7270458      50218.233      36.893836      36.893836      36.893836    
     97000   0.43872071    -7.9270688     -7.268997       2.7358621      50218.233      36.893836      36.893836      36.893836    
     98000   0.43950062    -7.9317784     -7.2725368      2.7149484      50218.233      36.893836      36.893836      36.893836    
     99000   0.44260373    -7.9289506     -7.2650545      2.7312302      50218.233      36.893836      36.893836      36.893836    
    100000   0.44088448    -7.927303      -7.2659857      2.7457304      50218.233      36.893836      36.893836      36.893836    
    101000   0.43960364    -7.9274542     -7.2680582      2.7410889      50218.233      36.893836      36.893836      36.893836    
    102000   0.44306088    -7.9279282     -7.2633463      2.7467018      50218.233      36.893836      36.893836      36.893836    
    103000   0.43896642    -7.9271498     -7.2687096      2.7400805      50218.233      36.893836      36.893836      36.893836    
    104000   0.44248097    -7.9290737     -7.2653617      2.7307732      50218.233      36.893836      36.893836      36.893836    
    105000   0.43907461    -7.9294342     -7.2708317      2.7351726      50218.233      36.893836      36.893836      36.893836    
    106000   0.43901886    -7.9249182     -7.2663993      2.7546498      50218.233      36.893836      36.893836      36.893836    
    107000   0.44006609    -7.929376      -7.2692863      2.7313516      50218.233      36.893836      36.893836      36.893836    
    108000   0.44049607    -7.9264638     -7.2657291      2.7599545      50218.233      36.893836      36.893836      36.893836    
    109000   0.44175361    -7.9241303     -7.2615093      2.770114       50218.233      36.893836      36.893836      36.893836    
    110000   0.43869851    -7.9267341     -7.2686957      2.7385932      50218.233      36.893836      36.893836      36.893836    
    111000   0.44050495    -7.9293923     -7.2686443      2.720077       50218.233      36.893836      36.893836      36.893836    
    112000   0.44242291    -7.9265702     -7.2629453      2.7494238      50218.233      36.893836      36.893836      36.893836    
    113000   0.44074761    -7.9253457     -7.2642337      2.7494954      50218.233      36.893836      36.893836      36.893836    
    114000   0.44004703    -7.9260098     -7.2659486      2.751574       50218.233      36.893836      36.893836      36.893836    
    115000   0.43884199    -7.924042      -7.2657884      2.763962       50218.233      36.893836      36.893836      36.893836    
    116000   0.43912255    -7.9268435     -7.2681691      2.7404766      50218.233      36.893836      36.893836      36.893836    
    117000   0.43710652    -7.9257651     -7.2701146      2.7399396      50218.233      36.893836      36.893836      36.893836    
    118000   0.44023056    -7.9234852     -7.2631488      2.7685319      50218.233      36.893836      36.893836      36.893836    
    119000   0.44035776    -7.9246659     -7.2641386      2.7600741      50218.233      36.893836      36.893836      36.893836    
    120000   0.44134877    -7.9253078     -7.2632941      2.7553159      50218.233      36.893836      36.893836      36.893836    
    121000   0.43982341    -7.9287339     -7.2690082      2.7299114      50218.233      36.893836      36.893836      36.893836    
    122000   0.44178767    -7.9269573     -7.2642852      2.739273       50218.233      36.893836      36.893836      36.893836    
    123000   0.43890911    -7.9292291     -7.2708748      2.7315233      50218.233      36.893836      36.893836      36.893836    
    124000   0.44074047    -7.9266087     -7.2655074      2.7472142      50218.233      36.893836      36.893836      36.893836    
    125000   0.44174703    -7.9247844     -7.2621733      2.7598933      50218.233      36.893836      36.893836      36.893836    
    126000   0.44059272    -7.924985      -7.2641053      2.7543908      50218.233      36.893836      36.893836      36.893836    
    127000   0.44191009    -7.9264238     -7.2635681      2.7395179      50218.233      36.893836      36.893836      36.893836    
    128000   0.44152067    -7.9300149     -7.2677433      2.7300674      50218.233      36.893836      36.893836      36.893836    
    129000   0.43962581    -7.9257691     -7.2663398      2.7479242      50218.233      36.893836      36.893836      36.893836    
    130000   0.4384011     -7.9254534     -7.2678611      2.7582096      50218.233      36.893836      36.893836      36.893836    
    131000   0.44112425    -7.9259104     -7.2642334      2.7585867      50218.233      36.893836      36.893836      36.893836    
    132000   0.43945436    -7.9279694     -7.2687973      2.7413896      50218.233      36.893836      36.893836      36.893836    
    133000   0.44146306    -7.9278119     -7.2656267      2.7420385      50218.233      36.893836      36.893836      36.893836    
    134000   0.43956386    -7.9243695     -7.2650331      2.7588525      50218.233      36.893836      36.893836      36.893836    
    135000   0.44392798    -7.9271877     -7.2613052      2.742346       50218.233      36.893836      36.893836      36.893836    
    136000   0.44058642    -7.9268327     -7.2659625      2.746444       50218.233      36.893836      36.893836      36.893836    
    137000   0.43878015    -7.928947      -7.2707861      2.7333592      50218.233      36.893836      36.893836      36.893836    
    138000   0.4390645     -7.9266446     -7.2680573      2.7430232      50218.233      36.893836      36.893836      36.893836    
    139000   0.43974688    -7.9270624     -7.2674514      2.7316382      50218.233      36.893836      36.893836      36.893836    
    140000   0.43972664    -7.9295538     -7.2699732      2.7144873      50218.233      36.893836      36.893836      36.893836    
    141000   0.44159069    -7.9281693     -7.2657927      2.7266083      50218.233      36.893836      36.893836      36.893836    
    142000   0.43921837    -7.9279085     -7.2690903      2.730153       50218.233      36.893836      36.893836      36.893836    
    143000   0.44221591    -7.9271169     -7.2638025      2.754071       50218.233      36.893836      36.893836      36.893836    
    144000   0.43873354    -7.9248359     -7.266745       2.7606263      50218.233      36.893836      36.893836      36.893836    
    145000   0.44144658    -7.9282247     -7.2660642      2.7298199      50218.233      36.893836      36.893836      36.893836    
    146000   0.4395353     -7.9271553     -7.2678617      2.7293062      50218.233      36.893836      36.893836      36.893836    
    147000   0.4408858     -7.9289771     -7.2676578      2.7238964      50218.233      36.893836      36.893836      36.893836    
    148000   0.43952537    -7.9297278     -7.2704492      2.71439        50218.233      36.893836      36.893836      36.893836    
    149000   0.43987777    -7.9236321     -7.2638249      2.772862       50218.233      36.893836      36.893836      36.893836    
    150000   0.44099428    -7.9303401     -7.2688581      2.7230767      50218.233      36.893836      36.893836      36.893836    
    151000   0.43726784    -7.9284366     -7.2725442      2.7333186      50218.233      36.893836      36.893836      36.893836    
    152000   0.43815524    -7.9268671     -7.2696436      2.7467154      50218.233      36.893836      36.893836      36.893836    
    153000   0.44122391    -7.9255549     -7.2637284      2.757069       50218.233      36.893836      36.893836      36.893836    
    154000   0.43861361    -7.9272135     -7.2693024      2.7399736      50218.233      36.893836      36.893836      36.893836    
    155000   0.44016903    -7.9229297     -7.2626856      2.7731648      50218.233      36.893836      36.893836      36.893836    
    156000   0.44045259    -7.9292094     -7.2685399      2.7298544      50218.233      36.893836      36.893836      36.893836    
    157000   0.44133954    -7.9208809     -7.258881       2.7863335      50218.233      36.893836      36.893836      36.893836    
    158000   0.43991774    -7.9291472     -7.26928        2.730672       50218.233      36.893836      36.893836      36.893836    
    159000   0.44064455    -7.925304      -7.2643466      2.7520921      50218.233      36.893836      36.893836      36.893836    
    160000   0.44137395    -7.9278015     -7.2657499      2.7351593      50218.233      36.893836      36.893836      36.893836    
    161000   0.43873889    -7.9254523     -7.2673533      2.7465544      50218.233      36.893836      36.893836      36.893836    
    162000   0.43935857    -7.9254299     -7.2664014      2.7479606      50218.233      36.893836      36.893836      36.893836    
    163000   0.43883111    -7.9234111     -7.2651738      2.7740266      50218.233      36.893836      36.893836      36.893836    
    164000   0.44037603    -7.924291      -7.2637364      2.7698028      50218.233      36.893836      36.893836      36.893836    
    165000   0.43838758    -7.9268829     -7.2693109      2.7456551      50218.233      36.893836      36.893836      36.893836    
    166000   0.44311069    -7.9237974     -7.2591409      2.7687306      50218.233      36.893836      36.893836      36.893836    
    167000   0.43953709    -7.9268737     -7.2675775      2.7449422      50218.233      36.893836      36.893836      36.893836    
    168000   0.4382032     -7.9258102     -7.2685148      2.7541309      50218.233      36.893836      36.893836      36.893836    
    169000   0.44125148    -7.9254186     -7.2635508      2.7617628      50218.233      36.893836      36.893836      36.893836    
    170000   0.44163066    -7.9286781     -7.2662416      2.7325411      50218.233      36.893836      36.893836      36.893836    
    171000   0.43988205    -7.9250165     -7.2652028      2.7521268      50218.233      36.893836      36.893836      36.893836    
    172000   0.4387441     -7.925289      -7.2671822      2.752864       50218.233      36.893836      36.893836      36.893836    
    173000   0.43836052    -7.922748      -7.2652166      2.7662457      50218.233      36.893836      36.893836      36.893836    
    174000   0.43858566    -7.9221099     -7.2642408      2.7828676      50218.233      36.893836      36.893836      36.893836    
    175000   0.43677843    -7.9259834     -7.2708251      2.7275823      50218.233      36.893836      36.893836      36.893836    
    176000   0.43883014    -7.9242623     -7.2660265      2.7619097      50218.233      36.893836      36.893836      36.893836    
    177000   0.44032544    -7.9216734     -7.2611946      2.7824603      50218.233      36.893836      36.893836      36.893836    
    178000   0.43991356    -7.9277132     -7.2678523      2.7459833      50218.233      36.893836      36.893836      36.893836    
    179000   0.44159075    -7.9228303     -7.2604536      2.77877        50218.233      36.893836      36.893836      36.893836    
    180000   0.43897532    -7.931259      -7.2728054      2.710537       50218.233      36.893836      36.893836      36.893836    
    181000   0.44154132    -7.9232388     -7.2609362      2.7794109      50218.233      36.893836      36.893836      36.893836    
    182000   0.43915409    -7.9236407     -7.2649189      2.7647501      50218.233      36.893836      36.893836      36.893836    
    183000   0.43997919    -7.9267584     -7.266799       2.7458111      50218.233      36.893836      36.893836      36.893836    
    184000   0.44008865    -7.9271213     -7.2669977      2.74003        50218.233      36.893836      36.893836      36.893836    
    185000   0.4375844     -7.928427      -7.2720598      2.7283276      50218.233      36.893836      36.893836      36.893836    
    186000   0.44089837    -7.9244142     -7.2630761      2.769518       50218.233      36.893836      36.893836      36.893836    
    187000   0.43955721    -7.926483      -7.2671566      2.7399507      50218.233      36.893836      36.893836      36.893836    
    188000   0.43655497    -7.9252963     -7.2704731      2.7500244      50218.233      36.893836      36.893836      36.893836    
    189000   0.44078819    -7.9257599     -7.264587       2.7526305      50218.233      36.893836      36.893836      36.893836    
    190000   0.43932185    -7.9240876     -7.2651142      2.7586035      50218.233      36.893836      36.893836      36.893836    
    191000   0.44194202    -7.9247507     -7.2618471      2.7755129      50218.233      36.893836      36.893836      36.893836    
    192000   0.44020159    -7.9317841     -7.2714911      2.7038847      50218.233      36.893836      36.893836      36.893836    
    193000   0.44045938    -7.9297161     -7.2690364      2.7296531      50218.233      36.893836      36.893836      36.893836    
    194000   0.43929056    -7.926554      -7.2676276      2.7401782      50218.233      36.893836      36.893836      36.893836    
    195000   0.43968008    -7.9249069     -7.2653961      2.7588634      50218.233      36.893836      36.893836      36.893836    
    196000   0.44097666    -7.9262665     -7.2648109      2.7495104      50218.233      36.893836      36.893836      36.893836    
    197000   0.44181035    -7.9282601     -7.265554       2.7343904      50218.233      36.893836      36.893836      36.893836    
    198000   0.43876103    -7.9295897     -7.2714575      2.7225111      50218.233      36.893836      36.893836      36.893836    
    199000   0.44168862    -7.9268167     -7.2642932      2.7452676      50218.233      36.893836      36.893836      36.893836    
    200000   0.43979763    -7.9214301     -7.2617431      2.7887837      50218.233      36.893836      36.893836      36.893836    
    201000   0.4400593     -7.9251025     -7.2650229      2.7651576      50218.233      36.893836      36.893836      36.893836    
    202000   0.44011457    -7.9277856     -7.2676231      2.7395557      50218.233      36.893836      36.893836      36.893836    
    203000   0.43994913    -7.9271132     -7.2671989      2.7481518      50218.233      36.893836      36.893836      36.893836    
    204000   0.44085438    -7.9277738     -7.2665017      2.7338375      50218.233      36.893836      36.893836      36.893836    
    205000   0.44023399    -7.924885      -7.2645434      2.7606275      50218.233      36.893836      36.893836      36.893836    
    206000   0.44040913    -7.9244739     -7.2638696      2.7627009      50218.233      36.893836      36.893836      36.893836    
    207000   0.44011317    -7.9279749     -7.2678145      2.7334392      50218.233      36.893836      36.893836      36.893836    
    208000   0.43906671    -7.928755      -7.2701643      2.730647       50218.233      36.893836      36.893836      36.893836    
    209000   0.44087869    -7.9220385     -7.2607299      2.7858583      50218.233      36.893836      36.893836      36.893836    
    210000   0.44022962    -7.9274716     -7.2671365      2.7349864      50218.233      36.893836      36.893836      36.893836    
    211000   0.43838843    -7.9268809     -7.2693076      2.7450958      50218.233      36.893836      36.893836      36.893836    
    212000   0.44033968    -7.927049      -7.2665489      2.7479633      50218.233      36.893836      36.893836      36.893836    
    213000   0.44224483    -7.9259934     -7.2626356      2.7496427      50218.233      36.893836      36.893836      36.893836    
    214000   0.441258      -7.9265044     -7.2646268      2.742798       50218.233      36.893836      36.893836      36.893836    
    215000   0.44016733    -7.9260031     -7.2657615      2.7500125      50218.233      36.893836      36.893836      36.893836    
    216000   0.44028653    -7.9238022     -7.2633818      2.766505       50218.233      36.893836      36.893836      36.893836    
    217000   0.44058683    -7.9297394     -7.2688686      2.7161902      50218.233      36.893836      36.893836      36.893836    
    218000   0.4405807     -7.924715      -7.2638534      2.7701149      50218.233      36.893836      36.893836      36.893836    
    219000   0.4410781     -7.9275945     -7.2659868      2.7436899      50218.233      36.893836      36.893836      36.893836    
    220000   0.43996526    -7.9247404     -7.2648019      2.7566213      50218.233      36.893836      36.893836      36.893836    
    221000   0.43772036    -7.9225971     -7.2660259      2.7768791      50218.233      36.893836      36.893836      36.893836    
    222000   0.44038611    -7.9215554     -7.2609857      2.7874832      50218.233      36.893836      36.893836      36.893836    
    223000   0.43934651    -7.9262618     -7.2672514      2.7471922      50218.233      36.893836      36.893836      36.893836    
    224000   0.44145672    -7.9224871     -7.2603115      2.7873984      50218.233      36.893836      36.893836      36.893836    
    225000   0.4413648     -7.92654       -7.2645023      2.7468198      50218.233      36.893836      36.893836      36.893836    
    226000   0.43858856    -7.9274497     -7.2695762      2.742506       50218.233      36.893836      36.893836      36.893836    
    227000   0.4403132     -7.9247747     -7.2643143      2.7562329      50218.233      36.893836      36.893836      36.893836    
    228000   0.43897152    -7.9270342     -7.2685863      2.7308574      50218.233      36.893836      36.893836      36.893836    
    229000   0.4394726     -7.9242588     -7.2650593      2.762853       50218.233      36.893836      36.893836      36.893836    
    230000   0.44135801    -7.9261128     -7.2640851      2.7484823      50218.233      36.893836      36.893836      36.893836    
    231000   0.44046654    -7.9229208     -7.2622304      2.768311       50218.233      36.893836      36.893836      36.893836    
    232000   0.44040957    -7.9245864     -7.2639814      2.764572       50218.233      36.893836      36.893836      36.893836    
    233000   0.44162507    -7.92647       -7.2640419      2.7420478      50218.233      36.893836      36.893836      36.893836    
    234000   0.43824012    -7.922933      -7.2655822      2.7629449      50218.233      36.893836      36.893836      36.893836    
    235000   0.44109488    -7.9265047     -7.2648718      2.7446928      50218.233      36.893836      36.893836      36.893836    
    236000   0.44112962    -7.9207515     -7.2590665      2.7790481      50218.233      36.893836      36.893836      36.893836    
    237000   0.44018033    -7.926275      -7.2660139      2.748573       50218.233      36.893836      36.893836      36.893836    
    238000   0.44202433    -7.9263907     -7.2633636      2.7511151      50218.233      36.893836      36.893836      36.893836    
    239000   0.44002912    -7.9250628     -7.2650285      2.7471857      50218.233      36.893836      36.893836      36.893836    
    240000   0.43939734    -7.9258408     -7.2667542      2.753103       50218.233      36.893836      36.893836      36.893836    
    241000   0.43980058    -7.9265383     -7.2668468      2.7370979      50218.233      36.893836      36.893836      36.893836    
    242000   0.44185463    -7.9269428     -7.2641703      2.7612449      50218.233      36.893836      36.893836      36.893836    
    243000   0.43907606    -7.9285456     -7.2699409      2.7266572      50218.233      36.893836      36.893836      36.893836    
    244000   0.44144256    -7.9270205     -7.2648661      2.749082       50218.233      36.893836      36.893836      36.893836    
    245000   0.44026097    -7.9301792     -7.2697971      2.7180909      50218.233      36.893836      36.893836      36.893836    
    246000   0.43849696    -7.9261225     -7.2683864      2.7382303      50218.233      36.893836      36.893836      36.893836    
    247000   0.43943682    -7.9241238     -7.264978       2.7562285      50218.233      36.893836      36.893836      36.893836    
    248000   0.44216225    -7.9278437     -7.2646097      2.7404977      50218.233      36.893836      36.893836      36.893836    
    249000   0.44031964    -7.9259641     -7.265494       2.7518488      50218.233      36.893836      36.893836      36.893836    
    250000   0.44199859    -7.9276677     -7.2646793      2.7378898      50218.233      36.893836      36.893836      36.893836    
    251000   0.44123563    -7.9268008     -7.2649568      2.7550318      50218.233      36.893836      36.893836      36.893836    
    252000   0.43831226    -7.9252751     -7.267816       2.7455646      50218.233      36.893836      36.893836      36.893836    
    253000   0.4371432     -7.9257089     -7.2700034      2.7451746      50218.233      36.893836      36.893836      36.893836    
    254000   0.44103528    -7.9276226     -7.2660791      2.7369091      50218.233      36.893836      36.893836      36.893836    
    255000   0.4390027     -7.9225255     -7.2640308      2.7683275      50218.233      36.893836      36.893836      36.893836    
    256000   0.44089276    -7.927569      -7.2662392      2.7372804      50218.233      36.893836      36.893836      36.893836    
    257000   0.44041183    -7.9247497     -7.2641413      2.756597       50218.233      36.893836      36.893836      36.893836    
    258000   0.43962214    -7.9286455     -7.2692217      2.7260448      50218.233      36.893836      36.893836      36.893836    
    259000   0.43938162    -7.9265981     -7.2675351      2.7483238      50218.233      36.893836      36.893836      36.893836    
    260000   0.43839818    -7.9244151     -7.2668271      2.7619801      50218.233      36.893836      36.893836      36.893836    
    261000   0.44132271    -7.9240455     -7.2620708      2.7719458      50218.233      36.893836      36.893836      36.893836    
    262000   0.43790875    -7.9234371     -7.2665833      2.763217       50218.233      36.893836      36.893836      36.893836    
    263000   0.4398967     -7.9298533     -7.2700176      2.72189        50218.233      36.893836      36.893836      36.893836    
    264000   0.441902      -7.9297111     -7.2668675      2.7339003      50218.233      36.893836      36.893836      36.893836    
    265000   0.43936992    -7.9239374     -7.2648919      2.7613989      50218.233      36.893836      36.893836      36.893836    
    266000   0.44174636    -7.9248138     -7.2622037      2.7608278      50218.233      36.893836      36.893836      36.893836    
    267000   0.44131015    -7.92727       -7.2653141      2.7380292      50218.233      36.893836      36.893836      36.893836    
    268000   0.43902556    -7.9255051     -7.2669761      2.7504113      50218.233      36.893836      36.893836      36.893836    
    269000   0.44040416    -7.9227608     -7.2621639      2.7726397      50218.233      36.893836      36.893836      36.893836    
    270000   0.4404322     -7.9254253     -7.2647864      2.7467757      50218.233      36.893836      36.893836      36.893836    
    271000   0.43980266    -7.928248      -7.2685534      2.7337733      50218.233      36.893836      36.893836      36.893836    
    272000   0.43918667    -7.9219116     -7.263141       2.7746335      50218.233      36.893836      36.893836      36.893836    
    273000   0.43976235    -7.9262488     -7.2666147      2.7522131      50218.233      36.893836      36.893836      36.893836    
    274000   0.44146078    -7.9257306     -7.2635489      2.7557237      50218.233      36.893836      36.893836      36.893836    
    275000   0.43995188    -7.9215792     -7.2616608      2.7795595      50218.233      36.893836      36.893836      36.893836    
    276000   0.44020771    -7.9249806     -7.2646785      2.7559484      50218.233      36.893836      36.893836      36.893836    
    277000   0.44177865    -7.9258425     -7.2631839      2.7603004      50218.233      36.893836      36.893836      36.893836    
    278000   0.43843471    -7.928709      -7.2710663      2.7288316      50218.233      36.893836      36.893836      36.893836    
    279000   0.43894267    -7.92086       -7.2624554      2.7888701      50218.233      36.893836      36.893836      36.893836    
    280000   0.43873459    -7.9242961     -7.2662036      2.7556506      50218.233      36.893836      36.893836      36.893836    
    281000   0.43895297    -7.9275921     -7.269172       2.7369222      50218.233      36.893836      36.893836      36.893836    
    282000   0.43787246    -7.9253356     -7.2685363      2.7470467      50218.233      36.893836      36.893836      36.893836    
    283000   0.44087188    -7.9270026     -7.2657042      2.7431363      50218.233      36.893836      36.893836      36.893836    
    284000   0.4389555     -7.9265338     -7.26811        2.7395879      50218.233      36.893836      36.893836      36.893836    
    285000   0.43764928    -7.922489      -7.2660244      2.7646776      50218.233      36.893836      36.893836      36.893836    
    286000   0.4388048     -7.9268618     -7.2686639      2.7401262      50218.233      36.893836      36.893836      36.893836    
    287000   0.44130359    -7.9272543     -7.2653083      2.7411423      50218.233      36.893836      36.893836      36.893836    
    288000   0.44043349    -7.9280043     -7.2673635      2.755358       50218.233      36.893836      36.893836      36.893836    
    289000   0.43834827    -7.9263802     -7.2688672      2.7466782      50218.233      36.893836      36.893836      36.893836    
    290000   0.43886089    -7.928179      -7.269897       2.7371537      50218.233      36.893836      36.893836      36.893836    
    291000   0.44038055    -7.926123      -7.2655616      2.7556759      50218.233      36.893836      36.893836      36.893836    
    292000   0.43966201    -7.9282816     -7.2687979      2.7373435      50218.233      36.893836      36.893836      36.893836    
    293000   0.44115038    -7.9257525     -7.2640364      2.7570089      50218.233      36.893836      36.893836      36.893836    
    294000   0.44155953    -7.9238708     -7.261541       2.7685882      50218.233      36.893836      36.893836      36.893836    
    295000   0.44193525    -7.9286998     -7.2658063      2.7332607      50218.233      36.893836      36.893836      36.893836    
    296000   0.43895205    -7.9254763     -7.2670576      2.7608318      50218.233      36.893836      36.893836      36.893836    
    297000   0.4412798     -7.9279463     -7.266036       2.7368813      50218.233      36.893836      36.893836      36.893836    
    298000   0.44066754    -7.9225109     -7.261519       2.7829259      50218.233      36.893836      36.893836      36.893836    
    299000   0.44004922    -7.9289337     -7.2688693      2.7257692      50218.233      36.893836      36.893836      36.893836    
    300000   0.44045887    -7.9253051     -7.2646262      2.7664778      50218.233      36.893836      36.893836      36.893836    
    301000   0.44022256    -7.9280032     -7.2676787      2.7399638      50218.233      36.893836      36.893836      36.893836    
    302000   0.44116192    -7.9246812     -7.2629477      2.759297       50218.233      36.893836      36.893836      36.893836    
    303000   0.44267319    -7.9269569     -7.2629566      2.7442914      50218.233      36.893836      36.893836      36.893836    
    304000   0.43891339    -7.9240848     -7.2657241      2.7631179      50218.233      36.893836      36.893836      36.893836    
    305000   0.43882155    -7.9237162     -7.2654933      2.7556984      50218.233      36.893836      36.893836      36.893836    
    306000   0.44122599    -7.9277723     -7.2659427      2.7384486      50218.233      36.893836      36.893836      36.893836    
    307000   0.44059947    -7.9285324     -7.2676426      2.7315475      50218.233      36.893836      36.893836      36.893836    
    308000   0.43950566    -7.9262326     -7.2669835      2.7447019      50218.233      36.893836      36.893836      36.893836    
    309000   0.43930696    -7.9252549     -7.2663039      2.7557472      50218.233      36.893836      36.893836      36.893836    
    310000   0.43939433    -7.9262923     -7.2672102      2.7366537      50218.233      36.893836      36.893836      36.893836    
    311000   0.44289717    -7.9285324     -7.264196       2.7320034      50218.233      36.893836      36.893836      36.893836    
    312000   0.4405071     -7.9263279     -7.2655766      2.7557598      50218.233      36.893836      36.893836      36.893836    
    313000   0.43921238    -7.9300233     -7.2712141      2.7135953      50218.233      36.893836      36.893836      36.893836    
    314000   0.43829425    -7.9294626     -7.2720306      2.7219418      50218.233      36.893836      36.893836      36.893836    
    315000   0.44035015    -7.9254555     -7.2649397      2.757183       50218.233      36.893836      36.893836      36.893836    
    316000   0.43869371    -7.9250477     -7.2670165      2.750661       50218.233      36.893836      36.893836      36.893836    
    317000   0.44142476    -7.9276325     -7.2655047      2.7405853      50218.233      36.893836      36.893836      36.893836    
    318000   0.4396471     -7.9254987     -7.2660374      2.7612237      50218.233      36.893836      36.893836      36.893836    
    319000   0.43994028    -7.9289004     -7.2689994      2.7210177      50218.233      36.893836      36.893836      36.893836    
    320000   0.438039      -7.9268667     -7.2698175      2.7434165      50218.233      36.893836      36.893836      36.893836    
    321000   0.44138522    -7.9240029     -7.2619345      2.7661026      50218.233      36.893836      36.893836      36.893836    
    322000   0.43861931    -7.9244013     -7.2664816      2.7563868      50218.233      36.893836      36.893836      36.893836    
    323000   0.44059504    -7.9275585     -7.2666753      2.7316198      50218.233      36.893836      36.893836      36.893836    
    324000   0.43934644    -7.9277403     -7.26873        2.7389753      50218.233      36.893836      36.893836      36.893836    
    325000   0.44191876    -7.9261761     -7.2633074      2.7475157      50218.233      36.893836      36.893836      36.893836    
    326000   0.43840486    -7.9259013     -7.2683033      2.7397009      50218.233      36.893836      36.893836      36.893836    
    327000   0.44002433    -7.9254401     -7.265413       2.7646821      50218.233      36.893836      36.893836      36.893836    
    328000   0.44104231    -7.9239121     -7.262358       2.7674987      50218.233      36.893836      36.893836      36.893836    
    329000   0.4411536     -7.9276328     -7.2659118      2.7368917      50218.233      36.893836      36.893836      36.893836    
    330000   0.44154533    -7.9253396     -7.263031       2.7623351      50218.233      36.893836      36.893836      36.893836    
    331000   0.43743974    -7.9227304     -7.2665801      2.7702485      50218.233      36.893836      36.893836      36.893836    
    332000   0.43960152    -7.926139      -7.2667461      2.7479429      50218.233      36.893836      36.893836      36.893836    
    333000   0.43935533    -7.925098      -7.2660744      2.7481322      50218.233      36.893836      36.893836      36.893836    
    334000   0.44041302    -7.9260146     -7.2654044      2.7470906      50218.233      36.893836      36.893836      36.893836    
    335000   0.44142295    -7.9243316     -7.2622066      2.7654824      50218.233      36.893836      36.893836      36.893836    
    336000   0.43815754    -7.9256018     -7.2683749      2.741668       50218.233      36.893836      36.893836      36.893836    
    337000   0.44026853    -7.9245306     -7.2641372      2.758299       50218.233      36.893836      36.893836      36.893836    
    338000   0.43955381    -7.9249535     -7.2656322      2.7532092      50218.233      36.893836      36.893836      36.893836    
    339000   0.44125431    -7.9288801     -7.2670081      2.7286432      50218.233      36.893836      36.893836      36.893836    
    340000   0.43755489    -7.9244323     -7.2681093      2.7619021      50218.233      36.893836      36.893836      36.893836    
    341000   0.44016382    -7.9260612     -7.2658248      2.7509443      50218.233      36.893836      36.893836      36.893836    
    342000   0.43919268    -7.9291687     -7.270389       2.725005       50218.233      36.893836      36.893836      36.893836    
    343000   0.44168816    -7.9304812     -7.2679584      2.7164312      50218.233      36.893836      36.893836      36.893836    
    344000   0.43835169    -7.9264278     -7.2689096      2.7401953      50218.233      36.893836      36.893836      36.893836    
    345000   0.44085923    -7.9261058     -7.2648264      2.7431552      50218.233      36.893836      36.893836      36.893836    
    346000   0.43916746    -7.9265281     -7.2677863      2.740464       50218.233      36.893836      36.893836      36.893836    
    347000   0.44017203    -7.9224928     -7.2622442      2.7742069      50218.233      36.893836      36.893836      36.893836    
    348000   0.44211573    -7.9281923     -7.2650281      2.7237047      50218.233      36.893836      36.893836      36.893836    
    349000   0.43882808    -7.9237659     -7.2655331      2.7738644      50218.233      36.893836      36.893836      36.893836    
    350000   0.43925186    -7.9237237     -7.2648553      2.7740234      50218.233      36.893836      36.893836      36.893836    
    351000   0.44164767    -7.9271045     -7.2646424      2.7477256      50218.233      36.893836      36.893836      36.893836    
    352000   0.44173751    -7.9274146     -7.2648178      2.7450065      50218.233      36.893836      36.893836      36.893836    
    353000   0.44245448    -7.9280458     -7.2643735      2.7278389      50218.233      36.893836      36.893836      36.893836    
    354000   0.43807733    -7.9293157     -7.2722091      2.7226564      50218.233      36.893836      36.893836      36.893836    
    355000   0.43812772    -7.9283693     -7.2711871      2.7354823      50218.233      36.893836      36.893836      36.893836    
    356000   0.43992011    -7.9245957     -7.2647249      2.7613454      50218.233      36.893836      36.893836      36.893836    
    357000   0.43956084    -7.9263867     -7.2670548      2.7404196      50218.233      36.893836      36.893836      36.893836    
    358000   0.43895399    -7.9266398     -7.2682182      2.7478651      50218.233      36.893836      36.893836      36.893836    
    359000   0.43855693    -7.9243388     -7.2665128      2.7596485      50218.233      36.893836      36.893836      36.893836    
    360000   0.44040371    -7.9250803     -7.2644842      2.7447413      50218.233      36.893836      36.893836      36.893836    
    361000   0.43944855    -7.9239105     -7.2647471      2.7622137      50218.233      36.893836      36.893836      36.893836    
    362000   0.44047785    -7.9276007     -7.2668934      2.7356558      50218.233      36.893836      36.893836      36.893836    
    363000   0.43984899    -7.9264852     -7.2667211      2.7468833      50218.233      36.893836      36.893836      36.893836    
    364000   0.44083595    -7.9268808     -7.2656363      2.7359742      50218.233      36.893836      36.893836      36.893836    
    365000   0.43914812    -7.9236652     -7.2649524      2.767494       50218.233      36.893836      36.893836      36.893836    
    366000   0.44039608    -7.9255243     -7.2649395      2.7595888      50218.233      36.893836      36.893836      36.893836    
    367000   0.44193848    -7.9248551     -7.2619568      2.7582966      50218.233      36.893836      36.893836      36.893836    
    368000   0.44017285    -7.9291537     -7.2689038      2.7213947      50218.233      36.893836      36.893836      36.893836    
    369000   0.44084433    -7.9260816     -7.2648246      2.7485974      50218.233      36.893836      36.893836      36.893836    
    370000   0.43846745    -7.9244723     -7.2667805      2.7498529      50218.233      36.893836      36.893836      36.893836    
    371000   0.43935507    -7.9270811     -7.2680579      2.7432786      50218.233      36.893836      36.893836      36.893836    
    372000   0.43890067    -7.9268562     -7.2685145      2.7380609      50218.233      36.893836      36.893836      36.893836    
    373000   0.43917846    -7.9256382     -7.2668799      2.7454158      50218.233      36.893836      36.893836      36.893836    
    374000   0.43963012    -7.9273211     -7.2678853      2.7375239      50218.233      36.893836      36.893836      36.893836    
    375000   0.44138602    -7.9233564     -7.2612868      2.7622986      50218.233      36.893836      36.893836      36.893836    
    376000   0.43996094    -7.923491      -7.263559       2.7721294      50218.233      36.893836      36.893836      36.893836    
    377000   0.44129875    -7.9270063     -7.2650675      2.7491254      50218.233      36.893836      36.893836      36.893836    
    378000   0.43930808    -7.9248893     -7.2659366      2.7577731      50218.233      36.893836      36.893836      36.893836    
    379000   0.44204569    -7.9299061     -7.266847       2.7229944      50218.233      36.893836      36.893836      36.893836    
    380000   0.4407119     -7.924674      -7.2636156      2.7648202      50218.233      36.893836      36.893836      36.893836    
    381000   0.4411934     -7.9262091     -7.2644284      2.7480901      50218.233      36.893836      36.893836      36.893836    
    382000   0.43877309    -7.9273687     -7.2692184      2.7302576      50218.233      36.893836      36.893836      36.893836    
    383000   0.44175857    -7.9267824     -7.264154       2.7465778      50218.233      36.893836      36.893836      36.893836    
    384000   0.43937912    -7.9247827     -7.2657234      2.7582831      50218.233      36.893836      36.893836      36.893836    
    385000   0.44157451    -7.9248755     -7.2625232      2.7528269      50218.233      36.893836      36.893836      36.893836    
    386000   0.43985514    -7.9298115     -7.2700382      2.7117231      50218.233      36.893836      36.893836      36.893836    
    387000   0.44167047    -7.9249601     -7.2624638      2.7519899      50218.233      36.893836      36.893836      36.893836    
    388000   0.43784531    -7.9291384     -7.2723798      2.7201344      50218.233      36.893836      36.893836      36.893836    
    389000   0.4389647     -7.9262485     -7.2678108      2.731762       50218.233      36.893836      36.893836      36.893836    
    390000   0.44112417    -7.9261358     -7.264459       2.7509338      50218.233      36.893836      36.893836      36.893836    
    391000   0.43994807    -7.9287642     -7.2688515      2.7135293      50218.233      36.893836      36.893836      36.893836    
    392000   0.43901107    -7.9250034     -7.2664961      2.7534525      50218.233      36.893836      36.893836      36.893836    
    393000   0.44168737    -7.9291426     -7.266621       2.7246392      50218.233      36.893836      36.893836      36.893836    
    394000   0.44100218    -7.9248672     -7.2633733      2.7583022      50218.233      36.893836      36.893836      36.893836    
    395000   0.43824553    -7.927009      -7.2696501      2.7440228      50218.233      36.893836      36.893836      36.893836    
    396000   0.44024511    -7.927364      -7.2670057      2.7351007      50218.233      36.893836      36.893836      36.893836    
    397000   0.44042737    -7.9271409     -7.2665092      2.7361709      50218.233      36.893836      36.893836      36.893836    
    398000   0.44141447    -7.9264544     -7.2643421      2.7450867      50218.233      36.893836      36.893836      36.893836    
    399000   0.43850462    -7.9226218     -7.2648742      2.7655072      50218.233      36.893836      36.893836      36.893836    
    400000   0.4416244     -7.9262924     -7.2638652      2.7365656      50218.233      36.893836      36.893836      36.893836    
    401000   0.43901898    -7.9242359     -7.2657168      2.761174       50218.233      36.893836      36.893836      36.893836    
    402000   0.44136528    -7.9267837     -7.2647452      2.7340659      50218.233      36.893836      36.893836      36.893836    
    403000   0.43959917    -7.9236404     -7.264251       2.7602538      50218.233      36.893836      36.893836      36.893836    
    404000   0.43901456    -7.9273068     -7.2687943      2.7357204      50218.233      36.893836      36.893836      36.893836    
    405000   0.43939665    -7.9287824     -7.2696968      2.7216332      50218.233      36.893836      36.893836      36.893836    
    406000   0.44014528    -7.9297872     -7.2695786      2.720846       50218.233      36.893836      36.893836      36.893836    
    407000   0.43985364    -7.9276556     -7.2678846      2.7301122      50218.233      36.893836      36.893836      36.893836    
    408000   0.44229732    -7.9271794     -7.2637429      2.7479814      50218.233      36.893836      36.893836      36.893836    
    409000   0.43669772    -7.9232877     -7.2682504      2.767346       50218.233      36.893836      36.893836      36.893836    
    410000   0.43911285    -7.9272181     -7.2685582      2.7408263      50218.233      36.893836      36.893836      36.893836    
    411000   0.44112498    -7.9284587     -7.2667806      2.7399413      50218.233      36.893836      36.893836      36.893836    
    412000   0.44061032    -7.9280881     -7.2671821      2.7326153      50218.233      36.893836      36.893836      36.893836    
    413000   0.44040334    -7.928869      -7.2682734      2.7268028      50218.233      36.893836      36.893836      36.893836    
    414000   0.43775857    -7.9250206     -7.268392       2.7535122      50218.233      36.893836      36.893836      36.893836    
    415000   0.44026407    -7.9258756     -7.2654889      2.7548247      50218.233      36.893836      36.893836      36.893836    
    416000   0.43970975    -7.9253043     -7.2657491      2.7578662      50218.233      36.893836      36.893836      36.893836    
    417000   0.44257555    -7.9260052     -7.2621513      2.7509416      50218.233      36.893836      36.893836      36.893836    
    418000   0.43918088    -7.9255535     -7.2667915      2.7460142      50218.233      36.893836      36.893836      36.893836    
    419000   0.43915096    -7.9235864     -7.2648694      2.7687577      50218.233      36.893836      36.893836      36.893836    
    420000   0.43773672    -7.9270278     -7.2704321      2.7330871      50218.233      36.893836      36.893836      36.893836    
    421000   0.43875972    -7.924278      -7.2661478      2.759689       50218.233      36.893836      36.893836      36.893836    
    422000   0.43985927    -7.9283102     -7.2685307      2.7345858      50218.233      36.893836      36.893836      36.893836    
    423000   0.43864323    -7.9279408     -7.2699854      2.7292144      50218.233      36.893836      36.893836      36.893836    
    424000   0.43629543    -7.9288148     -7.2743809      2.7207654      50218.233      36.893836      36.893836      36.893836    
    425000   0.43902571    -7.9240978     -7.2655686      2.7551873      50218.233      36.893836      36.893836      36.893836    
    426000   0.43954123    -7.9238123     -7.2645099      2.7545618      50218.233      36.893836      36.893836      36.893836    
    427000   0.43888801    -7.9243342     -7.2660116      2.7598009      50218.233      36.893836      36.893836      36.893836    
    428000   0.44160345    -7.926562      -7.2641662      2.7404885      50218.233      36.893836      36.893836      36.893836    
    429000   0.44081603    -7.9234341     -7.2622195      2.7614553      50218.233      36.893836      36.893836      36.893836    
    430000   0.44132007    -7.9249976     -7.263027       2.7572849      50218.233      36.893836      36.893836      36.893836    
    431000   0.43945188    -7.9271258     -7.2679574      2.7377485      50218.233      36.893836      36.893836      36.893836    
    432000   0.43930773    -7.9247789     -7.2658267      2.7555283      50218.233      36.893836      36.893836      36.893836    
    433000   0.43905435    -7.9281915     -7.2696193      2.7321277      50218.233      36.893836      36.893836      36.893836    
    434000   0.43642715    -7.9267139     -7.2720825      2.7457078      50218.233      36.893836      36.893836      36.893836    
    435000   0.43891275    -7.9287488     -7.270389       2.7278632      50218.233      36.893836      36.893836      36.893836    
    436000   0.4399056     -7.9271358     -7.2672867      2.7298199      50218.233      36.893836      36.893836      36.893836    
    437000   0.43999025    -7.9265635     -7.2665876      2.7489668      50218.233      36.893836      36.893836      36.893836    
    438000   0.43853046    -7.9315929     -7.2738065      2.7064072      50218.233      36.893836      36.893836      36.893836    
    439000   0.44011941    -7.9249824     -7.2648126      2.7541865      50218.233      36.893836      36.893836      36.893836    
    440000   0.44075191    -7.9288434     -7.267725       2.720878       50218.233      36.893836      36.893836      36.893836    
    441000   0.44053698    -7.9291062     -7.2683101      2.7247372      50218.233      36.893836      36.893836      36.893836    
    442000   0.4395812     -7.930571      -7.2712086      2.7026372      50218.233      36.893836      36.893836      36.893836    
    443000   0.44066637    -7.9240731     -7.2630829      2.7528133      50218.233      36.893836      36.893836      36.893836    
    444000   0.43858281    -7.9255523     -7.2676874      2.7521615      50218.233      36.893836      36.893836      36.893836    
    445000   0.4399555     -7.9253411     -7.2654173      2.7546985      50218.233      36.893836      36.893836      36.893836    
    446000   0.43593707    -7.928526      -7.2746297      2.7216873      50218.233      36.893836      36.893836      36.893836    
    447000   0.44191875    -7.9262688     -7.2634001      2.7460345      50218.233      36.893836      36.893836      36.893836    
    448000   0.44125341    -7.929114      -7.2672433      2.7210216      50218.233      36.893836      36.893836      36.893836    
    449000   0.43889092    -7.9285724     -7.2702454      2.731541       50218.233      36.893836      36.893836      36.893836    
    450000   0.43969521    -7.9236943     -7.2641608      2.7659349      50218.233      36.893836      36.893836      36.893836    
    451000   0.44162183    -7.9227432     -7.2603199      2.767183       50218.233      36.893836      36.893836      36.893836    
    452000   0.43776722    -7.9240728     -7.2674313      2.7623754      50218.233      36.893836      36.893836      36.893836    
    453000   0.44182053    -7.9269184     -7.264197       2.7486412      50218.233      36.893836      36.893836      36.893836    
    454000   0.43977922    -7.9245778     -7.2649184      2.7536812      50218.233      36.893836      36.893836      36.893836    
    455000   0.44146978    -7.9261389     -7.2639437      2.7526977      50218.233      36.893836      36.893836      36.893836    
    456000   0.43958819    -7.9260055     -7.2666326      2.7470196      50218.233      36.893836      36.893836      36.893836    
    457000   0.44236133    -7.9288984     -7.2653658      2.7295654      50218.233      36.893836      36.893836      36.893836    
    458000   0.44051502    -7.9282803     -7.2675172      2.7288853      50218.233      36.893836      36.893836      36.893836    
    459000   0.43891691    -7.930347      -7.271981       2.7069638      50218.233      36.893836      36.893836      36.893836    
    460000   0.43867966    -7.9259017     -7.2678916      2.7549253      50218.233      36.893836      36.893836      36.893836    
    461000   0.43874837    -7.9260071     -7.2678939      2.7481897      50218.233      36.893836      36.893836      36.893836    
    462000   0.4403808     -7.9264021     -7.2658403      2.7581832      50218.233      36.893836      36.893836      36.893836    
    463000   0.43833674    -7.9311329     -7.2736371      2.7104895      50218.233      36.893836      36.893836      36.893836    
    464000   0.44300856    -7.9230825     -7.2585791      2.7780669      50218.233      36.893836      36.893836      36.893836    
    465000   0.4410175     -7.9237948     -7.262278       2.7718446      50218.233      36.893836      36.893836      36.893836    
    466000   0.43857014    -7.925469      -7.2676231      2.74077        50218.233      36.893836      36.893836      36.893836    
    467000   0.44078467    -7.9269762     -7.2658086      2.7419321      50218.233      36.893836      36.893836      36.893836    
    468000   0.43974584    -7.9264393     -7.2668299      2.744128       50218.233      36.893836      36.893836      36.893836    
    469000   0.43822702    -7.9243992     -7.267068       2.760851       50218.233      36.893836      36.893836      36.893836    
    470000   0.43834343    -7.92598       -7.2684742      2.7467182      50218.233      36.893836      36.893836      36.893836    
    471000   0.44116814    -7.9270275     -7.2652847      2.7472346      50218.233      36.893836      36.893836      36.893836    
    472000   0.43670359    -7.9270649     -7.2720188      2.7349975      50218.233      36.893836      36.893836      36.893836    
    473000   0.44081413    -7.9255217     -7.2643099      2.7521801      50218.233      36.893836      36.893836      36.893836    
    474000   0.43890223    -7.9254526     -7.2671087      2.7437885      50218.233      36.893836      36.893836      36.893836    
    475000   0.43965161    -7.9280759     -7.2686079      2.7338769      50218.233      36.893836      36.893836      36.893836    
    476000   0.44045983    -7.9242338     -7.2635535      2.7727299      50218.233      36.893836      36.893836      36.893836    
    477000   0.43995555    -7.9248823     -7.2649583      2.7585892      50218.233      36.893836      36.893836      36.893836    
    478000   0.44136653    -7.9271333     -7.2650929      2.7496082      50218.233      36.893836      36.893836      36.893836    
    479000   0.43979057    -7.9265687     -7.2668922      2.7423523      50218.233      36.893836      36.893836      36.893836    
    480000   0.43940794    -7.9236767     -7.2645742      2.7693419      50218.233      36.893836      36.893836      36.893836    
    481000   0.44125944    -7.9279812     -7.2661015      2.748649       50218.233      36.893836      36.893836      36.893836    
    482000   0.43723874    -7.9250171     -7.2691683      2.7517953      50218.233      36.893836      36.893836      36.893836    
    483000   0.44116761    -7.9248356     -7.2630936      2.7745436      50218.233      36.893836      36.893836      36.893836    
    484000   0.44135864    -7.9276343     -7.2656057      2.7395319      50218.233      36.893836      36.893836      36.893836    
    485000   0.43936146    -7.9258019     -7.2667691      2.7586152      50218.233      36.893836      36.893836      36.893836    
    486000   0.44211753    -7.9245629     -7.261396       2.7671458      50218.233      36.893836      36.893836      36.893836    
    487000   0.44242415    -7.9208606     -7.2572338      2.793864       50218.233      36.893836      36.893836      36.893836    
    488000   0.43960048    -7.9242344     -7.2648431      2.7651394      50218.233      36.893836      36.893836      36.893836    
    489000   0.44067175    -7.9288245     -7.2678262      2.72825        50218.233      36.893836      36.893836      36.893836    
    490000   0.4411836     -7.9266472     -7.2648813      2.7424942      50218.233      36.893836      36.893836      36.893836    
    491000   0.44003731    -7.9234585     -7.2634119      2.7660404      50218.233      36.893836      36.893836      36.893836    
    492000   0.44030216    -7.9264659     -7.2660221      2.7472686      50218.233      36.893836      36.893836      36.893836    
    493000   0.44256374    -7.9250289     -7.2611927      2.7681807      50218.233      36.893836      36.893836      36.893836    
    494000   0.44143613    -7.9271229     -7.2649782      2.7443141      50218.233      36.893836      36.893836      36.893836    
    495000   0.43842584    -7.9257703     -7.2681409      2.7459248      50218.233      36.893836      36.893836      36.893836    
    496000   0.43752923    -7.9267499     -7.2704654      2.7472038      50218.233      36.893836      36.893836      36.893836    
    497000   0.43772015    -7.9312857     -7.2747148      2.7025754      50218.233      36.893836      36.893836      36.893836    
    498000   0.44017738    -7.9292159     -7.2689592      2.7268417      50218.233      36.893836      36.893836      36.893836    
    499000   0.43913874    -7.92959       -7.2708912      2.7094442      50218.233      36.893836      36.893836      36.893836    
    500000   0.44019405    -7.9308873     -7.2706056      2.6992413      50218.233      36.893836      36.893836      36.893836    
    501000   0.4376246     -7.9261458     -7.2697183      2.747359       50218.233      36.893836      36.893836      36.893836    
    502000   0.43880694    -7.9239957     -7.2657946      2.7659939      50218.233      36.893836      36.893836      36.893836    
    503000   0.43863339    -7.9271776     -7.2692369      2.7310653      50218.233      36.893836      36.893836      36.893836    
    504000   0.43862324    -7.9273643     -7.2694388      2.7403295      50218.233      36.893836      36.893836      36.893836    
    505000   0.43868571    -7.9276556     -7.2696364      2.7353013      50218.233      36.893836      36.893836      36.893836    
    506000   0.43947027    -7.9280983     -7.2689023      2.7384232      50218.233      36.893836      36.893836      36.893836    
    507000   0.43910592    -7.9249065     -7.266257       2.7530046      50218.233      36.893836      36.893836      36.893836    
    508000   0.43970009    -7.9262242     -7.2666834      2.7437772      50218.233      36.893836      36.893836      36.893836    
    509000   0.43746401    -7.925586      -7.2693994      2.7482229      50218.233      36.893836      36.893836      36.893836    
    510000   0.44147685    -7.9247477     -7.2625418      2.7647264      50218.233      36.893836      36.893836      36.893836    
    511000   0.43937352    -7.9246277     -7.2655768      2.764585       50218.233      36.893836      36.893836      36.893836    
    512000   0.44119695    -7.9228609     -7.2610749      2.770318       50218.233      36.893836      36.893836      36.893836    
    513000   0.44072748    -7.9254487     -7.2643669      2.7536054      50218.233      36.893836      36.893836      36.893836    
    514000   0.44168567    -7.9268785     -7.2643594      2.7421961      50218.233      36.893836      36.893836      36.893836    
    515000   0.44014765    -7.924801      -7.2645889      2.7569392      50218.233      36.893836      36.893836      36.893836    
    516000   0.44169667    -7.9264581     -7.2639225      2.7495566      50218.233      36.893836      36.893836      36.893836    
    517000   0.44002353    -7.9261435     -7.2661176      2.7481857      50218.233      36.893836      36.893836      36.893836    
    518000   0.44146633    -7.9256701     -7.26348        2.7646353      50218.233      36.893836      36.893836      36.893836    
    519000   0.44168284    -7.9267109     -7.2641961      2.7431975      50218.233      36.893836      36.893836      36.893836    
    520000   0.43885912    -7.9267936     -7.2685143      2.7453284      50218.233      36.893836      36.893836      36.893836    
    521000   0.43823588    -7.924154      -7.2668096      2.757704       50218.233      36.893836      36.893836      36.893836    
    522000   0.4382251     -7.9250118     -7.2676835      2.7570748      50218.233      36.893836      36.893836      36.893836    
    523000   0.43898481    -7.9255447     -7.2670768      2.7464686      50218.233      36.893836      36.893836      36.893836    
    524000   0.44066159    -7.9235772     -7.2625942      2.7679532      50218.233      36.893836      36.893836      36.893836    
    525000   0.43836752    -7.9240639     -7.266522       2.7622874      50218.233      36.893836      36.893836      36.893836    
    526000   0.44094733    -7.9276114     -7.2661998      2.7425378      50218.233      36.893836      36.893836      36.893836    
    527000   0.43978824    -7.9250398     -7.2653668      2.7676644      50218.233      36.893836      36.893836      36.893836    
    528000   0.4399989     -7.9223926     -7.2624036      2.7720665      50218.233      36.893836      36.893836      36.893836    
    529000   0.439344      -7.9289865     -7.2699799      2.7311617      50218.233      36.893836      36.893836      36.893836    
    530000   0.43953223    -7.9242337     -7.2649448      2.7547273      50218.233      36.893836      36.893836      36.893836    
    531000   0.4388875     -7.9254452     -7.2671233      2.7541388      50218.233      36.893836      36.893836      36.893836    
    532000   0.43869258    -7.92676       -7.2687304      2.7468208      50218.233      36.893836      36.893836      36.893836    
    533000   0.44146948    -7.9241815     -7.2619867      2.7687783      50218.233      36.893836      36.893836      36.893836    
    534000   0.43949449    -7.9259629     -7.2667306      2.7489437      50218.233      36.893836      36.893836      36.893836    
    535000   0.44222014    -7.9279568     -7.2646361      2.7322283      50218.233      36.893836      36.893836      36.893836    
    536000   0.439149      -7.9299721     -7.2712579      2.7345369      50218.233      36.893836      36.893836      36.893836    
    537000   0.43823333    -7.926563      -7.2692224      2.7472259      50218.233      36.893836      36.893836      36.893836    
    538000   0.43998418    -7.9263278     -7.2663609      2.7452789      50218.233      36.893836      36.893836      36.893836    
    539000   0.4425704     -7.9273506     -7.2635045      2.7418342      50218.233      36.893836      36.893836      36.893836    
    540000   0.44132323    -7.9287043     -7.2667289      2.7316104      50218.233      36.893836      36.893836      36.893836    
    541000   0.43812005    -7.9253416     -7.2681709      2.740489       50218.233      36.893836      36.893836      36.893836    
    542000   0.44045839    -7.9261705     -7.2654923      2.7465484      50218.233      36.893836      36.893836      36.893836    
    543000   0.43726496    -7.9271183     -7.2712302      2.7372397      50218.233      36.893836      36.893836      36.893836    
    544000   0.44142728    -7.9265117     -7.2643802      2.7383294      50218.233      36.893836      36.893836      36.893836    
    545000   0.437071      -7.926308      -7.2707109      2.7405227      50218.233      36.893836      36.893836      36.893836    
    546000   0.43839939    -7.9270592     -7.2694695      2.7406017      50218.233      36.893836      36.893836      36.893836    
    547000   0.44133699    -7.927754      -7.2657579      2.7288826      50218.233      36.893836      36.893836      36.893836    
    548000   0.43964326    -7.9272783     -7.2678228      2.7441572      50218.233      36.893836      36.893836      36.893836    
    549000   0.43852361    -7.9288008     -7.2710247      2.7247203      50218.233      36.893836      36.893836      36.893836    
    550000   0.43870767    -7.924414      -7.2663619      2.7538174      50218.233      36.893836      36.893836      36.893836    
    551000   0.44029671    -7.9229885     -7.2625528      2.7688829      50218.233      36.893836      36.893836      36.893836    
    552000   0.44102442    -7.9289323     -7.267405       2.7246532      50218.233      36.893836      36.893836      36.893836    
    553000   0.44161598    -7.9279619     -7.2655474      2.7343857      50218.233      36.893836      36.893836      36.893836    
    554000   0.44006713    -7.9273312     -7.2672399      2.7288785      50218.233      36.893836      36.893836      36.893836    
    555000   0.44001533    -7.9272527     -7.267239       2.742483       50218.233      36.893836      36.893836      36.893836    
    556000   0.43998279    -7.9321733     -7.2722085      2.7036654      50218.233      36.893836      36.893836      36.893836    
    557000   0.44220647    -7.9273225     -7.2640222      2.7478512      50218.233      36.893836      36.893836      36.893836    
    558000   0.44177303    -7.9257613     -7.2631112      2.7467713      50218.233      36.893836      36.893836      36.893836    
    559000   0.44160084    -7.9276445     -7.2652527      2.7400101      50218.233      36.893836      36.893836      36.893836    
    560000   0.4373063     -7.9265047     -7.2705545      2.7311164      50218.233      36.893836      36.893836      36.893836    
    561000   0.4408405     -7.9257955     -7.2645442      2.759164       50218.233      36.893836      36.893836      36.893836    
    562000   0.43981584    -7.9272002     -7.2674858      2.739339       50218.233      36.893836      36.893836      36.893836    
    563000   0.43914683    -7.9280063     -7.2692954      2.7334685      50218.233      36.893836      36.893836      36.893836    
    564000   0.44073561    -7.9270798     -7.2659858      2.7424576      50218.233      36.893836      36.893836      36.893836    
    565000   0.4411303     -7.9260625     -7.2643764      2.7498063      50218.233      36.893836      36.893836      36.893836    
    566000   0.44061768    -7.924742      -7.2638248      2.7581139      50218.233      36.893836      36.893836      36.893836    
    567000   0.44053954    -7.9296191     -7.2688191      2.7243886      50218.233      36.893836      36.893836      36.893836    
    568000   0.43938431    -7.9257287     -7.2666616      2.7520652      50218.233      36.893836      36.893836      36.893836    
    569000   0.43870017    -7.9234629     -7.265422       2.7610758      50218.233      36.893836      36.893836      36.893836    
    570000   0.43999766    -7.9258495     -7.2658624      2.7530814      50218.233      36.893836      36.893836      36.893836    
    571000   0.43975629    -7.9260303     -7.2664053      2.7490424      50218.233      36.893836      36.893836      36.893836    
    572000   0.43739106    -7.9287708     -7.2726935      2.7320509      50218.233      36.893836      36.893836      36.893836    
    573000   0.44077546    -7.9231769     -7.2620231      2.7667051      50218.233      36.893836      36.893836      36.893836    
    574000   0.43895766    -7.9258918     -7.2674646      2.7425612      50218.233      36.893836      36.893836      36.893836    
    575000   0.43788262    -7.9258789     -7.2690643      2.7523999      50218.233      36.893836      36.893836      36.893836    
    576000   0.44031432    -7.9263108     -7.2658487      2.7437491      50218.233      36.893836      36.893836      36.893836    
    577000   0.4380447     -7.9289207     -7.271863       2.7237166      50218.233      36.893836      36.893836      36.893836    
    578000   0.43738912    -7.9285675     -7.2724931      2.7248459      50218.233      36.893836      36.893836      36.893836    
    579000   0.44124507    -7.9278525     -7.2659943      2.7355368      50218.233      36.893836      36.893836      36.893836    
    580000   0.44021354    -7.9269628     -7.2666519      2.7491796      50218.233      36.893836      36.893836      36.893836    
    581000   0.44041979    -7.9282362     -7.2676159      2.728843       50218.233      36.893836      36.893836      36.893836    
    582000   0.43921895    -7.9287971     -7.269978       2.7267698      50218.233      36.893836      36.893836      36.893836    
    583000   0.44044981    -7.9284683     -7.267803       2.7289122      50218.233      36.893836      36.893836      36.893836    
    584000   0.44079991    -7.9251053     -7.2639149      2.756444       50218.233      36.893836      36.893836      36.893836    
    585000   0.44165272    -7.9228596     -7.26039        2.7808574      50218.233      36.893836      36.893836      36.893836    
    586000   0.4377302     -7.927254      -7.2706681      2.7312812      50218.233      36.893836      36.893836      36.893836    
    587000   0.43800888    -7.9292384     -7.2722345      2.7213646      50218.233      36.893836      36.893836      36.893836    
    588000   0.43870824    -7.9299955     -7.2719425      2.7149933      50218.233      36.893836      36.893836      36.893836    
    589000   0.4391346     -7.9255101     -7.2668176      2.7518307      50218.233      36.893836      36.893836      36.893836    
    590000   0.43835575    -7.9257272     -7.2682029      2.7430847      50218.233      36.893836      36.893836      36.893836    
    591000   0.44151395    -7.9252885     -7.263027       2.7553954      50218.233      36.893836      36.893836      36.893836    
    592000   0.438747      -7.9268541     -7.268743       2.7422494      50218.233      36.893836      36.893836      36.893836    
    593000   0.44146352    -7.9274689     -7.265283       2.738208       50218.233      36.893836      36.893836      36.893836    
    594000   0.44158196    -7.9287431     -7.2663796      2.7383045      50218.233      36.893836      36.893836      36.893836    
    595000   0.4404532     -7.926287      -7.2656166      2.7416831      50218.233      36.893836      36.893836      36.893836    
    596000   0.43972219    -7.9277731     -7.2681992      2.7343651      50218.233      36.893836      36.893836      36.893836    
    597000   0.43959209    -7.9299222     -7.2705435      2.7140262      50218.233      36.893836      36.893836      36.893836    
    598000   0.43699889    -7.9270899     -7.2716009      2.73612        50218.233      36.893836      36.893836      36.893836    
    599000   0.44142774    -7.9240032     -7.2618711      2.7745103      50218.233      36.893836      36.893836      36.893836    
    600000   0.44092254    -7.9275381     -7.2661637      2.7457818      50218.233      36.893836      36.893836      36.893836    
    601000   0.43967225    -7.9277259     -7.2682269      2.7343852      50218.233      36.893836      36.893836      36.893836    
    602000   0.44232367    -7.9257988     -7.2623227      2.7657737      50218.233      36.893836      36.893836      36.893836    
    603000   0.43986573    -7.9268218     -7.2670326      2.727663       50218.233      36.893836      36.893836      36.893836    
    604000   0.44019326    -7.9267346     -7.2664541      2.7472022      50218.233      36.893836      36.893836      36.893836    
    605000   0.43941393    -7.9265837     -7.2674722      2.7396206      50218.233      36.893836      36.893836      36.893836    
    606000   0.43882008    -7.9258539     -7.2676332      2.744066       50218.233      36.893836      36.893836      36.893836    
    607000   0.43845279    -7.9273812     -7.2697114      2.7452624      50218.233      36.893836      36.893836      36.893836    
    608000   0.4413749     -7.9270546     -7.2650016      2.7384874      50218.233      36.893836      36.893836      36.893836    
    609000   0.44074222    -7.9263728     -7.2652689      2.7511501      50218.233      36.893836      36.893836      36.893836    
    610000   0.43865804    -7.9273298     -7.2693521      2.7468481      50218.233      36.893836      36.893836      36.893836    
    611000   0.43846912    -7.923197      -7.2655026      2.7644148      50218.233      36.893836      36.893836      36.893836    
    612000   0.43995206    -7.9276398     -7.2677211      2.7391405      50218.233      36.893836      36.893836      36.893836    
    613000   0.44187732    -7.9271316     -7.2643251      2.7369195      50218.233      36.893836      36.893836      36.893836    
    614000   0.4404691     -7.9241989     -7.2635047      2.7601555      50218.233      36.893836      36.893836      36.893836    
    615000   0.43978932    -7.9249965     -7.2653219      2.7565554      50218.233      36.893836      36.893836      36.893836    
    616000   0.43908447    -7.927745      -7.2691277      2.7385334      50218.233      36.893836      36.893836      36.893836    
    617000   0.4413487     -7.9238061     -7.2617925      2.7789002      50218.233      36.893836      36.893836      36.893836    
    618000   0.43868347    -7.9270717     -7.2690558      2.7495856      50218.233      36.893836      36.893836      36.893836    
    619000   0.4405372     -7.924486      -7.2636896      2.7711647      50218.233      36.893836      36.893836      36.893836    
    620000   0.43960838    -7.9228197     -7.2634165      2.7763084      50218.233      36.893836      36.893836      36.893836    
    621000   0.44012418    -7.9233057     -7.2631289      2.769908       50218.233      36.893836      36.893836      36.893836    
    622000   0.44155331    -7.9238617     -7.2615411      2.7683466      50218.233      36.893836      36.893836      36.893836    
    623000   0.44099308    -7.9258212     -7.264341       2.7467165      50218.233      36.893836      36.893836      36.893836    
    624000   0.43886344    -7.9262453     -7.2679595      2.7439529      50218.233      36.893836      36.893836      36.893836    
    625000   0.43914004    -7.927812      -7.2691113      2.7392093      50218.233      36.893836      36.893836      36.893836    
    626000   0.44345171    -7.9257105     -7.2605424      2.7601789      50218.233      36.893836      36.893836      36.893836    
    627000   0.44102452    -7.9226699     -7.2611426      2.7777585      50218.233      36.893836      36.893836      36.893836    
    628000   0.44072041    -7.9226555     -7.2615843      2.7697235      50218.233      36.893836      36.893836      36.893836    
    629000   0.44093021    -7.9301285     -7.2687426      2.7227251      50218.233      36.893836      36.893836      36.893836    
    630000   0.43922556    -7.9231517     -7.2643228      2.7678615      50218.233      36.893836      36.893836      36.893836    
    631000   0.44055318    -7.923616      -7.2627956      2.7666117      50218.233      36.893836      36.893836      36.893836    
    632000   0.44076664    -7.9262619     -7.2651214      2.7519639      50218.233      36.893836      36.893836      36.893836    
    633000   0.44146462    -7.9259626     -7.2637751      2.7391864      50218.233      36.893836      36.893836      36.893836    
    634000   0.43981329    -7.9245991     -7.2648886      2.760102       50218.233      36.893836      36.893836      36.893836    
    635000   0.44291436    -7.9277542     -7.2633921      2.7428012      50218.233      36.893836      36.893836      36.893836    
    636000   0.43905287    -7.9271551     -7.2685851      2.7428252      50218.233      36.893836      36.893836      36.893836    
    637000   0.44088066    -7.9262714     -7.2649598      2.7559883      50218.233      36.893836      36.893836      36.893836    
    638000   0.44170566    -7.9279699     -7.2654209      2.7312679      50218.233      36.893836      36.893836      36.893836    
    639000   0.44185527    -7.9263465     -7.263573       2.7456832      50218.233      36.893836      36.893836      36.893836    
    640000   0.43848012    -7.9261086     -7.2683977      2.7421375      50218.233      36.893836      36.893836      36.893836    
    641000   0.43972835    -7.9266754     -7.2670922      2.7404837      50218.233      36.893836      36.893836      36.893836    
    642000   0.43873294    -7.9298644     -7.2717744      2.7031801      50218.233      36.893836      36.893836      36.893836    
    643000   0.44053584    -7.9259377     -7.2651433      2.7560455      50218.233      36.893836      36.893836      36.893836    
    644000   0.43646425    -7.9261494     -7.2714623      2.7495993      50218.233      36.893836      36.893836      36.893836    
    645000   0.43814114    -7.9263276     -7.2691253      2.7474655      50218.233      36.893836      36.893836      36.893836    
    646000   0.43971303    -7.9269298     -7.2673696      2.7363742      50218.233      36.893836      36.893836      36.893836    
    647000   0.43990962    -7.9262552     -7.2664002      2.7415621      50218.233      36.893836      36.893836      36.893836    
    648000   0.4381009     -7.9286957     -7.2715537      2.7240429      50218.233      36.893836      36.893836      36.893836    
    649000   0.44153867    -7.9252331     -7.2629345      2.7610333      50218.233      36.893836      36.893836      36.893836    
    650000   0.43869731    -7.9304279     -7.2723913      2.7112984      50218.233      36.893836      36.893836      36.893836    
    651000   0.4413649     -7.9264582     -7.2644202      2.744374       50218.233      36.893836      36.893836      36.893836    
    652000   0.43918184    -7.9254199     -7.2666566      2.7592565      50218.233      36.893836      36.893836      36.893836    
    653000   0.43911563    -7.9286734     -7.2700094      2.7297806      50218.233      36.893836      36.893836      36.893836    
    654000   0.43712685    -7.9256327     -7.2699518      2.7520153      50218.233      36.893836      36.893836      36.893836    
    655000   0.43902566    -7.925607      -7.2670778      2.7483867      50218.233      36.893836      36.893836      36.893836    
    656000   0.44121312    -7.9300827     -7.2682724      2.7128085      50218.233      36.893836      36.893836      36.893836    
    657000   0.43723838    -7.9263234     -7.2704751      2.7490269      50218.233      36.893836      36.893836      36.893836    
    658000   0.43850782    -7.9273394     -7.269587       2.7394943      50218.233      36.893836      36.893836      36.893836    
    659000   0.43964768    -7.9252347     -7.2657726      2.7505842      50218.233      36.893836      36.893836      36.893836    
    660000   0.44161262    -7.9272233     -7.2648138      2.7441356      50218.233      36.893836      36.893836      36.893836    
    661000   0.44006225    -7.9267848     -7.2667008      2.7342554      50218.233      36.893836      36.893836      36.893836    
    662000   0.44089803    -7.928447      -7.2671093      2.7264057      50218.233      36.893836      36.893836      36.893836    
    663000   0.44003361    -7.9260356     -7.2659945      2.7527894      50218.233      36.893836      36.893836      36.893836    
    664000   0.43841223    -7.9289513     -7.2713423      2.7218         50218.233      36.893836      36.893836      36.893836    
    665000   0.44201789    -7.9291305     -7.2661131      2.7266145      50218.233      36.893836      36.893836      36.893836    
    666000   0.44030297    -7.9239542     -7.2635092      2.7609822      50218.233      36.893836      36.893836      36.893836    
    667000   0.44155214    -7.9278686     -7.2655498      2.7327923      50218.233      36.893836      36.893836      36.893836    
    668000   0.4403394     -7.9255837     -7.265084       2.752587       50218.233      36.893836      36.893836      36.893836    
    669000   0.44046001    -7.9270948     -7.2664142      2.7500277      50218.233      36.893836      36.893836      36.893836    
    670000   0.44106919    -7.9304593     -7.268865       2.7255215      50218.233      36.893836      36.893836      36.893836    
    671000   0.44119671    -7.9272476     -7.265462       2.7399672      50218.233      36.893836      36.893836      36.893836    
    672000   0.44021005    -7.9267962     -7.2664905      2.7495968      50218.233      36.893836      36.893836      36.893836    
    673000   0.43861716    -7.923824      -7.2659077      2.7637764      50218.233      36.893836      36.893836      36.893836    
    674000   0.43986331    -7.9245013     -7.2647157      2.7627503      50218.233      36.893836      36.893836      36.893836    
    675000   0.44054768    -7.9269532     -7.2661411      2.7310404      50218.233      36.893836      36.893836      36.893836    
    676000   0.43977027    -7.9252404     -7.2655943      2.7545882      50218.233      36.893836      36.893836      36.893836    
    677000   0.44126505    -7.926058      -7.2641698      2.7548565      50218.233      36.893836      36.893836      36.893836    
    678000   0.43956875    -7.9226361     -7.2632924      2.7750924      50218.233      36.893836      36.893836      36.893836    
    679000   0.44073032    -7.925752      -7.2646659      2.7559246      50218.233      36.893836      36.893836      36.893836    
    680000   0.44065494    -7.9243203     -7.2633473      2.7659214      50218.233      36.893836      36.893836      36.893836    
    681000   0.44062088    -7.9238166     -7.2628947      2.7629417      50218.233      36.893836      36.893836      36.893836    
    682000   0.44054667    -7.9256689     -7.2648583      2.7462962      50218.233      36.893836      36.893836      36.893836    
    683000   0.44065409    -7.9249546     -7.2639828      2.7606415      50218.233      36.893836      36.893836      36.893836    
    684000   0.43998169    -7.9257626     -7.2657994      2.7522767      50218.233      36.893836      36.893836      36.893836    
    685000   0.4397028     -7.9289512     -7.2694064      2.7220514      50218.233      36.893836      36.893836      36.893836    
    686000   0.43912668    -7.9243094     -7.2656287      2.7573008      50218.233      36.893836      36.893836      36.893836    
    687000   0.44135128    -7.928021      -7.2660035      2.7241083      50218.233      36.893836      36.893836      36.893836    
    688000   0.44229413    -7.9272393     -7.2638076      2.746386       50218.233      36.893836      36.893836      36.893836    
    689000   0.44143136    -7.9236856     -7.2615479      2.769859       50218.233      36.893836      36.893836      36.893836    
    690000   0.44084364    -7.9267417     -7.2654857      2.7460954      50218.233      36.893836      36.893836      36.893836    
    691000   0.43935722    -7.9237189     -7.2646925      2.7648927      50218.233      36.893836      36.893836      36.893836    
    692000   0.43985923    -7.9272057     -7.2674262      2.7430724      50218.233      36.893836      36.893836      36.893836    
    693000   0.43923523    -7.924365      -7.2655215      2.7579088      50218.233      36.893836      36.893836      36.893836    
    694000   0.43760726    -7.9258587     -7.2694572      2.7419191      50218.233      36.893836      36.893836      36.893836    
    695000   0.43900314    -7.9265967     -7.2681013      2.7535096      50218.233      36.893836      36.893836      36.893836    
    696000   0.43874529    -7.9229357     -7.2648271      2.7694943      50218.233      36.893836      36.893836      36.893836    
    697000   0.44080829    -7.9306906     -7.2694876      2.7147566      50218.233      36.893836      36.893836      36.893836    
    698000   0.44126896    -7.9269413     -7.2650472      2.7443061      50218.233      36.893836      36.893836      36.893836    
    699000   0.44008268    -7.9303542     -7.2702396      2.72108        50218.233      36.893836      36.893836      36.893836    
    700000   0.44058995    -7.9226827     -7.2618071      2.7774885      50218.233      36.893836      36.893836      36.893836    
    701000   0.4429027     -7.9266923     -7.2623477      2.7524381      50218.233      36.893836      36.893836      36.893836    
    702000   0.4401913     -7.9327701     -7.2724925      2.6925214      50218.233      36.893836      36.893836      36.893836    
    703000   0.43798159    -7.9257822     -7.2688192      2.7451917      50218.233      36.893836      36.893836      36.893836    
    704000   0.44077572    -7.9280164     -7.2668622      2.7384641      50218.233      36.893836      36.893836      36.893836    
    705000   0.44055713    -7.9256092     -7.2647829      2.7503741      50218.233      36.893836      36.893836      36.893836    
    706000   0.43632976    -7.9240482     -7.2695629      2.7530466      50218.233      36.893836      36.893836      36.893836    
    707000   0.43863252    -7.926528      -7.2685886      2.7486885      50218.233      36.893836      36.893836      36.893836    
    708000   0.43861271    -7.9260237     -7.268114       2.7455328      50218.233      36.893836      36.893836      36.893836    
    709000   0.43951299    -7.9279567     -7.2686966      2.7419184      50218.233      36.893836      36.893836      36.893836    
    710000   0.44072976    -7.9276368     -7.2665516      2.7418085      50218.233      36.893836      36.893836      36.893836    
    711000   0.44002517    -7.925716      -7.2656877      2.7585745      50218.233      36.893836      36.893836      36.893836    
    712000   0.43934313    -7.9278033     -7.268798       2.7352798      50218.233      36.893836      36.893836      36.893836    
    713000   0.43748027    -7.9274628     -7.2712517      2.7418198      50218.233      36.893836      36.893836      36.893836    
    714000   0.43851319    -7.9236461     -7.2658857      2.7667811      50218.233      36.893836      36.893836      36.893836    
    715000   0.43926283    -7.9240644     -7.2651796      2.7629714      50218.233      36.893836      36.893836      36.893836    
    716000   0.4392783     -7.9246278     -7.2657197      2.7674231      50218.233      36.893836      36.893836      36.893836    
    717000   0.44172421    -7.9269294     -7.2643525      2.7485969      50218.233      36.893836      36.893836      36.893836    
    718000   0.44070937    -7.9263278     -7.2652732      2.749419       50218.233      36.893836      36.893836      36.893836    
    719000   0.43933929    -7.9257926     -7.266793       2.7498227      50218.233      36.893836      36.893836      36.893836    
    720000   0.44143138    -7.9270236     -7.264886       2.7416828      50218.233      36.893836      36.893836      36.893836    
    721000   0.43927794    -7.9239583     -7.2650508      2.7731531      50218.233      36.893836      36.893836      36.893836    
    722000   0.44165064    -7.9244253     -7.2619588      2.7553812      50218.233      36.893836      36.893836      36.893836    
    723000   0.43968957    -7.9221231     -7.2625981      2.7806818      50218.233      36.893836      36.893836      36.893836    
    724000   0.43830504    -7.9245039     -7.2670557      2.759831       50218.233      36.893836      36.893836      36.893836    
    725000   0.43702646    -7.9257463     -7.2702159      2.755717       50218.233      36.893836      36.893836      36.893836    
    726000   0.44051343    -7.9267751     -7.2660144      2.7482816      50218.233      36.893836      36.893836      36.893836    
    727000   0.44051992    -7.9242485     -7.2634781      2.7640351      50218.233      36.893836      36.893836      36.893836    
    728000   0.43899032    -7.9239174     -7.2654413      2.7628711      50218.233      36.893836      36.893836      36.893836    
    729000   0.44253964    -7.9267973     -7.2629972      2.7451385      50218.233      36.893836      36.893836      36.893836    
    730000   0.43849645    -7.9258637     -7.2681284      2.7476644      50218.233      36.893836      36.893836      36.893836    
    731000   0.43874317    -7.9293676     -7.2712622      2.7287044      50218.233      36.893836      36.893836      36.893836    
    732000   0.43989767    -7.9262548     -7.2664177      2.7443427      50218.233      36.893836      36.893836      36.893836    
    733000   0.44037892    -7.9249199     -7.2643609      2.7566323      50218.233      36.893836      36.893836      36.893836    
    734000   0.43920918    -7.9263941     -7.2675897      2.7411992      50218.233      36.893836      36.893836      36.893836    
    735000   0.44027986    -7.9192155     -7.2588051      2.7981141      50218.233      36.893836      36.893836      36.893836    
    736000   0.4408243     -7.9289043     -7.2676773      2.7309457      50218.233      36.893836      36.893836      36.893836    
    737000   0.43838043    -7.9270055     -7.2694443      2.731841       50218.233      36.893836      36.893836      36.893836    
    738000   0.43965905    -7.9257501     -7.2662709      2.7489699      50218.233      36.893836      36.893836      36.893836    
    739000   0.43963662    -7.9262037     -7.2667581      2.7493159      50218.233      36.893836      36.893836      36.893836    
    740000   0.441426      -7.926203      -7.2640734      2.7473016      50218.233      36.893836      36.893836      36.893836    
    741000   0.43923778    -7.9253916     -7.2665443      2.746189       50218.233      36.893836      36.893836      36.893836    
    742000   0.44223867    -7.9272314     -7.2638828      2.7453287      50218.233      36.893836      36.893836      36.893836    
    743000   0.43748686    -7.9283683     -7.2721473      2.7293145      50218.233      36.893836      36.893836      36.893836    
    744000   0.43899892    -7.9271739     -7.2686849      2.7359495      50218.233      36.893836      36.893836      36.893836    
    745000   0.44276624    -7.9283797     -7.2642398      2.7326987      50218.233      36.893836      36.893836      36.893836    
    746000   0.44028569    -7.9285727     -7.2681535      2.7352662      50218.233      36.893836      36.893836      36.893836    
    747000   0.43959912    -7.9229299     -7.2635406      2.7707921      50218.233      36.893836      36.893836      36.893836    
    748000   0.44023564    -7.9291919     -7.2688479      2.7325563      50218.233      36.893836      36.893836      36.893836    
    749000   0.44019636    -7.9248062     -7.2645211      2.7668903      50218.233      36.893836      36.893836      36.893836    
    750000   0.43888249    -7.9244533     -7.266139       2.7585985      50218.233      36.893836      36.893836      36.893836    
    751000   0.43970793    -7.9273864     -7.2678339      2.7384654      50218.233      36.893836      36.893836      36.893836    
    752000   0.44142501    -7.9264234     -7.2642953      2.7603295      50218.233      36.893836      36.893836      36.893836    
    753000   0.44075987    -7.9269202     -7.2657898      2.7316513      50218.233      36.893836      36.893836      36.893836    
    754000   0.4409607     -7.9274267     -7.2659951      2.729272       50218.233      36.893836      36.893836      36.893836    
    755000   0.44088345    -7.927338      -7.2660222      2.739327       50218.233      36.893836      36.893836      36.893836    
    756000   0.43823623    -7.9277781     -7.2704331      2.7353111      50218.233      36.893836      36.893836      36.893836    
    757000   0.44001748    -7.9234948     -7.2634779      2.7715184      50218.233      36.893836      36.893836      36.893836    
    758000   0.43861227    -7.9256571     -7.2677481      2.7459063      50218.233      36.893836      36.893836      36.893836    
    759000   0.43976218    -7.9271584     -7.2675245      2.7329807      50218.233      36.893836      36.893836      36.893836    
    760000   0.43904934    -7.9234924     -7.2649278      2.7679701      50218.233      36.893836      36.893836      36.893836    
    761000   0.43755407    -7.9243956     -7.2680739      2.749851       50218.233      36.893836      36.893836      36.893836    
    762000   0.43896661    -7.9250468     -7.2666062      2.7522808      50218.233      36.893836      36.893836      36.893836    
    763000   0.4397017     -7.9290434     -7.2695002      2.7371869      50218.233      36.893836      36.893836      36.893836    
    764000   0.43883807    -7.9291636     -7.2709159      2.7207957      50218.233      36.893836      36.893836      36.893836    
    765000   0.44235022    -7.9272973     -7.2637814      2.7411621      50218.233      36.893836      36.893836      36.893836    
    766000   0.43851527    -7.9258478     -7.2680843      2.7551394      50218.233      36.893836      36.893836      36.893836    
    767000   0.43958056    -7.929479      -7.2701175      2.7229739      50218.233      36.893836      36.893836      36.893836    
    768000   0.44051997    -7.9251282     -7.2643576      2.7536781      50218.233      36.893836      36.893836      36.893836    
    769000   0.44063416    -7.9260039     -7.265062       2.7560898      50218.233      36.893836      36.893836      36.893836    
    770000   0.44017793    -7.9265765     -7.266319       2.7435712      50218.233      36.893836      36.893836      36.893836    
    771000   0.43918388    -7.9244954     -7.2657289      2.7586833      50218.233      36.893836      36.893836      36.893836    
    772000   0.43814668    -7.9209879     -7.2637772      2.7808859      50218.233      36.893836      36.893836      36.893836    
    773000   0.44007705    -7.9230811     -7.262975       2.7771628      50218.233      36.893836      36.893836      36.893836    
    774000   0.44073182    -7.9251928     -7.2641044      2.7545652      50218.233      36.893836      36.893836      36.893836    
    775000   0.43857496    -7.923996      -7.266143       2.7497796      50218.233      36.893836      36.893836      36.893836    
    776000   0.43839042    -7.9255351     -7.2679589      2.752846       50218.233      36.893836      36.893836      36.893836    
    777000   0.43882784    -7.9279998     -7.2697674      2.7430876      50218.233      36.893836      36.893836      36.893836    
    778000   0.4425973     -7.9245548     -7.2606683      2.7702422      50218.233      36.893836      36.893836      36.893836    
    779000   0.44028269    -7.922201      -7.2617864      2.7830604      50218.233      36.893836      36.893836      36.893836    
    780000   0.44165121    -7.9254978     -7.2630304      2.7490713      50218.233      36.893836      36.893836      36.893836    
    781000   0.44178581    -7.9265123     -7.263843       2.7523986      50218.233      36.893836      36.893836      36.893836    
    782000   0.4408806     -7.9229424     -7.2616309      2.7714461      50218.233      36.893836      36.893836      36.893836    
    783000   0.44082194    -7.9279268     -7.2667033      2.738773       50218.233      36.893836      36.893836      36.893836    
    784000   0.44122847    -7.9303097     -7.2684764      2.7138789      50218.233      36.893836      36.893836      36.893836    
    785000   0.44009991    -7.928838      -7.2686975      2.7143683      50218.233      36.893836      36.893836      36.893836    
    786000   0.43944378    -7.9285489     -7.2693926      2.7371064      50218.233      36.893836      36.893836      36.893836    
    787000   0.44210442    -7.9247629     -7.2616157      2.7557879      50218.233      36.893836      36.893836      36.893836    
    788000   0.4384202     -7.9250635     -7.2674425      2.7598013      50218.233      36.893836      36.893836      36.893836    
    789000   0.43876086    -7.9241411     -7.2660091      2.7620947      50218.233      36.893836      36.893836      36.893836    
    790000   0.43681341    -7.92412       -7.2689092      2.7616098      50218.233      36.893836      36.893836      36.893836    
    791000   0.43970686    -7.9274204     -7.2678695      2.7345552      50218.233      36.893836      36.893836      36.893836    
    792000   0.43999008    -7.9274211     -7.2674453      2.7495432      50218.233      36.893836      36.893836      36.893836    
    793000   0.43885861    -7.9242606     -7.265982       2.7598649      50218.233      36.893836      36.893836      36.893836    
    794000   0.44186765    -7.9283808     -7.2655887      2.7339584      50218.233      36.893836      36.893836      36.893836    
    795000   0.44056672    -7.9293601     -7.2685194      2.7261829      50218.233      36.893836      36.893836      36.893836    
    796000   0.44157039    -7.9288732     -7.2665271      2.7282162      50218.233      36.893836      36.893836      36.893836    
    797000   0.43938803    -7.9256657     -7.266593       2.7385123      50218.233      36.893836      36.893836      36.893836    
    798000   0.44309237    -7.9303898     -7.2657607      2.7185419      50218.233      36.893836      36.893836      36.893836    
    799000   0.44120661    -7.9277194     -7.2659189      2.7306092      50218.233      36.893836      36.893836      36.893836    
    800000   0.43919429    -7.9303226     -7.2715405      2.7247663      50218.233      36.893836      36.893836      36.893836    
    801000   0.44254405    -7.925075      -7.2612684      2.7533202      50218.233      36.893836      36.893836      36.893836    
    802000   0.44043267    -7.9299855     -7.2693459      2.7190635      50218.233      36.893836      36.893836      36.893836    
    803000   0.44056994    -7.9278239     -7.2669784      2.7372803      50218.233      36.893836      36.893836      36.893836    
    804000   0.44143017    -7.9307924     -7.2686565      2.7113878      50218.233      36.893836      36.893836      36.893836    
    805000   0.43926647    -7.9274735     -7.2685831      2.7370819      50218.233      36.893836      36.893836      36.893836    
    806000   0.43882751    -7.9274472     -7.2692153      2.7363785      50218.233      36.893836      36.893836      36.893836    
    807000   0.43972974    -7.9238865     -7.2643013      2.7603052      50218.233      36.893836      36.893836      36.893836    
    808000   0.43935389    -7.9232109     -7.2641894      2.7745078      50218.233      36.893836      36.893836      36.893836    
    809000   0.4374191     -7.9275632     -7.2714439      2.7346315      50218.233      36.893836      36.893836      36.893836    
    810000   0.43913637    -7.9278553     -7.2691601      2.7353721      50218.233      36.893836      36.893836      36.893836    
    811000   0.44181194    -7.925388      -7.2626795      2.762299       50218.233      36.893836      36.893836      36.893836    
    812000   0.43948904    -7.9270011     -7.2677769      2.7429707      50218.233      36.893836      36.893836      36.893836    
    813000   0.4400898     -7.928725      -7.2685997      2.735351       50218.233      36.893836      36.893836      36.893836    
    814000   0.4392571     -7.9284553     -7.2695791      2.7331957      50218.233      36.893836      36.893836      36.893836    
    815000   0.43895998    -7.9302812     -7.2718506      2.7163746      50218.233      36.893836      36.893836      36.893836    
    816000   0.44007273    -7.9277594     -7.2676597      2.7300872      50218.233      36.893836      36.893836      36.893836    
    817000   0.44105974    -7.9269112     -7.265331       2.7562032      50218.233      36.893836      36.893836      36.893836    
    818000   0.43974253    -7.9282192     -7.2686148      2.7328505      50218.233      36.893836      36.893836      36.893836    
    819000   0.4402665     -7.9262469     -7.2658565      2.7483773      50218.233      36.893836      36.893836      36.893836    
    820000   0.43895962    -7.9262244     -7.2677943      2.7432336      50218.233      36.893836      36.893836      36.893836    
    821000   0.4401406     -7.9259361     -7.2657346      2.7466942      50218.233      36.893836      36.893836      36.893836    
    822000   0.44158705    -7.9245218     -7.2621506      2.7646885      50218.233      36.893836      36.893836      36.893836    
    823000   0.44142981    -7.92794       -7.2658047      2.7414872      50218.233      36.893836      36.893836      36.893836    
    824000   0.44015308    -7.9237477     -7.2635275      2.7607519      50218.233      36.893836      36.893836      36.893836    
    825000   0.43909115    -7.9227217     -7.2640943      2.7653886      50218.233      36.893836      36.893836      36.893836    
    826000   0.43960081    -7.9224544     -7.2630625      2.776582       50218.233      36.893836      36.893836      36.893836    
    827000   0.44046457    -7.9270713     -7.2663839      2.7400604      50218.233      36.893836      36.893836      36.893836    
    828000   0.44093636    -7.9264016     -7.2650064      2.7399746      50218.233      36.893836      36.893836      36.893836    
    829000   0.44122207    -7.9222076     -7.2603839      2.7784545      50218.233      36.893836      36.893836      36.893836    
    830000   0.44210266    -7.9258992     -7.2627547      2.7633994      50218.233      36.893836      36.893836      36.893836    
    831000   0.44133017    -7.9275838     -7.265598       2.7385347      50218.233      36.893836      36.893836      36.893836    
    832000   0.43992516    -7.9252602     -7.2653818      2.7499861      50218.233      36.893836      36.893836      36.893836    
    833000   0.44098205    -7.9262244     -7.2647607      2.7524238      50218.233      36.893836      36.893836      36.893836    
    834000   0.44121626    -7.9284429     -7.2666279      2.7380775      50218.233      36.893836      36.893836      36.893836    
    835000   0.44009169    -7.9247177     -7.2645895      2.7538888      50218.233      36.893836      36.893836      36.893836    
    836000   0.44012895    -7.924871      -7.2646869      2.7584341      50218.233      36.893836      36.893836      36.893836    
    837000   0.44076714    -7.9262099     -7.2650686      2.7404863      50218.233      36.893836      36.893836      36.893836    
    838000   0.44081541    -7.9285851     -7.2673714      2.7269544      50218.233      36.893836      36.893836      36.893836    
    839000   0.4395511     -7.923948      -7.2646307      2.76375        50218.233      36.893836      36.893836      36.893836    
    840000   0.44047946    -7.9250247     -7.2643149      2.7515761      50218.233      36.893836      36.893836      36.893836    
    841000   0.43836729    -7.9292784     -7.2717368      2.7173993      50218.233      36.893836      36.893836      36.893836    
    842000   0.44139104    -7.9280895     -7.2660124      2.7393938      50218.233      36.893836      36.893836      36.893836    
    843000   0.43824998    -7.9250692     -7.2677036      2.7575086      50218.233      36.893836      36.893836      36.893836    
    844000   0.44249978    -7.9272072     -7.263467       2.7405036      50218.233      36.893836      36.893836      36.893836    
    845000   0.4379596     -7.9237213     -7.2667913      2.7629082      50218.233      36.893836      36.893836      36.893836    
    846000   0.44103513    -7.9280779     -7.2665346      2.7407735      50218.233      36.893836      36.893836      36.893836    
    847000   0.43967597    -7.9301888     -7.2706842      2.7094894      50218.233      36.893836      36.893836      36.893836    
    848000   0.44105019    -7.9286238     -7.2670579      2.7339679      50218.233      36.893836      36.893836      36.893836    
    849000   0.43954411    -7.9258592     -7.2665525      2.7462037      50218.233      36.893836      36.893836      36.893836    
    850000   0.43945269    -7.9267948     -7.2676252      2.7358895      50218.233      36.893836      36.893836      36.893836    
    851000   0.43858593    -7.928463      -7.2705935      2.7305257      50218.233      36.893836      36.893836      36.893836    
    852000   0.43882356    -7.9262398     -7.2680138      2.7401623      50218.233      36.893836      36.893836      36.893836    
    853000   0.43922631    -7.930007      -7.2711769      2.7190732      50218.233      36.893836      36.893836      36.893836    
    854000   0.43738297    -7.9269376     -7.2708725      2.7376131      50218.233      36.893836      36.893836      36.893836    
    855000   0.44104263    -7.9234574     -7.2619029      2.7664301      50218.233      36.893836      36.893836      36.893836    
    856000   0.4399609     -7.9272192     -7.2672872      2.736245       50218.233      36.893836      36.893836      36.893836    
    857000   0.44050574    -7.9275535     -7.2668043      2.7443178      50218.233      36.893836      36.893836      36.893836    
    858000   0.43937336    -7.9270357     -7.267985       2.7471778      50218.233      36.893836      36.893836      36.893836    
    859000   0.43953115    -7.9243126     -7.2650252      2.763887       50218.233      36.893836      36.893836      36.893836    
    860000   0.43989694    -7.9280993     -7.2682633      2.736105       50218.233      36.893836      36.893836      36.893836    
    861000   0.43834788    -7.9218723     -7.2643598      2.7780974      50218.233      36.893836      36.893836      36.893836    
    862000   0.44311314    -7.9287909     -7.2641307      2.7366259      50218.233      36.893836      36.893836      36.893836    
    863000   0.44258902    -7.9246855     -7.2608114      2.7584589      50218.233      36.893836      36.893836      36.893836    
    864000   0.43854947    -7.9256762     -7.2678613      2.7555381      50218.233      36.893836      36.893836      36.893836    
    865000   0.43772319    -7.9264659     -7.2698904      2.7453387      50218.233      36.893836      36.893836      36.893836    
    866000   0.43954384    -7.9262555     -7.2669491      2.7477298      50218.233      36.893836      36.893836      36.893836    
    867000   0.43976182    -7.9287785     -7.2691451      2.7292013      50218.233      36.893836      36.893836      36.893836    
    868000   0.43948958    -7.926423      -7.267198       2.7514798      50218.233      36.893836      36.893836      36.893836    
    869000   0.43842076    -7.923819      -7.2661972      2.7656829      50218.233      36.893836      36.893836      36.893836    
    870000   0.43769309    -7.925872      -7.2693417      2.7454057      50218.233      36.893836      36.893836      36.893836    
    871000   0.43766513    -7.9273367     -7.2708483      2.7343663      50218.233      36.893836      36.893836      36.893836    
    872000   0.44141353    -7.9276588     -7.2655479      2.7301046      50218.233      36.893836      36.893836      36.893836    
    873000   0.44128265    -7.9255819     -7.2636673      2.7527458      50218.233      36.893836      36.893836      36.893836    
    874000   0.43886262    -7.9275756     -7.2692911      2.7331315      50218.233      36.893836      36.893836      36.893836    
    875000   0.43902652    -7.9258089     -7.2672785      2.7457435      50218.233      36.893836      36.893836      36.893836    
    876000   0.44033044    -7.9230172     -7.2625309      2.7723602      50218.233      36.893836      36.893836      36.893836    
    877000   0.43791443    -7.927233      -7.2703707      2.7340937      50218.233      36.893836      36.893836      36.893836    
    878000   0.43948769    -7.9264492     -7.267227       2.7407302      50218.233      36.893836      36.893836      36.893836    
    879000   0.44037886    -7.9244719     -7.263913       2.7597341      50218.233      36.893836      36.893836      36.893836    
    880000   0.43885572    -7.9239044     -7.2656302      2.766835       50218.233      36.893836      36.893836      36.893836    
    881000   0.43979246    -7.9251924     -7.2655131      2.7557437      50218.233      36.893836      36.893836      36.893836    
    882000   0.44074475    -7.9242942     -7.2631865      2.7639544      50218.233      36.893836      36.893836      36.893836    
    883000   0.44132523    -7.9238502     -7.2618718      2.7701829      50218.233      36.893836      36.893836      36.893836    
    884000   0.43931133    -7.9261549     -7.2671972      2.7551839      50218.233      36.893836      36.893836      36.893836    
    885000   0.43847198    -7.9258931     -7.2681945      2.7539731      50218.233      36.893836      36.893836      36.893836    
    886000   0.44086901    -7.9256368     -7.2643427      2.7421524      50218.233      36.893836      36.893836      36.893836    
    887000   0.43917573    -7.927666      -7.2689117      2.7309511      50218.233      36.893836      36.893836      36.893836    
    888000   0.44138692    -7.9259001     -7.2638292      2.7576837      50218.233      36.893836      36.893836      36.893836    
    889000   0.44147408    -7.9259953     -7.2637936      2.7555154      50218.233      36.893836      36.893836      36.893836    
    890000   0.44028534    -7.9266346     -7.266216       2.7420905      50218.233      36.893836      36.893836      36.893836    
    891000   0.44068834    -7.9286285     -7.2676053      2.7300988      50218.233      36.893836      36.893836      36.893836    
    892000   0.43955173    -7.9288059     -7.2694877      2.7290941      50218.233      36.893836      36.893836      36.893836    
    893000   0.44017256    -7.9290423     -7.2687929      2.7185732      50218.233      36.893836      36.893836      36.893836    
    894000   0.43844713    -7.9280981     -7.2704368      2.7186221      50218.233      36.893836      36.893836      36.893836    
    895000   0.43826932    -7.9322488     -7.2748542      2.6982608      50218.233      36.893836      36.893836      36.893836    
    896000   0.4403556     -7.9259038     -7.2653798      2.756232       50218.233      36.893836      36.893836      36.893836    
    897000   0.43994864    -7.9280449     -7.2681313      2.7324971      50218.233      36.893836      36.893836      36.893836    
    898000   0.43661666    -7.9257912     -7.2708756      2.7482142      50218.233      36.893836      36.893836      36.893836    
    899000   0.44038147    -7.9209247     -7.2603619      2.7849231      50218.233      36.893836      36.893836      36.893836    
    900000   0.44002817    -7.9288517     -7.2688188      2.7113611      50218.233      36.893836      36.893836      36.893836    
    901000   0.43981327    -7.9266945     -7.266984       2.7393448      50218.233      36.893836      36.893836      36.893836    
    902000   0.4422246     -7.9307244     -7.2673969      2.7094127      50218.233      36.893836      36.893836      36.893836    
    903000   0.4385865     -7.9242379     -7.2663675      2.7540271      50218.233      36.893836      36.893836      36.893836    
    904000   0.44103406    -7.9256153     -7.2640736      2.7572685      50218.233      36.893836      36.893836      36.893836    
    905000   0.44092115    -7.9259153     -7.264543       2.754519       50218.233      36.893836      36.893836      36.893836    
    906000   0.4398319     -7.9245936     -7.2648551      2.7558563      50218.233      36.893836      36.893836      36.893836    
    907000   0.43942467    -7.9310478     -7.2719202      2.7119497      50218.233      36.893836      36.893836      36.893836    
    908000   0.43944219    -7.9249126     -7.2657587      2.7557838      50218.233      36.893836      36.893836      36.893836    
    909000   0.43719709    -7.9265563     -7.27077        2.7381365      50218.233      36.893836      36.893836      36.893836    
    910000   0.44091425    -7.9280432     -7.2666812      2.7349984      50218.233      36.893836      36.893836      36.893836    
    911000   0.43947432    -7.9272384     -7.2680363      2.7437865      50218.233      36.893836      36.893836      36.893836    
    912000   0.4427513     -7.9300812     -7.2659637      2.7170029      50218.233      36.893836      36.893836      36.893836    
    913000   0.43892082    -7.9231413     -7.2647695      2.7563619      50218.233      36.893836      36.893836      36.893836    
    914000   0.44054195    -7.9269191     -7.2661156      2.7446804      50218.233      36.893836      36.893836      36.893836    
    915000   0.44098034    -7.9253594     -7.2638983      2.7574759      50218.233      36.893836      36.893836      36.893836    
    916000   0.43700182    -7.9242567     -7.2687633      2.7477719      50218.233      36.893836      36.893836      36.893836    
    917000   0.43926626    -7.9250006     -7.2661106      2.7539669      50218.233      36.893836      36.893836      36.893836    
    918000   0.44004976    -7.9277967     -7.2677314      2.7381292      50218.233      36.893836      36.893836      36.893836    
    919000   0.43833462    -7.9291916     -7.271699       2.7224178      50218.233      36.893836      36.893836      36.893836    
    920000   0.43813653    -7.9252488     -7.2680533      2.7467274      50218.233      36.893836      36.893836      36.893836    
    921000   0.4418246     -7.9268142     -7.2640867      2.7367596      50218.233      36.893836      36.893836      36.893836    
    922000   0.43758284    -7.9237424     -7.2673775      2.7585812      50218.233      36.893836      36.893836      36.893836    
    923000   0.44189946    -7.9237365     -7.2608968      2.770929       50218.233      36.893836      36.893836      36.893836    
    924000   0.4400186     -7.9259447     -7.2659262      2.7499427      50218.233      36.893836      36.893836      36.893836    
    925000   0.43997541    -7.9278981     -7.2679443      2.7254621      50218.233      36.893836      36.893836      36.893836    
    926000   0.44028369    -7.9260116     -7.2655954      2.7486342      50218.233      36.893836      36.893836      36.893836    
    927000   0.44044717    -7.9253437     -7.2646824      2.7461273      50218.233      36.893836      36.893836      36.893836    
    928000   0.44180459    -7.9280831     -7.2653856      2.7293139      50218.233      36.893836      36.893836      36.893836    
    929000   0.43913094    -7.9284015     -7.2697144      2.7341187      50218.233      36.893836      36.893836      36.893836    
    930000   0.44021257    -7.9280005     -7.267691       2.73008        50218.233      36.893836      36.893836      36.893836    
    931000   0.43891662    -7.926182      -7.2678165      2.7479946      50218.233      36.893836      36.893836      36.893836    
    932000   0.43755171    -7.9235228     -7.2672046      2.7690728      50218.233      36.893836      36.893836      36.893836    
    933000   0.4398425     -7.9251578     -7.2654034      2.7523456      50218.233      36.893836      36.893836      36.893836    
    934000   0.44049552    -7.9236738     -7.2629399      2.7565961      50218.233      36.893836      36.893836      36.893836    
    935000   0.43886827    -7.924019      -7.265726       2.7619404      50218.233      36.893836      36.893836      36.893836    
    936000   0.44144555    -7.9275356     -7.2653767      2.7356639      50218.233      36.893836      36.893836      36.893836    
    937000   0.4376744     -7.9257594     -7.2692571      2.7363427      50218.233      36.893836      36.893836      36.893836    
    938000   0.44030125    -7.9223158     -7.2618733      2.7717615      50218.233      36.893836      36.893836      36.893836    
    939000   0.44056458    -7.9231986     -7.2623611      2.7674248      50218.233      36.893836      36.893836      36.893836    
    940000   0.44082565    -7.9272276     -7.2659985      2.734455       50218.233      36.893836      36.893836      36.893836    
    941000   0.4390897     -7.9239459     -7.2653207      2.7626122      50218.233      36.893836      36.893836      36.893836    
    942000   0.44171795    -7.9276548     -7.2650873      2.7352572      50218.233      36.893836      36.893836      36.893836    
    943000   0.44150107    -7.9281538     -7.2659117      2.7332215      50218.233      36.893836      36.893836      36.893836    
    944000   0.43890786    -7.9280682     -7.2697158      2.7200045      50218.233      36.893836      36.893836      36.893836    
    945000   0.44087913    -7.9234789     -7.2621696      2.7722514      50218.233      36.893836      36.893836      36.893836    
    946000   0.43792154    -7.9258383     -7.2689653      2.7410107      50218.233      36.893836      36.893836      36.893836    
    947000   0.43908925    -7.9267112     -7.2680867      2.7375443      50218.233      36.893836      36.893836      36.893836    
    948000   0.43907806    -7.9270271     -7.2684194      2.7348633      50218.233      36.893836      36.893836      36.893836    
    949000   0.44148539    -7.9283406     -7.266122       2.7329352      50218.233      36.893836      36.893836      36.893836    
    950000   0.43955325    -7.9268358     -7.2675153      2.7452038      50218.233      36.893836      36.893836      36.893836    
    951000   0.44130484    -7.9260278     -7.2640799      2.7489616      50218.233      36.893836      36.893836      36.893836    
    952000   0.43868856    -7.9243499     -7.2663264      2.7556527      50218.233      36.893836      36.893836      36.893836    
    953000   0.44207607    -7.9281434     -7.2650388      2.7398083      50218.233      36.893836      36.893836      36.893836    
    954000   0.43891337    -7.9280608     -7.2697001      2.727966       50218.233      36.893836      36.893836      36.893836    
    955000   0.44075868    -7.9265333     -7.2654046      2.7480624      50218.233      36.893836      36.893836      36.893836    
    956000   0.43915264    -7.9284598     -7.2697402      2.7383336      50218.233      36.893836      36.893836      36.893836    
    957000   0.43784915    -7.9237023     -7.2669379      2.7654217      50218.233      36.893836      36.893836      36.893836    
    958000   0.44149933    -7.9273972     -7.2651577      2.7403046      50218.233      36.893836      36.893836      36.893836    
    959000   0.43573348    -7.9283485     -7.2747576      2.7263526      50218.233      36.893836      36.893836      36.893836    
    960000   0.43897665    -7.9293899     -7.2709342      2.7189148      50218.233      36.893836      36.893836      36.893836    
    961000   0.44059532    -7.9257193     -7.2648358      2.746383       50218.233      36.893836      36.893836      36.893836    
    962000   0.44102929    -7.929477      -7.2679424      2.724069       50218.233      36.893836      36.893836      36.893836    
    963000   0.4399618     -7.9250804     -7.2651471      2.7423948      50218.233      36.893836      36.893836      36.893836    
    964000   0.43989678    -7.9257605     -7.2659247      2.7519109      50218.233      36.893836      36.893836      36.893836    
    965000   0.43963146    -7.9261455     -7.2667077      2.74929        50218.233      36.893836      36.893836      36.893836    
    966000   0.4405685     -7.9224136     -7.2615703      2.7767074      50218.233      36.893836      36.893836      36.893836    
    967000   0.43906939    -7.9246434     -7.2660487      2.7476357      50218.233      36.893836      36.893836      36.893836    
    968000   0.4397474     -7.9268049     -7.2671932      2.7372838      50218.233      36.893836      36.893836      36.893836    
    969000   0.43752426    -7.9283404     -7.2720634      2.7278677      50218.233      36.893836      36.893836      36.893836    
    970000   0.43908802    -7.9252435     -7.2666209      2.7478175      50218.233      36.893836      36.893836      36.893836    
    971000   0.43928315    -7.9241889     -7.2652735      2.7582536      50218.233      36.893836      36.893836      36.893836    
    972000   0.44062727    -7.9268039     -7.2658724      2.739741       50218.233      36.893836      36.893836      36.893836    
    973000   0.44038381    -7.9252316     -7.2646652      2.7604817      50218.233      36.893836      36.893836      36.893836    
    974000   0.44143436    -7.9207292     -7.2585871      2.7851333      50218.233      36.893836      36.893836      36.893836    
    975000   0.44035582    -7.9284724     -7.2679481      2.7313028      50218.233      36.893836      36.893836      36.893836    
    976000   0.44058515    -7.9250961     -7.2642278      2.7516488      50218.233      36.893836      36.893836      36.893836    
    977000   0.43915981    -7.9267818     -7.2680514      2.741434       50218.233      36.893836      36.893836      36.893836    
    978000   0.43930127    -7.9215491     -7.2626066      2.7807872      50218.233      36.893836      36.893836      36.893836    
    979000   0.43849035    -7.9250616     -7.2673355      2.7544335      50218.233      36.893836      36.893836      36.893836    
    980000   0.43983412    -7.9250782     -7.2653364      2.7614143      50218.233      36.893836      36.893836      36.893836    
    981000   0.4389421     -7.9272158     -7.268812       2.7420747      50218.233      36.893836      36.893836      36.893836    
    982000   0.43720854    -7.9257316     -7.2699281      2.7351523      50218.233      36.893836      36.893836      36.893836    
    983000   0.43865276    -7.9291014     -7.2711316      2.7212929      50218.233      36.893836      36.893836      36.893836    
    984000   0.43825474    -7.925441      -7.2680683      2.7477182      50218.233      36.893836      36.893836      36.893836    
    985000   0.44254359    -7.9215673     -7.2577613      2.7883962      50218.233      36.893836      36.893836      36.893836    
    986000   0.44203067    -7.9270787     -7.2640421      2.7492623      50218.233      36.893836      36.893836      36.893836    
    987000   0.44050501    -7.9282824     -7.2675343      2.7305724      50218.233      36.893836      36.893836      36.893836    
    988000   0.43855755    -7.9250436     -7.2672166      2.7573797      50218.233      36.893836      36.893836      36.893836    
    989000   0.44028259    -7.9275043     -7.2670898      2.745046       50218.233      36.893836      36.893836      36.893836    
    990000   0.43652303    -7.9270987     -7.2723235      2.7424987      50218.233      36.893836      36.893836      36.893836    
    991000   0.43944706    -7.9284836     -7.2693224      2.7308119      50218.233      36.893836      36.893836      36.893836    
    992000   0.43956849    -7.929786      -7.2704426      2.7173195      50218.233      36.893836      36.893836      36.893836    
    993000   0.4409088     -7.9318147     -7.270461       2.7049027      50218.233      36.893836      36.893836      36.893836    
    994000   0.44048486    -7.9245857     -7.2638678      2.7512611      50218.233      36.893836      36.893836      36.893836    
    995000   0.4383198     -7.9268585     -7.2693882      2.7414714      50218.233      36.893836      36.893836      36.893836    
    996000   0.44168121    -7.9276796     -7.2651672      2.7326403      50218.233      36.893836      36.893836      36.893836    
    997000   0.4382301     -7.9269758     -7.26964        2.7341491      50218.233      36.893836      36.893836      36.893836    
    998000   0.44086088    -7.9259902     -7.2647083      2.7548369      50218.233      36.893836      36.893836      36.893836    
    999000   0.44053209    -7.925795      -7.2650062      2.7488735      50218.233      36.893836      36.893836      36.893836    
   1000000   0.44200424    -7.9264251     -7.2634282      2.7549176      50218.233      36.893836      36.893836      36.893836    
Loop time of 1601.1 on 4 procs for 1000000 steps with 70304 atoms

Performance: 539627.567 tau/day, 624.569 timesteps/s, 43.910 Matom-step/s
95.5% CPU use with 4 MPI tasks x 1 OpenMP threads

MPI task timing breakdown:
Section |  min time  |  avg time  |  max time  |%varavg| %total
---------------------------------------------------------------
Pair    | 459.09     | 583.23     | 667.75     | 343.0 | 36.43
Neigh   | 5.9337     | 6.1002     | 6.2459     |   4.6 |  0.38
Comm    | 234.06     | 236.74     | 240.27     |  15.8 | 14.79
Output  | 0.19927    | 0.20566    | 0.21618    |   1.4 |  0.01
Modify  | 606.15     | 691.56     | 813.39     | 312.0 | 43.19
Other   |            | 83.27      |            |       |  5.20

Nlocal:          17576 ave       17649 max       17540 min
Histogram: 2 0 1 0 0 0 0 0 0 1
Nghost:        16806.8 ave       16834 max       16757 min
Histogram: 1 0 0 0 0 0 1 0 0 2
Neighs:              0 ave           0 max           0 min
Histogram: 4 0 0 0 0 0 0 0 0 0

Total # of neighbors = 0
Ave neighs/atom = 0
Neighbor list builds = 200029
Dangerous builds = 0
clear
OMP_NUM_THREADS environment is not set. Defaulting to 1 thread. (src/comm.cpp:98)
  using 1 OpenMP thread(s) per MPI task
package gpu 0
jump dms420.lmp

variable T equal 420
# T = 1000* (temp in LJ unit)
variable f equal 1000
log log.${T}
log log.420
