variable TLJ equal (${T}/1000)
variable TLJ equal (625/1000)
variable NCyle equal 10
variable iStep equal (${f})
variable iStep equal (1000)
variable dumpStep equal (${f}*100)
variable dumpStep equal (1000*100)
variable runStep equal (${f}*100*${NCyle})
variable runStep equal (1000*100*${NCyle})
variable runStep equal (1000*100*10)

units       lj
atom_style  atomic
dimension 3
boundary     p p p
pair_style  lj/cut 2.5
read_data  ../data/T${T}.dat
read_data  ../data/T625.dat
Reading data file ...
  orthogonal box = (0.97250269 0.97250269 0.97250269) to (37.866338 37.866338 37.866338)
  1 by 1 by 1 MPI processor grid
  reading atoms ...
  70304 atoms
  reading velocities ...
  70304 velocities
  read_data CPU = 0.224 seconds
change_box all triclinic
Changing box ...
  triclinic box = (0.97250269 0.97250269 0.97250269) to (37.866338 37.866338 37.866338) with tilt (0 0 0)
mass 1 1
mass 2 1
pair_modify shift yes
pair_coeff  1 1 1 1
pair_coeff  1 2 1.5 0.8
pair_coeff  2 2 0.5 0.88


timestep 0.01
thermo ${iStep}
thermo 1000
reset_timestep 0
thermo_style custom step temp pe etotal press vol lx ly lz
fix             1 all nvt temp ${TLJ}  ${TLJ}  0.1
fix             1 all nvt temp 0.625  ${TLJ}  0.1
fix             1 all nvt temp 0.625  0.625  0.1
thermo_modify flush yes

fix dsf all deform 1 xy  wiggle 0.5  ${f}   units box
fix dsf all deform 1 xy  wiggle 0.5  1000   units box
fix ps1 all ave/time 1 1 ${iStep} c_thermo_press[1] c_thermo_press[2]  c_thermo_press[3] c_thermo_press[4]  c_thermo_press[5] c_thermo_press[6]  file  stress.${T}
fix ps1 all ave/time 1 1 1000 c_thermo_press[1] c_thermo_press[2]  c_thermo_press[3] c_thermo_press[4]  c_thermo_press[5] c_thermo_press[6]  file  stress.${T}
fix ps1 all ave/time 1 1 1000 c_thermo_press[1] c_thermo_press[2]  c_thermo_press[3] c_thermo_press[4]  c_thermo_press[5] c_thermo_press[6]  file  stress.625
dump            1 all custom ${dumpStep} dump.${T} id type x y z
dump            1 all custom 100000 dump.${T} id type x y z
dump            1 all custom 100000 dump.625 id type x y z
dump_modify 1 sort id
fix nodrift all momentum 1  linear 1 1 1
fix com_seed all recenter INIT INIT INIT shift all
run ${runStep}
run 1000000
Generated 0 of 1 mixed pair_coeff terms from geometric mixing rule
Per MPI rank memory allocation (min/avg/max) = 21.18 | 21.18 | 21.18 Mbytes
   Step          Temp          PotEng         TotEng         Press          Volume           Lx             Ly             Lz      
         0   0.62525419    -7.5575165     -6.6196486      5.733346       50218.233      36.893836      36.893836      36.893836    
      1000   0.62250071    -7.5440499     -6.6103121      5.8263234      50218.233      36.893836      36.893836      36.893836    
      2000   0.62532165    -7.5429574     -6.6049883      5.8278669      50218.233      36.893836      36.893836      36.893836    
      3000   0.62542733    -7.5434749     -6.6053473      5.825926       50218.233      36.893836      36.893836      36.893836    
      4000   0.6267445     -7.5469697     -6.6068664      5.8028402      50218.233      36.893836      36.893836      36.893836    
      5000   0.62714707    -7.5475963     -6.6068891      5.8048709      50218.233      36.893836      36.893836      36.893836    
      6000   0.62408444    -7.5444509     -6.6083376      5.8208942      50218.233      36.893836      36.893836      36.893836    
      7000   0.62855627    -7.5466522     -6.6038312      5.8055474      50218.233      36.893836      36.893836      36.893836    
      8000   0.62671906    -7.5432148     -6.6031496      5.8373953      50218.233      36.893836      36.893836      36.893836    
      9000   0.62559508    -7.5435358     -6.6051566      5.835369       50218.233      36.893836      36.893836      36.893836    
     10000   0.62324334    -7.5447985     -6.6099468      5.8142061      50218.233      36.893836      36.893836      36.893836    
     11000   0.62391835    -7.5437548     -6.6078906      5.8251947      50218.233      36.893836      36.893836      36.893836    
     12000   0.62519094    -7.5464098     -6.6086367      5.8065043      50218.233      36.893836      36.893836      36.893836    
     13000   0.62694849    -7.5382739     -6.5978645      5.8629362      50218.233      36.893836      36.893836      36.893836    
     14000   0.62580357    -7.5439095     -6.6052175      5.8313961      50218.233      36.893836      36.893836      36.893836    
     15000   0.6262957     -7.5372777     -6.5978475      5.8679188      50218.233      36.893836      36.893836      36.893836    
     16000   0.62602696    -7.5432391     -6.604212       5.83605        50218.233      36.893836      36.893836      36.893836    
     17000   0.62624456    -7.546438      -6.6070845      5.8161389      50218.233      36.893836      36.893836      36.893836    
     18000   0.62739853    -7.5419044     -6.60082        5.8565087      50218.233      36.893836      36.893836      36.893836    
     19000   0.62297899    -7.5464004     -6.6119453      5.8030386      50218.233      36.893836      36.893836      36.893836    
     20000   0.62626734    -7.5470026     -6.6076149      5.7998279      50218.233      36.893836      36.893836      36.893836    
     21000   0.62626241    -7.5433375     -6.6039573      5.8288321      50218.233      36.893836      36.893836      36.893836    
     22000   0.62196041    -7.5353183     -6.602391       5.87923        50218.233      36.893836      36.893836      36.893836    
     23000   0.62681073    -7.5441111     -6.6039084      5.8135346      50218.233      36.893836      36.893836      36.893836    
     24000   0.62640752    -7.5509977     -6.6113998      5.781537       50218.233      36.893836      36.893836      36.893836    
     25000   0.6247763     -7.5424663     -6.6053152      5.8323741      50218.233      36.893836      36.893836      36.893836    
     26000   0.62718882    -7.5462812     -6.6055114      5.8069403      50218.233      36.893836      36.893836      36.893836    
     27000   0.6248056     -7.5426333     -6.6054382      5.8405363      50218.233      36.893836      36.893836      36.893836    
     28000   0.6244003     -7.5492434     -6.6126563      5.7794648      50218.233      36.893836      36.893836      36.893836    
     29000   0.62525093    -7.5464901     -6.608627       5.8127537      50218.233      36.893836      36.893836      36.893836    
     30000   0.62709883    -7.5476551     -6.6070203      5.7911927      50218.233      36.893836      36.893836      36.893836    
     31000   0.62181474    -7.5452625     -6.6125537      5.8241938      50218.233      36.893836      36.893836      36.893836    
     32000   0.62319317    -7.5459756     -6.6111992      5.8040646      50218.233      36.893836      36.893836      36.893836    
     33000   0.62417718    -7.5470513     -6.6107989      5.7987577      50218.233      36.893836      36.893836      36.893836    
     34000   0.62455724    -7.5446341     -6.6078116      5.81773        50218.233      36.893836      36.893836      36.893836    
     35000   0.62600735    -7.5451171     -6.6061194      5.8221195      50218.233      36.893836      36.893836      36.893836    
     36000   0.62580041    -7.5387751     -6.6000879      5.8662305      50218.233      36.893836      36.893836      36.893836    
     37000   0.62806423    -7.544145      -6.602062       5.8276233      50218.233      36.893836      36.893836      36.893836    
     38000   0.62347657    -7.545155      -6.6099535      5.822001       50218.233      36.893836      36.893836      36.893836    
     39000   0.62486689    -7.5460211     -6.6087341      5.8055984      50218.233      36.893836      36.893836      36.893836    
     40000   0.62437443    -7.5450758     -6.6085275      5.8125551      50218.233      36.893836      36.893836      36.893836    
     41000   0.62427455    -7.5469845     -6.610586       5.8015286      50218.233      36.893836      36.893836      36.893836    
     42000   0.62571627    -7.5429301     -6.604369       5.8280715      50218.233      36.893836      36.893836      36.893836    
     43000   0.62193808    -7.5399691     -6.6070753      5.8623863      50218.233      36.893836      36.893836      36.893836    
     44000   0.62444981    -7.5470791     -6.6104177      5.8097506      50218.233      36.893836      36.893836      36.893836    
     45000   0.62396257    -7.5422836     -6.606353       5.8471819      50218.233      36.893836      36.893836      36.893836    
     46000   0.62682738    -7.5413006     -6.6010729      5.8478069      50218.233      36.893836      36.893836      36.893836    
     47000   0.62441715    -7.5421439     -6.6055315      5.8424009      50218.233      36.893836      36.893836      36.893836    
     48000   0.62482351    -7.5407876     -6.6035656      5.8510833      50218.233      36.893836      36.893836      36.893836    
     49000   0.62585156    -7.5425058     -6.6037418      5.8409572      50218.233      36.893836      36.893836      36.893836    
     50000   0.62844101    -7.5427479     -6.6000998      5.8491876      50218.233      36.893836      36.893836      36.893836    
     51000   0.62530571    -7.5469975     -6.6090523      5.8068942      50218.233      36.893836      36.893836      36.893836    
     52000   0.62608682    -7.5469295     -6.6078126      5.7979063      50218.233      36.893836      36.893836      36.893836    
     53000   0.62252806    -7.5401997     -6.6064208      5.8618418      50218.233      36.893836      36.893836      36.893836    
     54000   0.62529923    -7.5355797     -6.5976442      5.882782       50218.233      36.893836      36.893836      36.893836    
     55000   0.62447641    -7.5430348     -6.6063335      5.8389565      50218.233      36.893836      36.893836      36.893836    
     56000   0.62473719    -7.5436525     -6.60656        5.8333822      50218.233      36.893836      36.893836      36.893836    
     57000   0.6232432     -7.5432025     -6.608351       5.8203705      50218.233      36.893836      36.893836      36.893836    
     58000   0.62503151    -7.5406788     -6.6031448      5.8501446      50218.233      36.893836      36.893836      36.893836    
     59000   0.62313993    -7.5393343     -6.6046377      5.8615699      50218.233      36.893836      36.893836      36.893836    
     60000   0.62475277    -7.542527      -6.6054112      5.8358511      50218.233      36.893836      36.893836      36.893836    
     61000   0.62561176    -7.54531       -6.6069057      5.8181589      50218.233      36.893836      36.893836      36.893836    
     62000   0.62691519    -7.5448284     -6.604469       5.8304774      50218.233      36.893836      36.893836      36.893836    
     63000   0.62562853    -7.5462067     -6.6077772      5.8058833      50218.233      36.893836      36.893836      36.893836    
     64000   0.62424114    -7.5418776     -6.6055292      5.8419654      50218.233      36.893836      36.893836      36.893836    
     65000   0.62276983    -7.5484931     -6.6143516      5.795414       50218.233      36.893836      36.893836      36.893836    
     66000   0.62496556    -7.5435884     -6.6061534      5.8205237      50218.233      36.893836      36.893836      36.893836    
     67000   0.62586945    -7.5454844     -6.6066936      5.8128345      50218.233      36.893836      36.893836      36.893836    
     68000   0.62572291    -7.5412785     -6.6027074      5.8444146      50218.233      36.893836      36.893836      36.893836    
     69000   0.6198379     -7.5418096     -6.6120659      5.8322205      50218.233      36.893836      36.893836      36.893836    
     70000   0.62572113    -7.5381714     -6.599603       5.8798514      50218.233      36.893836      36.893836      36.893836    
     71000   0.62222971    -7.541106      -6.6077747      5.8490815      50218.233      36.893836      36.893836      36.893836    
     72000   0.62819105    -7.5374192     -6.595146       5.8803078      50218.233      36.893836      36.893836      36.893836    
     73000   0.62499526    -7.5411274     -6.6036478      5.8549311      50218.233      36.893836      36.893836      36.893836    
     74000   0.62323482    -7.540128      -6.6052891      5.8584454      50218.233      36.893836      36.893836      36.893836    
     75000   0.62644716    -7.5408678     -6.6012104      5.8487465      50218.233      36.893836      36.893836      36.893836    
     76000   0.62357135    -7.5461438     -6.6108001      5.8089302      50218.233      36.893836      36.893836      36.893836    
     77000   0.62667999    -7.5455278     -6.6055212      5.8225812      50218.233      36.893836      36.893836      36.893836    
     78000   0.62530096    -7.5434725     -6.6055344      5.8195209      50218.233      36.893836      36.893836      36.893836    
     79000   0.62584448    -7.5414157     -6.6026623      5.8332943      50218.233      36.893836      36.893836      36.893836    
     80000   0.62376512    -7.5422911     -6.6066567      5.8417053      50218.233      36.893836      36.893836      36.893836    
     81000   0.62407907    -7.5397002     -6.603595       5.8530862      50218.233      36.893836      36.893836      36.893836    
     82000   0.62626305    -7.5411525     -6.6017713      5.8561768      50218.233      36.893836      36.893836      36.893836    
     83000   0.62450799    -7.5441337     -6.6073851      5.8354181      50218.233      36.893836      36.893836      36.893836    
     84000   0.62335046    -7.5412575     -6.6062451      5.8640091      50218.233      36.893836      36.893836      36.893836    
     85000   0.625953      -7.5431858     -6.6042696      5.8377606      50218.233      36.893836      36.893836      36.893836    
     86000   0.62727089    -7.5383711     -6.5974782      5.8659848      50218.233      36.893836      36.893836      36.893836    
     87000   0.62687521    -7.5427532     -6.6024538      5.8579505      50218.233      36.893836      36.893836      36.893836    
     88000   0.62895221    -7.5326469     -6.589232       5.9283542      50218.233      36.893836      36.893836      36.893836    
     89000   0.6252467     -7.5393645     -6.6015078      5.8714015      50218.233      36.893836      36.893836      36.893836    
     90000   0.62144746    -7.5389071     -6.6067492      5.8559235      50218.233      36.893836      36.893836      36.893836    
     91000   0.62153281    -7.54343       -6.611144       5.8249099      50218.233      36.893836      36.893836      36.893836    
     92000   0.62668148    -7.5408536     -6.6008447      5.8635301      50218.233      36.893836      36.893836      36.893836    
     93000   0.62376819    -7.5430075     -6.6073685      5.8265861      50218.233      36.893836      36.893836      36.893836    
     94000   0.62499696    -7.5413373     -6.6038552      5.8504405      50218.233      36.893836      36.893836      36.893836    
     95000   0.62633232    -7.5405805     -6.6010954      5.854968       50218.233      36.893836      36.893836      36.893836    
     96000   0.62576588    -7.5389852     -6.6003497      5.8544653      50218.233      36.893836      36.893836      36.893836    
     97000   0.62367927    -7.544352      -6.6088464      5.8168504      50218.233      36.893836      36.893836      36.893836    
     98000   0.62506318    -7.5472321     -6.6096507      5.7995112      50218.233      36.893836      36.893836      36.893836    
     99000   0.62264535    -7.5425321     -6.6085773      5.8244647      50218.233      36.893836      36.893836      36.893836    
    100000   0.62227395    -7.5466201     -6.6132225      5.8048193      50218.233      36.893836      36.893836      36.893836    
    101000   0.62736953    -7.5467571     -6.6057162      5.8184512      50218.233      36.893836      36.893836      36.893836    
    102000   0.62773135    -7.5466034     -6.6050198      5.8124469      50218.233      36.893836      36.893836      36.893836    
    103000   0.62368227    -7.5388568     -6.6033467      5.8637315      50218.233      36.893836      36.893836      36.893836    
    104000   0.6261883     -7.5431253     -6.6038562      5.8388353      50218.233      36.893836      36.893836      36.893836    
    105000   0.62454901    -7.541127      -6.6043168      5.8396303      50218.233      36.893836      36.893836      36.893836    
    106000   0.6257444     -7.5419907     -6.6033874      5.8405052      50218.233      36.893836      36.893836      36.893836    
    107000   0.62579273    -7.5388867     -6.6002109      5.8669943      50218.233      36.893836      36.893836      36.893836    
    108000   0.62361909    -7.5441003     -6.608685       5.8277226      50218.233      36.893836      36.893836      36.893836    
    109000   0.6237143     -7.5474961     -6.6119379      5.8047014      50218.233      36.893836      36.893836      36.893836    
    110000   0.62221201    -7.5428088     -6.6095041      5.8224633      50218.233      36.893836      36.893836      36.893836    
    111000   0.62936128    -7.5428688     -6.5988403      5.8293023      50218.233      36.893836      36.893836      36.893836    
    112000   0.62456443    -7.5406165     -6.6037832      5.8421061      50218.233      36.893836      36.893836      36.893836    
    113000   0.62668477    -7.5366929     -6.5966791      5.8814435      50218.233      36.893836      36.893836      36.893836    
    114000   0.6270133     -7.5401599     -6.5996533      5.8537212      50218.233      36.893836      36.893836      36.893836    
    115000   0.62467676    -7.5444985     -6.6074967      5.8169253      50218.233      36.893836      36.893836      36.893836    
    116000   0.62740841    -7.5432331     -6.6021338      5.8316785      50218.233      36.893836      36.893836      36.893836    
    117000   0.62393235    -7.5448371     -6.6089519      5.8183759      50218.233      36.893836      36.893836      36.893836    
    118000   0.62703577    -7.5391276     -6.5985873      5.8696154      50218.233      36.893836      36.893836      36.893836    
    119000   0.625803      -7.5379837     -6.5992926      5.8727113      50218.233      36.893836      36.893836      36.893836    
    120000   0.62628393    -7.5420573     -6.6026447      5.8301934      50218.233      36.893836      36.893836      36.893836    
    121000   0.62548781    -7.5385172     -6.6002988      5.8692017      50218.233      36.893836      36.893836      36.893836    
    122000   0.62521283    -7.549735      -6.6119291      5.7849107      50218.233      36.893836      36.893836      36.893836    
    123000   0.62352894    -7.545066      -6.6097859      5.8212665      50218.233      36.893836      36.893836      36.893836    
    124000   0.62502078    -7.543704      -6.6061862      5.829419       50218.233      36.893836      36.893836      36.893836    
    125000   0.62556149    -7.5371998     -6.5988709      5.8911473      50218.233      36.893836      36.893836      36.893836    
    126000   0.62698785    -7.540558      -6.6000896      5.8469058      50218.233      36.893836      36.893836      36.893836    
    127000   0.62650202    -7.5433237     -6.603584       5.8239915      50218.233      36.893836      36.893836      36.893836    
    128000   0.62368406    -7.5420952     -6.6065825      5.8317         50218.233      36.893836      36.893836      36.893836    
    129000   0.62531115    -7.5386103     -6.6006569      5.8733494      50218.233      36.893836      36.893836      36.893836    
    130000   0.62478478    -7.5426772     -6.6055134      5.8391093      50218.233      36.893836      36.893836      36.893836    
    131000   0.623566      -7.5403242     -6.6049885      5.8449835      50218.233      36.893836      36.893836      36.893836    
    132000   0.62370936    -7.5384031     -6.6028523      5.8729573      50218.233      36.893836      36.893836      36.893836    
    133000   0.62349188    -7.5434052     -6.6081807      5.8256893      50218.233      36.893836      36.893836      36.893836    
    134000   0.62568299    -7.5470009     -6.6084897      5.8070929      50218.233      36.893836      36.893836      36.893836    
    135000   0.62149667    -7.536232      -6.6040002      5.8962293      50218.233      36.893836      36.893836      36.893836    
    136000   0.62974755    -7.5406351     -6.5960272      5.8715376      50218.233      36.893836      36.893836      36.893836    
    137000   0.62868281    -7.5463522     -6.6033414      5.814554       50218.233      36.893836      36.893836      36.893836    
    138000   0.62690084    -7.540272      -6.5999341      5.848825       50218.233      36.893836      36.893836      36.893836    
    139000   0.62633798    -7.5430179     -6.6035243      5.8302021      50218.233      36.893836      36.893836      36.893836    
    140000   0.62413836    -7.5424258     -6.6062316      5.8384335      50218.233      36.893836      36.893836      36.893836    
    141000   0.62463006    -7.5457002     -6.6087684      5.8233149      50218.233      36.893836      36.893836      36.893836    
    142000   0.62269467    -7.5452351     -6.6112064      5.8028913      50218.233      36.893836      36.893836      36.893836    
    143000   0.62608236    -7.5417468     -6.6026366      5.8431727      50218.233      36.893836      36.893836      36.893836    
    144000   0.62661763    -7.5428718     -6.6029587      5.8399423      50218.233      36.893836      36.893836      36.893836    
    145000   0.62364459    -7.541023      -6.6055694      5.846249       50218.233      36.893836      36.893836      36.893836    
    146000   0.62966039    -7.5465963     -6.6021191      5.8156915      50218.233      36.893836      36.893836      36.893836    
    147000   0.62316127    -7.5420683     -6.6073396      5.8290687      50218.233      36.893836      36.893836      36.893836    
    148000   0.62494297    -7.5384177     -6.6010166      5.8601335      50218.233      36.893836      36.893836      36.893836    
    149000   0.62555389    -7.5342983     -6.5959808      5.892773       50218.233      36.893836      36.893836      36.893836    
    150000   0.62512142    -7.5377694     -6.6001006      5.8554607      50218.233      36.893836      36.893836      36.893836    
    151000   0.62421457    -7.539365      -6.6030565      5.8607016      50218.233      36.893836      36.893836      36.893836    
    152000   0.62437316    -7.5465684     -6.610022       5.8046896      50218.233      36.893836      36.893836      36.893836    
    153000   0.62595531    -7.5476151     -6.6086955      5.7903334      50218.233      36.893836      36.893836      36.893836    
    154000   0.62506649    -7.5447489     -6.6071625      5.82693        50218.233      36.893836      36.893836      36.893836    
    155000   0.62871835    -7.5454345     -6.6023704      5.8117307      50218.233      36.893836      36.893836      36.893836    
    156000   0.62442862    -7.5465595     -6.6099299      5.8074615      50218.233      36.893836      36.893836      36.893836    
    157000   0.62331889    -7.54612       -6.6111549      5.8077126      50218.233      36.893836      36.893836      36.893836    
    158000   0.62586887    -7.5441361     -6.6053461      5.8213639      50218.233      36.893836      36.893836      36.893836    
    159000   0.62430131    -7.5405324     -6.6040937      5.8384628      50218.233      36.893836      36.893836      36.893836    
    160000   0.62454276    -7.5358917     -6.5990909      5.8966726      50218.233      36.893836      36.893836      36.893836    
    161000   0.6244935     -7.5377206     -6.6009937      5.8723712      50218.233      36.893836      36.893836      36.893836    
    162000   0.62409583    -7.539868      -6.6037376      5.8476096      50218.233      36.893836      36.893836      36.893836    
    163000   0.62084915    -7.5372643     -6.6060038      5.8587359      50218.233      36.893836      36.893836      36.893836    
    164000   0.62686547    -7.536638      -6.5963532      5.8804404      50218.233      36.893836      36.893836      36.893836    
    165000   0.62464607    -7.5426202     -6.6056644      5.8410163      50218.233      36.893836      36.893836      36.893836    
    166000   0.6255492     -7.5427348     -6.6044244      5.8359228      50218.233      36.893836      36.893836      36.893836    
    167000   0.62442177    -7.5451068     -6.6084874      5.8180196      50218.233      36.893836      36.893836      36.893836    
    168000   0.6229342     -7.5343131     -6.599925       5.8762434      50218.233      36.893836      36.893836      36.893836    
    169000   0.62601024    -7.5420642     -6.6030622      5.8312355      50218.233      36.893836      36.893836      36.893836    
    170000   0.62616245    -7.5405053     -6.601275       5.8465751      50218.233      36.893836      36.893836      36.893836    
    171000   0.62494962    -7.5416582     -6.6042471      5.8329546      50218.233      36.893836      36.893836      36.893836    
    172000   0.62407209    -7.5464622     -6.6103674      5.8073459      50218.233      36.893836      36.893836      36.893836    
    173000   0.62218338    -7.544196      -6.6109342      5.8043123      50218.233      36.893836      36.893836      36.893836    
    174000   0.6233836     -7.5449285     -6.6098664      5.8134834      50218.233      36.893836      36.893836      36.893836    
    175000   0.62905984    -7.5407054     -6.5971291      5.8594578      50218.233      36.893836      36.893836      36.893836    
    176000   0.6240774     -7.5475536     -6.6114508      5.796023       50218.233      36.893836      36.893836      36.893836    
    177000   0.62495622    -7.5406178     -6.6031968      5.8603428      50218.233      36.893836      36.893836      36.893836    
    178000   0.62729323    -7.5413829     -6.6004564      5.8487529      50218.233      36.893836      36.893836      36.893836    
    179000   0.62479543    -7.5469623     -6.6097825      5.8013929      50218.233      36.893836      36.893836      36.893836    
    180000   0.62567821    -7.5412007     -6.6026968      5.838436       50218.233      36.893836      36.893836      36.893836    
    181000   0.62537636    -7.5412929     -6.6032417      5.8438688      50218.233      36.893836      36.893836      36.893836    
    182000   0.62196346    -7.5399599     -6.607028       5.8545933      50218.233      36.893836      36.893836      36.893836    
    183000   0.62254344    -7.5446231     -6.6108212      5.8090222      50218.233      36.893836      36.893836      36.893836    
    184000   0.62422066    -7.5410566     -6.6047389      5.8405658      50218.233      36.893836      36.893836      36.893836    
    185000   0.62370079    -7.5410839     -6.605546       5.8522685      50218.233      36.893836      36.893836      36.893836    
    186000   0.62578772    -7.5406788     -6.6020105      5.8513575      50218.233      36.893836      36.893836      36.893836    
    187000   0.62485917    -7.5380716     -6.6007962      5.8616054      50218.233      36.893836      36.893836      36.893836    
    188000   0.62644172    -7.5399138     -6.6002646      5.8605479      50218.233      36.893836      36.893836      36.893836    
    189000   0.62701564    -7.5386635     -6.5981534      5.8802798      50218.233      36.893836      36.893836      36.893836    
    190000   0.6256758     -7.5419831     -6.6034828      5.8294315      50218.233      36.893836      36.893836      36.893836    
    191000   0.62199372    -7.5464908     -6.6135135      5.8076873      50218.233      36.893836      36.893836      36.893836    
    192000   0.62321435    -7.5378319     -6.6030237      5.8731655      50218.233      36.893836      36.893836      36.893836    
    193000   0.62488605    -7.5415948     -6.604279       5.8443952      50218.233      36.893836      36.893836      36.893836    
    194000   0.62526672    -7.5388241     -6.6009374      5.8668474      50218.233      36.893836      36.893836      36.893836    
    195000   0.62514458    -7.539926      -6.6022225      5.861529       50218.233      36.893836      36.893836      36.893836    
    196000   0.62645246    -7.5442441     -6.6045788      5.8280822      50218.233      36.893836      36.893836      36.893836    
    197000   0.62668545    -7.5461709     -6.6061561      5.8063727      50218.233      36.893836      36.893836      36.893836    
    198000   0.62736606    -7.5395602     -6.5985245      5.854284       50218.233      36.893836      36.893836      36.893836    
    199000   0.62342251    -7.5388489     -6.6037284      5.8570454      50218.233      36.893836      36.893836      36.893836    
    200000   0.62813812    -7.5426287     -6.6004349      5.8381887      50218.233      36.893836      36.893836      36.893836    
    201000   0.62697179    -7.5454472     -6.6050029      5.8272344      50218.233      36.893836      36.893836      36.893836    
    202000   0.625287      -7.5410048     -6.6030876      5.8645211      50218.233      36.893836      36.893836      36.893836    
    203000   0.6250058     -7.5372899     -6.5997945      5.8713536      50218.233      36.893836      36.893836      36.893836    
    204000   0.62414038    -7.5410054     -6.6048081      5.8511472      50218.233      36.893836      36.893836      36.893836    
    205000   0.62384629    -7.5428377     -6.6070816      5.838379       50218.233      36.893836      36.893836      36.893836    
    206000   0.62542674    -7.5419592     -6.6038324      5.8503464      50218.233      36.893836      36.893836      36.893836    
    207000   0.62589003    -7.5335295     -6.5947079      5.906079       50218.233      36.893836      36.893836      36.893836    
    208000   0.62605905    -7.5347576     -6.5956824      5.8934829      50218.233      36.893836      36.893836      36.893836    
    209000   0.62409081    -7.5388694     -6.6027465      5.8526818      50218.233      36.893836      36.893836      36.893836    
    210000   0.62721085    -7.5449541     -6.6041512      5.8221907      50218.233      36.893836      36.893836      36.893836    
    211000   0.62771791    -7.5411825     -6.599619       5.8549919      50218.233      36.893836      36.893836      36.893836    
    212000   0.62711452    -7.5464202     -6.6057618      5.8073421      50218.233      36.893836      36.893836      36.893836    
    213000   0.62814577    -7.5401012     -6.5978959      5.856855       50218.233      36.893836      36.893836      36.893836    
    214000   0.62521288    -7.5376988     -6.5998928      5.8694657      50218.233      36.893836      36.893836      36.893836    
    215000   0.62754973    -7.5416861     -6.6003749      5.8539917      50218.233      36.893836      36.893836      36.893836    
    216000   0.62591167    -7.5363553     -6.5975012      5.8827445      50218.233      36.893836      36.893836      36.893836    
    217000   0.62336655    -7.5454651     -6.6104285      5.8150454      50218.233      36.893836      36.893836      36.893836    
    218000   0.6230372     -7.5379254     -6.6033829      5.8709853      50218.233      36.893836      36.893836      36.893836    
    219000   0.62375919    -7.5399271     -6.6043017      5.8531801      50218.233      36.893836      36.893836      36.893836    
    220000   0.62315808    -7.5392499     -6.6045261      5.8648468      50218.233      36.893836      36.893836      36.893836    
    221000   0.62538931    -7.5430543     -6.6049836      5.8357935      50218.233      36.893836      36.893836      36.893836    
    222000   0.62384381    -7.5368419     -6.6010894      5.8783844      50218.233      36.893836      36.893836      36.893836    
    223000   0.62444842    -7.5416977     -6.6050384      5.8600628      50218.233      36.893836      36.893836      36.893836    
    224000   0.62609956    -7.5380293     -6.5988933      5.8729889      50218.233      36.893836      36.893836      36.893836    
    225000   0.62740514    -7.538994      -6.5978997      5.8698286      50218.233      36.893836      36.893836      36.893836    
    226000   0.62372513    -7.5392833     -6.6037089      5.863791       50218.233      36.893836      36.893836      36.893836    
    227000   0.62279872    -7.5433534     -6.6091686      5.827903       50218.233      36.893836      36.893836      36.893836    
    228000   0.62567265    -7.5370292     -6.5985336      5.8870916      50218.233      36.893836      36.893836      36.893836    
    229000   0.62719433    -7.5430615     -6.6022833      5.8334295      50218.233      36.893836      36.893836      36.893836    
    230000   0.62792655    -7.5403724     -6.5984959      5.8428836      50218.233      36.893836      36.893836      36.893836    
    231000   0.6258928     -7.5433398     -6.604514       5.8368923      50218.233      36.893836      36.893836      36.893836    
    232000   0.62526819    -7.5389738     -6.6010848      5.8651784      50218.233      36.893836      36.893836      36.893836    
    233000   0.62442435    -7.5452377     -6.6086145      5.7972021      50218.233      36.893836      36.893836      36.893836    
    234000   0.62560294    -7.5443364     -6.6059453      5.8303472      50218.233      36.893836      36.893836      36.893836    
    235000   0.62218121    -7.54179       -6.6085315      5.8318568      50218.233      36.893836      36.893836      36.893836    
    236000   0.62415134    -7.5428258     -6.6066121      5.8364544      50218.233      36.893836      36.893836      36.893836    
    237000   0.62634238    -7.538469      -6.5989688      5.8749699      50218.233      36.893836      36.893836      36.893836    
    238000   0.62348963    -7.5448182     -6.609597       5.8111151      50218.233      36.893836      36.893836      36.893836    
    239000   0.62462765    -7.5431094     -6.6061812      5.8259076      50218.233      36.893836      36.893836      36.893836    
    240000   0.62652703    -7.5457321     -6.6059549      5.8098418      50218.233      36.893836      36.893836      36.893836    
    241000   0.62545136    -7.5410829     -6.6029192      5.8412315      50218.233      36.893836      36.893836      36.893836    
    242000   0.62306179    -7.5368634     -6.602284       5.8766788      50218.233      36.893836      36.893836      36.893836    
    243000   0.62624716    -7.5405837     -6.6012263      5.8497784      50218.233      36.893836      36.893836      36.893836    
    244000   0.62433643    -7.5450388     -6.6085475      5.8186979      50218.233      36.893836      36.893836      36.893836    
    245000   0.62199424    -7.5371053     -6.6041272      5.8769225      50218.233      36.893836      36.893836      36.893836    
    246000   0.62653146    -7.5424351     -6.6026513      5.8441463      50218.233      36.893836      36.893836      36.893836    
    247000   0.62349892    -7.541265      -6.6060299      5.8431469      50218.233      36.893836      36.893836      36.893836    
    248000   0.62792766    -7.5390501     -6.597172       5.8679441      50218.233      36.893836      36.893836      36.893836    
    249000   0.62531065    -7.5458123     -6.6078597      5.8117115      50218.233      36.893836      36.893836      36.893836    
    250000   0.62334597    -7.543591      -6.6085853      5.8243193      50218.233      36.893836      36.893836      36.893836    
    251000   0.62550451    -7.5401843     -6.6019408      5.849531       50218.233      36.893836      36.893836      36.893836    
    252000   0.62359704    -7.5378001     -6.6024179      5.8704926      50218.233      36.893836      36.893836      36.893836    
    253000   0.62210678    -7.5360867     -6.6029398      5.877069       50218.233      36.893836      36.893836      36.893836    
    254000   0.62159793    -7.5356489     -6.6032652      5.8699912      50218.233      36.893836      36.893836      36.893836    
    255000   0.6249053     -7.5458975     -6.6085529      5.8094892      50218.233      36.893836      36.893836      36.893836    
    256000   0.62424092    -7.5410311     -6.604683       5.8452824      50218.233      36.893836      36.893836      36.893836    
    257000   0.62439253    -7.5396269     -6.6030514      5.847257       50218.233      36.893836      36.893836      36.893836    
    258000   0.62294715    -7.5398327     -6.6054253      5.8477041      50218.233      36.893836      36.893836      36.893836    
    259000   0.62479873    -7.5414269     -6.6042421      5.8389361      50218.233      36.893836      36.893836      36.893836    
    260000   0.62441111    -7.538369      -6.6017657      5.8543987      50218.233      36.893836      36.893836      36.893836    
    261000   0.62475929    -7.53652       -6.5993944      5.8710087      50218.233      36.893836      36.893836      36.893836    
    262000   0.62307372    -7.5438491     -6.6092518      5.8271854      50218.233      36.893836      36.893836      36.893836    
    263000   0.62264707    -7.5376341     -6.6036768      5.8663252      50218.233      36.893836      36.893836      36.893836    
    264000   0.62579577    -7.5435943     -6.604914       5.8245828      50218.233      36.893836      36.893836      36.893836    
    265000   0.62311226    -7.5447118     -6.6100567      5.8123235      50218.233      36.893836      36.893836      36.893836    
    266000   0.62730601    -7.5391749     -6.5982293      5.8718617      50218.233      36.893836      36.893836      36.893836    
    267000   0.62824939    -7.541836      -6.5994753      5.8346415      50218.233      36.893836      36.893836      36.893836    
    268000   0.62337928    -7.5371101     -6.6020544      5.8933112      50218.233      36.893836      36.893836      36.893836    
    269000   0.62459565    -7.5366397     -6.5997595      5.8813646      50218.233      36.893836      36.893836      36.893836    
    270000   0.62566777    -7.5421767     -6.6036884      5.8341455      50218.233      36.893836      36.893836      36.893836    
    271000   0.62806462    -7.5393446     -6.597261       5.8579697      50218.233      36.893836      36.893836      36.893836    
    272000   0.62762169    -7.5338251     -6.592406       5.9171056      50218.233      36.893836      36.893836      36.893836    
    273000   0.62864711    -7.5342857     -6.5913284      5.9098162      50218.233      36.893836      36.893836      36.893836    
    274000   0.6262822     -7.5455012     -6.6060913      5.8217235      50218.233      36.893836      36.893836      36.893836    
    275000   0.62559259    -7.5451686     -6.6067931      5.8236724      50218.233      36.893836      36.893836      36.893836    
    276000   0.62467075    -7.5403159     -6.6033231      5.8614393      50218.233      36.893836      36.893836      36.893836    
    277000   0.62715216    -7.5425344     -6.6018195      5.8390238      50218.233      36.893836      36.893836      36.893836    
    278000   0.62593984    -7.5455221     -6.6066257      5.8130019      50218.233      36.893836      36.893836      36.893836    
    279000   0.62667593    -7.5421431     -6.6021426      5.8494861      50218.233      36.893836      36.893836      36.893836    
    280000   0.62423855    -7.5415306     -6.6051861      5.8464926      50218.233      36.893836      36.893836      36.893836    
    281000   0.62293616    -7.5419673     -6.6075763      5.8360265      50218.233      36.893836      36.893836      36.893836    
    282000   0.61827253    -7.5420956     -6.6147         5.8377877      50218.233      36.893836      36.893836      36.893836    
    283000   0.6274447     -7.5406074     -6.5994538      5.8518452      50218.233      36.893836      36.893836      36.893836    
    284000   0.62386714    -7.5434389     -6.6076515      5.8253628      50218.233      36.893836      36.893836      36.893836    
    285000   0.62407415    -7.543823      -6.6077251      5.8239566      50218.233      36.893836      36.893836      36.893836    
    286000   0.62441455    -7.5403331     -6.6037246      5.8519604      50218.233      36.893836      36.893836      36.893836    
    287000   0.62130457    -7.5370792     -6.6051356      5.868453       50218.233      36.893836      36.893836      36.893836    
    288000   0.62324818    -7.5383284     -6.6034694      5.8675258      50218.233      36.893836      36.893836      36.893836    
    289000   0.62810254    -7.5441681     -6.6020277      5.8260249      50218.233      36.893836      36.893836      36.893836    
    290000   0.62205461    -7.543648      -6.6105793      5.8185389      50218.233      36.893836      36.893836      36.893836    
    291000   0.62707312    -7.5410354     -6.6004391      5.8467756      50218.233      36.893836      36.893836      36.893836    
    292000   0.62290727    -7.5443449     -6.6099973      5.819958       50218.233      36.893836      36.893836      36.893836    
    293000   0.62678719    -7.5403892     -6.6002218      5.8604638      50218.233      36.893836      36.893836      36.893836    
    294000   0.62238863    -7.5383648     -6.6047951      5.869498       50218.233      36.893836      36.893836      36.893836    
    295000   0.62538913    -7.539898      -6.6018277      5.8635701      50218.233      36.893836      36.893836      36.893836    
    296000   0.62584866    -7.5406474     -6.6018878      5.8355004      50218.233      36.893836      36.893836      36.893836    
    297000   0.62410285    -7.5437085     -6.6075675      5.828634       50218.233      36.893836      36.893836      36.893836    
    298000   0.6262775     -7.53926       -6.5998571      5.8562832      50218.233      36.893836      36.893836      36.893836    
    299000   0.62116632    -7.5388311     -6.6070949      5.8605463      50218.233      36.893836      36.893836      36.893836    
    300000   0.62600257    -7.5418875     -6.602897       5.8382246      50218.233      36.893836      36.893836      36.893836    
    301000   0.62308003    -7.5375468     -6.6029401      5.8816082      50218.233      36.893836      36.893836      36.893836    
    302000   0.62577339    -7.5384421     -6.5997954      5.863192       50218.233      36.893836      36.893836      36.893836    
    303000   0.6262978     -7.5386098     -6.5991764      5.869231       50218.233      36.893836      36.893836      36.893836    
    304000   0.62663253    -7.5394721     -6.5995367      5.8643488      50218.233      36.893836      36.893836      36.893836    
    305000   0.62664117    -7.5396728     -6.5997244      5.8523501      50218.233      36.893836      36.893836      36.893836    
    306000   0.62476957    -7.5371854     -6.6000443      5.8867594      50218.233      36.893836      36.893836      36.893836    
    307000   0.62898905    -7.5420737     -6.5986036      5.8470046      50218.233      36.893836      36.893836      36.893836    
    308000   0.62404672    -7.5383431     -6.6022864      5.8710951      50218.233      36.893836      36.893836      36.893836    
    309000   0.62207332    -7.5402739     -6.6071772      5.8513548      50218.233      36.893836      36.893836      36.893836    
    310000   0.62193078    -7.5416051     -6.6087222      5.8463059      50218.233      36.893836      36.893836      36.893836    
    311000   0.62142076    -7.5383019     -6.606184       5.8656958      50218.233      36.893836      36.893836      36.893836    
    312000   0.62349251    -7.5437824     -6.6085569      5.8425136      50218.233      36.893836      36.893836      36.893836    
    313000   0.62330347    -7.5437768     -6.6088349      5.821874       50218.233      36.893836      36.893836      36.893836    
    314000   0.62692337    -7.544182      -6.6038104      5.8228104      50218.233      36.893836      36.893836      36.893836    
    315000   0.62267348    -7.5432838     -6.6092869      5.833646       50218.233      36.893836      36.893836      36.893836    
    316000   0.6261151     -7.5399715     -6.6008122      5.869609       50218.233      36.893836      36.893836      36.893836    
    317000   0.62328249    -7.5383354     -6.603425       5.8732718      50218.233      36.893836      36.893836      36.893836    
    318000   0.62529946    -7.534088      -6.5961522      5.9100842      50218.233      36.893836      36.893836      36.893836    
    319000   0.6242623     -7.5393556     -6.6029755      5.8525028      50218.233      36.893836      36.893836      36.893836    
    320000   0.62771509    -7.5343809     -6.5928217      5.8970346      50218.233      36.893836      36.893836      36.893836    
    321000   0.62469925    -7.5411049     -6.6040694      5.8438743      50218.233      36.893836      36.893836      36.893836    
    322000   0.62322002    -7.540099      -6.6052823      5.8440682      50218.233      36.893836      36.893836      36.893836    
    323000   0.62471234    -7.5380412     -6.6009861      5.8725282      50218.233      36.893836      36.893836      36.893836    
    324000   0.62664419    -7.535547      -6.5955941      5.8992414      50218.233      36.893836      36.893836      36.893836    
    325000   0.62351947    -7.5395641     -6.6042982      5.8619588      50218.233      36.893836      36.893836      36.893836    
    326000   0.62346462    -7.5341477     -6.5989641      5.9043976      50218.233      36.893836      36.893836      36.893836    
    327000   0.62038738    -7.540123      -6.6095552      5.8454685      50218.233      36.893836      36.893836      36.893836    
    328000   0.62441591    -7.5394062     -6.6027957      5.8647426      50218.233      36.893836      36.893836      36.893836    
    329000   0.62497001    -7.5343463     -6.5969046      5.8964342      50218.233      36.893836      36.893836      36.893836    
    330000   0.62606491    -7.535127      -6.596043       5.8926244      50218.233      36.893836      36.893836      36.893836    
    331000   0.62629178    -7.5423695     -6.6029452      5.8415186      50218.233      36.893836      36.893836      36.893836    
    332000   0.6240116     -7.536569      -6.6005649      5.8983278      50218.233      36.893836      36.893836      36.893836    
    333000   0.62416094    -7.5418016     -6.6055735      5.839863       50218.233      36.893836      36.893836      36.893836    
    334000   0.62403076    -7.5321186     -6.5960858      5.9052225      50218.233      36.893836      36.893836      36.893836    
    335000   0.62327395    -7.5355424     -6.6006448      5.8867584      50218.233      36.893836      36.893836      36.893836    
    336000   0.62587574    -7.5333782     -6.594578       5.9070141      50218.233      36.893836      36.893836      36.893836    
    337000   0.62705365    -7.5437788     -6.6032117      5.828654       50218.233      36.893836      36.893836      36.893836    
    338000   0.62224954    -7.5388335     -6.6054724      5.8600612      50218.233      36.893836      36.893836      36.893836    
    339000   0.62454735    -7.5393599     -6.6025521      5.8614895      50218.233      36.893836      36.893836      36.893836    
    340000   0.62368691    -7.5401558     -6.6046388      5.8708571      50218.233      36.893836      36.893836      36.893836    
    341000   0.62557858    -7.5485674     -6.6102129      5.7821933      50218.233      36.893836      36.893836      36.893836    
    342000   0.62586165    -7.5410617     -6.6022825      5.8472685      50218.233      36.893836      36.893836      36.893836    
    343000   0.6248134     -7.5382962     -6.6010894      5.8584637      50218.233      36.893836      36.893836      36.893836    
    344000   0.6285831     -7.540359      -6.5974977      5.8562248      50218.233      36.893836      36.893836      36.893836    
    345000   0.62658966    -7.5415998     -6.6017287      5.8582001      50218.233      36.893836      36.893836      36.893836    
    346000   0.62254543    -7.5422726     -6.6084677      5.8232502      50218.233      36.893836      36.893836      36.893836    
    347000   0.62484838    -7.5372453     -6.599986       5.8763023      50218.233      36.893836      36.893836      36.893836    
    348000   0.62413183    -7.5390066     -6.6028221      5.8531338      50218.233      36.893836      36.893836      36.893836    
    349000   0.62203246    -7.535032      -6.6019966      5.8856214      50218.233      36.893836      36.893836      36.893836    
    350000   0.62567767    -7.5384288     -6.5999257      5.8790709      50218.233      36.893836      36.893836      36.893836    
    351000   0.62988439    -7.5400146     -6.5952015      5.8620282      50218.233      36.893836      36.893836      36.893836    
    352000   0.62136539    -7.5420986     -6.6100638      5.8264162      50218.233      36.893836      36.893836      36.893836    
    353000   0.62573656    -7.5417224     -6.6031309      5.8369174      50218.233      36.893836      36.893836      36.893836    
    354000   0.62745622    -7.534621      -6.5934501      5.9051942      50218.233      36.893836      36.893836      36.893836    
    355000   0.62352586    -7.5412354     -6.6059599      5.8560329      50218.233      36.893836      36.893836      36.893836    
    356000   0.62361683    -7.5372408     -6.6018289      5.8693105      50218.233      36.893836      36.893836      36.893836    
    357000   0.62399651    -7.5341577     -6.5981762      5.8890739      50218.233      36.893836      36.893836      36.893836    
    358000   0.62155326    -7.5413903     -6.6090736      5.8492309      50218.233      36.893836      36.893836      36.893836    
    359000   0.62489652    -7.5389558     -6.6016243      5.8565508      50218.233      36.893836      36.893836      36.893836    
    360000   0.62477572    -7.5434975     -6.6063473      5.8229535      50218.233      36.893836      36.893836      36.893836    
    361000   0.62543621    -7.540396      -6.602255       5.8572115      50218.233      36.893836      36.893836      36.893836    
    362000   0.62986926    -7.5387254     -6.5939349      5.8696969      50218.233      36.893836      36.893836      36.893836    
    363000   0.62650209    -7.5404028     -6.600663       5.853966       50218.233      36.893836      36.893836      36.893836    
    364000   0.62646271    -7.5447407     -6.60506        5.8225188      50218.233      36.893836      36.893836      36.893836    
    365000   0.62290498    -7.5370485     -6.6027043      5.8929905      50218.233      36.893836      36.893836      36.893836    
    366000   0.6261756     -7.5397102     -6.6004601      5.8686549      50218.233      36.893836      36.893836      36.893836    
    367000   0.62607962    -7.538914      -6.5998079      5.8678639      50218.233      36.893836      36.893836      36.893836    
    368000   0.62402745    -7.5366901     -6.6006622      5.8844322      50218.233      36.893836      36.893836      36.893836    
    369000   0.6241296     -7.5456566     -6.6094755      5.8158935      50218.233      36.893836      36.893836      36.893836    
    370000   0.62356411    -7.5437668     -6.6084339      5.8195925      50218.233      36.893836      36.893836      36.893836    
    371000   0.62408936    -7.5462055     -6.6100848      5.8053627      50218.233      36.893836      36.893836      36.893836    
    372000   0.62438229    -7.538841      -6.6022809      5.8535328      50218.233      36.893836      36.893836      36.893836    
    373000   0.62495691    -7.5424618     -6.6050398      5.8335623      50218.233      36.893836      36.893836      36.893836    
    374000   0.62540297    -7.5394169     -6.6013258      5.8557122      50218.233      36.893836      36.893836      36.893836    
    375000   0.62362948    -7.5459817     -6.6105507      5.8181413      50218.233      36.893836      36.893836      36.893836    
    376000   0.62553799    -7.5348472     -6.5965535      5.8886323      50218.233      36.893836      36.893836      36.893836    
    377000   0.62788408    -7.5419501     -6.6001374      5.8461758      50218.233      36.893836      36.893836      36.893836    
    378000   0.62708723    -7.543276      -6.6026585      5.8311498      50218.233      36.893836      36.893836      36.893836    
    379000   0.6248851     -7.5393711     -6.6020568      5.8633524      50218.233      36.893836      36.893836      36.893836    
    380000   0.62748714    -7.5463811     -6.6051638      5.8096902      50218.233      36.893836      36.893836      36.893836    
    381000   0.62594235    -7.5424501     -6.6035499      5.8408166      50218.233      36.893836      36.893836      36.893836    
    382000   0.62429399    -7.5441957     -6.607768       5.8285166      50218.233      36.893836      36.893836      36.893836    
    383000   0.62104728    -7.5407252     -6.6091676      5.8531174      50218.233      36.893836      36.893836      36.893836    
    384000   0.62664511    -7.5459537     -6.6059994      5.828066       50218.233      36.893836      36.893836      36.893836    
    385000   0.62338657    -7.5388506     -6.603784       5.865135       50218.233      36.893836      36.893836      36.893836    
    386000   0.62773301    -7.5451042     -6.603518       5.8237834      50218.233      36.893836      36.893836      36.893836    
    387000   0.62608449    -7.5456756     -6.6065622      5.8193913      50218.233      36.893836      36.893836      36.893836    
    388000   0.62497313    -7.5516654     -6.6142191      5.7753618      50218.233      36.893836      36.893836      36.893836    
    389000   0.62447726    -7.5411424     -6.6044398      5.8430569      50218.233      36.893836      36.893836      36.893836    
    390000   0.62774204    -7.5493241     -6.6077244      5.7889476      50218.233      36.893836      36.893836      36.893836    
    391000   0.62357269    -7.5432368     -6.6078911      5.8301432      50218.233      36.893836      36.893836      36.893836    
    392000   0.62326523    -7.5439142     -6.6090296      5.8277072      50218.233      36.893836      36.893836      36.893836    
    393000   0.62603864    -7.5395415     -6.6004969      5.8623245      50218.233      36.893836      36.893836      36.893836    
    394000   0.62609745    -7.545089      -6.6059561      5.8206878      50218.233      36.893836      36.893836      36.893836    
    395000   0.62572447    -7.5436747     -6.6051013      5.8312119      50218.233      36.893836      36.893836      36.893836    
    396000   0.62572107    -7.5366339     -6.5980657      5.8832604      50218.233      36.893836      36.893836      36.893836    
    397000   0.62358927    -7.5389866     -6.603616       5.8527476      50218.233      36.893836      36.893836      36.893836    
    398000   0.61901152    -7.5389042     -6.6104002      5.8589788      50218.233      36.893836      36.893836      36.893836    
    399000   0.6231028     -7.538264      -6.6036231      5.8695198      50218.233      36.893836      36.893836      36.893836    
    400000   0.6203278     -7.5418006     -6.6113222      5.8440004      50218.233      36.893836      36.893836      36.893836    
    401000   0.62449519    -7.5415188     -6.6047894      5.8383871      50218.233      36.893836      36.893836      36.893836    
    402000   0.62279469    -7.5424092     -6.6082304      5.8309722      50218.233      36.893836      36.893836      36.893836    
    403000   0.62293887    -7.5463988     -6.6120038      5.8182626      50218.233      36.893836      36.893836      36.893836    
    404000   0.62455038    -7.5396868     -6.6028746      5.8609249      50218.233      36.893836      36.893836      36.893836    
    405000   0.62554736    -7.5447417     -6.606434       5.8242521      50218.233      36.893836      36.893836      36.893836    
    406000   0.62341722    -7.5360911     -6.6009786      5.889416       50218.233      36.893836      36.893836      36.893836    
    407000   0.62606939    -7.5442773     -6.6051866      5.8248655      50218.233      36.893836      36.893836      36.893836    
    408000   0.62480238    -7.5391955     -6.6020053      5.8657321      50218.233      36.893836      36.893836      36.893836    
    409000   0.6231533     -7.5345654     -6.5998487      5.8884544      50218.233      36.893836      36.893836      36.893836    
    410000   0.62735049    -7.5441903     -6.603178       5.8238844      50218.233      36.893836      36.893836      36.893836    
    411000   0.62323173    -7.5392768     -6.6044425      5.8595466      50218.233      36.893836      36.893836      36.893836    
    412000   0.62518329    -7.540519      -6.6027574      5.8443875      50218.233      36.893836      36.893836      36.893836    
    413000   0.62209841    -7.5434907     -6.6103564      5.8330343      50218.233      36.893836      36.893836      36.893836    
    414000   0.62619103    -7.5458424     -6.6065692      5.8202774      50218.233      36.893836      36.893836      36.893836    
    415000   0.62450678    -7.5371167     -6.6003699      5.8740543      50218.233      36.893836      36.893836      36.893836    
    416000   0.62472369    -7.5426838     -6.6056116      5.8385051      50218.233      36.893836      36.893836      36.893836    
    417000   0.62362073    -7.5478638     -6.612446       5.803759       50218.233      36.893836      36.893836      36.893836    
    418000   0.62419686    -7.5445864     -6.6083045      5.8174951      50218.233      36.893836      36.893836      36.893836    
    419000   0.62543668    -7.5409662     -6.6028245      5.8548953      50218.233      36.893836      36.893836      36.893836    
    420000   0.62593401    -7.5431667     -6.604279       5.8296233      50218.233      36.893836      36.893836      36.893836    
    421000   0.62392704    -7.5459702     -6.6100929      5.8106128      50218.233      36.893836      36.893836      36.893836    
    422000   0.62550041    -7.547775      -6.6095378      5.7982503      50218.233      36.893836      36.893836      36.893836    
    423000   0.62393467    -7.5431733     -6.6072846      5.8354264      50218.233      36.893836      36.893836      36.893836    
    424000   0.62548853    -7.539385      -6.6011655      5.8561941      50218.233      36.893836      36.893836      36.893836    
    425000   0.62597205    -7.545554      -6.6066093      5.82352        50218.233      36.893836      36.893836      36.893836    
    426000   0.6237112     -7.5440589     -6.6085054      5.8154103      50218.233      36.893836      36.893836      36.893836    
    427000   0.62342748    -7.544823      -6.609695       5.820138       50218.233      36.893836      36.893836      36.893836    
    428000   0.62604953    -7.5400316     -6.6009707      5.8537876      50218.233      36.893836      36.893836      36.893836    
    429000   0.62786962    -7.5434883     -6.6016973      5.8446497      50218.233      36.893836      36.893836      36.893836    
    430000   0.62610747    -7.5398071     -6.6006593      5.8683311      50218.233      36.893836      36.893836      36.893836    
    431000   0.62382352    -7.5353268     -6.5996048      5.8861494      50218.233      36.893836      36.893836      36.893836    
    432000   0.62127387    -7.5467473     -6.6148497      5.8038529      50218.233      36.893836      36.893836      36.893836    
    433000   0.62329867    -7.5418064     -6.6068717      5.8461026      50218.233      36.893836      36.893836      36.893836    
    434000   0.62266795    -7.5412179     -6.6072293      5.8407076      50218.233      36.893836      36.893836      36.893836    
    435000   0.62368694    -7.5405237     -6.6050066      5.8534544      50218.233      36.893836      36.893836      36.893836    
    436000   0.62510662    -7.5439074     -6.6062608      5.8156598      50218.233      36.893836      36.893836      36.893836    
    437000   0.6261105     -7.5404624     -6.60131        5.8589683      50218.233      36.893836      36.893836      36.893836    
    438000   0.62558823    -7.5327437     -6.5943747      5.9079893      50218.233      36.893836      36.893836      36.893836    
    439000   0.62546556    -7.5436908     -6.6055058      5.8363191      50218.233      36.893836      36.893836      36.893836    
    440000   0.62597403    -7.5396072     -6.6006595      5.8546884      50218.233      36.893836      36.893836      36.893836    
    441000   0.62485041    -7.5425266     -6.6052643      5.8378176      50218.233      36.893836      36.893836      36.893836    
    442000   0.62628849    -7.5423818     -6.6029624      5.8404679      50218.233      36.893836      36.893836      36.893836    
    443000   0.625123      -7.5405751     -6.6029039      5.8472478      50218.233      36.893836      36.893836      36.893836    
    444000   0.62301557    -7.5400871     -6.605577       5.8409098      50218.233      36.893836      36.893836      36.893836    
    445000   0.62687231    -7.5432963     -6.6030012      5.8437028      50218.233      36.893836      36.893836      36.893836    
    446000   0.62849877    -7.5436467     -6.6009119      5.8279008      50218.233      36.893836      36.893836      36.893836    
    447000   0.62488015    -7.5416622     -6.6043554      5.8497282      50218.233      36.893836      36.893836      36.893836    
    448000   0.6261863     -7.5477113     -6.6084452      5.7945356      50218.233      36.893836      36.893836      36.893836    
    449000   0.62228138    -7.5437524     -6.6103436      5.8181319      50218.233      36.893836      36.893836      36.893836    
    450000   0.62558232    -7.5428712     -6.6045111      5.8365836      50218.233      36.893836      36.893836      36.893836    
    451000   0.62711737    -7.5473747     -6.6067121      5.8016361      50218.233      36.893836      36.893836      36.893836    
    452000   0.6265522     -7.5440358     -6.6042209      5.8197379      50218.233      36.893836      36.893836      36.893836    
    453000   0.62415708    -7.5508668     -6.6146445      5.7685175      50218.233      36.893836      36.893836      36.893836    
    454000   0.6252826     -7.5421655     -6.6042549      5.8338044      50218.233      36.893836      36.893836      36.893836    
    455000   0.62357255    -7.5455008     -6.6101552      5.806566       50218.233      36.893836      36.893836      36.893836    
    456000   0.62339676    -7.5446952     -6.6096134      5.8004965      50218.233      36.893836      36.893836      36.893836    
    457000   0.62696782    -7.549657      -6.6092186      5.7865917      50218.233      36.893836      36.893836      36.893836    
    458000   0.62167854    -7.5463449     -6.6138404      5.8092962      50218.233      36.893836      36.893836      36.893836    
    459000   0.62512677    -7.5446769     -6.6070001      5.818794       50218.233      36.893836      36.893836      36.893836    
    460000   0.6292639     -7.5428726     -6.5989902      5.8348195      50218.233      36.893836      36.893836      36.893836    
    461000   0.62616008    -7.5481384     -6.6089117      5.7988604      50218.233      36.893836      36.893836      36.893836    
    462000   0.6237299     -7.5462848     -6.6107033      5.8005609      50218.233      36.893836      36.893836      36.893836    
    463000   0.62532318    -7.5417221     -6.6037507      5.8343646      50218.233      36.893836      36.893836      36.893836    
    464000   0.62799397    -7.5458711     -6.6038936      5.8096774      50218.233      36.893836      36.893836      36.893836    
    465000   0.6252327     -7.5445777     -6.606742       5.8289116      50218.233      36.893836      36.893836      36.893836    
    466000   0.62284487    -7.5445908     -6.6103368      5.8161933      50218.233      36.893836      36.893836      36.893836    
    467000   0.62351724    -7.5490749     -6.6138123      5.7799259      50218.233      36.893836      36.893836      36.893836    
    468000   0.62647552    -7.5447334     -6.6050335      5.8241038      50218.233      36.893836      36.893836      36.893836    
    469000   0.62416933    -7.5465223     -6.6102816      5.8114521      50218.233      36.893836      36.893836      36.893836    
    470000   0.62456707    -7.5415215     -6.6046843      5.8430581      50218.233      36.893836      36.893836      36.893836    
    471000   0.62639621    -7.5442012     -6.6046202      5.8090252      50218.233      36.893836      36.893836      36.893836    
    472000   0.6286139     -7.5408026     -6.5978952      5.8607891      50218.233      36.893836      36.893836      36.893836    
    473000   0.62317282    -7.5441218     -6.6093759      5.8132877      50218.233      36.893836      36.893836      36.893836    
    474000   0.62559774    -7.5414188     -6.6030355      5.8471602      50218.233      36.893836      36.893836      36.893836    
    475000   0.62200652    -7.5426418     -6.6096453      5.8288397      50218.233      36.893836      36.893836      36.893836    
    476000   0.62344984    -7.5406465     -6.6054851      5.8521455      50218.233      36.893836      36.893836      36.893836    
    477000   0.6262397     -7.5402886     -6.6009425      5.8594452      50218.233      36.893836      36.893836      36.893836    
    478000   0.62517149    -7.5415639     -6.60382        5.8333422      50218.233      36.893836      36.893836      36.893836    
    479000   0.62478681    -7.5398909     -6.602724       5.8525682      50218.233      36.893836      36.893836      36.893836    
    480000   0.62492102    -7.540336      -6.6029678      5.8553607      50218.233      36.893836      36.893836      36.893836    
    481000   0.62352509    -7.5384827     -6.6032083      5.8824913      50218.233      36.893836      36.893836      36.893836    
    482000   0.62690945    -7.544302      -6.6039512      5.8336907      50218.233      36.893836      36.893836      36.893836    
    483000   0.62250338    -7.5438958     -6.610154       5.821779       50218.233      36.893836      36.893836      36.893836    
    484000   0.62640131    -7.5427877     -6.6031991      5.8344878      50218.233      36.893836      36.893836      36.893836    
    485000   0.62690094    -7.5442258     -6.6038878      5.8316508      50218.233      36.893836      36.893836      36.893836    
    486000   0.6241379     -7.542751      -6.6065574      5.8299019      50218.233      36.893836      36.893836      36.893836    
    487000   0.6240381     -7.5465912     -6.6105473      5.803529       50218.233      36.893836      36.893836      36.893836    
    488000   0.62304837    -7.5447679     -6.6102087      5.8201297      50218.233      36.893836      36.893836      36.893836    
    489000   0.62458145    -7.5385717     -6.6017129      5.86799        50218.233      36.893836      36.893836      36.893836    
    490000   0.62181616    -7.5389877     -6.6062767      5.8607613      50218.233      36.893836      36.893836      36.893836    
    491000   0.624157      -7.5397139     -6.6034917      5.8584041      50218.233      36.893836      36.893836      36.893836    
    492000   0.62464441    -7.5411201     -6.6041668      5.8468465      50218.233      36.893836      36.893836      36.893836    
    493000   0.62034937    -7.5390874     -6.6085766      5.8513201      50218.233      36.893836      36.893836      36.893836    
    494000   0.62954924    -7.5389037     -6.5945933      5.8636092      50218.233      36.893836      36.893836      36.893836    
    495000   0.62551081    -7.5440122     -6.6057593      5.8235062      50218.233      36.893836      36.893836      36.893836    
    496000   0.62294234    -7.5449631     -6.6105629      5.8151305      50218.233      36.893836      36.893836      36.893836    
    497000   0.62629222    -7.5460984     -6.6066734      5.8106862      50218.233      36.893836      36.893836      36.893836    
    498000   0.62460907    -7.542019      -6.6051187      5.842083       50218.233      36.893836      36.893836      36.893836    
    499000   0.62553041    -7.53668       -6.5983978      5.8940263      50218.233      36.893836      36.893836      36.893836    
    500000   0.62361193    -7.5426234     -6.6072189      5.8327779      50218.233      36.893836      36.893836      36.893836    
    501000   0.62354412    -7.539499      -6.6041961      5.8568598      50218.233      36.893836      36.893836      36.893836    
    502000   0.62391973    -7.5409252     -6.6050589      5.8454525      50218.233      36.893836      36.893836      36.893836    
    503000   0.62451705    -7.5432642     -6.6065019      5.8284178      50218.233      36.893836      36.893836      36.893836    
    504000   0.62459838    -7.5440716     -6.6071874      5.8350007      50218.233      36.893836      36.893836      36.893836    
    505000   0.6248021     -7.5398721     -6.6026823      5.8649046      50218.233      36.893836      36.893836      36.893836    
    506000   0.62344502    -7.5397872     -6.604633       5.8519738      50218.233      36.893836      36.893836      36.893836    
    507000   0.62723705    -7.5474071     -6.6065649      5.8131928      50218.233      36.893836      36.893836      36.893836    
    508000   0.62270542    -7.5371472     -6.6031024      5.8810284      50218.233      36.893836      36.893836      36.893836    
    509000   0.62344173    -7.539624      -6.6044747      5.8496476      50218.233      36.893836      36.893836      36.893836    
    510000   0.62367065    -7.5398372     -6.6043445      5.8708897      50218.233      36.893836      36.893836      36.893836    
    511000   0.62844252    -7.5383141     -6.5956637      5.8729911      50218.233      36.893836      36.893836      36.893836    
    512000   0.62786526    -7.5393744     -6.5975899      5.8709505      50218.233      36.893836      36.893836      36.893836    
    513000   0.62573455    -7.5433223     -6.6047338      5.833461       50218.233      36.893836      36.893836      36.893836    
    514000   0.62469593    -7.5398372     -6.6028066      5.8554448      50218.233      36.893836      36.893836      36.893836    
    515000   0.62442385    -7.5362037     -6.5995812      5.8968389      50218.233      36.893836      36.893836      36.893836    
    516000   0.62354363    -7.5396767     -6.6043746      5.8676024      50218.233      36.893836      36.893836      36.893836    
    517000   0.6241133     -7.5456242     -6.6094675      5.8157281      50218.233      36.893836      36.893836      36.893836    
    518000   0.6257395     -7.5407542     -6.6021583      5.8368728      50218.233      36.893836      36.893836      36.893836    
    519000   0.62779453    -7.5416628     -6.5999844      5.847002       50218.233      36.893836      36.893836      36.893836    
    520000   0.62563024    -7.5347352     -6.5963032      5.8884191      50218.233      36.893836      36.893836      36.893836    
    521000   0.62417748    -7.5382615     -6.6020086      5.8724795      50218.233      36.893836      36.893836      36.893836    
    522000   0.6253428     -7.5387969     -6.6007961      5.8623137      50218.233      36.893836      36.893836      36.893836    
    523000   0.62478343    -7.542318      -6.6051562      5.8418882      50218.233      36.893836      36.893836      36.893836    
    524000   0.62640303    -7.5410157     -6.6014245      5.8389677      50218.233      36.893836      36.893836      36.893836    
    525000   0.62346265    -7.5330775     -6.5978968      5.919451       50218.233      36.893836      36.893836      36.893836    
    526000   0.6243877     -7.5367252     -6.600157       5.8851069      50218.233      36.893836      36.893836      36.893836    
    527000   0.62568911    -7.5360119     -6.5974916      5.8887248      50218.233      36.893836      36.893836      36.893836    
    528000   0.62639999    -7.5348426     -6.595256       5.8938189      50218.233      36.893836      36.893836      36.893836    
    529000   0.62275633    -7.5367524     -6.6026312      5.8791842      50218.233      36.893836      36.893836      36.893836    
    530000   0.62497047    -7.5384379     -6.6009956      5.8626056      50218.233      36.893836      36.893836      36.893836    
    531000   0.62395958    -7.5380113     -6.6020853      5.8526383      50218.233      36.893836      36.893836      36.893836    
    532000   0.62461649    -7.5420356     -6.6051242      5.8326951      50218.233      36.893836      36.893836      36.893836    
    533000   0.62307463    -7.5387625     -6.6041639      5.8592648      50218.233      36.893836      36.893836      36.893836    
    534000   0.62475648    -7.5381003     -6.6009789      5.8570483      50218.233      36.893836      36.893836      36.893836    
    535000   0.62367257    -7.5394182     -6.6039227      5.8477102      50218.233      36.893836      36.893836      36.893836    
    536000   0.62428038    -7.5342803     -6.597873       5.8837611      50218.233      36.893836      36.893836      36.893836    
    537000   0.62758839    -7.5419017     -6.6005325      5.8384537      50218.233      36.893836      36.893836      36.893836    
    538000   0.62233471    -7.5404309     -6.6069421      5.8484199      50218.233      36.893836      36.893836      36.893836    
    539000   0.62479057    -7.5404077     -6.6032352      5.8406901      50218.233      36.893836      36.893836      36.893836    
    540000   0.62626052    -7.5389129     -6.5995355      5.8691671      50218.233      36.893836      36.893836      36.893836    
    541000   0.62504845    -7.5389749     -6.6014156      5.8603436      50218.233      36.893836      36.893836      36.893836    
    542000   0.62220951    -7.5378393     -6.6045383      5.8587841      50218.233      36.893836      36.893836      36.893836    
    543000   0.62471732    -7.5379904     -6.6009278      5.8687603      50218.233      36.893836      36.893836      36.893836    
    544000   0.62685327    -7.5380397     -6.5977731      5.8666079      50218.233      36.893836      36.893836      36.893836    
    545000   0.62373038    -7.5406729     -6.6050906      5.8420684      50218.233      36.893836      36.893836      36.893836    
    546000   0.62507789    -7.5362441     -6.5986407      5.8917066      50218.233      36.893836      36.893836      36.893836    
    547000   0.6250497     -7.5403396     -6.6027784      5.8540917      50218.233      36.893836      36.893836      36.893836    
    548000   0.62306328    -7.5366683     -6.6020867      5.8752082      50218.233      36.893836      36.893836      36.893836    
    549000   0.62359225    -7.5406935     -6.6053184      5.8539161      50218.233      36.893836      36.893836      36.893836    
    550000   0.62537178    -7.5390836     -6.6010393      5.8606433      50218.233      36.893836      36.893836      36.893836    
    551000   0.62099849    -7.541927      -6.6104426      5.8281425      50218.233      36.893836      36.893836      36.893836    
    552000   0.62652517    -7.5423635     -6.6025892      5.8271552      50218.233      36.893836      36.893836      36.893836    
    553000   0.62458271    -7.5443956     -6.6075348      5.816003       50218.233      36.893836      36.893836      36.893836    
    554000   0.62480947    -7.5413982     -6.6041973      5.8562159      50218.233      36.893836      36.893836      36.893836    
    555000   0.6263846     -7.5439686     -6.6044051      5.8285289      50218.233      36.893836      36.893836      36.893836    
    556000   0.6239248     -7.5430903     -6.6072165      5.8392162      50218.233      36.893836      36.893836      36.893836    
    557000   0.62473197    -7.540062      -6.6029773      5.8303161      50218.233      36.893836      36.893836      36.893836    
    558000   0.62699627    -7.5393303     -6.5988493      5.87314        50218.233      36.893836      36.893836      36.893836    
    559000   0.62347634    -7.5377187     -6.6025175      5.8695184      50218.233      36.893836      36.893836      36.893836    
    560000   0.62627769    -7.5385715     -6.5991683      5.8613593      50218.233      36.893836      36.893836      36.893836    
    561000   0.6223789     -7.5346895     -6.6011344      5.8860595      50218.233      36.893836      36.893836      36.893836    
    562000   0.62821095    -7.5329272     -6.5906242      5.9015717      50218.233      36.893836      36.893836      36.893836    
    563000   0.62477344    -7.53719       -6.6000431      5.8872429      50218.233      36.893836      36.893836      36.893836    
    564000   0.62540989    -7.5366642     -6.5985627      5.872359       50218.233      36.893836      36.893836      36.893836    
    565000   0.62426683    -7.5387844     -6.6023975      5.8573901      50218.233      36.893836      36.893836      36.893836    
    566000   0.6273338     -7.5322794     -6.5912921      5.9129128      50218.233      36.893836      36.893836      36.893836    
    567000   0.62173338    -7.5347402     -6.6021534      5.8873415      50218.233      36.893836      36.893836      36.893836    
    568000   0.62507368    -7.5359726     -6.5983754      5.8766985      50218.233      36.893836      36.893836      36.893836    
    569000   0.62553885    -7.5451726     -6.6068777      5.8167221      50218.233      36.893836      36.893836      36.893836    
    570000   0.62949254    -7.5375135     -6.5932881      5.8799442      50218.233      36.893836      36.893836      36.893836    
    571000   0.62299635    -7.5363473     -6.601866       5.8736407      50218.233      36.893836      36.893836      36.893836    
    572000   0.61992988    -7.5426694     -6.6127878      5.8332818      50218.233      36.893836      36.893836      36.893836    
    573000   0.62753811    -7.5393236     -6.5980298      5.8697481      50218.233      36.893836      36.893836      36.893836    
    574000   0.62513859    -7.5450627     -6.6073681      5.8145971      50218.233      36.893836      36.893836      36.893836    
    575000   0.6252695     -7.539542      -6.6016511      5.8642338      50218.233      36.893836      36.893836      36.893836    
    576000   0.62279926    -7.5414911     -6.6073055      5.8491534      50218.233      36.893836      36.893836      36.893836    
    577000   0.62794013    -7.5408442     -6.5989474      5.8666222      50218.233      36.893836      36.893836      36.893836    
    578000   0.62602399    -7.5420014     -6.6029788      5.834676       50218.233      36.893836      36.893836      36.893836    
    579000   0.62624534    -7.5428026     -6.603448       5.8423037      50218.233      36.893836      36.893836      36.893836    
    580000   0.62635124    -7.5436743     -6.6041608      5.8368634      50218.233      36.893836      36.893836      36.893836    
    581000   0.62271374    -7.5417831     -6.6077258      5.8375027      50218.233      36.893836      36.893836      36.893836    
    582000   0.6261977     -7.5379134     -6.5986302      5.8662817      50218.233      36.893836      36.893836      36.893836    
    583000   0.62497567    -7.5425522     -6.605102       5.8349229      50218.233      36.893836      36.893836      36.893836    
    584000   0.62567999    -7.5336175     -6.5951109      5.9166043      50218.233      36.893836      36.893836      36.893836    
    585000   0.62578453    -7.5421964     -6.6035329      5.8431873      50218.233      36.893836      36.893836      36.893836    
    586000   0.62890531    -7.5331457     -6.5898012      5.9164559      50218.233      36.893836      36.893836      36.893836    
    587000   0.61988267    -7.542623      -6.6128122      5.8214267      50218.233      36.893836      36.893836      36.893836    
    588000   0.62733018    -7.5416483     -6.6006664      5.8403628      50218.233      36.893836      36.893836      36.893836    
    589000   0.62563344    -7.5439845     -6.6055477      5.8082303      50218.233      36.893836      36.893836      36.893836    
    590000   0.62727609    -7.5428548     -6.6019541      5.8446448      50218.233      36.893836      36.893836      36.893836    
    591000   0.62328847    -7.5395106     -6.6045912      5.8524381      50218.233      36.893836      36.893836      36.893836    
    592000   0.62552121    -7.5445402     -6.6062718      5.8121225      50218.233      36.893836      36.893836      36.893836    
    593000   0.62833952    -7.5411151     -6.5986193      5.8465787      50218.233      36.893836      36.893836      36.893836    
    594000   0.62675756    -7.5421598     -6.6020368      5.841064       50218.233      36.893836      36.893836      36.893836    
    595000   0.62292753    -7.5423757     -6.6079977      5.8392961      50218.233      36.893836      36.893836      36.893836    
    596000   0.62292264    -7.5437704     -6.6093997      5.818651       50218.233      36.893836      36.893836      36.893836    
    597000   0.6266044     -7.5417638     -6.6018705      5.8624569      50218.233      36.893836      36.893836      36.893836    
    598000   0.62745583    -7.5388264     -6.5976561      5.8601837      50218.233      36.893836      36.893836      36.893836    
    599000   0.6268525     -7.5398955     -6.5996301      5.8503594      50218.233      36.893836      36.893836      36.893836    
    600000   0.62259427    -7.5409289     -6.6070508      5.8388549      50218.233      36.893836      36.893836      36.893836    
    601000   0.62659972    -7.5391152     -6.599229       5.8698779      50218.233      36.893836      36.893836      36.893836    
    602000   0.62272739    -7.5449862     -6.6109084      5.8179139      50218.233      36.893836      36.893836      36.893836    
    603000   0.6253947     -7.5419137     -6.603835       5.8542112      50218.233      36.893836      36.893836      36.893836    
    604000   0.62489661    -7.5418204     -6.6044889      5.8469635      50218.233      36.893836      36.893836      36.893836    
    605000   0.62443297    -7.5433469     -6.6067108      5.8411581      50218.233      36.893836      36.893836      36.893836    
    606000   0.62713069    -7.5330616     -6.5923789      5.9136141      50218.233      36.893836      36.893836      36.893836    
    607000   0.62584956    -7.5389133     -6.6001523      5.8592944      50218.233      36.893836      36.893836      36.893836    
    608000   0.62380613    -7.5407377     -6.6050418      5.8547009      50218.233      36.893836      36.893836      36.893836    
    609000   0.62444493    -7.5386926     -6.6020386      5.8567844      50218.233      36.893836      36.893836      36.893836    
    610000   0.62608686    -7.5410248     -6.6019078      5.8428191      50218.233      36.893836      36.893836      36.893836    
    611000   0.62469023    -7.5402802     -6.6032581      5.846168       50218.233      36.893836      36.893836      36.893836    
    612000   0.6264931     -7.5414335     -6.6017073      5.839922       50218.233      36.893836      36.893836      36.893836    
    613000   0.62552867    -7.5393087     -6.6010291      5.8704831      50218.233      36.893836      36.893836      36.893836    
    614000   0.62556609    -7.5446181     -6.6062823      5.8179631      50218.233      36.893836      36.893836      36.893836    
    615000   0.62906598    -7.5352161     -6.5916306      5.8844028      50218.233      36.893836      36.893836      36.893836    
    616000   0.62748283    -7.5480194     -6.6068085      5.8002218      50218.233      36.893836      36.893836      36.893836    
    617000   0.62705338    -7.544099      -6.6035323      5.8229079      50218.233      36.893836      36.893836      36.893836    
    618000   0.62463243    -7.5522478     -6.6153125      5.772123       50218.233      36.893836      36.893836      36.893836    
    619000   0.62475913    -7.5480348     -6.6109095      5.8009574      50218.233      36.893836      36.893836      36.893836    
    620000   0.62967026    -7.5443634     -6.5998714      5.8171296      50218.233      36.893836      36.893836      36.893836    
    621000   0.62514012    -7.5393994     -6.6017026      5.866706       50218.233      36.893836      36.893836      36.893836    
    622000   0.62625507    -7.5414913     -6.602122       5.8500051      50218.233      36.893836      36.893836      36.893836    
    623000   0.62438376    -7.536822      -6.6002597      5.8715997      50218.233      36.893836      36.893836      36.893836    
    624000   0.62256817    -7.5407112     -6.6068722      5.8331882      50218.233      36.893836      36.893836      36.893836    
    625000   0.62587836    -7.538767      -6.5999629      5.8551362      50218.233      36.893836      36.893836      36.893836    
    626000   0.62558241    -7.5341467     -6.5957865      5.8882275      50218.233      36.893836      36.893836      36.893836    
    627000   0.62188574    -7.5439187     -6.6111033      5.8246928      50218.233      36.893836      36.893836      36.893836    
    628000   0.6245143     -7.5392115     -6.6024533      5.8602049      50218.233      36.893836      36.893836      36.893836    
    629000   0.62412668    -7.5385205     -6.6023438      5.8675068      50218.233      36.893836      36.893836      36.893836    
    630000   0.62379356    -7.5432767     -6.6075996      5.820539       50218.233      36.893836      36.893836      36.893836    
    631000   0.62288366    -7.5430832     -6.608771       5.8204885      50218.233      36.893836      36.893836      36.893836    
    632000   0.62818934    -7.5438297     -6.6015591      5.8312856      50218.233      36.893836      36.893836      36.893836    
    633000   0.62703262    -7.5386235     -6.598088       5.8653781      50218.233      36.893836      36.893836      36.893836    
    634000   0.62173266    -7.5446819     -6.6120962      5.8163917      50218.233      36.893836      36.893836      36.893836    
    635000   0.62176476    -7.5380472     -6.6054133      5.8713224      50218.233      36.893836      36.893836      36.893836    
    636000   0.6250867     -7.5436914     -6.6060747      5.8268834      50218.233      36.893836      36.893836      36.893836    
    637000   0.62916821    -7.5435118     -6.5997729      5.8213763      50218.233      36.893836      36.893836      36.893836    
    638000   0.62684713    -7.5410768     -6.6008195      5.8461176      50218.233      36.893836      36.893836      36.893836    
    639000   0.6217316     -7.5449189     -6.6123347      5.8076406      50218.233      36.893836      36.893836      36.893836    
    640000   0.62597547    -7.5395801     -6.6006303      5.857031       50218.233      36.893836      36.893836      36.893836    
    641000   0.62552719    -7.5437658     -6.6054884      5.8385766      50218.233      36.893836      36.893836      36.893836    
    642000   0.62629253    -7.545707      -6.6062816      5.8200581      50218.233      36.893836      36.893836      36.893836    
    643000   0.62448283    -7.5445361     -6.6078251      5.8141435      50218.233      36.893836      36.893836      36.893836    
    644000   0.62487709    -7.537978      -6.6006757      5.8683453      50218.233      36.893836      36.893836      36.893836    
    645000   0.62446264    -7.5432092     -6.6065286      5.822781       50218.233      36.893836      36.893836      36.893836    
    646000   0.62548003    -7.5399106     -6.6017039      5.8613053      50218.233      36.893836      36.893836      36.893836    
    647000   0.62311411    -7.5393538     -6.604696       5.8507986      50218.233      36.893836      36.893836      36.893836    
    648000   0.62441155    -7.5416702     -6.6050662      5.8512         50218.233      36.893836      36.893836      36.893836    
    649000   0.6265429     -7.5421849     -6.6023839      5.8352581      50218.233      36.893836      36.893836      36.893836    
    650000   0.62759332    -7.5405825     -6.5992059      5.8419952      50218.233      36.893836      36.893836      36.893836    
    651000   0.62317343    -7.5465316     -6.6117847      5.8173584      50218.233      36.893836      36.893836      36.893836    
    652000   0.62532303    -7.5448597     -6.6068885      5.8130705      50218.233      36.893836      36.893836      36.893836    
    653000   0.62234683    -7.5407788     -6.6072719      5.8444123      50218.233      36.893836      36.893836      36.893836    
    654000   0.62520286    -7.544341      -6.60655        5.8207763      50218.233      36.893836      36.893836      36.893836    
    655000   0.62378062    -7.5431503     -6.6074927      5.8257524      50218.233      36.893836      36.893836      36.893836    
    656000   0.62449538    -7.5428107     -6.6060809      5.84333        50218.233      36.893836      36.893836      36.893836    
    657000   0.6226659     -7.5348583     -6.6008728      5.8905435      50218.233      36.893836      36.893836      36.893836    
    658000   0.62674587    -7.5429056     -6.6028002      5.8362705      50218.233      36.893836      36.893836      36.893836    
    659000   0.62312781    -7.5419638     -6.6072854      5.8371503      50218.233      36.893836      36.893836      36.893836    
    660000   0.62854809    -7.5439739     -6.6011652      5.8326768      50218.233      36.893836      36.893836      36.893836    
    661000   0.62263206    -7.5456897     -6.6117549      5.8206459      50218.233      36.893836      36.893836      36.893836    
    662000   0.62653952    -7.5413804     -6.6015845      5.8472534      50218.233      36.893836      36.893836      36.893836    
    663000   0.62380655    -7.544704      -6.6090074      5.8172431      50218.233      36.893836      36.893836      36.893836    
    664000   0.62343564    -7.5393056     -6.6041655      5.8582176      50218.233      36.893836      36.893836      36.893836    
    665000   0.62543818    -7.543462      -6.605318       5.8232672      50218.233      36.893836      36.893836      36.893836    
    666000   0.62326583    -7.5449044     -6.610019       5.8162462      50218.233      36.893836      36.893836      36.893836    
    667000   0.62532337    -7.5366698     -6.5986981      5.8830668      50218.233      36.893836      36.893836      36.893836    
    668000   0.6255384     -7.5378466     -6.5995524      5.8797499      50218.233      36.893836      36.893836      36.893836    
    669000   0.62546775    -7.5401289     -6.6019407      5.8616567      50218.233      36.893836      36.893836      36.893836    
    670000   0.6242232     -7.5387409     -6.6024194      5.8668968      50218.233      36.893836      36.893836      36.893836    
    671000   0.62662417    -7.5341576     -6.5942347      5.9014813      50218.233      36.893836      36.893836      36.893836    
    672000   0.62549208    -7.5409202     -6.6026955      5.8442377      50218.233      36.893836      36.893836      36.893836    
    673000   0.62290926    -7.5362044     -6.6018538      5.8889507      50218.233      36.893836      36.893836      36.893836    
    674000   0.62238355    -7.5371562     -6.6035941      5.8614154      50218.233      36.893836      36.893836      36.893836    
    675000   0.62359005    -7.5387919     -6.6034201      5.8616597      50218.233      36.893836      36.893836      36.893836    
    676000   0.62343859    -7.5386822     -6.6035377      5.8633491      50218.233      36.893836      36.893836      36.893836    
    677000   0.62608982    -7.5379967     -6.5988753      5.8686576      50218.233      36.893836      36.893836      36.893836    
    678000   0.62849616    -7.5396681     -6.5969373      5.8627368      50218.233      36.893836      36.893836      36.893836    
    679000   0.62702539    -7.5423826     -6.6018579      5.853258       50218.233      36.893836      36.893836      36.893836    
    680000   0.62435177    -7.5349216     -6.5984073      5.9042748      50218.233      36.893836      36.893836      36.893836    
    681000   0.62557818    -7.5371323     -6.5987783      5.8681722      50218.233      36.893836      36.893836      36.893836    
    682000   0.62637883    -7.5451036     -6.6055487      5.8059549      50218.233      36.893836      36.893836      36.893836    
    683000   0.62801071    -7.5408844     -6.5988817      5.8495373      50218.233      36.893836      36.893836      36.893836    
    684000   0.62418332    -7.5421242     -6.6058625      5.8280428      50218.233      36.893836      36.893836      36.893836    
    685000   0.62318114    -7.5418595     -6.6071011      5.8352029      50218.233      36.893836      36.893836      36.893836    
    686000   0.62540513    -7.5432154     -6.6051211      5.8242264      50218.233      36.893836      36.893836      36.893836    
    687000   0.62625188    -7.542855      -6.6034905      5.8344962      50218.233      36.893836      36.893836      36.893836    
    688000   0.62447893    -7.5422177     -6.6055127      5.8246714      50218.233      36.893836      36.893836      36.893836    
    689000   0.62202331    -7.5412315     -6.6082098      5.8446046      50218.233      36.893836      36.893836      36.893836    
    690000   0.62226702    -7.5352657     -6.6018784      5.8819618      50218.233      36.893836      36.893836      36.893836    
    691000   0.62412283    -7.5460762     -6.6099052      5.8232763      50218.233      36.893836      36.893836      36.893836    
    692000   0.62355274    -7.5474137     -6.6120978      5.7940952      50218.233      36.893836      36.893836      36.893836    
    693000   0.6263251     -7.540948      -6.6014737      5.8460056      50218.233      36.893836      36.893836      36.893836    
    694000   0.62569895    -7.5441629     -6.6056278      5.8154232      50218.233      36.893836      36.893836      36.893836    
    695000   0.62453155    -7.5409164     -6.6041324      5.8393806      50218.233      36.893836      36.893836      36.893836    
    696000   0.62300231    -7.5375697     -6.6030795      5.8679923      50218.233      36.893836      36.893836      36.893836    
    697000   0.62484904    -7.5433525     -6.6060923      5.8236609      50218.233      36.893836      36.893836      36.893836    
    698000   0.62505929    -7.5441955     -6.6066199      5.8206214      50218.233      36.893836      36.893836      36.893836    
    699000   0.62355953    -7.5416764     -6.6063504      5.8284749      50218.233      36.893836      36.893836      36.893836    
    700000   0.62333688    -7.5418991     -6.6069071      5.8490979      50218.233      36.893836      36.893836      36.893836    
    701000   0.62871215    -7.5446739     -6.6016191      5.8194908      50218.233      36.893836      36.893836      36.893836    
    702000   0.6221569     -7.5477251     -6.614503       5.792931       50218.233      36.893836      36.893836      36.893836    
    703000   0.62365213    -7.5361329     -6.600668       5.8870784      50218.233      36.893836      36.893836      36.893836    
    704000   0.62497959    -7.5445817     -6.6071257      5.8129819      50218.233      36.893836      36.893836      36.893836    
    705000   0.62675183    -7.5446787     -6.6045643      5.8127423      50218.233      36.893836      36.893836      36.893836    
    706000   0.62139488    -7.5437453     -6.6116662      5.8195799      50218.233      36.893836      36.893836      36.893836    
    707000   0.62445061    -7.5421518     -6.6054892      5.8300621      50218.233      36.893836      36.893836      36.893836    
    708000   0.62139369    -7.545517      -6.6134398      5.8057234      50218.233      36.893836      36.893836      36.893836    
    709000   0.62552584    -7.5430391     -6.6047637      5.8250291      50218.233      36.893836      36.893836      36.893836    
    710000   0.62692859    -7.5432832     -6.6029037      5.8295553      50218.233      36.893836      36.893836      36.893836    
    711000   0.62588143    -7.5449959     -6.6061871      5.8042906      50218.233      36.893836      36.893836      36.893836    
    712000   0.62332652    -7.5416089     -6.6066324      5.8309254      50218.233      36.893836      36.893836      36.893836    
    713000   0.62442951    -7.5423292     -6.6056982      5.835039       50218.233      36.893836      36.893836      36.893836    
    714000   0.62543342    -7.5431893     -6.6050525      5.8119203      50218.233      36.893836      36.893836      36.893836    
    715000   0.62345562    -7.5430701     -6.6078999      5.8190006      50218.233      36.893836      36.893836      36.893836    
    716000   0.62383795    -7.5420683     -6.6063247      5.821646       50218.233      36.893836      36.893836      36.893836    
    717000   0.62514018    -7.5445597     -6.6068628      5.8133847      50218.233      36.893836      36.893836      36.893836    
    718000   0.62398835    -7.5382944     -6.6023251      5.8660707      50218.233      36.893836      36.893836      36.893836    
    719000   0.62557909    -7.5438495     -6.6054942      5.8285891      50218.233      36.893836      36.893836      36.893836    
    720000   0.62342309    -7.5443805     -6.6092592      5.826032       50218.233      36.893836      36.893836      36.893836    
    721000   0.62678349    -7.5410272     -6.6008654      5.846637       50218.233      36.893836      36.893836      36.893836    
    722000   0.62541354    -7.5395747     -6.6014677      5.8602484      50218.233      36.893836      36.893836      36.893836    
    723000   0.62811285    -7.5381645     -6.5960087      5.8780779      50218.233      36.893836      36.893836      36.893836    
    724000   0.62453124    -7.5438158     -6.6070322      5.821556       50218.233      36.893836      36.893836      36.893836    
    725000   0.62574517    -7.5392775     -6.6006731      5.8587836      50218.233      36.893836      36.893836      36.893836    
    726000   0.62587031    -7.5407699     -6.6019778      5.8515767      50218.233      36.893836      36.893836      36.893836    
    727000   0.62519351    -7.5426042     -6.6048272      5.8335853      50218.233      36.893836      36.893836      36.893836    
    728000   0.61732722    -7.5395811     -6.6136034      5.8485621      50218.233      36.893836      36.893836      36.893836    
    729000   0.62491387    -7.540722      -6.6033645      5.8469721      50218.233      36.893836      36.893836      36.893836    
    730000   0.62602873    -7.5429422     -6.6039124      5.8210108      50218.233      36.893836      36.893836      36.893836    
    731000   0.62402161    -7.5449014     -6.6088823      5.8031624      50218.233      36.893836      36.893836      36.893836    
    732000   0.62537529    -7.5454846     -6.607435       5.8096088      50218.233      36.893836      36.893836      36.893836    
    733000   0.6261845     -7.5428719     -6.6036085      5.8348599      50218.233      36.893836      36.893836      36.893836    
    734000   0.62430506    -7.542085      -6.6056407      5.8291435      50218.233      36.893836      36.893836      36.893836    
    735000   0.62620785    -7.5403368     -6.6010383      5.8510274      50218.233      36.893836      36.893836      36.893836    
    736000   0.62316963    -7.5399719     -6.6052307      5.8502771      50218.233      36.893836      36.893836      36.893836    
    737000   0.62531783    -7.5423864     -6.604423       5.8386466      50218.233      36.893836      36.893836      36.893836    
    738000   0.62429301    -7.5456214     -6.6091952      5.8071982      50218.233      36.893836      36.893836      36.893836    
    739000   0.62603431    -7.540671      -6.6016329      5.8499939      50218.233      36.893836      36.893836      36.893836    
    740000   0.62537552    -7.5384777     -6.6004278      5.8643959      50218.233      36.893836      36.893836      36.893836    
    741000   0.62636252    -7.5408079     -6.6012775      5.8348934      50218.233      36.893836      36.893836      36.893836    
    742000   0.62406249    -7.5387767     -6.6026963      5.8565306      50218.233      36.893836      36.893836      36.893836    
    743000   0.62502536    -7.5441957     -6.606671       5.8234609      50218.233      36.893836      36.893836      36.893836    
    744000   0.62736074    -7.5379763     -6.5969485      5.8700999      50218.233      36.893836      36.893836      36.893836    
    745000   0.62264807    -7.5424377     -6.6084789      5.8343282      50218.233      36.893836      36.893836      36.893836    
    746000   0.62572218    -7.5381332     -6.5995633      5.8515903      50218.233      36.893836      36.893836      36.893836    
    747000   0.62287332    -7.5481634     -6.6138667      5.7879482      50218.233      36.893836      36.893836      36.893836    
    748000   0.6269737     -7.5440623     -6.6036152      5.8200686      50218.233      36.893836      36.893836      36.893836    
    749000   0.62448817    -7.5439377     -6.6072188      5.8286757      50218.233      36.893836      36.893836      36.893836    
    750000   0.6279129     -7.540151      -6.5982951      5.8565601      50218.233      36.893836      36.893836      36.893836    
    751000   0.6270264     -7.5424027     -6.6018765      5.8432965      50218.233      36.893836      36.893836      36.893836    
    752000   0.62322929    -7.547526      -6.6126953      5.7998147      50218.233      36.893836      36.893836      36.893836    
    753000   0.62388579    -7.5464407     -6.6106253      5.8033878      50218.233      36.893836      36.893836      36.893836    
    754000   0.62825122    -7.5453593     -6.6029959      5.8200813      50218.233      36.893836      36.893836      36.893836    
    755000   0.62243888    -7.5466296     -6.6129845      5.7980384      50218.233      36.893836      36.893836      36.893836    
    756000   0.62394281    -7.5402128     -6.6043118      5.8550847      50218.233      36.893836      36.893836      36.893836    
    757000   0.63054424    -7.5442663     -6.5984634      5.8277806      50218.233      36.893836      36.893836      36.893836    
    758000   0.62173941    -7.5463147     -6.6137189      5.8117881      50218.233      36.893836      36.893836      36.893836    
    759000   0.62689088    -7.543848      -6.6035251      5.8371647      50218.233      36.893836      36.893836      36.893836    
    760000   0.62458138    -7.5424409     -6.6055821      5.8408324      50218.233      36.893836      36.893836      36.893836    
    761000   0.62550251    -7.5454318     -6.6071914      5.8196537      50218.233      36.893836      36.893836      36.893836    
    762000   0.62741413    -7.5419245     -6.6008167      5.8462862      50218.233      36.893836      36.893836      36.893836    
    763000   0.62609088    -7.5462364     -6.6071134      5.7951784      50218.233      36.893836      36.893836      36.893836    
    764000   0.62488274    -7.5397002     -6.6023895      5.8670426      50218.233      36.893836      36.893836      36.893836    
    765000   0.62711638    -7.5373778     -6.5967166      5.8875284      50218.233      36.893836      36.893836      36.893836    
    766000   0.62429842    -7.546036      -6.6096017      5.811612       50218.233      36.893836      36.893836      36.893836    
    767000   0.62668119    -7.5385086     -6.5985002      5.8706852      50218.233      36.893836      36.893836      36.893836    
    768000   0.62674217    -7.5375803     -6.5974804      5.8860996      50218.233      36.893836      36.893836      36.893836    
    769000   0.62628429    -7.5394886     -6.6000755      5.8542425      50218.233      36.893836      36.893836      36.893836    
    770000   0.62720908    -7.5430382     -6.602238       5.8376075      50218.233      36.893836      36.893836      36.893836    
    771000   0.62558647    -7.5428816     -6.6045153      5.8255902      50218.233      36.893836      36.893836      36.893836    
    772000   0.62473182    -7.544029      -6.6069446      5.8121889      50218.233      36.893836      36.893836      36.893836    
    773000   0.62650536    -7.5365462     -6.5968015      5.8848647      50218.233      36.893836      36.893836      36.893836    
    774000   0.62804679    -7.5425658     -6.600509       5.843111       50218.233      36.893836      36.893836      36.893836    
    775000   0.62395479    -7.5409132     -6.6049944      5.8458819      50218.233      36.893836      36.893836      36.893836    
    776000   0.62658767    -7.5402805     -6.6004124      5.8424112      50218.233      36.893836      36.893836      36.893836    
    777000   0.62207731    -7.5418974     -6.6087947      5.8247637      50218.233      36.893836      36.893836      36.893836    
    778000   0.62577059    -7.5447652     -6.6061226      5.8156027      50218.233      36.893836      36.893836      36.893836    
    779000   0.62343779    -7.5420688     -6.6069254      5.8267009      50218.233      36.893836      36.893836      36.893836    
    780000   0.62449828    -7.5426898     -6.6059557      5.8243129      50218.233      36.893836      36.893836      36.893836    
    781000   0.62791019    -7.538577      -6.5967251      5.8629937      50218.233      36.893836      36.893836      36.893836    
    782000   0.62242895    -7.5437551     -6.610125       5.8072735      50218.233      36.893836      36.893836      36.893836    
    783000   0.62707216    -7.5365171     -6.5959222      5.8783751      50218.233      36.893836      36.893836      36.893836    
    784000   0.62542638    -7.5382404     -6.6001142      5.8702102      50218.233      36.893836      36.893836      36.893836    
    785000   0.62612112    -7.5370548     -6.5978865      5.8748735      50218.233      36.893836      36.893836      36.893836    
    786000   0.62500851    -7.5384554     -6.600956       5.8701003      50218.233      36.893836      36.893836      36.893836    
    787000   0.62606684    -7.5375376     -6.5984507      5.8597786      50218.233      36.893836      36.893836      36.893836    
    788000   0.6261696     -7.5385733     -6.5993323      5.8553361      50218.233      36.893836      36.893836      36.893836    
    789000   0.62615886    -7.5464576     -6.6072327      5.800021       50218.233      36.893836      36.893836      36.893836    
    790000   0.62749962    -7.5380009     -6.5967648      5.8681272      50218.233      36.893836      36.893836      36.893836    
    791000   0.62494673    -7.5432586     -6.6058518      5.8307657      50218.233      36.893836      36.893836      36.893836    
    792000   0.62649127    -7.5504281     -6.6107046      5.7722805      50218.233      36.893836      36.893836      36.893836    
    793000   0.62913265    -7.5434841     -6.5997985      5.826939       50218.233      36.893836      36.893836      36.893836    
    794000   0.62460588    -7.5426181     -6.6057226      5.8394481      50218.233      36.893836      36.893836      36.893836    
    795000   0.62651068    -7.5434644     -6.6037117      5.8347279      50218.233      36.893836      36.893836      36.893836    
    796000   0.62187395    -7.5470559     -6.6142583      5.7981041      50218.233      36.893836      36.893836      36.893836    
    797000   0.62567572    -7.5432781     -6.6047778      5.8335778      50218.233      36.893836      36.893836      36.893836    
    798000   0.62525097    -7.5427171     -6.6048539      5.8182371      50218.233      36.893836      36.893836      36.893836    
    799000   0.62507546    -7.538555      -6.6009551      5.8564559      50218.233      36.893836      36.893836      36.893836    
    800000   0.62133538    -7.541879      -6.6098892      5.8279615      50218.233      36.893836      36.893836      36.893836    
    801000   0.62548262    -7.5444966     -6.606286       5.8194863      50218.233      36.893836      36.893836      36.893836    
    802000   0.62426439    -7.5422836     -6.6059003      5.8399251      50218.233      36.893836      36.893836      36.893836    
    803000   0.62541774    -7.5404146     -6.6023014      5.8582697      50218.233      36.893836      36.893836      36.893836    
    804000   0.62968298    -7.5403818     -6.5958707      5.8607169      50218.233      36.893836      36.893836      36.893836    
    805000   0.62861692    -7.5427348     -6.5998229      5.8505476      50218.233      36.893836      36.893836      36.893836    
    806000   0.62339905    -7.5471419     -6.6120566      5.7977168      50218.233      36.893836      36.893836      36.893836    
    807000   0.625536      -7.5465534     -6.6082627      5.8179741      50218.233      36.893836      36.893836      36.893836    
    808000   0.6255597     -7.5420955     -6.6037693      5.8447084      50218.233      36.893836      36.893836      36.893836    
    809000   0.62267487    -7.5453949     -6.6113959      5.8038082      50218.233      36.893836      36.893836      36.893836    
    810000   0.62267067    -7.5385535     -6.6045608      5.8626602      50218.233      36.893836      36.893836      36.893836    
    811000   0.62439133    -7.5365321     -6.5999584      5.8740756      50218.233      36.893836      36.893836      36.893836    
    812000   0.62340486    -7.544632      -6.609538       5.821151       50218.233      36.893836      36.893836      36.893836    
    813000   0.625823      -7.5455246     -6.6068034      5.8096259      50218.233      36.893836      36.893836      36.893836    
    814000   0.62780955    -7.5470994     -6.6053985      5.8007654      50218.233      36.893836      36.893836      36.893836    
    815000   0.62668408    -7.5493854     -6.6093726      5.7899931      50218.233      36.893836      36.893836      36.893836    
    816000   0.62095688    -7.5500391     -6.618617       5.7718009      50218.233      36.893836      36.893836      36.893836    
    817000   0.62523126    -7.5404077     -6.6025741      5.8544411      50218.233      36.893836      36.893836      36.893836    
    818000   0.62817137    -7.5414893     -6.5992456      5.8502829      50218.233      36.893836      36.893836      36.893836    
    819000   0.62614145    -7.5412015     -6.6020027      5.8472983      50218.233      36.893836      36.893836      36.893836    
    820000   0.62463749    -7.5427219     -6.605779       5.83698        50218.233      36.893836      36.893836      36.893836    
    821000   0.62775425    -7.5451537     -6.6035357      5.8183492      50218.233      36.893836      36.893836      36.893836    
    822000   0.6237097     -7.5496996     -6.6141483      5.778532       50218.233      36.893836      36.893836      36.893836    
    823000   0.62263958    -7.5483598     -6.6144137      5.7938588      50218.233      36.893836      36.893836      36.893836    
    824000   0.62584298    -7.5340446     -6.5952935      5.883592       50218.233      36.893836      36.893836      36.893836    
    825000   0.62706386    -7.5422794     -6.601697       5.8358704      50218.233      36.893836      36.893836      36.893836    
    826000   0.62754056    -7.5496672     -6.6083698      5.7847017      50218.233      36.893836      36.893836      36.893836    
    827000   0.62799537    -7.5436968     -6.6017171      5.8297466      50218.233      36.893836      36.893836      36.893836    
    828000   0.62574362    -7.5398488     -6.6012467      5.8582971      50218.233      36.893836      36.893836      36.893836    
    829000   0.62767207    -7.5424783     -6.6009836      5.8503086      50218.233      36.893836      36.893836      36.893836    
    830000   0.62816454    -7.5468255     -6.6045921      5.8136646      50218.233      36.893836      36.893836      36.893836    
    831000   0.62613045    -7.5423571     -6.6031748      5.8482292      50218.233      36.893836      36.893836      36.893836    
    832000   0.62441869    -7.5426132     -6.6059985      5.8347381      50218.233      36.893836      36.893836      36.893836    
    833000   0.62510782    -7.5491561     -6.6115078      5.7921037      50218.233      36.893836      36.893836      36.893836    
    834000   0.62523406    -7.538275      -6.6004373      5.872665       50218.233      36.893836      36.893836      36.893836    
    835000   0.62527884    -7.5359924     -6.5980875      5.8873431      50218.233      36.893836      36.893836      36.893836    
    836000   0.62513951    -7.537727      -6.600031       5.861626       50218.233      36.893836      36.893836      36.893836    
    837000   0.62567008    -7.5458554     -6.6073636      5.8179682      50218.233      36.893836      36.893836      36.893836    
    838000   0.62614024    -7.5468991     -6.6077021      5.8097829      50218.233      36.893836      36.893836      36.893836    
    839000   0.62588321    -7.5374468     -6.5986353      5.877447       50218.233      36.893836      36.893836      36.893836    
    840000   0.62426063    -7.5429396     -6.6065619      5.8210169      50218.233      36.893836      36.893836      36.893836    
    841000   0.62298644    -7.5414464     -6.60698        5.8435783      50218.233      36.893836      36.893836      36.893836    
    842000   0.62796221    -7.5403977     -6.5984678      5.8499692      50218.233      36.893836      36.893836      36.893836    
    843000   0.62444823    -7.5453252     -6.6086661      5.8225218      50218.233      36.893836      36.893836      36.893836    
    844000   0.62274346    -7.5416059     -6.607504       5.8544099      50218.233      36.893836      36.893836      36.893836    
    845000   0.62511945    -7.5369335     -6.5992677      5.8673351      50218.233      36.893836      36.893836      36.893836    
    846000   0.6248464     -7.5414554     -6.6041991      5.8577527      50218.233      36.893836      36.893836      36.893836    
    847000   0.62759837    -7.5420571     -6.600673       5.854619       50218.233      36.893836      36.893836      36.893836    
    848000   0.6236342     -7.5464075     -6.6109695      5.7964126      50218.233      36.893836      36.893836      36.893836    
    849000   0.62353944    -7.5442144     -6.6089186      5.8227111      50218.233      36.893836      36.893836      36.893836    
    850000   0.62175877    -7.5417205     -6.6090956      5.8466427      50218.233      36.893836      36.893836      36.893836    
    851000   0.62870333    -7.5482745     -6.6052329      5.8098136      50218.233      36.893836      36.893836      36.893836    
    852000   0.62677477    -7.544211      -6.6040622      5.8383098      50218.233      36.893836      36.893836      36.893836    
    853000   0.62159329    -7.5433978     -6.6110211      5.8233622      50218.233      36.893836      36.893836      36.893836    
    854000   0.62712807    -7.5484767     -6.607798       5.8278064      50218.233      36.893836      36.893836      36.893836    
    855000   0.62482835    -7.545298      -6.6080688      5.8231947      50218.233      36.893836      36.893836      36.893836    
    856000   0.62503175    -7.5453903     -6.607856       5.8067645      50218.233      36.893836      36.893836      36.893836    
    857000   0.62222763    -7.5384243     -6.6050962      5.8626087      50218.233      36.893836      36.893836      36.893836    
    858000   0.62566473    -7.5460297     -6.607546       5.81082        50218.233      36.893836      36.893836      36.893836    
    859000   0.62505988    -7.5451669     -6.6075904      5.8239696      50218.233      36.893836      36.893836      36.893836    
    860000   0.62488196    -7.5464806     -6.609171       5.8053889      50218.233      36.893836      36.893836      36.893836    
    861000   0.62515626    -7.5456847     -6.6079636      5.8005501      50218.233      36.893836      36.893836      36.893836    
    862000   0.62772685    -7.5445675     -6.6029906      5.8321201      50218.233      36.893836      36.893836      36.893836    
    863000   0.6263904     -7.5410106     -6.6014384      5.8523268      50218.233      36.893836      36.893836      36.893836    
    864000   0.62641387    -7.5395464     -6.599939       5.8521787      50218.233      36.893836      36.893836      36.893836    
    865000   0.62354812    -7.5419176     -6.6066087      5.834433       50218.233      36.893836      36.893836      36.893836    
    866000   0.62349768    -7.544223      -6.6089898      5.8432759      50218.233      36.893836      36.893836      36.893836    
    867000   0.62677929    -7.5391453     -6.5989897      5.8698917      50218.233      36.893836      36.893836      36.893836    
    868000   0.62516876    -7.5358687     -6.5981289      5.8867299      50218.233      36.893836      36.893836      36.893836    
    869000   0.62645216    -7.5415212     -6.6018564      5.8485508      50218.233      36.893836      36.893836      36.893836    
    870000   0.62583939    -7.5432942     -6.6045485      5.8248149      50218.233      36.893836      36.893836      36.893836    
    871000   0.62567995    -7.5447051     -6.6061985      5.8234367      50218.233      36.893836      36.893836      36.893836    
    872000   0.62434244    -7.5405971     -6.6040968      5.8439893      50218.233      36.893836      36.893836      36.893836    
    873000   0.62686395    -7.5429067     -6.6026242      5.8371857      50218.233      36.893836      36.893836      36.893836    
    874000   0.62663224    -7.544018      -6.604083       5.8349769      50218.233      36.893836      36.893836      36.893836    
    875000   0.62161544    -7.546919      -6.6145091      5.7950731      50218.233      36.893836      36.893836      36.893836    
    876000   0.62368758    -7.5433484     -6.6078304      5.831975       50218.233      36.893836      36.893836      36.893836    
    877000   0.6229554     -7.5426764     -6.6082566      5.826793       50218.233      36.893836      36.893836      36.893836    
    878000   0.62537921    -7.5452517     -6.6071962      5.803127       50218.233      36.893836      36.893836      36.893836    
    879000   0.62764873    -7.543679      -6.6022193      5.8254025      50218.233      36.893836      36.893836      36.893836    
    880000   0.62757762    -7.5407648     -6.5994118      5.8567167      50218.233      36.893836      36.893836      36.893836    
    881000   0.62437373    -7.5462498     -6.6097025      5.8095808      50218.233      36.893836      36.893836      36.893836    
    882000   0.62274878    -7.5446981     -6.6105883      5.802666       50218.233      36.893836      36.893836      36.893836    
    883000   0.62409929    -7.5510216     -6.614886       5.7657234      50218.233      36.893836      36.893836      36.893836    
    884000   0.62478256    -7.5433511     -6.6061906      5.8318068      50218.233      36.893836      36.893836      36.893836    
    885000   0.62269444    -7.5442284     -6.6102         5.8154425      50218.233      36.893836      36.893836      36.893836    
    886000   0.62261466    -7.5476916     -6.6137829      5.7884433      50218.233      36.893836      36.893836      36.893836    
    887000   0.62588028    -7.5426436     -6.6038365      5.8388167      50218.233      36.893836      36.893836      36.893836    
    888000   0.62482578    -7.5471545     -6.6099291      5.8019313      50218.233      36.893836      36.893836      36.893836    
    889000   0.62412659    -7.5466404     -6.6104639      5.8084538      50218.233      36.893836      36.893836      36.893836    
    890000   0.62373258    -7.5467483     -6.6111627      5.8106563      50218.233      36.893836      36.893836      36.893836    
    891000   0.6239797     -7.5426804     -6.6067242      5.8277971      50218.233      36.893836      36.893836      36.893836    
    892000   0.62637405    -7.5422834     -6.6027357      5.8275874      50218.233      36.893836      36.893836      36.893836    
    893000   0.62122824    -7.5417069     -6.6098778      5.8413286      50218.233      36.893836      36.893836      36.893836    
    894000   0.62450204    -7.5495083     -6.6127685      5.7910426      50218.233      36.893836      36.893836      36.893836    
    895000   0.62705767    -7.5493762     -6.6088031      5.7872506      50218.233      36.893836      36.893836      36.893836    
    896000   0.6251492     -7.5478708     -6.6101603      5.7863104      50218.233      36.893836      36.893836      36.893836    
    897000   0.62453353    -7.5470536     -6.6102667      5.8018521      50218.233      36.893836      36.893836      36.893836    
    898000   0.62393282    -7.5452635     -6.6093776      5.8142548      50218.233      36.893836      36.893836      36.893836    
    899000   0.62033908    -7.547456      -6.6169606      5.8011179      50218.233      36.893836      36.893836      36.893836    
    900000   0.62471014    -7.548796      -6.6117441      5.7844525      50218.233      36.893836      36.893836      36.893836    
    901000   0.6249163     -7.5456332     -6.6082721      5.8141771      50218.233      36.893836      36.893836      36.893836    
    902000   0.62350487    -7.5469673     -6.6117232      5.7965454      50218.233      36.893836      36.893836      36.893836    
    903000   0.62944277    -7.5469436     -6.6027929      5.8090782      50218.233      36.893836      36.893836      36.893836    
    904000   0.62455518    -7.5403733     -6.6035539      5.8481696      50218.233      36.893836      36.893836      36.893836    
    905000   0.62628844    -7.5448015     -6.6053822      5.8275219      50218.233      36.893836      36.893836      36.893836    
    906000   0.62616699    -7.5485094     -6.6092722      5.7873174      50218.233      36.893836      36.893836      36.893836    
    907000   0.62752761    -7.5436413     -6.6023633      5.8288718      50218.233      36.893836      36.893836      36.893836    
    908000   0.62428716    -7.5486106     -6.6121931      5.7853167      50218.233      36.893836      36.893836      36.893836    
    909000   0.62509209    -7.5452773     -6.6076525      5.8095686      50218.233      36.893836      36.893836      36.893836    
    910000   0.6231066     -7.5411184     -6.6064718      5.8328393      50218.233      36.893836      36.893836      36.893836    
    911000   0.62446961    -7.5402871     -6.603596       5.8497725      50218.233      36.893836      36.893836      36.893836    
    912000   0.62425927    -7.5427855     -6.6064099      5.8272615      50218.233      36.893836      36.893836      36.893836    
    913000   0.62520155    -7.5382478     -6.6004588      5.868142       50218.233      36.893836      36.893836      36.893836    
    914000   0.62782934    -7.5391043     -6.5973737      5.8717894      50218.233      36.893836      36.893836      36.893836    
    915000   0.6242443     -7.5391024     -6.6027493      5.8692902      50218.233      36.893836      36.893836      36.893836    
    916000   0.6237408     -7.5373972     -6.6017993      5.8792024      50218.233      36.893836      36.893836      36.893836    
    917000   0.6275873     -7.5449635     -6.603596       5.8159949      50218.233      36.893836      36.893836      36.893836    
    918000   0.62180489    -7.5382418     -6.6055477      5.8586778      50218.233      36.893836      36.893836      36.893836    
    919000   0.62673148    -7.5378573     -6.5977735      5.8715682      50218.233      36.893836      36.893836      36.893836    
    920000   0.62568619    -7.5397973     -6.6012814      5.8421902      50218.233      36.893836      36.893836      36.893836    
    921000   0.623484      -7.5412404     -6.6060277      5.8298759      50218.233      36.893836      36.893836      36.893836    
    922000   0.62482892    -7.5394387     -6.6022087      5.8548976      50218.233      36.893836      36.893836      36.893836    
    923000   0.62795055    -7.5405429     -6.5986305      5.8568433      50218.233      36.893836      36.893836      36.893836    
    924000   0.62586772    -7.5419408     -6.6031526      5.836089       50218.233      36.893836      36.893836      36.893836    
    925000   0.62409587    -7.5468882     -6.6107577      5.8046197      50218.233      36.893836      36.893836      36.893836    
    926000   0.62559022    -7.5418211     -6.6034492      5.8471344      50218.233      36.893836      36.893836      36.893836    
    927000   0.62340026    -7.5431527     -6.6080656      5.8400436      50218.233      36.893836      36.893836      36.893836    
    928000   0.62556772    -7.538767      -6.6004288      5.8640469      50218.233      36.893836      36.893836      36.893836    
    929000   0.62414665    -7.5419018     -6.6056952      5.8404283      50218.233      36.893836      36.893836      36.893836    
    930000   0.62403845    -7.5450012     -6.6089569      5.8243616      50218.233      36.893836      36.893836      36.893836    
    931000   0.62708274    -7.5475658     -6.6069551      5.7969556      50218.233      36.893836      36.893836      36.893836    
    932000   0.62390771    -7.5440227     -6.6081745      5.8368926      50218.233      36.893836      36.893836      36.893836    
    933000   0.62594003    -7.5449786     -6.6060819      5.8110672      50218.233      36.893836      36.893836      36.893836    
    934000   0.6293969     -7.5419188     -6.5978369      5.8496212      50218.233      36.893836      36.893836      36.893836    
    935000   0.62428195    -7.5416593     -6.6052497      5.8345327      50218.233      36.893836      36.893836      36.893836    
    936000   0.62620157    -7.539242      -6.599953       5.865413       50218.233      36.893836      36.893836      36.893836    
    937000   0.62874959    -7.5415473     -6.5984363      5.8321989      50218.233      36.893836      36.893836      36.893836    
    938000   0.62470387    -7.5406459     -6.6036034      5.8513433      50218.233      36.893836      36.893836      36.893836    
    939000   0.62642394    -7.5413761     -6.6017536      5.8351056      50218.233      36.893836      36.893836      36.893836    
    940000   0.62397956    -7.5409769     -6.6050208      5.8357877      50218.233      36.893836      36.893836      36.893836    
    941000   0.62669095    -7.544391      -6.6043679      5.8087435      50218.233      36.893836      36.893836      36.893836    
    942000   0.62601133    -7.5436593     -6.6046556      5.8256576      50218.233      36.893836      36.893836      36.893836    
    943000   0.62403911    -7.5379135     -6.6018682      5.8705538      50218.233      36.893836      36.893836      36.893836    
    944000   0.62758093    -7.5416966     -6.6003385      5.829277       50218.233      36.893836      36.893836      36.893836    
    945000   0.62538512    -7.536942      -6.5988777      5.8742545      50218.233      36.893836      36.893836      36.893836    
    946000   0.62429927    -7.5419924     -6.6055568      5.8390685      50218.233      36.893836      36.893836      36.893836    
    947000   0.62237668    -7.5417402     -6.6081885      5.8442239      50218.233      36.893836      36.893836      36.893836    
    948000   0.62749409    -7.5407062     -6.5994785      5.8553711      50218.233      36.893836      36.893836      36.893836    
    949000   0.62354377    -7.5416583     -6.6063559      5.836396       50218.233      36.893836      36.893836      36.893836    
    950000   0.62336045    -7.5417476     -6.6067202      5.8513092      50218.233      36.893836      36.893836      36.893836    
    951000   0.62410383    -7.5376461     -6.6015037      5.8675818      50218.233      36.893836      36.893836      36.893836    
    952000   0.62357185    -7.5376037     -6.6022592      5.8593015      50218.233      36.893836      36.893836      36.893836    
    953000   0.62581526    -7.5449508     -6.6062413      5.821636       50218.233      36.893836      36.893836      36.893836    
    954000   0.62585552    -7.5395713     -6.6008014      5.8552158      50218.233      36.893836      36.893836      36.893836    
    955000   0.62475907    -7.5401659     -6.6030407      5.8496322      50218.233      36.893836      36.893836      36.893836    
    956000   0.62685752    -7.5458806     -6.6056077      5.803838       50218.233      36.893836      36.893836      36.893836    
    957000   0.62677065    -7.5470975     -6.6069549      5.8122705      50218.233      36.893836      36.893836      36.893836    
    958000   0.62436622    -7.5454832     -6.6089472      5.8122706      50218.233      36.893836      36.893836      36.893836    
    959000   0.62640872    -7.5441426     -6.6045429      5.8242986      50218.233      36.893836      36.893836      36.893836    
    960000   0.61977312    -7.5427869     -6.6131404      5.8103122      50218.233      36.893836      36.893836      36.893836    
    961000   0.62375667    -7.5451542     -6.6095325      5.8083622      50218.233      36.893836      36.893836      36.893836    
    962000   0.62687395    -7.5464051     -6.6061075      5.8219878      50218.233      36.893836      36.893836      36.893836    
    963000   0.62879581    -7.5446144     -6.6014341      5.8262129      50218.233      36.893836      36.893836      36.893836    
    964000   0.62283297    -7.5446569     -6.6104208      5.8086014      50218.233      36.893836      36.893836      36.893836    
    965000   0.62694242    -7.5419918     -6.6015915      5.8379948      50218.233      36.893836      36.893836      36.893836    
    966000   0.6252772     -7.5435892     -6.6056867      5.8266522      50218.233      36.893836      36.893836      36.893836    
    967000   0.62427515    -7.5520646     -6.6156652      5.7659971      50218.233      36.893836      36.893836      36.893836    
    968000   0.62353707    -7.5398362     -6.6045439      5.8599466      50218.233      36.893836      36.893836      36.893836    
    969000   0.62104837    -7.5395947     -6.6080353      5.8439272      50218.233      36.893836      36.893836      36.893836    
    970000   0.6257685     -7.535798      -6.5971586      5.8856826      50218.233      36.893836      36.893836      36.893836    
    971000   0.62537146    -7.5352695     -6.5972257      5.8992342      50218.233      36.893836      36.893836      36.893836    
    972000   0.62573778    -7.5375958     -6.5990024      5.8638195      50218.233      36.893836      36.893836      36.893836    
    973000   0.62426519    -7.5448004     -6.608416       5.8111932      50218.233      36.893836      36.893836      36.893836    
    974000   0.62525136    -7.538686      -6.6008223      5.8539413      50218.233      36.893836      36.893836      36.893836    
    975000   0.62595346    -7.538064      -6.5991472      5.8613249      50218.233      36.893836      36.893836      36.893836    
    976000   0.62658093    -7.5467736     -6.6069156      5.8014559      50218.233      36.893836      36.893836      36.893836    
    977000   0.62636159    -7.5426319     -6.6031029      5.8354193      50218.233      36.893836      36.893836      36.893836    
    978000   0.62888881    -7.5409409     -6.5976211      5.8554656      50218.233      36.893836      36.893836      36.893836    
    979000   0.62650938    -7.5423568     -6.6026061      5.8526195      50218.233      36.893836      36.893836      36.893836    
    980000   0.62586317    -7.541974      -6.6031926      5.8363095      50218.233      36.893836      36.893836      36.893836    
    981000   0.62516215    -7.5430458     -6.6053159      5.8285204      50218.233      36.893836      36.893836      36.893836    
    982000   0.62661591    -7.5373084     -6.5973979      5.8700951      50218.233      36.893836      36.893836      36.893836    
    983000   0.62650477    -7.5442009     -6.6044571      5.8297527      50218.233      36.893836      36.893836      36.893836    
    984000   0.62710557    -7.5418032     -6.6011582      5.8413999      50218.233      36.893836      36.893836      36.893836    
    985000   0.62407383    -7.5393111     -6.6032137      5.8723436      50218.233      36.893836      36.893836      36.893836    
    986000   0.62479027    -7.5356523     -6.5984802      5.8929794      50218.233      36.893836      36.893836      36.893836    
    987000   0.62376087    -7.541926      -6.606298       5.8456092      50218.233      36.893836      36.893836      36.893836    
    988000   0.6230559     -7.5358033     -6.6012328      5.8840068      50218.233      36.893836      36.893836      36.893836    
    989000   0.62380838    -7.539761      -6.6040617      5.8646461      50218.233      36.893836      36.893836      36.893836    
    990000   0.62369677    -7.541861      -6.6063292      5.8466608      50218.233      36.893836      36.893836      36.893836    
    991000   0.62348233    -7.5328169     -6.5976067      5.9077745      50218.233      36.893836      36.893836      36.893836    
    992000   0.62960854    -7.5372257     -6.5928263      5.882929       50218.233      36.893836      36.893836      36.893836    
    993000   0.62359623    -7.5378429     -6.6024619      5.8774754      50218.233      36.893836      36.893836      36.893836    
    994000   0.62105015    -7.53643       -6.604868       5.8830574      50218.233      36.893836      36.893836      36.893836    
    995000   0.62582251    -7.5356786     -6.5969582      5.8948857      50218.233      36.893836      36.893836      36.893836    
    996000   0.62299167    -7.5308038     -6.5963296      5.9104198      50218.233      36.893836      36.893836      36.893836    
    997000   0.6248828     -7.5414705     -6.6041596      5.8398719      50218.233      36.893836      36.893836      36.893836    
    998000   0.62686668    -7.5375446     -6.597258       5.8825042      50218.233      36.893836      36.893836      36.893836    
    999000   0.62394504    -7.5413132     -6.6054089      5.8517883      50218.233      36.893836      36.893836      36.893836    
   1000000   0.62365872    -7.5381111     -6.6026363      5.8646095      50218.233      36.893836      36.893836      36.893836    
Loop time of 4475.9 on 1 procs for 1000000 steps with 70304 atoms

Performance: 193033.880 tau/day, 223.419 timesteps/s, 15.707 Matom-step/s
100.0% CPU use with 1 MPI tasks x 1 OpenMP threads

MPI task timing breakdown:
Section |  min time  |  avg time  |  max time  |%varavg| %total
---------------------------------------------------------------
Pair    | 1080.1     | 1080.1     | 1080.1     |   0.0 | 24.13
Neigh   | 45.413     | 45.413     | 45.413     |   0.0 |  1.01
Comm    | 561.58     | 561.58     | 561.58     |   0.0 | 12.55
Output  | 0.75155    | 0.75155    | 0.75155    |   0.0 |  0.02
Modify  | 2337.4     | 2337.4     | 2337.4     |   0.0 | 52.22
Other   |            | 450.6      |            |       | 10.07

Nlocal:          70304 ave       70304 max       70304 min
Histogram: 1 0 0 0 0 0 0 0 0 0
Nghost:          37105 ave       37105 max       37105 min
Histogram: 1 0 0 0 0 0 0 0 0 0
Neighs:              0 ave           0 max           0 min
Histogram: 1 0 0 0 0 0 0 0 0 0

Total # of neighbors = 0
Ave neighs/atom = 0
Neighbor list builds = 241634
Dangerous builds = 0
clear
OMP_NUM_THREADS environment is not set. Defaulting to 1 thread. (src/comm.cpp:98)
  using 1 OpenMP thread(s) per MPI task
package gpu 0
jump dms615.lmp

variable T equal 615
# T = 1000* (temp in LJ unit)
variable f equal 1000
log log.${T}
log log.615
