variable TLJ equal (${T}/1000)
variable TLJ equal (140/1000)
variable NCyle equal 10
variable iStep equal (${f})
variable iStep equal (1000)
variable dumpStep equal (${f}*100)
variable dumpStep equal (1000*100)
variable runStep equal (${f}*100*${NCyle})
variable runStep equal (1000*100*${NCyle})
variable runStep equal (1000*100*10)

units       lj
atom_style  atomic
dimension 3
boundary     p p p
pair_style  lj/cut 2.5
read_data  ../data/T${T}.dat
read_data  ../data/T140.dat
Reading data file ...
  orthogonal box = (0.97250269 0.97250269 0.97250269) to (37.866338 37.866338 37.866338)
  1 by 2 by 2 MPI processor grid
  reading atoms ...
  70304 atoms
  reading velocities ...
  70304 velocities
  read_data CPU = 0.189 seconds
change_box all triclinic
Changing box ...
  triclinic box = (0.97250269 0.97250269 0.97250269) to (37.866338 37.866338 37.866338) with tilt (0 0 0)
mass 1 1
mass 2 1
pair_modify shift yes
pair_coeff  1 1 1 1
pair_coeff  1 2 1.5 0.8
pair_coeff  2 2 0.5 0.88


timestep 0.01
thermo ${iStep}
thermo 1000
reset_timestep 0
thermo_style custom step temp pe etotal press vol lx ly lz
fix             1 all nvt temp ${TLJ}  ${TLJ}  0.1
fix             1 all nvt temp 0.14  ${TLJ}  0.1
fix             1 all nvt temp 0.14  0.14  0.1
thermo_modify flush yes

fix dsf all deform 1 xy  wiggle 0.5  ${f}   units box
fix dsf all deform 1 xy  wiggle 0.5  1000   units box
fix ps1 all ave/time 1 1 ${iStep} c_thermo_press[1] c_thermo_press[2]  c_thermo_press[3] c_thermo_press[4]  c_thermo_press[5] c_thermo_press[6]  file  stress.${T}
fix ps1 all ave/time 1 1 1000 c_thermo_press[1] c_thermo_press[2]  c_thermo_press[3] c_thermo_press[4]  c_thermo_press[5] c_thermo_press[6]  file  stress.${T}
fix ps1 all ave/time 1 1 1000 c_thermo_press[1] c_thermo_press[2]  c_thermo_press[3] c_thermo_press[4]  c_thermo_press[5] c_thermo_press[6]  file  stress.140
dump            1 all custom ${dumpStep} dump.${T} id type x y z
dump            1 all custom 100000 dump.${T} id type x y z
dump            1 all custom 100000 dump.140 id type x y z
dump_modify 1 sort id
fix nodrift all momentum 1  linear 1 1 1
fix com_seed all recenter INIT INIT INIT shift all
run ${runStep}
run 1000000
Generated 0 of 1 mixed pair_coeff terms from geometric mixing rule
Per MPI rank memory allocation (min/avg/max) = 8.611 | 8.613 | 8.615 Mbytes
   Step          Temp          PotEng         TotEng         Press          Volume           Lx             Ly             Lz      
         0   0.14064328    -8.373099      -8.1621371     -0.9830894      50218.233      36.893836      36.893836      36.893836    
      1000   0.14069705    -8.3706989     -8.1596563     -0.96788981     50218.233      36.893836      36.893836      36.893836    
      2000   0.14088122    -8.3700625     -8.1587437     -0.96518864     50218.233      36.893836      36.893836      36.893836    
      3000   0.14049601    -8.3700207     -8.1592797     -0.96628702     50218.233      36.893836      36.893836      36.893836    
      4000   0.13958636    -8.3703049     -8.1609283     -0.96560834     50218.233      36.893836      36.893836      36.893836    
      5000   0.13977933    -8.3715841     -8.1619181     -0.97534062     50218.233      36.893836      36.893836      36.893836    
      6000   0.13990413    -8.3701673     -8.1603141     -0.9612018      50218.233      36.893836      36.893836      36.893836    
      7000   0.13967453    -8.3704955     -8.1609866     -0.96834096     50218.233      36.893836      36.893836      36.893836    
      8000   0.13993193    -8.3698561     -8.1599612     -0.95609369     50218.233      36.893836      36.893836      36.893836    
      9000   0.13938285    -8.3703872     -8.1613159     -0.96653382     50218.233      36.893836      36.893836      36.893836    
     10000   0.14023544    -8.3704317     -8.1600815     -0.96955832     50218.233      36.893836      36.893836      36.893836    
     11000   0.14051462    -8.3703175     -8.1595485     -0.9657569      50218.233      36.893836      36.893836      36.893836    
     12000   0.13993035    -8.3696295     -8.159737      -0.95453633     50218.233      36.893836      36.893836      36.893836    
     13000   0.14023029    -8.3705749     -8.1602324     -0.96924035     50218.233      36.893836      36.893836      36.893836    
     14000   0.14076889    -8.3709649     -8.1598145     -0.96709653     50218.233      36.893836      36.893836      36.893836    
     15000   0.13958453    -8.369857      -8.1604832     -0.96113889     50218.233      36.893836      36.893836      36.893836    
     16000   0.13983087    -8.3699762     -8.1602329     -0.96160442     50218.233      36.893836      36.893836      36.893836    
     17000   0.1399489     -8.3690382     -8.1591178     -0.95983179     50218.233      36.893836      36.893836      36.893836    
     18000   0.13947047    -8.3696658     -8.1604631     -0.96242463     50218.233      36.893836      36.893836      36.893836    
     19000   0.13920181    -8.3699205     -8.1611207     -0.96499065     50218.233      36.893836      36.893836      36.893836    
     20000   0.14117052    -8.3689161     -8.1571633     -0.9499053      50218.233      36.893836      36.893836      36.893836    
     21000   0.13937196    -8.3690643     -8.1600093     -0.9519018      50218.233      36.893836      36.893836      36.893836    
     22000   0.13986125    -8.3687808     -8.1589919     -0.94984012     50218.233      36.893836      36.893836      36.893836    
     23000   0.13999262    -8.3687423     -8.1587563     -0.94999816     50218.233      36.893836      36.893836      36.893836    
     24000   0.1400281     -8.3697431     -8.1597039     -0.95699117     50218.233      36.893836      36.893836      36.893836    
     25000   0.1398687     -8.3689239     -8.1591239     -0.95705522     50218.233      36.893836      36.893836      36.893836    
     26000   0.14010851    -8.3693094     -8.1591496     -0.95809536     50218.233      36.893836      36.893836      36.893836    
     27000   0.13990279    -8.3702599     -8.1604087     -0.95916988     50218.233      36.893836      36.893836      36.893836    
     28000   0.14040227    -8.3679547     -8.1573543     -0.9517818      50218.233      36.893836      36.893836      36.893836    
     29000   0.13970493    -8.3683564     -8.158802      -0.94831219     50218.233      36.893836      36.893836      36.893836    
     30000   0.13981916    -8.3681031     -8.1583773     -0.94791817     50218.233      36.893836      36.893836      36.893836    
     31000   0.13927678    -8.369944      -8.1610318     -0.95614006     50218.233      36.893836      36.893836      36.893836    
     32000   0.14002481    -8.3697216     -8.1596873     -0.96205935     50218.233      36.893836      36.893836      36.893836    
     33000   0.13973331    -8.370603      -8.161006      -0.96906817     50218.233      36.893836      36.893836      36.893836    
     34000   0.14029892    -8.3699852     -8.1595398     -0.9601372      50218.233      36.893836      36.893836      36.893836    
     35000   0.14015752    -8.3704124     -8.1601791     -0.96013801     50218.233      36.893836      36.893836      36.893836    
     36000   0.13913134    -8.3700378     -8.1613438     -0.96051956     50218.233      36.893836      36.893836      36.893836    
     37000   0.13985417    -8.3703631     -8.1605848     -0.9628475      50218.233      36.893836      36.893836      36.893836    
     38000   0.13993946    -8.3687358     -8.1588296     -0.9562962      50218.233      36.893836      36.893836      36.893836    
     39000   0.14006685    -8.3712106     -8.1611133     -0.97199623     50218.233      36.893836      36.893836      36.893836    
     40000   0.13928997    -8.369099      -8.160167      -0.9529912      50218.233      36.893836      36.893836      36.893836    
     41000   0.13941554    -8.3708067     -8.1616863     -0.96718647     50218.233      36.893836      36.893836      36.893836    
     42000   0.13989619    -8.3698283     -8.159987      -0.96749588     50218.233      36.893836      36.893836      36.893836    
     43000   0.1400993     -8.3707792     -8.1606332     -0.9746254      50218.233      36.893836      36.893836      36.893836    
     44000   0.14060558    -8.3701809     -8.1592755     -0.9630576      50218.233      36.893836      36.893836      36.893836    
     45000   0.13957022    -8.3714246     -8.1620722     -0.96738074     50218.233      36.893836      36.893836      36.893836    
     46000   0.13940327    -8.3691077     -8.1600058     -0.95558872     50218.233      36.893836      36.893836      36.893836    
     47000   0.14024533    -8.3711875     -8.1608225     -0.97613019     50218.233      36.893836      36.893836      36.893836    
     48000   0.14113041    -8.3704789     -8.1587863     -0.96501821     50218.233      36.893836      36.893836      36.893836    
     49000   0.1399127     -8.3702967     -8.1604306     -0.96725929     50218.233      36.893836      36.893836      36.893836    
     50000   0.13930193    -8.3709451     -8.1619952     -0.97616844     50218.233      36.893836      36.893836      36.893836    
     51000   0.14048189    -8.3695605     -8.1588406     -0.95522816     50218.233      36.893836      36.893836      36.893836    
     52000   0.13994514    -8.3700335     -8.1601188     -0.96535414     50218.233      36.893836      36.893836      36.893836    
     53000   0.13997536    -8.3703519     -8.1603918     -0.96634923     50218.233      36.893836      36.893836      36.893836    
     54000   0.1402501     -8.3706228     -8.1602507     -0.96717695     50218.233      36.893836      36.893836      36.893836    
     55000   0.14019775    -8.3705954     -8.1603018     -0.97028726     50218.233      36.893836      36.893836      36.893836    
     56000   0.1395874     -8.3702137     -8.1608356     -0.95922254     50218.233      36.893836      36.893836      36.893836    
     57000   0.14040035    -8.3705954     -8.1599978     -0.97235953     50218.233      36.893836      36.893836      36.893836    
     58000   0.14019533    -8.3708835     -8.1605935     -0.96846842     50218.233      36.893836      36.893836      36.893836    
     59000   0.13978005    -8.3702682     -8.1606011     -0.96222878     50218.233      36.893836      36.893836      36.893836    
     60000   0.14021668    -8.3705882     -8.1602662     -0.96205548     50218.233      36.893836      36.893836      36.893836    
     61000   0.14003744    -8.3705429     -8.1604898     -0.95970656     50218.233      36.893836      36.893836      36.893836    
     62000   0.1399055     -8.3699225     -8.1600673     -0.95625122     50218.233      36.893836      36.893836      36.893836    
     63000   0.14013548    -8.3704627     -8.1602624     -0.96558208     50218.233      36.893836      36.893836      36.893836    
     64000   0.14050623    -8.3712223     -8.1604659     -0.96969854     50218.233      36.893836      36.893836      36.893836    
     65000   0.14012937    -8.3705188     -8.1603277     -0.96767642     50218.233      36.893836      36.893836      36.893836    
     66000   0.13954637    -8.3707101     -8.1613935     -0.96304771     50218.233      36.893836      36.893836      36.893836    
     67000   0.14018672    -8.3690861     -8.158809      -0.95569151     50218.233      36.893836      36.893836      36.893836    
     68000   0.13994121    -8.3690576     -8.1591487     -0.96158349     50218.233      36.893836      36.893836      36.893836    
     69000   0.14016256    -8.3695621     -8.1593213     -0.95731717     50218.233      36.893836      36.893836      36.893836    
     70000   0.14002188    -8.369726      -8.1596962     -0.95967114     50218.233      36.893836      36.893836      36.893836    
     71000   0.13976705    -8.3697523     -8.1601047     -0.96124263     50218.233      36.893836      36.893836      36.893836    
     72000   0.13991282    -8.370408      -8.1605418     -0.96195874     50218.233      36.893836      36.893836      36.893836    
     73000   0.14057327    -8.3690937     -8.1582368     -0.95834499     50218.233      36.893836      36.893836      36.893836    
     74000   0.14080982    -8.3689801     -8.1577684     -0.95916421     50218.233      36.893836      36.893836      36.893836    
     75000   0.13975516    -8.3689191     -8.1592893     -0.95776574     50218.233      36.893836      36.893836      36.893836    
     76000   0.1393998     -8.368667      -8.1595703     -0.95774471     50218.233      36.893836      36.893836      36.893836    
     77000   0.1393842     -8.3701135     -8.1610402     -0.96150402     50218.233      36.893836      36.893836      36.893836    
     78000   0.13941166    -8.3691755     -8.160061      -0.95419834     50218.233      36.893836      36.893836      36.893836    
     79000   0.1398505     -8.3685252     -8.1587524     -0.95480131     50218.233      36.893836      36.893836      36.893836    
     80000   0.14014215    -8.3683828     -8.1581726     -0.94399466     50218.233      36.893836      36.893836      36.893836    
     81000   0.13964835    -8.3696276     -8.1601581     -0.95300789     50218.233      36.893836      36.893836      36.893836    
     82000   0.14102585    -8.3697751     -8.1582393     -0.96024212     50218.233      36.893836      36.893836      36.893836    
     83000   0.14012068    -8.3689397     -8.1587617     -0.95315258     50218.233      36.893836      36.893836      36.893836    
     84000   0.13969735    -8.3703194     -8.1607764     -0.96792818     50218.233      36.893836      36.893836      36.893836    
     85000   0.1401995     -8.3689687     -8.1586724     -0.95436765     50218.233      36.893836      36.893836      36.893836    
     86000   0.14005495    -8.369411      -8.1593316     -0.95985268     50218.233      36.893836      36.893836      36.893836    
     87000   0.140594      -8.3686636     -8.1577756     -0.95481837     50218.233      36.893836      36.893836      36.893836    
     88000   0.1402969     -8.3685076     -8.1580653     -0.9558642      50218.233      36.893836      36.893836      36.893836    
     89000   0.13944872    -8.3706675     -8.1614973     -0.96982274     50218.233      36.893836      36.893836      36.893836    
     90000   0.14042816    -8.3709595     -8.1603202     -0.96210723     50218.233      36.893836      36.893836      36.893836    
     91000   0.13991093    -8.3698262     -8.1599628     -0.96729662     50218.233      36.893836      36.893836      36.893836    
     92000   0.13983108    -8.3702997     -8.160556      -0.96675556     50218.233      36.893836      36.893836      36.893836    
     93000   0.14002337    -8.3701176     -8.1600856     -0.96323942     50218.233      36.893836      36.893836      36.893836    
     94000   0.14074487    -8.3710128     -8.1598985     -0.96997595     50218.233      36.893836      36.893836      36.893836    
     95000   0.13912605    -8.3709764     -8.1622903     -0.96888468     50218.233      36.893836      36.893836      36.893836    
     96000   0.14039254    -8.3713174     -8.1607316     -0.97512181     50218.233      36.893836      36.893836      36.893836    
     97000   0.13971013    -8.3706409     -8.1610787     -0.97175686     50218.233      36.893836      36.893836      36.893836    
     98000   0.14060481    -8.3709983     -8.1600941     -0.97240856     50218.233      36.893836      36.893836      36.893836    
     99000   0.1397798     -8.3710239     -8.1613572     -0.96556007     50218.233      36.893836      36.893836      36.893836    
    100000   0.13903591    -8.3709936     -8.1624427     -0.97405789     50218.233      36.893836      36.893836      36.893836    
    101000   0.13894316    -8.3699906     -8.1615789     -0.96444401     50218.233      36.893836      36.893836      36.893836    
    102000   0.13985917    -8.3692658     -8.15948       -0.95881883     50218.233      36.893836      36.893836      36.893836    
    103000   0.13955427    -8.3706046     -8.1612762     -0.96882564     50218.233      36.893836      36.893836      36.893836    
    104000   0.14011413    -8.3703285     -8.1601603     -0.9628981      50218.233      36.893836      36.893836      36.893836    
    105000   0.14049574    -8.3696723     -8.1589317     -0.95918689     50218.233      36.893836      36.893836      36.893836    
    106000   0.13937839    -8.3700562     -8.1609916     -0.96353829     50218.233      36.893836      36.893836      36.893836    
    107000   0.14009251    -8.3696875     -8.1595517     -0.95666802     50218.233      36.893836      36.893836      36.893836    
    108000   0.14053191    -8.3707533     -8.1599584     -0.96675346     50218.233      36.893836      36.893836      36.893836    
    109000   0.13954776    -8.3710319     -8.1617132     -0.97469795     50218.233      36.893836      36.893836      36.893836    
    110000   0.13997516    -8.3696732     -8.1597134     -0.9645049      50218.233      36.893836      36.893836      36.893836    
    111000   0.14062372    -8.3714532     -8.1605207     -0.9739476      50218.233      36.893836      36.893836      36.893836    
    112000   0.13981594    -8.3706391     -8.1609182     -0.96723486     50218.233      36.893836      36.893836      36.893836    
    113000   0.13958089    -8.3709108     -8.1615424     -0.97281767     50218.233      36.893836      36.893836      36.893836    
    114000   0.13986907    -8.3698172     -8.1600166     -0.960662       50218.233      36.893836      36.893836      36.893836    
    115000   0.14004138    -8.3705865     -8.1605274     -0.96289176     50218.233      36.893836      36.893836      36.893836    
    116000   0.13957255    -8.3691173     -8.1597614     -0.9552247      50218.233      36.893836      36.893836      36.893836    
    117000   0.14079152    -8.3691394     -8.1579551     -0.95793384     50218.233      36.893836      36.893836      36.893836    
    118000   0.13937345    -8.3699797     -8.1609225     -0.96161138     50218.233      36.893836      36.893836      36.893836    
    119000   0.13965522    -8.3681497     -8.1586698     -0.94801929     50218.233      36.893836      36.893836      36.893836    
    120000   0.13956471    -8.3689371     -8.159593      -0.95648326     50218.233      36.893836      36.893836      36.893836    
    121000   0.13954496    -8.3707918     -8.1614773     -0.97047889     50218.233      36.893836      36.893836      36.893836    
    122000   0.13984905    -8.3698874     -8.1601168     -0.96477734     50218.233      36.893836      36.893836      36.893836    
    123000   0.13964885    -8.3706228     -8.1611525     -0.96085489     50218.233      36.893836      36.893836      36.893836    
    124000   0.14062171    -8.3689324     -8.1580029     -0.95096468     50218.233      36.893836      36.893836      36.893836    
    125000   0.13935771    -8.3695121     -8.1604785     -0.96270051     50218.233      36.893836      36.893836      36.893836    
    126000   0.14022554    -8.3700268     -8.1596915     -0.96108739     50218.233      36.893836      36.893836      36.893836    
    127000   0.1408077     -8.3693508     -8.1581422     -0.95544721     50218.233      36.893836      36.893836      36.893836    
    128000   0.13965194    -8.3697313     -8.1602563     -0.95358518     50218.233      36.893836      36.893836      36.893836    
    129000   0.14058144    -8.369512      -8.1586428     -0.95734835     50218.233      36.893836      36.893836      36.893836    
    130000   0.13924034    -8.369775      -8.1609175     -0.96412722     50218.233      36.893836      36.893836      36.893836    
    131000   0.14015503    -8.3688968     -8.1586672     -0.94786392     50218.233      36.893836      36.893836      36.893836    
    132000   0.14013789    -8.3695367     -8.1593328     -0.95634951     50218.233      36.893836      36.893836      36.893836    
    133000   0.14023758    -8.3697286     -8.1593753     -0.95912216     50218.233      36.893836      36.893836      36.893836    
    134000   0.13974353    -8.3694724     -8.1598601     -0.95969518     50218.233      36.893836      36.893836      36.893836    
    135000   0.13991598    -8.3704959     -8.160625      -0.96558875     50218.233      36.893836      36.893836      36.893836    
    136000   0.14015992    -8.3704303     -8.1601934     -0.96355684     50218.233      36.893836      36.893836      36.893836    
    137000   0.1397011     -8.369159      -8.1596103     -0.95277154     50218.233      36.893836      36.893836      36.893836    
    138000   0.13984577    -8.3715779     -8.1618123     -0.97405029     50218.233      36.893836      36.893836      36.893836    
    139000   0.13990622    -8.3702593     -8.160403      -0.96791077     50218.233      36.893836      36.893836      36.893836    
    140000   0.14036253    -8.3703857     -8.1598449     -0.96683305     50218.233      36.893836      36.893836      36.893836    
    141000   0.14015557    -8.3699961     -8.1597658     -0.9641239      50218.233      36.893836      36.893836      36.893836    
    142000   0.13980104    -8.3693876     -8.1596891     -0.95621561     50218.233      36.893836      36.893836      36.893836    
    143000   0.14000254    -8.3707065     -8.1607056     -0.96885156     50218.233      36.893836      36.893836      36.893836    
    144000   0.1402914     -8.3706392     -8.1602051     -0.96947778     50218.233      36.893836      36.893836      36.893836    
    145000   0.1401553     -8.3696475     -8.1594175     -0.9586308      50218.233      36.893836      36.893836      36.893836    
    146000   0.14047212    -8.3707637     -8.1600585     -0.96824949     50218.233      36.893836      36.893836      36.893836    
    147000   0.14040786    -8.3716423     -8.1610335     -0.97645703     50218.233      36.893836      36.893836      36.893836    
    148000   0.13970552    -8.3702813     -8.160726      -0.96721809     50218.233      36.893836      36.893836      36.893836    
    149000   0.14011954    -8.3709279     -8.1607515     -0.96673307     50218.233      36.893836      36.893836      36.893836    
    150000   0.13989528    -8.3714164     -8.1615764     -0.96805569     50218.233      36.893836      36.893836      36.893836    
    151000   0.13987844    -8.3714009     -8.1615862     -0.97407317     50218.233      36.893836      36.893836      36.893836    
    152000   0.14017764    -8.3709587     -8.1606952     -0.97968974     50218.233      36.893836      36.893836      36.893836    
    153000   0.13974118    -8.3718254     -8.1622166     -0.97571389     50218.233      36.893836      36.893836      36.893836    
    154000   0.1397233     -8.3717876     -8.1622056     -0.97322818     50218.233      36.893836      36.893836      36.893836    
    155000   0.13986602    -8.3713774     -8.1615814     -0.97380401     50218.233      36.893836      36.893836      36.893836    
    156000   0.13917237    -8.3704819     -8.1617263     -0.96421408     50218.233      36.893836      36.893836      36.893836    
    157000   0.14072484    -8.3716659     -8.1605817     -0.98117208     50218.233      36.893836      36.893836      36.893836    
    158000   0.14043151    -8.370537      -8.1598927     -0.96562362     50218.233      36.893836      36.893836      36.893836    
    159000   0.1404464     -8.3704284     -8.1597618     -0.96885615     50218.233      36.893836      36.893836      36.893836    
    160000   0.14014108    -8.3708653     -8.1606567     -0.97149872     50218.233      36.893836      36.893836      36.893836    
    161000   0.13964928    -8.370863      -8.1613921     -0.9702659      50218.233      36.893836      36.893836      36.893836    
    162000   0.13986524    -8.3717144     -8.1619195     -0.97807197     50218.233      36.893836      36.893836      36.893836    
    163000   0.14015026    -8.3687763     -8.1585539     -0.95845338     50218.233      36.893836      36.893836      36.893836    
    164000   0.13988823    -8.3703812     -8.1605518     -0.95628449     50218.233      36.893836      36.893836      36.893836    
    165000   0.14005083    -8.3709365     -8.1608633     -0.96937958     50218.233      36.893836      36.893836      36.893836    
    166000   0.14029269    -8.3699681     -8.159532      -0.96189656     50218.233      36.893836      36.893836      36.893836    
    167000   0.13921205    -8.3706442     -8.1618291     -0.96234801     50218.233      36.893836      36.893836      36.893836    
    168000   0.13973001    -8.3693645     -8.1597725     -0.9559082      50218.233      36.893836      36.893836      36.893836    
    169000   0.14002835    -8.3697044     -8.1596649     -0.96502841     50218.233      36.893836      36.893836      36.893836    
    170000   0.13978376    -8.3703286     -8.1606559     -0.96183649     50218.233      36.893836      36.893836      36.893836    
    171000   0.13902662    -8.3699649     -8.161428      -0.96581301     50218.233      36.893836      36.893836      36.893836    
    172000   0.13958798    -8.3690358     -8.1596568     -0.95737492     50218.233      36.893836      36.893836      36.893836    
    173000   0.14000416    -8.3694699     -8.1594667     -0.9545448      50218.233      36.893836      36.893836      36.893836    
    174000   0.13968648    -8.3696665     -8.1601398     -0.96500912     50218.233      36.893836      36.893836      36.893836    
    175000   0.14031984    -8.3699358     -8.159459      -0.96542641     50218.233      36.893836      36.893836      36.893836    
    176000   0.14036322    -8.3714053     -8.1608635     -0.97368415     50218.233      36.893836      36.893836      36.893836    
    177000   0.13953507    -8.3687766     -8.159477      -0.9538514      50218.233      36.893836      36.893836      36.893836    
    178000   0.14057116    -8.3700027     -8.159149      -0.95839216     50218.233      36.893836      36.893836      36.893836    
    179000   0.1405319     -8.3684301     -8.1576352     -0.94785831     50218.233      36.893836      36.893836      36.893836    
    180000   0.13986606    -8.3709849     -8.1611888     -0.96789222     50218.233      36.893836      36.893836      36.893836    
    181000   0.14035288    -8.3703154     -8.1597891     -0.96566925     50218.233      36.893836      36.893836      36.893836    
    182000   0.13896166    -8.3693249     -8.1608854     -0.95571822     50218.233      36.893836      36.893836      36.893836    
    183000   0.13894965    -8.3693583     -8.1609368     -0.95593585     50218.233      36.893836      36.893836      36.893836    
    184000   0.14004389    -8.3704311     -8.1603682     -0.96362165     50218.233      36.893836      36.893836      36.893836    
    185000   0.13973714    -8.3697223     -8.1601195     -0.95918115     50218.233      36.893836      36.893836      36.893836    
    186000   0.13932034    -8.3700127     -8.1610351     -0.97078827     50218.233      36.893836      36.893836      36.893836    
    187000   0.14053099    -8.3704079     -8.1596144     -0.96416613     50218.233      36.893836      36.893836      36.893836    
    188000   0.13986272    -8.3699339     -8.1601428     -0.9605686      50218.233      36.893836      36.893836      36.893836    
    189000   0.13973472    -8.3704871     -8.160888      -0.9641708      50218.233      36.893836      36.893836      36.893836    
    190000   0.1404874     -8.3705833     -8.1598551     -0.9663728      50218.233      36.893836      36.893836      36.893836    
    191000   0.13924252    -8.370623      -8.1617622     -0.96426579     50218.233      36.893836      36.893836      36.893836    
    192000   0.13946424    -8.370678      -8.1614846     -0.96922348     50218.233      36.893836      36.893836      36.893836    
    193000   0.14070882    -8.3705775     -8.1595173     -0.96424635     50218.233      36.893836      36.893836      36.893836    
    194000   0.14042801    -8.3694641     -8.1588251     -0.95545981     50218.233      36.893836      36.893836      36.893836    
    195000   0.1401023     -8.3703874     -8.1602369     -0.97117678     50218.233      36.893836      36.893836      36.893836    
    196000   0.13961158    -8.3711142     -8.1616998     -0.97455454     50218.233      36.893836      36.893836      36.893836    
    197000   0.13982903    -8.3710444     -8.1613038     -0.9658459      50218.233      36.893836      36.893836      36.893836    
    198000   0.14059614    -8.3705757     -8.1596845     -0.9656066      50218.233      36.893836      36.893836      36.893836    
    199000   0.13983757    -8.3700414     -8.1602881     -0.96492764     50218.233      36.893836      36.893836      36.893836    
    200000   0.13929868    -8.3711212     -8.1621761     -0.96749435     50218.233      36.893836      36.893836      36.893836    
    201000   0.13960904    -8.3708526     -8.161442      -0.97570563     50218.233      36.893836      36.893836      36.893836    
    202000   0.14017781    -8.3720064     -8.1617427     -0.97750069     50218.233      36.893836      36.893836      36.893836    
    203000   0.13986615    -8.371702      -8.1619057     -0.97469613     50218.233      36.893836      36.893836      36.893836    
    204000   0.14005213    -8.3703615     -8.1602863     -0.96591788     50218.233      36.893836      36.893836      36.893836    
    205000   0.14005261    -8.371196      -8.1611201     -0.96776789     50218.233      36.893836      36.893836      36.893836    
    206000   0.14000527    -8.3706039     -8.160599      -0.96365042     50218.233      36.893836      36.893836      36.893836    
    207000   0.13981327    -8.3700107     -8.1602938     -0.97141992     50218.233      36.893836      36.893836      36.893836    
    208000   0.13968519    -8.3697555     -8.1602307     -0.95590973     50218.233      36.893836      36.893836      36.893836    
    209000   0.13963216    -8.3713128     -8.1618675     -0.96301098     50218.233      36.893836      36.893836      36.893836    
    210000   0.14059063    -8.3706528     -8.1597698     -0.97105807     50218.233      36.893836      36.893836      36.893836    
    211000   0.13990107    -8.3701284     -8.1602797     -0.9630688      50218.233      36.893836      36.893836      36.893836    
    212000   0.13991374    -8.3693583     -8.1594906     -0.9537912      50218.233      36.893836      36.893836      36.893836    
    213000   0.13978827    -8.3679284     -8.158249      -0.94951005     50218.233      36.893836      36.893836      36.893836    
    214000   0.14008738    -8.3692453     -8.1591172     -0.95761671     50218.233      36.893836      36.893836      36.893836    
    215000   0.13898347    -8.3692469     -8.1607746     -0.95777073     50218.233      36.893836      36.893836      36.893836    
    216000   0.13950308    -8.370454      -8.1612024     -0.96026784     50218.233      36.893836      36.893836      36.893836    
    217000   0.1397806     -8.3697098     -8.1600419     -0.96269708     50218.233      36.893836      36.893836      36.893836    
    218000   0.13966163    -8.369102      -8.1596126     -0.95592988     50218.233      36.893836      36.893836      36.893836    
    219000   0.13960131    -8.3696919     -8.1602929     -0.95678171     50218.233      36.893836      36.893836      36.893836    
    220000   0.13951197    -8.3698295     -8.1605646     -0.9569588      50218.233      36.893836      36.893836      36.893836    
    221000   0.13988836    -8.3694967     -8.1596672     -0.95843101     50218.233      36.893836      36.893836      36.893836    
    222000   0.13987581    -8.3694551     -8.1596444     -0.95745348     50218.233      36.893836      36.893836      36.893836    
    223000   0.13939743    -8.3686619     -8.1595688     -0.95462813     50218.233      36.893836      36.893836      36.893836    
    224000   0.13997655    -8.3684508     -8.158489      -0.94777918     50218.233      36.893836      36.893836      36.893836    
    225000   0.13983981    -8.3686065     -8.1588498     -0.95350247     50218.233      36.893836      36.893836      36.893836    
    226000   0.1393385     -8.3687966     -8.1597918     -0.94795133     50218.233      36.893836      36.893836      36.893836    
    227000   0.13938289    -8.3700758     -8.1610045     -0.96768832     50218.233      36.893836      36.893836      36.893836    
    228000   0.13935668    -8.3694462     -8.1604142     -0.96124335     50218.233      36.893836      36.893836      36.893836    
    229000   0.14073074    -8.3684211     -8.157328      -0.94760068     50218.233      36.893836      36.893836      36.893836    
    230000   0.1410252     -8.369607      -8.1580723     -0.95678318     50218.233      36.893836      36.893836      36.893836    
    231000   0.14013839    -8.3693218     -8.1591172     -0.96074257     50218.233      36.893836      36.893836      36.893836    
    232000   0.14022762    -8.3691195     -8.1587811     -0.95501673     50218.233      36.893836      36.893836      36.893836    
    233000   0.14039006    -8.3687459     -8.1581638     -0.94766403     50218.233      36.893836      36.893836      36.893836    
    234000   0.13995366    -8.3701661     -8.1602386     -0.95901041     50218.233      36.893836      36.893836      36.893836    
    235000   0.14013739    -8.3694623     -8.1592592     -0.95113388     50218.233      36.893836      36.893836      36.893836    
    236000   0.1394845     -8.3698727     -8.160649      -0.96486898     50218.233      36.893836      36.893836      36.893836    
    237000   0.13951474    -8.3696641     -8.160395      -0.95682803     50218.233      36.893836      36.893836      36.893836    
    238000   0.14090834    -8.3702547     -8.1588952     -0.96420443     50218.233      36.893836      36.893836      36.893836    
    239000   0.13990926    -8.3706513     -8.1607904     -0.96741938     50218.233      36.893836      36.893836      36.893836    
    240000   0.14007758    -8.3707358     -8.1606224     -0.97061219     50218.233      36.893836      36.893836      36.893836    
    241000   0.14055277    -8.3711842     -8.1603581     -0.9712583      50218.233      36.893836      36.893836      36.893836    
    242000   0.14045712    -8.3696634     -8.1589807     -0.95889512     50218.233      36.893836      36.893836      36.893836    
    243000   0.1392379     -8.3703407     -8.1614868     -0.96976204     50218.233      36.893836      36.893836      36.893836    
    244000   0.13956482    -8.3712091     -8.1618648     -0.97043791     50218.233      36.893836      36.893836      36.893836    
    245000   0.13992842    -8.3712874     -8.1613977     -0.9764851      50218.233      36.893836      36.893836      36.893836    
    246000   0.14060467    -8.3714344     -8.1605304     -0.97101937     50218.233      36.893836      36.893836      36.893836    
    247000   0.13972947    -8.3706961     -8.1611049     -0.96996309     50218.233      36.893836      36.893836      36.893836    
    248000   0.14039867    -8.3705053     -8.1599103     -0.96762388     50218.233      36.893836      36.893836      36.893836    
    249000   0.13965058    -8.3713231     -8.1618502     -0.96818819     50218.233      36.893836      36.893836      36.893836    
    250000   0.13968153    -8.3708005     -8.1612812     -0.96930901     50218.233      36.893836      36.893836      36.893836    
    251000   0.13995477    -8.3714741     -8.1615449     -0.96843347     50218.233      36.893836      36.893836      36.893836    
    252000   0.13980538    -8.3703159     -8.1606108     -0.96480719     50218.233      36.893836      36.893836      36.893836    
    253000   0.13984564    -8.3702614     -8.160496      -0.96688471     50218.233      36.893836      36.893836      36.893836    
    254000   0.13987998    -8.3705798     -8.1607628     -0.96484092     50218.233      36.893836      36.893836      36.893836    
    255000   0.13999336    -8.3720911     -8.162104      -0.97926114     50218.233      36.893836      36.893836      36.893836    
    256000   0.14064843    -8.3717471     -8.1607775     -0.97615637     50218.233      36.893836      36.893836      36.893836    
    257000   0.13997232    -8.3699119     -8.1599564     -0.95639574     50218.233      36.893836      36.893836      36.893836    
    258000   0.13916088    -8.3696162     -8.1608779     -0.95946537     50218.233      36.893836      36.893836      36.893836    
    259000   0.140253      -8.3705327     -8.1601562     -0.96591294     50218.233      36.893836      36.893836      36.893836    
    260000   0.13977809    -8.3714907     -8.1618266     -0.97716625     50218.233      36.893836      36.893836      36.893836    
    261000   0.13974657    -8.3698139     -8.160197      -0.96370271     50218.233      36.893836      36.893836      36.893836    
    262000   0.13919093    -8.3704239     -8.1616405     -0.96740185     50218.233      36.893836      36.893836      36.893836    
    263000   0.14037477    -8.3694143     -8.1588552     -0.9540581      50218.233      36.893836      36.893836      36.893836    
    264000   0.13946041    -8.3697158     -8.1605282     -0.95930405     50218.233      36.893836      36.893836      36.893836    
    265000   0.14056883    -8.3701905     -8.1593403     -0.95883299     50218.233      36.893836      36.893836      36.893836    
    266000   0.13979907    -8.3697105     -8.1600149     -0.95705332     50218.233      36.893836      36.893836      36.893836    
    267000   0.13972589    -8.3696836     -8.1600977     -0.95716348     50218.233      36.893836      36.893836      36.893836    
    268000   0.14034732    -8.3694555     -8.1589375     -0.9619204      50218.233      36.893836      36.893836      36.893836    
    269000   0.14044788    -8.3702956     -8.1596268     -0.96888705     50218.233      36.893836      36.893836      36.893836    
    270000   0.14017343    -8.3701161     -8.1598589     -0.95816542     50218.233      36.893836      36.893836      36.893836    
    271000   0.13951911    -8.3697997     -8.160524      -0.96084745     50218.233      36.893836      36.893836      36.893836    
    272000   0.14052443    -8.3696925     -8.1589089     -0.95988012     50218.233      36.893836      36.893836      36.893836    
    273000   0.14032096    -8.3690225     -8.158544      -0.95892708     50218.233      36.893836      36.893836      36.893836    
    274000   0.13978901    -8.368966      -8.1592855     -0.95625975     50218.233      36.893836      36.893836      36.893836    
    275000   0.13998881    -8.369767      -8.1597868     -0.95676981     50218.233      36.893836      36.893836      36.893836    
    276000   0.14010629    -8.3690679     -8.1589114     -0.95196239     50218.233      36.893836      36.893836      36.893836    
    277000   0.13980662    -8.3696056     -8.1598986     -0.95481305     50218.233      36.893836      36.893836      36.893836    
    278000   0.13971779    -8.369522      -8.1599483     -0.95784626     50218.233      36.893836      36.893836      36.893836    
    279000   0.1400344     -8.3692205     -8.1591719     -0.95868084     50218.233      36.893836      36.893836      36.893836    
    280000   0.14000995    -8.3705927     -8.1605808     -0.9749961      50218.233      36.893836      36.893836      36.893836    
    281000   0.14073622    -8.3698839     -8.1587826     -0.96398457     50218.233      36.893836      36.893836      36.893836    
    282000   0.13996512    -8.3692935     -8.1593488     -0.95702649     50218.233      36.893836      36.893836      36.893836    
    283000   0.13917735    -8.3699515     -8.1611885     -0.95962474     50218.233      36.893836      36.893836      36.893836    
    284000   0.13999602    -8.3695287     -8.1595377     -0.96137148     50218.233      36.893836      36.893836      36.893836    
    285000   0.14012604    -8.3707946     -8.1606085     -0.96531922     50218.233      36.893836      36.893836      36.893836    
    286000   0.13951601    -8.370547      -8.161276      -0.97345252     50218.233      36.893836      36.893836      36.893836    
    287000   0.13964938    -8.3704793     -8.1610082     -0.97558861     50218.233      36.893836      36.893836      36.893836    
    288000   0.13982718    -8.3707224     -8.1609846     -0.96771697     50218.233      36.893836      36.893836      36.893836    
    289000   0.13982955    -8.3697202     -8.1599788     -0.96167795     50218.233      36.893836      36.893836      36.893836    
    290000   0.13993002    -8.3700238     -8.1601318     -0.96170651     50218.233      36.893836      36.893836      36.893836    
    291000   0.13946275    -8.3710084     -8.1618172     -0.97566209     50218.233      36.893836      36.893836      36.893836    
    292000   0.14014173    -8.3697443     -8.1595347     -0.96444774     50218.233      36.893836      36.893836      36.893836    
    293000   0.13950425    -8.3702579     -8.1610045     -0.96901973     50218.233      36.893836      36.893836      36.893836    
    294000   0.13958488    -8.3709565     -8.1615822     -0.96602951     50218.233      36.893836      36.893836      36.893836    
    295000   0.1390569     -8.3718602     -8.1632778     -0.98103645     50218.233      36.893836      36.893836      36.893836    
    296000   0.13978212    -8.3700864     -8.1604162     -0.9644404      50218.233      36.893836      36.893836      36.893836    
    297000   0.14042722    -8.3704875     -8.1598496     -0.96313425     50218.233      36.893836      36.893836      36.893836    
    298000   0.13968675    -8.3703705     -8.1608434     -0.96734191     50218.233      36.893836      36.893836      36.893836    
    299000   0.14055298    -8.372149      -8.1613226     -0.98056825     50218.233      36.893836      36.893836      36.893836    
    300000   0.14021211    -8.3714356     -8.1611204     -0.96908593     50218.233      36.893836      36.893836      36.893836    
    301000   0.14002402    -8.3712405     -8.1612075     -0.96773644     50218.233      36.893836      36.893836      36.893836    
    302000   0.13973564    -8.3698175     -8.160217      -0.9605761      50218.233      36.893836      36.893836      36.893836    
    303000   0.14001805    -8.3708346     -8.1608105     -0.97405227     50218.233      36.893836      36.893836      36.893836    
    304000   0.14017419    -8.3700891     -8.1598308     -0.96497274     50218.233      36.893836      36.893836      36.893836    
    305000   0.13988385    -8.3707456     -8.1609228     -0.96521688     50218.233      36.893836      36.893836      36.893836    
    306000   0.13936488    -8.3704948     -8.1614504     -0.9636243      50218.233      36.893836      36.893836      36.893836    
    307000   0.13971103    -8.3698356     -8.160272      -0.96696794     50218.233      36.893836      36.893836      36.893836    
    308000   0.14059335    -8.3697704     -8.1588833     -0.95787871     50218.233      36.893836      36.893836      36.893836    
    309000   0.14049008    -8.3712114     -8.1604793     -0.97194926     50218.233      36.893836      36.893836      36.893836    
    310000   0.14068184    -8.3703991     -8.1593794     -0.96335881     50218.233      36.893836      36.893836      36.893836    
    311000   0.13975185    -8.3698277     -8.160203      -0.96334306     50218.233      36.893836      36.893836      36.893836    
    312000   0.14041665    -8.3703496     -8.1597276     -0.96450465     50218.233      36.893836      36.893836      36.893836    
    313000   0.13983838    -8.3704224     -8.1606679     -0.96406328     50218.233      36.893836      36.893836      36.893836    
    314000   0.14009681    -8.3694411     -8.1592988     -0.95828566     50218.233      36.893836      36.893836      36.893836    
    315000   0.13940472    -8.3703516     -8.1612475     -0.96289631     50218.233      36.893836      36.893836      36.893836    
    316000   0.13997408    -8.3695801     -8.159622      -0.95232009     50218.233      36.893836      36.893836      36.893836    
    317000   0.14000432    -8.369284      -8.1592805     -0.95314327     50218.233      36.893836      36.893836      36.893836    
    318000   0.14008515    -8.3688067     -8.1586819     -0.95379567     50218.233      36.893836      36.893836      36.893836    
    319000   0.14046338    -8.3700384     -8.1593463     -0.95934238     50218.233      36.893836      36.893836      36.893836    
    320000   0.14005377    -8.369439      -8.1593614     -0.95888564     50218.233      36.893836      36.893836      36.893836    
    321000   0.13952048    -8.369211      -8.1599332     -0.96191734     50218.233      36.893836      36.893836      36.893836    
    322000   0.14009599    -8.3692429     -8.1591019     -0.95602919     50218.233      36.893836      36.893836      36.893836    
    323000   0.14025971    -8.3700728     -8.1596862     -0.96522125     50218.233      36.893836      36.893836      36.893836    
    324000   0.14048575    -8.3689979     -8.1582723     -0.95977855     50218.233      36.893836      36.893836      36.893836    
    325000   0.14014343    -8.3688211     -8.158609      -0.95282404     50218.233      36.893836      36.893836      36.893836    
    326000   0.1395281     -8.3691426     -8.1598534     -0.96379749     50218.233      36.893836      36.893836      36.893836    
    327000   0.14054696    -8.3677376     -8.1569201     -0.9414332      50218.233      36.893836      36.893836      36.893836    
    328000   0.1402288     -8.3695935     -8.1592533     -0.95774415     50218.233      36.893836      36.893836      36.893836    
    329000   0.13991304    -8.3691586     -8.159292      -0.95728471     50218.233      36.893836      36.893836      36.893836    
    330000   0.14024953    -8.3688902     -8.1585189     -0.95201031     50218.233      36.893836      36.893836      36.893836    
    331000   0.14025186    -8.3703345     -8.1599597     -0.96362927     50218.233      36.893836      36.893836      36.893836    
    332000   0.14108725    -8.368601      -8.1569732     -0.94692546     50218.233      36.893836      36.893836      36.893836    
    333000   0.13962889    -8.3702269     -8.1607865     -0.96507601     50218.233      36.893836      36.893836      36.893836    
    334000   0.14082723    -8.3696348     -8.158397      -0.96326507     50218.233      36.893836      36.893836      36.893836    
    335000   0.13942391    -8.3683828     -8.1592499     -0.95118327     50218.233      36.893836      36.893836      36.893836    
    336000   0.1406322     -8.3705588     -8.1596135     -0.97005769     50218.233      36.893836      36.893836      36.893836    
    337000   0.13935087    -8.3708235     -8.1618002     -0.9685829      50218.233      36.893836      36.893836      36.893836    
    338000   0.1394086     -8.3702623     -8.1611524     -0.9695892      50218.233      36.893836      36.893836      36.893836    
    339000   0.13992966    -8.3698805     -8.159989      -0.95909464     50218.233      36.893836      36.893836      36.893836    
    340000   0.14062116    -8.3705133     -8.1595846     -0.96396756     50218.233      36.893836      36.893836      36.893836    
    341000   0.13976154    -8.3714311     -8.1617917     -0.97604252     50218.233      36.893836      36.893836      36.893836    
    342000   0.14014475    -8.3713855     -8.1611714     -0.97039057     50218.233      36.893836      36.893836      36.893836    
    343000   0.14019722    -8.3704013     -8.1601085     -0.9663478      50218.233      36.893836      36.893836      36.893836    
    344000   0.14058099    -8.37004       -8.1591715     -0.96007092     50218.233      36.893836      36.893836      36.893836    
    345000   0.13985103    -8.3715392     -8.1617656     -0.97501298     50218.233      36.893836      36.893836      36.893836    
    346000   0.13975646    -8.3707507     -8.1611189     -0.9664573      50218.233      36.893836      36.893836      36.893836    
    347000   0.13971844    -8.3712457     -8.161671      -0.97446666     50218.233      36.893836      36.893836      36.893836    
    348000   0.14050208    -8.3717077     -8.1609576     -0.97700229     50218.233      36.893836      36.893836      36.893836    
    349000   0.13961213    -8.3706657     -8.1612505     -0.97000246     50218.233      36.893836      36.893836      36.893836    
    350000   0.14059588    -8.3720571     -8.1611663     -0.9771152      50218.233      36.893836      36.893836      36.893836    
    351000   0.139899      -8.3702059     -8.1603604     -0.96080247     50218.233      36.893836      36.893836      36.893836    
    352000   0.13929488    -8.3714017     -8.1624624     -0.97474319     50218.233      36.893836      36.893836      36.893836    
    353000   0.14026235    -8.3708537     -8.1604631     -0.97548437     50218.233      36.893836      36.893836      36.893836    
    354000   0.13949049    -8.3718711     -8.1626383     -0.97615776     50218.233      36.893836      36.893836      36.893836    
    355000   0.14000548    -8.3715924     -8.1615871     -0.9779127      50218.233      36.893836      36.893836      36.893836    
    356000   0.13937643    -8.3692989     -8.1602372     -0.95909709     50218.233      36.893836      36.893836      36.893836    
    357000   0.14034905    -8.3706282     -8.1601076     -0.96630736     50218.233      36.893836      36.893836      36.893836    
    358000   0.14022662    -8.3712021     -8.1608652     -0.97289361     50218.233      36.893836      36.893836      36.893836    
    359000   0.14012839    -8.3707786     -8.160589      -0.97009164     50218.233      36.893836      36.893836      36.893836    
    360000   0.13952437    -8.3707752     -8.1614916     -0.97069297     50218.233      36.893836      36.893836      36.893836    
    361000   0.1398394     -8.3708427     -8.1610865     -0.97025641     50218.233      36.893836      36.893836      36.893836    
    362000   0.1405304     -8.3701538     -8.1593612     -0.96046309     50218.233      36.893836      36.893836      36.893836    
    363000   0.14025355    -8.36979       -8.1594127     -0.95981085     50218.233      36.893836      36.893836      36.893836    
    364000   0.13998681    -8.3701529     -8.1601757     -0.96892746     50218.233      36.893836      36.893836      36.893836    
    365000   0.14015026    -8.3695817     -8.1593593     -0.95984085     50218.233      36.893836      36.893836      36.893836    
    366000   0.13967531    -8.3692161     -8.1597061     -0.95631705     50218.233      36.893836      36.893836      36.893836    
    367000   0.14014165    -8.3693761     -8.1591666     -0.96208167     50218.233      36.893836      36.893836      36.893836    
    368000   0.14031041    -8.3702503     -8.1597877     -0.96279061     50218.233      36.893836      36.893836      36.893836    
    369000   0.13952017    -8.370745      -8.1614677     -0.97344983     50218.233      36.893836      36.893836      36.893836    
    370000   0.14002814    -8.36909       -8.1590508     -0.95777317     50218.233      36.893836      36.893836      36.893836    
    371000   0.14047133    -8.3680398     -8.1573358     -0.94723042     50218.233      36.893836      36.893836      36.893836    
    372000   0.14040648    -8.3703446     -8.1597378     -0.96596647     50218.233      36.893836      36.893836      36.893836    
    373000   0.13970759    -8.3703032     -8.1607448     -0.96570174     50218.233      36.893836      36.893836      36.893836    
    374000   0.14018235    -8.3697326     -8.159462      -0.96604584     50218.233      36.893836      36.893836      36.893836    
    375000   0.13904659    -8.370369      -8.1618021     -0.96178573     50218.233      36.893836      36.893836      36.893836    
    376000   0.13992789    -8.3691893     -8.1593005     -0.95517303     50218.233      36.893836      36.893836      36.893836    
    377000   0.14042181    -8.368688      -8.1580583     -0.94903825     50218.233      36.893836      36.893836      36.893836    
    378000   0.13929208    -8.3700953     -8.1611601     -0.961429       50218.233      36.893836      36.893836      36.893836    
    379000   0.13993899    -8.369805      -8.1598995     -0.96035469     50218.233      36.893836      36.893836      36.893836    
    380000   0.13974942    -8.3692847     -8.1596636     -0.95286128     50218.233      36.893836      36.893836      36.893836    
    381000   0.14035994    -8.3698725     -8.1593356     -0.95858924     50218.233      36.893836      36.893836      36.893836    
    382000   0.13964889    -8.3695625     -8.1600922     -0.96013935     50218.233      36.893836      36.893836      36.893836    
    383000   0.13963663    -8.3695377     -8.1600857     -0.96306652     50218.233      36.893836      36.893836      36.893836    
    384000   0.14016592    -8.3699513     -8.1597054     -0.96366182     50218.233      36.893836      36.893836      36.893836    
    385000   0.14036549    -8.3697705     -8.1592253     -0.96133559     50218.233      36.893836      36.893836      36.893836    
    386000   0.13937349    -8.3697356     -8.1606783     -0.95970528     50218.233      36.893836      36.893836      36.893836    
    387000   0.14008062    -8.3700637     -8.1599457     -0.96108521     50218.233      36.893836      36.893836      36.893836    
    388000   0.139701      -8.3695558     -8.1600073     -0.95691604     50218.233      36.893836      36.893836      36.893836    
    389000   0.1397196     -8.370176      -8.1605996     -0.96677998     50218.233      36.893836      36.893836      36.893836    
    390000   0.14026893    -8.3715589     -8.1611585     -0.96775774     50218.233      36.893836      36.893836      36.893836    
    391000   0.14023686    -8.3710657     -8.1607134     -0.96837843     50218.233      36.893836      36.893836      36.893836    
    392000   0.1402619     -8.3705493     -8.1601594     -0.973421       50218.233      36.893836      36.893836      36.893836    
    393000   0.13951815    -8.3709714     -8.1616971     -0.9656939      50218.233      36.893836      36.893836      36.893836    
    394000   0.13981061    -8.3707089     -8.160996      -0.96857965     50218.233      36.893836      36.893836      36.893836    
    395000   0.14022021    -8.3695819     -8.1592545     -0.96144248     50218.233      36.893836      36.893836      36.893836    
    396000   0.13971332    -8.3711311     -8.1615641     -0.97286419     50218.233      36.893836      36.893836      36.893836    
    397000   0.14097901    -8.3717336     -8.1602681     -0.97571301     50218.233      36.893836      36.893836      36.893836    
    398000   0.14001003    -8.3707996     -8.1607876     -0.97218198     50218.233      36.893836      36.893836      36.893836    
    399000   0.13955432    -8.3711071     -8.1617786     -0.97998953     50218.233      36.893836      36.893836      36.893836    
    400000   0.13934251    -8.3706309     -8.1616201     -0.9663419      50218.233      36.893836      36.893836      36.893836    
    401000   0.1398706     -8.3704924     -8.1606895     -0.95893345     50218.233      36.893836      36.893836      36.893836    
    402000   0.14002659    -8.3713608     -8.1613239     -0.97490584     50218.233      36.893836      36.893836      36.893836    
    403000   0.13955496    -8.3693307     -8.1600012     -0.96122835     50218.233      36.893836      36.893836      36.893836    
    404000   0.13927584    -8.3708129     -8.1619021     -0.97347447     50218.233      36.893836      36.893836      36.893836    
    405000   0.14030196    -8.3708092     -8.1603593     -0.96952544     50218.233      36.893836      36.893836      36.893836    
    406000   0.13968717    -8.3702358     -8.160708      -0.96148102     50218.233      36.893836      36.893836      36.893836    
    407000   0.13932093    -8.370157      -8.1611786     -0.96386511     50218.233      36.893836      36.893836      36.893836    
    408000   0.14036535    -8.37031       -8.159765      -0.96373564     50218.233      36.893836      36.893836      36.893836    
    409000   0.14032397    -8.3702252     -8.1597423     -0.96389699     50218.233      36.893836      36.893836      36.893836    
    410000   0.13994621    -8.3692993     -8.1593829     -0.95755036     50218.233      36.893836      36.893836      36.893836    
    411000   0.13989063    -8.3709259     -8.1610929     -0.96797963     50218.233      36.893836      36.893836      36.893836    
    412000   0.1401016     -8.3701674     -8.160018      -0.96798867     50218.233      36.893836      36.893836      36.893836    
    413000   0.13991993    -8.3708782     -8.1610013     -0.96780984     50218.233      36.893836      36.893836      36.893836    
    414000   0.14008303    -8.3711021     -8.1609805     -0.97020303     50218.233      36.893836      36.893836      36.893836    
    415000   0.13942381    -8.3694267     -8.1602939     -0.96271909     50218.233      36.893836      36.893836      36.893836    
    416000   0.14000851    -8.3687634     -8.1587536     -0.95504413     50218.233      36.893836      36.893836      36.893836    
    417000   0.14016655    -8.3698348     -8.159588      -0.95719477     50218.233      36.893836      36.893836      36.893836    
    418000   0.14043587    -8.3690117     -8.1583609     -0.95916202     50218.233      36.893836      36.893836      36.893836    
    419000   0.13927437    -8.3689504     -8.1600418     -0.95567484     50218.233      36.893836      36.893836      36.893836    
    420000   0.14031846    -8.3698087     -8.159334      -0.96350031     50218.233      36.893836      36.893836      36.893836    
    421000   0.14041863    -8.3673833     -8.1567583     -0.93853256     50218.233      36.893836      36.893836      36.893836    
    422000   0.14039514    -8.3685781     -8.1579884     -0.95252838     50218.233      36.893836      36.893836      36.893836    
    423000   0.14028087    -8.3698281     -8.1594098     -0.96032576     50218.233      36.893836      36.893836      36.893836    
    424000   0.14001985    -8.3689752     -8.1589484     -0.96033955     50218.233      36.893836      36.893836      36.893836    
    425000   0.14078002    -8.3681289     -8.1569618     -0.94380151     50218.233      36.893836      36.893836      36.893836    
    426000   0.13995489    -8.3686287     -8.1586994     -0.94574265     50218.233      36.893836      36.893836      36.893836    
    427000   0.14022311    -8.3705599     -8.1602283     -0.97028226     50218.233      36.893836      36.893836      36.893836    
    428000   0.14012425    -8.3699759     -8.1597925     -0.96187985     50218.233      36.893836      36.893836      36.893836    
    429000   0.13986446    -8.3694106     -8.1596169     -0.9620322      50218.233      36.893836      36.893836      36.893836    
    430000   0.13968923    -8.3699066     -8.1603757     -0.95229784     50218.233      36.893836      36.893836      36.893836    
    431000   0.13917467    -8.3704417     -8.1616827     -0.96873367     50218.233      36.893836      36.893836      36.893836    
    432000   0.13974145    -8.3692044     -8.1595952     -0.95493455     50218.233      36.893836      36.893836      36.893836    
    433000   0.13990068    -8.3703025     -8.1604545     -0.96406909     50218.233      36.893836      36.893836      36.893836    
    434000   0.13974463    -8.3695533     -8.1599394     -0.95835215     50218.233      36.893836      36.893836      36.893836    
    435000   0.14011564    -8.3705952     -8.1604247     -0.96293437     50218.233      36.893836      36.893836      36.893836    
    436000   0.14027       -8.3688582     -8.1584562     -0.95554389     50218.233      36.893836      36.893836      36.893836    
    437000   0.13974734    -8.3703897     -8.1607717     -0.96102897     50218.233      36.893836      36.893836      36.893836    
    438000   0.14070166    -8.3691414     -8.1580919     -0.95254718     50218.233      36.893836      36.893836      36.893836    
    439000   0.13970431    -8.3699815     -8.160428      -0.96302864     50218.233      36.893836      36.893836      36.893836    
    440000   0.13976646    -8.3699839     -8.1603372     -0.96773837     50218.233      36.893836      36.893836      36.893836    
    441000   0.13967424    -8.3709199     -8.1614115     -0.9670468      50218.233      36.893836      36.893836      36.893836    
    442000   0.13968035    -8.3698338     -8.1603162     -0.96122153     50218.233      36.893836      36.893836      36.893836    
    443000   0.14002284    -8.3695224     -8.1594911     -0.95647403     50218.233      36.893836      36.893836      36.893836    
    444000   0.1405009     -8.3701061     -8.1593577     -0.96896591     50218.233      36.893836      36.893836      36.893836    
    445000   0.14010352    -8.371093      -8.1609407     -0.97218125     50218.233      36.893836      36.893836      36.893836    
    446000   0.13962137    -8.3718166     -8.1623875     -0.97769408     50218.233      36.893836      36.893836      36.893836    
    447000   0.14004701    -8.37139       -8.1613225     -0.97460568     50218.233      36.893836      36.893836      36.893836    
    448000   0.14022908    -8.3703524     -8.1600117     -0.96535456     50218.233      36.893836      36.893836      36.893836    
    449000   0.13961107    -8.3699161     -8.1605024     -0.95911378     50218.233      36.893836      36.893836      36.893836    
    450000   0.14000947    -8.3706387     -8.1606274     -0.96661541     50218.233      36.893836      36.893836      36.893836    
    451000   0.13989771    -8.3714015     -8.161558      -0.9697044      50218.233      36.893836      36.893836      36.893836    
    452000   0.14013151    -8.3713169     -8.1611227     -0.97440377     50218.233      36.893836      36.893836      36.893836    
    453000   0.13931531    -8.370742      -8.161772      -0.97020064     50218.233      36.893836      36.893836      36.893836    
    454000   0.14064122    -8.3708317     -8.1598729     -0.9619978      50218.233      36.893836      36.893836      36.893836    
    455000   0.13987332    -8.3701397     -8.1603327     -0.96592713     50218.233      36.893836      36.893836      36.893836    
    456000   0.14018001    -8.3701772     -8.1599102     -0.96239355     50218.233      36.893836      36.893836      36.893836    
    457000   0.1404368     -8.3709007     -8.1602485     -0.97488178     50218.233      36.893836      36.893836      36.893836    
    458000   0.14012637    -8.3710068     -8.1608202     -0.97336177     50218.233      36.893836      36.893836      36.893836    
    459000   0.13994251    -8.370824      -8.1609132     -0.97063316     50218.233      36.893836      36.893836      36.893836    
    460000   0.13954451    -8.3712487     -8.1619349     -0.97589666     50218.233      36.893836      36.893836      36.893836    
    461000   0.13976337    -8.369203      -8.1595609     -0.95876096     50218.233      36.893836      36.893836      36.893836    
    462000   0.13981193    -8.3697363     -8.1600214     -0.95651183     50218.233      36.893836      36.893836      36.893836    
    463000   0.14035369    -8.3695759     -8.1590483     -0.95991963     50218.233      36.893836      36.893836      36.893836    
    464000   0.13988849    -8.3704614     -8.1606316     -0.9746078      50218.233      36.893836      36.893836      36.893836    
    465000   0.14031434    -8.3700022     -8.1595337     -0.95708716     50218.233      36.893836      36.893836      36.893836    
    466000   0.13996886    -8.3697773     -8.159827      -0.96150866     50218.233      36.893836      36.893836      36.893836    
    467000   0.14045097    -8.3701836     -8.1595101     -0.96188907     50218.233      36.893836      36.893836      36.893836    
    468000   0.14078943    -8.3689083     -8.1577271     -0.9521968      50218.233      36.893836      36.893836      36.893836    
    469000   0.14040462    -8.3708423     -8.1602384     -0.97237323     50218.233      36.893836      36.893836      36.893836    
    470000   0.13984441    -8.3690873     -8.1593237     -0.96072321     50218.233      36.893836      36.893836      36.893836    
    471000   0.14071039    -8.3698507     -8.1587881     -0.96087834     50218.233      36.893836      36.893836      36.893836    
    472000   0.13999482    -8.3702837     -8.1602944     -0.96401579     50218.233      36.893836      36.893836      36.893836    
    473000   0.1395659     -8.3704182     -8.1610723     -0.96606721     50218.233      36.893836      36.893836      36.893836    
    474000   0.14039179    -8.3694912     -8.1589065     -0.96117044     50218.233      36.893836      36.893836      36.893836    
    475000   0.13947013    -8.3696244     -8.1604222     -0.9639361      50218.233      36.893836      36.893836      36.893836    
    476000   0.13991906    -8.3703521     -8.1604765     -0.97004568     50218.233      36.893836      36.893836      36.893836    
    477000   0.14089976    -8.3685461     -8.1571995     -0.94438397     50218.233      36.893836      36.893836      36.893836    
    478000   0.14016038    -8.3686745     -8.1584369     -0.95483137     50218.233      36.893836      36.893836      36.893836    
    479000   0.13921643    -8.3688765     -8.1600548     -0.95664302     50218.233      36.893836      36.893836      36.893836    
    480000   0.13972867    -8.3703002     -8.1607101     -0.96644527     50218.233      36.893836      36.893836      36.893836    
    481000   0.13950776    -8.369728      -8.1604694     -0.96363968     50218.233      36.893836      36.893836      36.893836    
    482000   0.13978121    -8.3699964     -8.1603276     -0.9639319      50218.233      36.893836      36.893836      36.893836    
    483000   0.14030055    -8.3715061     -8.1610583     -0.97354148     50218.233      36.893836      36.893836      36.893836    
    484000   0.14072335    -8.370148      -8.159066      -0.96231936     50218.233      36.893836      36.893836      36.893836    
    485000   0.13956904    -8.3703158     -8.1609652     -0.9658798      50218.233      36.893836      36.893836      36.893836    
    486000   0.14036153    -8.3696607     -8.1591214     -0.95812175     50218.233      36.893836      36.893836      36.893836    
    487000   0.13917263    -8.369537      -8.160781      -0.96484121     50218.233      36.893836      36.893836      36.893836    
    488000   0.13999177    -8.3701264     -8.1601417     -0.96138594     50218.233      36.893836      36.893836      36.893836    
    489000   0.14034688    -8.3698828     -8.1593655     -0.9596688      50218.233      36.893836      36.893836      36.893836    
    490000   0.13988217    -8.370571      -8.1607507     -0.96283658     50218.233      36.893836      36.893836      36.893836    
    491000   0.1397204     -8.3696672     -8.1600896     -0.96406301     50218.233      36.893836      36.893836      36.893836    
    492000   0.14043519    -8.3707988     -8.1601491     -0.97067116     50218.233      36.893836      36.893836      36.893836    
    493000   0.14056978    -8.3712457     -8.1603941     -0.97017107     50218.233      36.893836      36.893836      36.893836    
    494000   0.1406979     -8.3719016     -8.1608577     -0.97560414     50218.233      36.893836      36.893836      36.893836    
    495000   0.14006208    -8.3706886     -8.1605984     -0.97462499     50218.233      36.893836      36.893836      36.893836    
    496000   0.13971878    -8.3702654     -8.1606902     -0.96841446     50218.233      36.893836      36.893836      36.893836    
    497000   0.13980484    -8.3712105     -8.1615062     -0.9770671      50218.233      36.893836      36.893836      36.893836    
    498000   0.14048173    -8.3712759     -8.1605563     -0.97373575     50218.233      36.893836      36.893836      36.893836    
    499000   0.14056452    -8.3706506     -8.1598068     -0.96566561     50218.233      36.893836      36.893836      36.893836    
    500000   0.13960679    -8.3709843     -8.1615771     -0.97037665     50218.233      36.893836      36.893836      36.893836    
    501000   0.14021454    -8.3709901     -8.1606712     -0.9714928      50218.233      36.893836      36.893836      36.893836    
    502000   0.13971235    -8.3713287     -8.1617631     -0.97207769     50218.233      36.893836      36.893836      36.893836    
    503000   0.14005262    -8.3703708     -8.1602949     -0.95976888     50218.233      36.893836      36.893836      36.893836    
    504000   0.14024622    -8.3707184     -8.1603521     -0.96365845     50218.233      36.893836      36.893836      36.893836    
    505000   0.14014194    -8.3706226     -8.1604127     -0.96806703     50218.233      36.893836      36.893836      36.893836    
    506000   0.13967587    -8.3713262     -8.1618154     -0.97711555     50218.233      36.893836      36.893836      36.893836    
    507000   0.14031162    -8.3705042     -8.1600397     -0.97434246     50218.233      36.893836      36.893836      36.893836    
    508000   0.14050389    -8.3711325     -8.1603797     -0.97268669     50218.233      36.893836      36.893836      36.893836    
    509000   0.13994682    -8.3704802     -8.160563      -0.96672087     50218.233      36.893836      36.893836      36.893836    
    510000   0.13981922    -8.3700685     -8.1603427     -0.95855156     50218.233      36.893836      36.893836      36.893836    
    511000   0.14010115    -8.3700784     -8.1599297     -0.96549639     50218.233      36.893836      36.893836      36.893836    
    512000   0.13994592    -8.3698891     -8.1599732     -0.9579036      50218.233      36.893836      36.893836      36.893836    
    513000   0.14060541    -8.3691771     -8.158272      -0.95790912     50218.233      36.893836      36.893836      36.893836    
    514000   0.14038175    -8.3705677     -8.1599981     -0.96281747     50218.233      36.893836      36.893836      36.893836    
    515000   0.14014302    -8.3696577     -8.1594462     -0.95447994     50218.233      36.893836      36.893836      36.893836    
    516000   0.13997803    -8.3710047     -8.1610407     -0.96711559     50218.233      36.893836      36.893836      36.893836    
    517000   0.13996404    -8.3693648     -8.1594217     -0.95229017     50218.233      36.893836      36.893836      36.893836    
    518000   0.14051145    -8.368996      -8.1582318     -0.95447534     50218.233      36.893836      36.893836      36.893836    
    519000   0.14005971    -8.3690923     -8.1590057     -0.95909966     50218.233      36.893836      36.893836      36.893836    
    520000   0.13998671    -8.3692377     -8.1592606     -0.95245448     50218.233      36.893836      36.893836      36.893836    
    521000   0.14035752    -8.3690132     -8.1584799     -0.94981201     50218.233      36.893836      36.893836      36.893836    
    522000   0.13974498    -8.3697564     -8.1601419     -0.96824153     50218.233      36.893836      36.893836      36.893836    
    523000   0.14072112    -8.3686888     -8.1576101     -0.95199167     50218.233      36.893836      36.893836      36.893836    
    524000   0.14005015    -8.3678584     -8.1577861     -0.9452632      50218.233      36.893836      36.893836      36.893836    
    525000   0.13938032    -8.3696701     -8.1606026     -0.95831551     50218.233      36.893836      36.893836      36.893836    
    526000   0.13969227    -8.36893       -8.1593946     -0.95697098     50218.233      36.893836      36.893836      36.893836    
    527000   0.1399274     -8.3696272     -8.1597391     -0.95289708     50218.233      36.893836      36.893836      36.893836    
    528000   0.14033173    -8.3689908     -8.1584962     -0.95423349     50218.233      36.893836      36.893836      36.893836    
    529000   0.14070089    -8.3700436     -8.1589952     -0.95747381     50218.233      36.893836      36.893836      36.893836    
    530000   0.13999994    -8.3690034     -8.1590065     -0.96338518     50218.233      36.893836      36.893836      36.893836    
    531000   0.14022774    -8.3692367     -8.1588981     -0.95713708     50218.233      36.893836      36.893836      36.893836    
    532000   0.13996506    -8.3696922     -8.1597476     -0.9593094      50218.233      36.893836      36.893836      36.893836    
    533000   0.14041516    -8.3693807     -8.1587609     -0.96339363     50218.233      36.893836      36.893836      36.893836    
    534000   0.14061875    -8.3696102     -8.1586851     -0.96089113     50218.233      36.893836      36.893836      36.893836    
    535000   0.13958826    -8.3702726     -8.1608932     -0.96935686     50218.233      36.893836      36.893836      36.893836    
    536000   0.13961353    -8.3704379     -8.1610206     -0.96438743     50218.233      36.893836      36.893836      36.893836    
    537000   0.1402226     -8.3713925     -8.1610616     -0.97293347     50218.233      36.893836      36.893836      36.893836    
    538000   0.14004956    -8.3700903     -8.1600189     -0.96510087     50218.233      36.893836      36.893836      36.893836    
    539000   0.14037909    -8.368679      -8.1581133     -0.94891234     50218.233      36.893836      36.893836      36.893836    
    540000   0.1400968     -8.3709952     -8.160853      -0.97022036     50218.233      36.893836      36.893836      36.893836    
    541000   0.14029199    -8.3692899     -8.1588549     -0.95584123     50218.233      36.893836      36.893836      36.893836    
    542000   0.13955576    -8.3705394     -8.1612087     -0.9699127      50218.233      36.893836      36.893836      36.893836    
    543000   0.14042119    -8.3715905     -8.1609617     -0.97436036     50218.233      36.893836      36.893836      36.893836    
    544000   0.1402337     -8.3705557     -8.1602081     -0.96927112     50218.233      36.893836      36.893836      36.893836    
    545000   0.14048731    -8.3696494     -8.1589215     -0.95573348     50218.233      36.893836      36.893836      36.893836    
    546000   0.14029352    -8.3706833     -8.160246      -0.9679876      50218.233      36.893836      36.893836      36.893836    
    547000   0.14010086    -8.3708179     -8.1606696     -0.96663738     50218.233      36.893836      36.893836      36.893836    
    548000   0.14047197    -8.3705344     -8.1598294     -0.96263542     50218.233      36.893836      36.893836      36.893836    
    549000   0.14019634    -8.3714213     -8.1611298     -0.97273242     50218.233      36.893836      36.893836      36.893836    
    550000   0.14047031    -8.3711065     -8.160404      -0.96905303     50218.233      36.893836      36.893836      36.893836    
    551000   0.14019119    -8.3710945     -8.1608107     -0.96977659     50218.233      36.893836      36.893836      36.893836    
    552000   0.13987413    -8.3722826     -8.1624744     -0.97655212     50218.233      36.893836      36.893836      36.893836    
    553000   0.14018917    -8.3703834     -8.1601026     -0.96854753     50218.233      36.893836      36.893836      36.893836    
    554000   0.1402141     -8.3706658     -8.1603477     -0.96289703     50218.233      36.893836      36.893836      36.893836    
    555000   0.13975525    -8.3712097     -8.1615798     -0.97077686     50218.233      36.893836      36.893836      36.893836    
    556000   0.14030318    -8.3713078     -8.160856      -0.96624723     50218.233      36.893836      36.893836      36.893836    
    557000   0.14009665    -8.3710067     -8.1608648     -0.97528462     50218.233      36.893836      36.893836      36.893836    
    558000   0.13949927    -8.370483      -8.1612371     -0.96955272     50218.233      36.893836      36.893836      36.893836    
    559000   0.14050318    -8.3719165     -8.1611647     -0.97964344     50218.233      36.893836      36.893836      36.893836    
    560000   0.14053288    -8.369669      -8.1588727     -0.95707758     50218.233      36.893836      36.893836      36.893836    
    561000   0.14017646    -8.3701295     -8.1598678     -0.96122412     50218.233      36.893836      36.893836      36.893836    
    562000   0.14007691    -8.3699452     -8.1598328     -0.96127004     50218.233      36.893836      36.893836      36.893836    
    563000   0.13983898    -8.3704486     -8.1606931     -0.96838988     50218.233      36.893836      36.893836      36.893836    
    564000   0.14050954    -8.3692457     -8.1584844     -0.95547706     50218.233      36.893836      36.893836      36.893836    
    565000   0.13965707    -8.370739      -8.1612564     -0.96589776     50218.233      36.893836      36.893836      36.893836    
    566000   0.13941451    -8.3697023     -8.1605835     -0.95918032     50218.233      36.893836      36.893836      36.893836    
    567000   0.13913487    -8.3700315     -8.1613322     -0.96004849     50218.233      36.893836      36.893836      36.893836    
    568000   0.14075919    -8.3688434     -8.1577076     -0.95632541     50218.233      36.893836      36.893836      36.893836    
    569000   0.14007481    -8.3685133     -8.1584041     -0.95241891     50218.233      36.893836      36.893836      36.893836    
    570000   0.14006296    -8.3708867     -8.1607953     -0.96974632     50218.233      36.893836      36.893836      36.893836    
    571000   0.14048392    -8.3695518     -8.158829      -0.95387632     50218.233      36.893836      36.893836      36.893836    
    572000   0.14021199    -8.3697089     -8.1593939     -0.95957674     50218.233      36.893836      36.893836      36.893836    
    573000   0.1394722     -8.3701483     -8.160943      -0.96587407     50218.233      36.893836      36.893836      36.893836    
    574000   0.14021918    -8.3701655     -8.1598397     -0.95951906     50218.233      36.893836      36.893836      36.893836    
    575000   0.14046043    -8.3692498     -8.1585621     -0.95636826     50218.233      36.893836      36.893836      36.893836    
    576000   0.14017964    -8.3693268     -8.1590603     -0.95427584     50218.233      36.893836      36.893836      36.893836    
    577000   0.13965561    -8.3697152     -8.1602348     -0.96173595     50218.233      36.893836      36.893836      36.893836    
    578000   0.13993258    -8.3684338     -8.1585379     -0.95083138     50218.233      36.893836      36.893836      36.893836    
    579000   0.13991982    -8.3686787     -8.158802      -0.95416304     50218.233      36.893836      36.893836      36.893836    
    580000   0.13983964    -8.3698782     -8.1601217     -0.96486105     50218.233      36.893836      36.893836      36.893836    
    581000   0.14047163    -8.3695507     -8.1588462     -0.96041365     50218.233      36.893836      36.893836      36.893836    
    582000   0.13985847    -8.3693155     -8.1595308     -0.96190923     50218.233      36.893836      36.893836      36.893836    
    583000   0.14045268    -8.3679381     -8.1572621     -0.94455544     50218.233      36.893836      36.893836      36.893836    
    584000   0.13995879    -8.3690863     -8.1591511     -0.9541085      50218.233      36.893836      36.893836      36.893836    
    585000   0.13993713    -8.3713902     -8.1614875     -0.97454149     50218.233      36.893836      36.893836      36.893836    
    586000   0.13999935    -8.3702586     -8.1602626     -0.96370727     50218.233      36.893836      36.893836      36.893836    
    587000   0.13919373    -8.369991      -8.1612034     -0.95863469     50218.233      36.893836      36.893836      36.893836    
    588000   0.14043271    -8.3708721     -8.1602261     -0.96339324     50218.233      36.893836      36.893836      36.893836    
    589000   0.14001046    -8.3697144     -8.1597017     -0.95342057     50218.233      36.893836      36.893836      36.893836    
    590000   0.14034574    -8.3704167     -8.1599011     -0.96931086     50218.233      36.893836      36.893836      36.893836    
    591000   0.14036164    -8.3698136     -8.1592741     -0.96098674     50218.233      36.893836      36.893836      36.893836    
    592000   0.14007499    -8.3696268     -8.1595173     -0.96758944     50218.233      36.893836      36.893836      36.893836    
    593000   0.14016101    -8.3701894     -8.1599509     -0.96708366     50218.233      36.893836      36.893836      36.893836    
    594000   0.14001976    -8.3717009     -8.1616743     -0.97357763     50218.233      36.893836      36.893836      36.893836    
    595000   0.14021418    -8.3712213     -8.1609031     -0.96793862     50218.233      36.893836      36.893836      36.893836    
    596000   0.13965015    -8.3705049     -8.1610326     -0.97166528     50218.233      36.893836      36.893836      36.893836    
    597000   0.13978478    -8.3718854     -8.1622113     -0.98408622     50218.233      36.893836      36.893836      36.893836    
    598000   0.14060758    -8.3712344     -8.160326      -0.9697432      50218.233      36.893836      36.893836      36.893836    
    599000   0.14021217    -8.3706123     -8.1602971     -0.97325788     50218.233      36.893836      36.893836      36.893836    
    600000   0.14011995    -8.3711045     -8.1609275     -0.97263335     50218.233      36.893836      36.893836      36.893836    
    601000   0.1396177     -8.370565      -8.1611414     -0.96494616     50218.233      36.893836      36.893836      36.893836    
    602000   0.14003469    -8.3708756     -8.1608266     -0.97006756     50218.233      36.893836      36.893836      36.893836    
    603000   0.1392114     -8.3700475     -8.1612333     -0.95904911     50218.233      36.893836      36.893836      36.893836    
    604000   0.1396704     -8.3708153     -8.1613127     -0.97503729     50218.233      36.893836      36.893836      36.893836    
    605000   0.13937486    -8.3714874     -8.1624281     -0.97878893     50218.233      36.893836      36.893836      36.893836    
    606000   0.14020663    -8.3707341     -8.1604271     -0.96487636     50218.233      36.893836      36.893836      36.893836    
    607000   0.13993442    -8.3704419     -8.1605432     -0.96740097     50218.233      36.893836      36.893836      36.893836    
    608000   0.1395802     -8.3709815     -8.1616141     -0.96893743     50218.233      36.893836      36.893836      36.893836    
    609000   0.13949601    -8.3699746     -8.1607335     -0.96308656     50218.233      36.893836      36.893836      36.893836    
    610000   0.14002824    -8.3690518     -8.1590124     -0.95172343     50218.233      36.893836      36.893836      36.893836    
    611000   0.13963785    -8.3705741     -8.1611203     -0.95944446     50218.233      36.893836      36.893836      36.893836    
    612000   0.14021801    -8.3697736     -8.1594496     -0.96056239     50218.233      36.893836      36.893836      36.893836    
    613000   0.13962188    -8.3696162     -8.1601864     -0.95742456     50218.233      36.893836      36.893836      36.893836    
    614000   0.13965398    -8.3700029     -8.1605249     -0.9642573      50218.233      36.893836      36.893836      36.893836    
    615000   0.13929492    -8.3701692     -8.1612298     -0.96591275     50218.233      36.893836      36.893836      36.893836    
    616000   0.14061295    -8.3685742     -8.1576578     -0.9533456      50218.233      36.893836      36.893836      36.893836    
    617000   0.14001754    -8.3698002     -8.1597769     -0.95854473     50218.233      36.893836      36.893836      36.893836    
    618000   0.1394763     -8.3693973     -8.1601859     -0.95716054     50218.233      36.893836      36.893836      36.893836    
    619000   0.14065602    -8.3693802     -8.1583992     -0.95602234     50218.233      36.893836      36.893836      36.893836    
    620000   0.1396421     -8.3687701     -8.1593099     -0.9589386      50218.233      36.893836      36.893836      36.893836    
    621000   0.14001053    -8.3686654     -8.1586526     -0.95499096     50218.233      36.893836      36.893836      36.893836    
    622000   0.1394672     -8.3700248     -8.1608269     -0.96344563     50218.233      36.893836      36.893836      36.893836    
    623000   0.13979859    -8.3688346     -8.1591397     -0.95276307     50218.233      36.893836      36.893836      36.893836    
    624000   0.13956769    -8.3701445     -8.160796      -0.96564395     50218.233      36.893836      36.893836      36.893836    
    625000   0.1399982     -8.3690046     -8.1590103     -0.94444723     50218.233      36.893836      36.893836      36.893836    
    626000   0.13968824    -8.3691038     -8.1595745     -0.9520381      50218.233      36.893836      36.893836      36.893836    
    627000   0.13969741    -8.3695772     -8.160034      -0.95882423     50218.233      36.893836      36.893836      36.893836    
    628000   0.14001588    -8.3706402     -8.1606194     -0.96301452     50218.233      36.893836      36.893836      36.893836    
    629000   0.14039766    -8.3692545     -8.158661      -0.96148531     50218.233      36.893836      36.893836      36.893836    
    630000   0.14027715    -8.3698266     -8.1594139     -0.96141778     50218.233      36.893836      36.893836      36.893836    
    631000   0.13978717    -8.3697993     -8.1601215     -0.96170634     50218.233      36.893836      36.893836      36.893836    
    632000   0.14049596    -8.3690831     -8.1583421     -0.95344706     50218.233      36.893836      36.893836      36.893836    
    633000   0.1404413     -8.3689535     -8.1582945     -0.96049432     50218.233      36.893836      36.893836      36.893836    
    634000   0.1404656     -8.3702368     -8.1595414     -0.97011413     50218.233      36.893836      36.893836      36.893836    
    635000   0.14002367    -8.3699958     -8.1599633     -0.96453098     50218.233      36.893836      36.893836      36.893836    
    636000   0.13984309    -8.3705801     -8.1608185     -0.96537202     50218.233      36.893836      36.893836      36.893836    
    637000   0.13970526    -8.3710071     -8.1614522     -0.96021137     50218.233      36.893836      36.893836      36.893836    
    638000   0.14014208    -8.370885      -8.1606749     -0.96746475     50218.233      36.893836      36.893836      36.893836    
    639000   0.13944225    -8.3693713     -8.1602109     -0.959683       50218.233      36.893836      36.893836      36.893836    
    640000   0.14008157    -8.3705188     -8.1603994     -0.96927316     50218.233      36.893836      36.893836      36.893836    
    641000   0.14141367    -8.370466      -8.1583485     -0.97174926     50218.233      36.893836      36.893836      36.893836    
    642000   0.13997523    -8.3697955     -8.1598356     -0.9638304      50218.233      36.893836      36.893836      36.893836    
    643000   0.14036576    -8.3704959     -8.1599503     -0.97061365     50218.233      36.893836      36.893836      36.893836    
    644000   0.1398096     -8.370681      -8.1609695     -0.96637361     50218.233      36.893836      36.893836      36.893836    
    645000   0.14075188    -8.3716366     -8.1605117     -0.97401955     50218.233      36.893836      36.893836      36.893836    
    646000   0.14017004    -8.3703884     -8.1601363     -0.96670808     50218.233      36.893836      36.893836      36.893836    
    647000   0.14067825    -8.3705013     -8.1594869     -0.96594741     50218.233      36.893836      36.893836      36.893836    
    648000   0.13993861    -8.3710422     -8.1611373     -0.97869149     50218.233      36.893836      36.893836      36.893836    
    649000   0.14038789    -8.3706844     -8.1601056     -0.96582365     50218.233      36.893836      36.893836      36.893836    
    650000   0.1402953     -8.3704288     -8.1599888     -0.97014596     50218.233      36.893836      36.893836      36.893836    
    651000   0.14079201    -8.3710626     -8.1598776     -0.96503888     50218.233      36.893836      36.893836      36.893836    
    652000   0.14035302    -8.3707853     -8.1602587     -0.9688675      50218.233      36.893836      36.893836      36.893836    
    653000   0.13910712    -8.3705568     -8.1618991     -0.97097974     50218.233      36.893836      36.893836      36.893836    
    654000   0.13997903    -8.3705452     -8.1605796     -0.96653469     50218.233      36.893836      36.893836      36.893836    
    655000   0.13963419    -8.370933      -8.1614847     -0.97481189     50218.233      36.893836      36.893836      36.893836    
    656000   0.13902446    -8.3705351     -8.1620014     -0.96564578     50218.233      36.893836      36.893836      36.893836    
    657000   0.14063178    -8.3718229     -8.1608782     -0.9766897      50218.233      36.893836      36.893836      36.893836    
    658000   0.13988166    -8.3707857     -8.1609662     -0.97067474     50218.233      36.893836      36.893836      36.893836    
    659000   0.14004071    -8.3708963     -8.1608382     -0.96826503     50218.233      36.893836      36.893836      36.893836    
    660000   0.13987643    -8.3704703     -8.1606587     -0.96405146     50218.233      36.893836      36.893836      36.893836    
    661000   0.14021768    -8.3699482     -8.1596247     -0.97047913     50218.233      36.893836      36.893836      36.893836    
    662000   0.1394817     -8.3708072     -8.1615876     -0.9742733      50218.233      36.893836      36.893836      36.893836    
    663000   0.13955232    -8.370908      -8.1615825     -0.97280246     50218.233      36.893836      36.893836      36.893836    
    664000   0.13968948    -8.3691715     -8.1596403     -0.95664186     50218.233      36.893836      36.893836      36.893836    
    665000   0.13964685    -8.3700317     -8.1605644     -0.96363634     50218.233      36.893836      36.893836      36.893836    
    666000   0.14061666    -8.3702483     -8.1593263     -0.96076457     50218.233      36.893836      36.893836      36.893836    
    667000   0.14122892    -8.3709513     -8.1591109     -0.96950969     50218.233      36.893836      36.893836      36.893836    
    668000   0.13956477    -8.3699547     -8.1606105     -0.96170453     50218.233      36.893836      36.893836      36.893836    
    669000   0.13986714    -8.369051      -8.1592533     -0.95626783     50218.233      36.893836      36.893836      36.893836    
    670000   0.14002038    -8.3704776     -8.16045       -0.96159013     50218.233      36.893836      36.893836      36.893836    
    671000   0.13939307    -8.3697289     -8.1606423     -0.96227639     50218.233      36.893836      36.893836      36.893836    
    672000   0.13944041    -8.3699232     -8.1607656     -0.96081996     50218.233      36.893836      36.893836      36.893836    
    673000   0.13988193    -8.369209      -8.1593891     -0.96249435     50218.233      36.893836      36.893836      36.893836    
    674000   0.13976368    -8.3698388     -8.1601963     -0.96613642     50218.233      36.893836      36.893836      36.893836    
    675000   0.13943396    -8.3693964     -8.1602484     -0.95612163     50218.233      36.893836      36.893836      36.893836    
    676000   0.14017117    -8.3703114     -8.1600577     -0.97010236     50218.233      36.893836      36.893836      36.893836    
    677000   0.14030777    -8.370978      -8.1605193     -0.96526236     50218.233      36.893836      36.893836      36.893836    
    678000   0.13938472    -8.3695047     -8.1604306     -0.9614848      50218.233      36.893836      36.893836      36.893836    
    679000   0.13969136    -8.3699668     -8.1604328     -0.96178786     50218.233      36.893836      36.893836      36.893836    
    680000   0.14016686    -8.369617      -8.1593697     -0.96109558     50218.233      36.893836      36.893836      36.893836    
    681000   0.14036396    -8.3700117     -8.1594688     -0.9649223      50218.233      36.893836      36.893836      36.893836    
    682000   0.13929566    -8.3697198     -8.1607793     -0.96607272     50218.233      36.893836      36.893836      36.893836    
    683000   0.14037697    -8.3699572     -8.1593947     -0.96049219     50218.233      36.893836      36.893836      36.893836    
    684000   0.13971244    -8.3704675     -8.1609018     -0.96666413     50218.233      36.893836      36.893836      36.893836    
    685000   0.1405852     -8.369802      -8.1589272     -0.95932298     50218.233      36.893836      36.893836      36.893836    
    686000   0.13997093    -8.3702744     -8.160321      -0.96073347     50218.233      36.893836      36.893836      36.893836    
    687000   0.1402236     -8.3696422     -8.1593098     -0.95845653     50218.233      36.893836      36.893836      36.893836    
    688000   0.1402126     -8.3698016     -8.1594857     -0.95545045     50218.233      36.893836      36.893836      36.893836    
    689000   0.13985475    -8.3697558     -8.1599767     -0.96300374     50218.233      36.893836      36.893836      36.893836    
    690000   0.13978433    -8.3698772     -8.1602037     -0.96274        50218.233      36.893836      36.893836      36.893836    
    691000   0.13974511    -8.3706749     -8.1610602     -0.96247603     50218.233      36.893836      36.893836      36.893836    
    692000   0.13884567    -8.370237      -8.1619715     -0.96908136     50218.233      36.893836      36.893836      36.893836    
    693000   0.13996816    -8.3715924     -8.1616431     -0.9708592      50218.233      36.893836      36.893836      36.893836    
    694000   0.14003955    -8.3718933     -8.161837      -0.98098269     50218.233      36.893836      36.893836      36.893836    
    695000   0.13995635    -8.3706598     -8.1607283     -0.9707457      50218.233      36.893836      36.893836      36.893836    
    696000   0.14025555    -8.3714714     -8.161091      -0.97742241     50218.233      36.893836      36.893836      36.893836    
    697000   0.13958349    -8.3706896     -8.1613173     -0.97108561     50218.233      36.893836      36.893836      36.893836    
    698000   0.14058334    -8.3708304     -8.1599584     -0.96536207     50218.233      36.893836      36.893836      36.893836    
    699000   0.13961371    -8.3712786     -8.161861      -0.97253672     50218.233      36.893836      36.893836      36.893836    
    700000   0.14013472    -8.3710231     -8.160824      -0.97622797     50218.233      36.893836      36.893836      36.893836    
    701000   0.13983681    -8.3709961     -8.1612438     -0.97547745     50218.233      36.893836      36.893836      36.893836    
    702000   0.14002329    -8.3707893     -8.1607573     -0.97406111     50218.233      36.893836      36.893836      36.893836    
    703000   0.14026144    -8.3713011     -8.160912      -0.97581364     50218.233      36.893836      36.893836      36.893836    
    704000   0.14039563    -8.369811      -8.1592206     -0.9620968      50218.233      36.893836      36.893836      36.893836    
    705000   0.14043498    -8.3720695     -8.16142       -0.98072561     50218.233      36.893836      36.893836      36.893836    
    706000   0.14062994    -8.369871      -8.1589291     -0.96674314     50218.233      36.893836      36.893836      36.893836    
    707000   0.14011672    -8.3703988     -8.1602267     -0.97004028     50218.233      36.893836      36.893836      36.893836    
    708000   0.14035434    -8.3711011     -8.1605726     -0.96040154     50218.233      36.893836      36.893836      36.893836    
    709000   0.13990993    -8.370797      -8.1609351     -0.96893568     50218.233      36.893836      36.893836      36.893836    
    710000   0.13979383    -8.3710029     -8.1613151     -0.97168427     50218.233      36.893836      36.893836      36.893836    
    711000   0.1396432     -8.369743      -8.1602812     -0.95604896     50218.233      36.893836      36.893836      36.893836    
    712000   0.14027486    -8.3713008     -8.1608915     -0.9739221      50218.233      36.893836      36.893836      36.893836    
    713000   0.14032756    -8.369699      -8.1592107     -0.95772913     50218.233      36.893836      36.893836      36.893836    
    714000   0.13992911    -8.3695829     -8.1596922     -0.95789321     50218.233      36.893836      36.893836      36.893836    
    715000   0.13899063    -8.369103      -8.16062       -0.95171698     50218.233      36.893836      36.893836      36.893836    
    716000   0.14011353    -8.3697272     -8.1595599     -0.96524488     50218.233      36.893836      36.893836      36.893836    
    717000   0.14083823    -8.3691895     -8.1579352     -0.95986522     50218.233      36.893836      36.893836      36.893836    
    718000   0.14018804    -8.3694334     -8.1591543     -0.95899444     50218.233      36.893836      36.893836      36.893836    
    719000   0.14042431    -8.3693396     -8.1587061     -0.95702301     50218.233      36.893836      36.893836      36.893836    
    720000   0.14038345    -8.3686813     -8.1581091     -0.95142187     50218.233      36.893836      36.893836      36.893836    
    721000   0.13932497    -8.3690459     -8.1600614     -0.9581822      50218.233      36.893836      36.893836      36.893836    
    722000   0.1393194     -8.370278      -8.1613019     -0.95945086     50218.233      36.893836      36.893836      36.893836    
    723000   0.14004879    -8.3697346     -8.1596644     -0.95974297     50218.233      36.893836      36.893836      36.893836    
    724000   0.1396661     -8.3682622     -8.158766      -0.95171721     50218.233      36.893836      36.893836      36.893836    
    725000   0.13968657    -8.3705079     -8.160981      -0.96433043     50218.233      36.893836      36.893836      36.893836    
    726000   0.14011996    -8.3693645     -8.1591875     -0.95498825     50218.233      36.893836      36.893836      36.893836    
    727000   0.14051773    -8.3690532     -8.1582796     -0.9535115      50218.233      36.893836      36.893836      36.893836    
    728000   0.13998954    -8.3692426     -8.1592612     -0.95461782     50218.233      36.893836      36.893836      36.893836    
    729000   0.14036859    -8.3700618     -8.1595119     -0.96434225     50218.233      36.893836      36.893836      36.893836    
    730000   0.1394557     -8.3684189     -8.1592383     -0.95113896     50218.233      36.893836      36.893836      36.893836    
    731000   0.14048959    -8.3698958     -8.1591645     -0.96522254     50218.233      36.893836      36.893836      36.893836    
    732000   0.1394704     -8.3697812     -8.1605785     -0.96081657     50218.233      36.893836      36.893836      36.893836    
    733000   0.13958909    -8.3678628     -8.1584821     -0.9450235      50218.233      36.893836      36.893836      36.893836    
    734000   0.14002273    -8.3698846     -8.1598535     -0.96310973     50218.233      36.893836      36.893836      36.893836    
    735000   0.14010251    -8.369315      -8.1591642     -0.95436523     50218.233      36.893836      36.893836      36.893836    
    736000   0.13914895    -8.3693593     -8.1606388     -0.95464278     50218.233      36.893836      36.893836      36.893836    
    737000   0.14016981    -8.3691849     -8.1589331     -0.95703001     50218.233      36.893836      36.893836      36.893836    
    738000   0.14016839    -8.3703349     -8.1600853     -0.9626737      50218.233      36.893836      36.893836      36.893836    
    739000   0.13946894    -8.3694224     -8.160222      -0.95897872     50218.233      36.893836      36.893836      36.893836    
    740000   0.13988292    -8.3692623     -8.1594409     -0.95040444     50218.233      36.893836      36.893836      36.893836    
    741000   0.1397145     -8.3708572     -8.1612884     -0.96899985     50218.233      36.893836      36.893836      36.893836    
    742000   0.13997617    -8.3706313     -8.16067       -0.96607929     50218.233      36.893836      36.893836      36.893836    
    743000   0.13944386    -8.3701958     -8.161033      -0.96040495     50218.233      36.893836      36.893836      36.893836    
    744000   0.13947954    -8.369372      -8.1601556     -0.96123434     50218.233      36.893836      36.893836      36.893836    
    745000   0.14020786    -8.3710436     -8.1607348     -0.97305509     50218.233      36.893836      36.893836      36.893836    
    746000   0.14022743    -8.3718497     -8.1615115     -0.97170595     50218.233      36.893836      36.893836      36.893836    
    747000   0.13923267    -8.3705556     -8.1617095     -0.97587469     50218.233      36.893836      36.893836      36.893836    
    748000   0.14056953    -8.3709037     -8.1600524     -0.9642814      50218.233      36.893836      36.893836      36.893836    
    749000   0.13964766    -8.3706485     -8.16118       -0.96723533     50218.233      36.893836      36.893836      36.893836    
    750000   0.13983425    -8.3707743     -8.1610259     -0.96642315     50218.233      36.893836      36.893836      36.893836    
    751000   0.1391545     -8.3710514     -8.1623226     -0.97009015     50218.233      36.893836      36.893836      36.893836    
    752000   0.13996884    -8.3717871     -8.1618368     -0.97563645     50218.233      36.893836      36.893836      36.893836    
    753000   0.13991247    -8.3716172     -8.1617514     -0.97771624     50218.233      36.893836      36.893836      36.893836    
    754000   0.13986442    -8.3698884     -8.1600947     -0.96118839     50218.233      36.893836      36.893836      36.893836    
    755000   0.14005401    -8.3715198     -8.1614418     -0.97302714     50218.233      36.893836      36.893836      36.893836    
    756000   0.14086775    -8.370803      -8.1595044     -0.97419411     50218.233      36.893836      36.893836      36.893836    
    757000   0.14047752    -8.3708019     -8.1600886     -0.97261792     50218.233      36.893836      36.893836      36.893836    
    758000   0.14007592    -8.3694411     -8.1593302     -0.95939633     50218.233      36.893836      36.893836      36.893836    
    759000   0.13900794    -8.370975      -8.1624661     -0.97409322     50218.233      36.893836      36.893836      36.893836    
    760000   0.1403569     -8.3708367     -8.1603044     -0.97209586     50218.233      36.893836      36.893836      36.893836    
    761000   0.13974106    -8.3694522     -8.1598436     -0.95668236     50218.233      36.893836      36.893836      36.893836    
    762000   0.13959647    -8.3700378     -8.1606461     -0.9656466      50218.233      36.893836      36.893836      36.893836    
    763000   0.13923043    -8.3702771     -8.1614344     -0.96505581     50218.233      36.893836      36.893836      36.893836    
    764000   0.13983735    -8.3699694     -8.1602164     -0.95740438     50218.233      36.893836      36.893836      36.893836    
    765000   0.13987204    -8.3693358     -8.1595307     -0.95571566     50218.233      36.893836      36.893836      36.893836    
    766000   0.14068414    -8.3700748     -8.1590516     -0.96075601     50218.233      36.893836      36.893836      36.893836    
    767000   0.14038882    -8.369078      -8.1584978     -0.95555959     50218.233      36.893836      36.893836      36.893836    
    768000   0.14110473    -8.3696834     -8.1580293     -0.9621935      50218.233      36.893836      36.893836      36.893836    
    769000   0.13952406    -8.3690129     -8.1597298     -0.96006656     50218.233      36.893836      36.893836      36.893836    
    770000   0.13956919    -8.3687526     -8.1594017     -0.95136967     50218.233      36.893836      36.893836      36.893836    
    771000   0.13999834    -8.3686173     -8.1586228     -0.94970017     50218.233      36.893836      36.893836      36.893836    
    772000   0.13934083    -8.3688652     -8.1598569     -0.95666504     50218.233      36.893836      36.893836      36.893836    
    773000   0.14090804    -8.3691666     -8.1578075     -0.95485417     50218.233      36.893836      36.893836      36.893836    
    774000   0.13958551    -8.3692459     -8.1598706     -0.95701556     50218.233      36.893836      36.893836      36.893836    
    775000   0.14046603    -8.3690933     -8.1583973     -0.95685218     50218.233      36.893836      36.893836      36.893836    
    776000   0.14054887    -8.3703949     -8.1595746     -0.97287501     50218.233      36.893836      36.893836      36.893836    
    777000   0.14030431    -8.3700212     -8.1595677     -0.95752005     50218.233      36.893836      36.893836      36.893836    
    778000   0.13999981    -8.3692166     -8.1592198     -0.96006164     50218.233      36.893836      36.893836      36.893836    
    779000   0.14099946    -8.3697901     -8.1582939     -0.95793287     50218.233      36.893836      36.893836      36.893836    
    780000   0.14025704    -8.3704391     -8.1600566     -0.96021207     50218.233      36.893836      36.893836      36.893836    
    781000   0.14058984    -8.3695176     -8.1586359     -0.96295057     50218.233      36.893836      36.893836      36.893836    
    782000   0.1394062     -8.3696013     -8.160495      -0.96061994     50218.233      36.893836      36.893836      36.893836    
    783000   0.14031458    -8.3700648     -8.1595959     -0.96767066     50218.233      36.893836      36.893836      36.893836    
    784000   0.13982839    -8.3712026     -8.161463      -0.97733869     50218.233      36.893836      36.893836      36.893836    
    785000   0.13998798    -8.3702167     -8.1602378     -0.95967669     50218.233      36.893836      36.893836      36.893836    
    786000   0.13955305    -8.3705052     -8.1611786     -0.96568651     50218.233      36.893836      36.893836      36.893836    
    787000   0.13980782    -8.370253      -8.1605442     -0.96439232     50218.233      36.893836      36.893836      36.893836    
    788000   0.14073428    -8.3701563     -8.1590579     -0.96274285     50218.233      36.893836      36.893836      36.893836    
    789000   0.1405697     -8.3709668     -8.1601153     -0.9721125      50218.233      36.893836      36.893836      36.893836    
    790000   0.13902308    -8.3697541     -8.1612224     -0.96199545     50218.233      36.893836      36.893836      36.893836    
    791000   0.14009402    -8.3698921     -8.1597541     -0.95911564     50218.233      36.893836      36.893836      36.893836    
    792000   0.14005799    -8.370415      -8.160331      -0.96480952     50218.233      36.893836      36.893836      36.893836    
    793000   0.13995806    -8.3697604     -8.1598263     -0.96011711     50218.233      36.893836      36.893836      36.893836    
    794000   0.13992453    -8.3707911     -8.1609073     -0.9690677      50218.233      36.893836      36.893836      36.893836    
    795000   0.13972463    -8.3706181     -8.1610341     -0.97161689     50218.233      36.893836      36.893836      36.893836    
    796000   0.14012419    -8.3708244     -8.1606411     -0.96853609     50218.233      36.893836      36.893836      36.893836    
    797000   0.13955002    -8.3704387     -8.1611167     -0.96659678     50218.233      36.893836      36.893836      36.893836    
    798000   0.13997179    -8.3710914     -8.1611367     -0.97720079     50218.233      36.893836      36.893836      36.893836    
    799000   0.13994093    -8.3715326     -8.1616242     -0.97393443     50218.233      36.893836      36.893836      36.893836    
    800000   0.14033015    -8.3709677     -8.1604755     -0.96671447     50218.233      36.893836      36.893836      36.893836    
    801000   0.14017033    -8.369729      -8.1594765     -0.96539665     50218.233      36.893836      36.893836      36.893836    
    802000   0.14057441    -8.3710525     -8.1601939     -0.96909279     50218.233      36.893836      36.893836      36.893836    
    803000   0.14025951    -8.3702566     -8.1598703     -0.96721167     50218.233      36.893836      36.893836      36.893836    
    804000   0.14045015    -8.369501      -8.1588288     -0.96052129     50218.233      36.893836      36.893836      36.893836    
    805000   0.14067521    -8.3698578     -8.158848      -0.96017105     50218.233      36.893836      36.893836      36.893836    
    806000   0.14036634    -8.3707347     -8.1601882     -0.97145945     50218.233      36.893836      36.893836      36.893836    
    807000   0.14030543    -8.3699199     -8.1594647     -0.96096544     50218.233      36.893836      36.893836      36.893836    
    808000   0.14034069    -8.3704293     -8.1599212     -0.96948561     50218.233      36.893836      36.893836      36.893836    
    809000   0.14066686    -8.3700259     -8.1590286     -0.96738748     50218.233      36.893836      36.893836      36.893836    
    810000   0.13868744    -8.370549      -8.1625208     -0.96922347     50218.233      36.893836      36.893836      36.893836    
    811000   0.13947518    -8.3700401     -8.1608303     -0.9605457      50218.233      36.893836      36.893836      36.893836    
    812000   0.1402902     -8.3690795     -8.1586471     -0.95766319     50218.233      36.893836      36.893836      36.893836    
    813000   0.13933042    -8.3693924     -8.1603997     -0.9613082      50218.233      36.893836      36.893836      36.893836    
    814000   0.14042978    -8.3694        -8.1587583     -0.95979904     50218.233      36.893836      36.893836      36.893836    
    815000   0.13959266    -8.3700258     -8.1606398     -0.96789545     50218.233      36.893836      36.893836      36.893836    
    816000   0.13967864    -8.3700581     -8.1605431     -0.96188143     50218.233      36.893836      36.893836      36.893836    
    817000   0.14046412    -8.3692243     -8.1585311     -0.9603774      50218.233      36.893836      36.893836      36.893836    
    818000   0.1398466     -8.3708821     -8.1611152     -0.97044898     50218.233      36.893836      36.893836      36.893836    
    819000   0.13989482    -8.3683017     -8.1584624     -0.94810197     50218.233      36.893836      36.893836      36.893836    
    820000   0.13967044    -8.3703897     -8.1608871     -0.96523917     50218.233      36.893836      36.893836      36.893836    
    821000   0.14002839    -8.3693811     -8.1593415     -0.95620928     50218.233      36.893836      36.893836      36.893836    
    822000   0.13951799    -8.3701104     -8.1608363     -0.96190836     50218.233      36.893836      36.893836      36.893836    
    823000   0.14008119    -8.3684892     -8.1583704     -0.95019747     50218.233      36.893836      36.893836      36.893836    
    824000   0.13941315    -8.3696025     -8.1604857     -0.960886       50218.233      36.893836      36.893836      36.893836    
    825000   0.13990224    -8.369382      -8.1595316     -0.96228161     50218.233      36.893836      36.893836      36.893836    
    826000   0.14068623    -8.3694873     -8.1584609     -0.95790181     50218.233      36.893836      36.893836      36.893836    
    827000   0.1400819     -8.3685014     -8.1583815     -0.94932132     50218.233      36.893836      36.893836      36.893836    
    828000   0.13971312    -8.3693737     -8.159807      -0.9642807      50218.233      36.893836      36.893836      36.893836    
    829000   0.13947371    -8.3699426     -8.1607351     -0.96384081     50218.233      36.893836      36.893836      36.893836    
    830000   0.14019299    -8.3692475     -8.158961      -0.95714397     50218.233      36.893836      36.893836      36.893836    
    831000   0.14069901    -8.3692905     -8.158245      -0.95523578     50218.233      36.893836      36.893836      36.893836    
    832000   0.13958409    -8.3694501     -8.1600769     -0.95578071     50218.233      36.893836      36.893836      36.893836    
    833000   0.14057765    -8.3691955     -8.1583321     -0.95257087     50218.233      36.893836      36.893836      36.893836    
    834000   0.13960266    -8.3701435     -8.1607425     -0.9603136      50218.233      36.893836      36.893836      36.893836    
    835000   0.13954702    -8.3701885     -8.160871      -0.9625145      50218.233      36.893836      36.893836      36.893836    
    836000   0.1396828     -8.3695403     -8.160019      -0.95492876     50218.233      36.893836      36.893836      36.893836    
    837000   0.14004037    -8.3704245     -8.160367      -0.96887045     50218.233      36.893836      36.893836      36.893836    
    838000   0.13978903    -8.369167      -8.1594864     -0.95667832     50218.233      36.893836      36.893836      36.893836    
    839000   0.14061732    -8.3708379     -8.1599149     -0.97096748     50218.233      36.893836      36.893836      36.893836    
    840000   0.13890192    -8.3695716     -8.1612217     -0.9640694      50218.233      36.893836      36.893836      36.893836    
    841000   0.14057668    -8.3702625     -8.1594005     -0.9618792      50218.233      36.893836      36.893836      36.893836    
    842000   0.13951001    -8.3703758     -8.1611138     -0.96826792     50218.233      36.893836      36.893836      36.893836    
    843000   0.14067462    -8.3705403     -8.1595314     -0.96514517     50218.233      36.893836      36.893836      36.893836    
    844000   0.14008526    -8.3703851     -8.1602602     -0.96468962     50218.233      36.893836      36.893836      36.893836    
    845000   0.1394368     -8.3706777     -8.1615255     -0.96584192     50218.233      36.893836      36.893836      36.893836    
    846000   0.14120257    -8.3707421     -8.1589413     -0.96781303     50218.233      36.893836      36.893836      36.893836    
    847000   0.14019602    -8.3714054     -8.1611143     -0.97572506     50218.233      36.893836      36.893836      36.893836    
    848000   0.13961362    -8.3694984     -8.160081      -0.96119543     50218.233      36.893836      36.893836      36.893836    
    849000   0.13962993    -8.3716076     -8.1621657     -0.97482744     50218.233      36.893836      36.893836      36.893836    
    850000   0.13912269    -8.37142       -8.1627389     -0.97796218     50218.233      36.893836      36.893836      36.893836    
    851000   0.14018016    -8.3703312     -8.1600639     -0.96583915     50218.233      36.893836      36.893836      36.893836    
    852000   0.13985011    -8.3707703     -8.1609981     -0.9697393      50218.233      36.893836      36.893836      36.893836    
    853000   0.13958911    -8.3696995     -8.1603188     -0.96115081     50218.233      36.893836      36.893836      36.893836    
    854000   0.1403414     -8.3701324     -8.1596233     -0.96706862     50218.233      36.893836      36.893836      36.893836    
    855000   0.14039107    -8.3706998     -8.1601162     -0.96883517     50218.233      36.893836      36.893836      36.893836    
    856000   0.13976899    -8.3708885     -8.161238      -0.9734292      50218.233      36.893836      36.893836      36.893836    
    857000   0.13947586    -8.3704995     -8.1612887     -0.96691964     50218.233      36.893836      36.893836      36.893836    
    858000   0.13948566    -8.3693865     -8.160161      -0.96228491     50218.233      36.893836      36.893836      36.893836    
    859000   0.14030404    -8.3700154     -8.1595623     -0.95847551     50218.233      36.893836      36.893836      36.893836    
    860000   0.14070565    -8.3703245     -8.159269      -0.96066        50218.233      36.893836      36.893836      36.893836    
    861000   0.14016256    -8.370546      -8.1603051     -0.96287592     50218.233      36.893836      36.893836      36.893836    
    862000   0.14018415    -8.3714811     -8.1612078     -0.97972296     50218.233      36.893836      36.893836      36.893836    
    863000   0.14005553    -8.3695694     -8.1594891     -0.96321472     50218.233      36.893836      36.893836      36.893836    
    864000   0.13999204    -8.3698904     -8.1599053     -0.96779849     50218.233      36.893836      36.893836      36.893836    
    865000   0.14015377    -8.3702153     -8.1599876     -0.96093575     50218.233      36.893836      36.893836      36.893836    
    866000   0.14006252    -8.370314      -8.1602232     -0.96491841     50218.233      36.893836      36.893836      36.893836    
    867000   0.13904782    -8.3697571     -8.1611883     -0.96634496     50218.233      36.893836      36.893836      36.893836    
    868000   0.13954838    -8.3703313     -8.1610117     -0.96626838     50218.233      36.893836      36.893836      36.893836    
    869000   0.14026101    -8.3696497     -8.1592612     -0.96113164     50218.233      36.893836      36.893836      36.893836    
    870000   0.1405755     -8.3696957     -8.1588354     -0.95960444     50218.233      36.893836      36.893836      36.893836    
    871000   0.13968612    -8.3681053     -8.1585791     -0.94783093     50218.233      36.893836      36.893836      36.893836    
    872000   0.1397978     -8.3699826     -8.1602889     -0.96228754     50218.233      36.893836      36.893836      36.893836    
    873000   0.14036632    -8.369231      -8.1586845     -0.95113168     50218.233      36.893836      36.893836      36.893836    
    874000   0.14008837    -8.3682021     -8.1580725     -0.94827588     50218.233      36.893836      36.893836      36.893836    
    875000   0.13995378    -8.369356      -8.1594283     -0.95976553     50218.233      36.893836      36.893836      36.893836    
    876000   0.14013744    -8.3692989     -8.1590958     -0.95737189     50218.233      36.893836      36.893836      36.893836    
    877000   0.13991859    -8.3693199     -8.159445      -0.95475594     50218.233      36.893836      36.893836      36.893836    
    878000   0.13991039    -8.3687451     -8.1588826     -0.94972663     50218.233      36.893836      36.893836      36.893836    
    879000   0.14072442    -8.3701165     -8.1590328     -0.95988436     50218.233      36.893836      36.893836      36.893836    
    880000   0.13985422    -8.370234      -8.1604557     -0.97129934     50218.233      36.893836      36.893836      36.893836    
    881000   0.1401989     -8.3708825     -8.1605872     -0.96459493     50218.233      36.893836      36.893836      36.893836    
    882000   0.14035642    -8.3701479     -8.1596162     -0.96199815     50218.233      36.893836      36.893836      36.893836    
    883000   0.13965953    -8.3700806     -8.1605943     -0.95965286     50218.233      36.893836      36.893836      36.893836    
    884000   0.14043456    -8.3705476     -8.1598987     -0.96880882     50218.233      36.893836      36.893836      36.893836    
    885000   0.1396585     -8.3699219     -8.1604371     -0.96403589     50218.233      36.893836      36.893836      36.893836    
    886000   0.13973306    -8.3697121     -8.1601155     -0.95843327     50218.233      36.893836      36.893836      36.893836    
    887000   0.13974217    -8.370153      -8.1605428     -0.96302983     50218.233      36.893836      36.893836      36.893836    
    888000   0.14022732    -8.3705939     -8.1602559     -0.96740277     50218.233      36.893836      36.893836      36.893836    
    889000   0.14022561    -8.3706877     -8.1603522     -0.96749218     50218.233      36.893836      36.893836      36.893836    
    890000   0.13945367    -8.3705876     -8.16141       -0.963848       50218.233      36.893836      36.893836      36.893836    
    891000   0.13997032    -8.3704314     -8.160479      -0.96619194     50218.233      36.893836      36.893836      36.893836    
    892000   0.13942354    -8.3711396     -8.1620073     -0.97172507     50218.233      36.893836      36.893836      36.893836    
    893000   0.14024875    -8.3704057     -8.1600355     -0.96905746     50218.233      36.893836      36.893836      36.893836    
    894000   0.14065131    -8.3705628     -8.1595888     -0.96689243     50218.233      36.893836      36.893836      36.893836    
    895000   0.13927408    -8.3702182     -8.1613101     -0.96429712     50218.233      36.893836      36.893836      36.893836    
    896000   0.13982873    -8.3700451     -8.160305      -0.96244881     50218.233      36.893836      36.893836      36.893836    
    897000   0.14029333    -8.3709787     -8.1605417     -0.96881037     50218.233      36.893836      36.893836      36.893836    
    898000   0.13940463    -8.3719856     -8.1628816     -0.97958792     50218.233      36.893836      36.893836      36.893836    
    899000   0.1403943     -8.3708605     -8.160272      -0.96251545     50218.233      36.893836      36.893836      36.893836    
    900000   0.14000256    -8.3710809     -8.1610801     -0.97470729     50218.233      36.893836      36.893836      36.893836    
    901000   0.1400636     -8.3702233     -8.1601309     -0.9650704      50218.233      36.893836      36.893836      36.893836    
    902000   0.13986815    -8.3702891     -8.1604899     -0.96766498     50218.233      36.893836      36.893836      36.893836    
    903000   0.13976142    -8.3718676     -8.1622285     -0.96816591     50218.233      36.893836      36.893836      36.893836    
    904000   0.14042669    -8.3699533     -8.1593163     -0.96318179     50218.233      36.893836      36.893836      36.893836    
    905000   0.14047532    -8.3701547     -8.1594447     -0.95940226     50218.233      36.893836      36.893836      36.893836    
    906000   0.13969813    -8.3708788     -8.1613345     -0.9687471      50218.233      36.893836      36.893836      36.893836    
    907000   0.14000147    -8.3702842     -8.160285      -0.96183767     50218.233      36.893836      36.893836      36.893836    
    908000   0.14011037    -8.3704541     -8.1602916     -0.96489547     50218.233      36.893836      36.893836      36.893836    
    909000   0.14046541    -8.3699965     -8.1593014     -0.96366354     50218.233      36.893836      36.893836      36.893836    
    910000   0.13972572    -8.3696832     -8.1600976     -0.9587391      50218.233      36.893836      36.893836      36.893836    
    911000   0.14020143    -8.3701626     -8.1598635     -0.96220721     50218.233      36.893836      36.893836      36.893836    
    912000   0.14077654    -8.369997      -8.1588352     -0.95852898     50218.233      36.893836      36.893836      36.893836    
    913000   0.13946143    -8.368976      -8.1597868     -0.95154046     50218.233      36.893836      36.893836      36.893836    
    914000   0.1400784     -8.3697252     -8.1596106     -0.95851435     50218.233      36.893836      36.893836      36.893836    
    915000   0.13962489    -8.3700773     -8.1606429     -0.96064515     50218.233      36.893836      36.893836      36.893836    
    916000   0.13975932    -8.3694607     -8.1598247     -0.96436089     50218.233      36.893836      36.893836      36.893836    
    917000   0.14003635    -8.3704409     -8.1603894     -0.96325518     50218.233      36.893836      36.893836      36.893836    
    918000   0.13974898    -8.3702918     -8.1606713     -0.9620604      50218.233      36.893836      36.893836      36.893836    
    919000   0.14041672    -8.3696491     -8.159027      -0.95273717     50218.233      36.893836      36.893836      36.893836    
    920000   0.13980541    -8.3700349     -8.1603298     -0.96196159     50218.233      36.893836      36.893836      36.893836    
    921000   0.13994597    -8.369139      -8.159223      -0.95914        50218.233      36.893836      36.893836      36.893836    
    922000   0.1396168     -8.36905       -8.1596278     -0.95520748     50218.233      36.893836      36.893836      36.893836    
    923000   0.13999751    -8.3695279     -8.1595346     -0.96253374     50218.233      36.893836      36.893836      36.893836    
    924000   0.14010737    -8.3692687     -8.1591106     -0.95617698     50218.233      36.893836      36.893836      36.893836    
    925000   0.13976126    -8.3688533     -8.1592144     -0.95498771     50218.233      36.893836      36.893836      36.893836    
    926000   0.1400396     -8.369161      -8.1591046     -0.95852594     50218.233      36.893836      36.893836      36.893836    
    927000   0.13945288    -8.3702546     -8.1610783     -0.96776091     50218.233      36.893836      36.893836      36.893836    
    928000   0.1401165     -8.369783      -8.1596112     -0.95835865     50218.233      36.893836      36.893836      36.893836    
    929000   0.14060109    -8.3694149     -8.1585162     -0.95818529     50218.233      36.893836      36.893836      36.893836    
    930000   0.13968141    -8.3692767     -8.1597576     -0.95819684     50218.233      36.893836      36.893836      36.893836    
    931000   0.14048726    -8.3694915     -8.1587636     -0.96139619     50218.233      36.893836      36.893836      36.893836    
    932000   0.13967577    -8.3686186     -8.1591079     -0.96186915     50218.233      36.893836      36.893836      36.893836    
    933000   0.13997951    -8.3694379     -8.1594717     -0.9608907      50218.233      36.893836      36.893836      36.893836    
    934000   0.13867765    -8.3700775     -8.162064      -0.96801791     50218.233      36.893836      36.893836      36.893836    
    935000   0.13991839    -8.3699452     -8.1600706     -0.96078196     50218.233      36.893836      36.893836      36.893836    
    936000   0.13953081    -8.3697565     -8.1604633     -0.96026639     50218.233      36.893836      36.893836      36.893836    
    937000   0.14026712    -8.3699104     -8.1595127     -0.96507543     50218.233      36.893836      36.893836      36.893836    
    938000   0.13981089    -8.3695818     -8.1598684     -0.95503483     50218.233      36.893836      36.893836      36.893836    
    939000   0.14020241    -8.3694851     -8.1591845     -0.95677815     50218.233      36.893836      36.893836      36.893836    
    940000   0.13987775    -8.3703867     -8.1605731     -0.9621258      50218.233      36.893836      36.893836      36.893836    
    941000   0.13958541    -8.369842      -8.1604669     -0.96112653     50218.233      36.893836      36.893836      36.893836    
    942000   0.14060929    -8.3713334     -8.1604225     -0.97349964     50218.233      36.893836      36.893836      36.893836    
    943000   0.13967164    -8.3697364     -8.1602319     -0.96492746     50218.233      36.893836      36.893836      36.893836    
    944000   0.13967836    -8.3698344     -8.1603198     -0.96318098     50218.233      36.893836      36.893836      36.893836    
    945000   0.14021154    -8.3714123     -8.161098      -0.97022333     50218.233      36.893836      36.893836      36.893836    
    946000   0.14004489    -8.3699516     -8.1598873     -0.9625503      50218.233      36.893836      36.893836      36.893836    
    947000   0.14033343    -8.3712048     -8.1607077     -0.96972677     50218.233      36.893836      36.893836      36.893836    
    948000   0.13966391    -8.3716324     -8.1621395     -0.97511254     50218.233      36.893836      36.893836      36.893836    
    949000   0.14053061    -8.3706079     -8.1598149     -0.97057303     50218.233      36.893836      36.893836      36.893836    
    950000   0.13959902    -8.3708242     -8.1614287     -0.96439906     50218.233      36.893836      36.893836      36.893836    
    951000   0.14029002    -8.370606      -8.1601739     -0.97038737     50218.233      36.893836      36.893836      36.893836    
    952000   0.14011215    -8.3715012     -8.1613359     -0.97351875     50218.233      36.893836      36.893836      36.893836    
    953000   0.13945374    -8.3714568     -8.1622792     -0.97051286     50218.233      36.893836      36.893836      36.893836    
    954000   0.13986268    -8.3708854     -8.1610944     -0.97314458     50218.233      36.893836      36.893836      36.893836    
    955000   0.14022913    -8.3699254     -8.1595847     -0.96309493     50218.233      36.893836      36.893836      36.893836    
    956000   0.14010654    -8.3709404     -8.1607836     -0.97127518     50218.233      36.893836      36.893836      36.893836    
    957000   0.14084948    -8.3710631     -8.1597919     -0.96416787     50218.233      36.893836      36.893836      36.893836    
    958000   0.1405572     -8.3702964     -8.1594636     -0.9616165      50218.233      36.893836      36.893836      36.893836    
    959000   0.14032405    -8.3706611     -8.160178      -0.9758899      50218.233      36.893836      36.893836      36.893836    
    960000   0.1400982     -8.3698661     -8.1597218     -0.96081383     50218.233      36.893836      36.893836      36.893836    
    961000   0.13993155    -8.3697473     -8.159853      -0.95394135     50218.233      36.893836      36.893836      36.893836    
    962000   0.13990894    -8.369466      -8.1596056     -0.9602803      50218.233      36.893836      36.893836      36.893836    
    963000   0.14051235    -8.3690353     -8.1582698     -0.95331212     50218.233      36.893836      36.893836      36.893836    
    964000   0.1397892     -8.3697227     -8.1600419     -0.96093927     50218.233      36.893836      36.893836      36.893836    
    965000   0.13950137    -8.3700688     -8.1608197     -0.96201716     50218.233      36.893836      36.893836      36.893836    
    966000   0.14010295    -8.3697528     -8.1596014     -0.96382111     50218.233      36.893836      36.893836      36.893836    
    967000   0.13948365    -8.371165      -8.1619425     -0.97194164     50218.233      36.893836      36.893836      36.893836    
    968000   0.14060949    -8.3703003     -8.159389      -0.96325661     50218.233      36.893836      36.893836      36.893836    
    969000   0.14010507    -8.370294      -8.1601394     -0.96668605     50218.233      36.893836      36.893836      36.893836    
    970000   0.13994162    -8.3698257     -8.1599162     -0.96152224     50218.233      36.893836      36.893836      36.893836    
    971000   0.14009643    -8.3693498     -8.1592082     -0.95550443     50218.233      36.893836      36.893836      36.893836    
    972000   0.13998939    -8.3699859     -8.1600048     -0.96528764     50218.233      36.893836      36.893836      36.893836    
    973000   0.13982688    -8.3685728     -8.1588355     -0.95482327     50218.233      36.893836      36.893836      36.893836    
    974000   0.14038458    -8.3697694     -8.1591955     -0.96182696     50218.233      36.893836      36.893836      36.893836    
    975000   0.14024774    -8.3688585     -8.1584899     -0.9538096      50218.233      36.893836      36.893836      36.893836    
    976000   0.14018679    -8.3698501     -8.1595729     -0.95346135     50218.233      36.893836      36.893836      36.893836    
    977000   0.13982617    -8.3691406     -8.1594043     -0.95812879     50218.233      36.893836      36.893836      36.893836    
    978000   0.13997146    -8.3697683     -8.1598141     -0.9612068      50218.233      36.893836      36.893836      36.893836    
    979000   0.13959033    -8.3692092     -8.1598267     -0.95601559     50218.233      36.893836      36.893836      36.893836    
    980000   0.13948252    -8.3687567     -8.1595359     -0.95088509     50218.233      36.893836      36.893836      36.893836    
    981000   0.13992511    -8.3698801     -8.1599954     -0.96144907     50218.233      36.893836      36.893836      36.893836    
    982000   0.14039605    -8.3701089     -8.1595179     -0.96456513     50218.233      36.893836      36.893836      36.893836    
    983000   0.13937399    -8.3693505     -8.1602925     -0.9589433      50218.233      36.893836      36.893836      36.893836    
    984000   0.1400506     -8.371339      -8.1612661     -0.97429463     50218.233      36.893836      36.893836      36.893836    
    985000   0.13974423    -8.3700559     -8.1604425     -0.96324073     50218.233      36.893836      36.893836      36.893836    
    986000   0.13927762    -8.3705591     -8.1616456     -0.96551369     50218.233      36.893836      36.893836      36.893836    
    987000   0.14069891    -8.3705429     -8.1594975     -0.96101008     50218.233      36.893836      36.893836      36.893836    
    988000   0.14017269    -8.3694743     -8.1592183     -0.96139242     50218.233      36.893836      36.893836      36.893836    
    989000   0.14030763    -8.3700855     -8.159627      -0.962527       50218.233      36.893836      36.893836      36.893836    
    990000   0.13994693    -8.3695025     -8.1595851     -0.95847384     50218.233      36.893836      36.893836      36.893836    
    991000   0.13964531    -8.3708523     -8.1613873     -0.97027094     50218.233      36.893836      36.893836      36.893836    
    992000   0.14013712    -8.3707783     -8.1605756     -0.9674637      50218.233      36.893836      36.893836      36.893836    
    993000   0.13985986    -8.3703764     -8.1605896     -0.96705175     50218.233      36.893836      36.893836      36.893836    
    994000   0.13997874    -8.3710926     -8.1611275     -0.96920099     50218.233      36.893836      36.893836      36.893836    
    995000   0.13993228    -8.3712038     -8.1613084     -0.97750362     50218.233      36.893836      36.893836      36.893836    
    996000   0.14016652    -8.371352      -8.1611052     -0.96999102     50218.233      36.893836      36.893836      36.893836    
    997000   0.14024008    -8.3708215     -8.1604644     -0.96817792     50218.233      36.893836      36.893836      36.893836    
    998000   0.13993348    -8.3701853     -8.160288      -0.96339888     50218.233      36.893836      36.893836      36.893836    
    999000   0.14049305    -8.3713023     -8.1605657     -0.97571189     50218.233      36.893836      36.893836      36.893836    
   1000000   0.14012084    -8.3704766     -8.1602983     -0.96231246     50218.233      36.893836      36.893836      36.893836    
Loop time of 1434.1 on 4 procs for 1000000 steps with 70304 atoms

Performance: 602467.185 tau/day, 697.300 timesteps/s, 49.023 Matom-step/s
95.4% CPU use with 4 MPI tasks x 1 OpenMP threads

MPI task timing breakdown:
Section |  min time  |  avg time  |  max time  |%varavg| %total
---------------------------------------------------------------
Pair    | 376.53     | 475.21     | 592.99     | 362.0 | 33.14
Neigh   | 3.4943     | 3.5905     | 3.7698     |   5.6 |  0.25
Comm    | 197.61     | 201.01     | 203.09     |  15.6 | 14.02
Output  | 0.19941    | 0.21311    | 0.24619    |   4.2 |  0.01
Modify  | 563.31     | 678.27     | 776.35     | 298.1 | 47.30
Other   |            | 75.81      |            |       |  5.29

Nlocal:          17576 ave       17634 max       17529 min
Histogram: 1 1 0 0 0 0 1 0 0 1
Nghost:        16824.8 ave       16843 max       16797 min
Histogram: 1 0 0 0 1 0 0 0 0 2
Neighs:              0 ave           0 max           0 min
Histogram: 4 0 0 0 0 0 0 0 0 0

Total # of neighbors = 0
Ave neighs/atom = 0
Neighbor list builds = 108217
Dangerous builds = 0
clear
OMP_NUM_THREADS environment is not set. Defaulting to 1 thread. (src/comm.cpp:98)
  using 1 OpenMP thread(s) per MPI task
package gpu 0
jump dms120.lmp

variable T equal 120
# T = 1000* (temp in LJ unit)
variable f equal 1000
log log.${T}
log log.120
