variable TLJ equal (${T}/1000)
variable TLJ equal (510/1000)
variable NCyle equal 10
variable iStep equal (${f})
variable iStep equal (1000)
variable dumpStep equal (${f}*100)
variable dumpStep equal (1000*100)
variable runStep equal (${f}*100*${NCyle})
variable runStep equal (1000*100*${NCyle})
variable runStep equal (1000*100*10)

units       lj
atom_style  atomic
dimension 3
boundary     p p p
pair_style  lj/cut 2.5
read_data  ../data/T${T}.dat
read_data  ../data/T510.dat
Reading data file ...
  orthogonal box = (0.97250269 0.97250269 0.97250269) to (37.866338 37.866338 37.866338)
  1 by 1 by 1 MPI processor grid
  reading atoms ...
  70304 atoms
  reading velocities ...
  70304 velocities
  read_data CPU = 0.224 seconds
change_box all triclinic
Changing box ...
  triclinic box = (0.97250269 0.97250269 0.97250269) to (37.866338 37.866338 37.866338) with tilt (0 0 0)
mass 1 1
mass 2 1
pair_modify shift yes
pair_coeff  1 1 1 1
pair_coeff  1 2 1.5 0.8
pair_coeff  2 2 0.5 0.88


timestep 0.01
thermo ${iStep}
thermo 1000
reset_timestep 0
thermo_style custom step temp pe etotal press vol lx ly lz
fix             1 all nvt temp ${TLJ}  ${TLJ}  0.1
fix             1 all nvt temp 0.51  ${TLJ}  0.1
fix             1 all nvt temp 0.51  0.51  0.1
thermo_modify flush yes

fix dsf all deform 1 xy  wiggle 0.5  ${f}   units box
fix dsf all deform 1 xy  wiggle 0.5  1000   units box
fix ps1 all ave/time 1 1 ${iStep} c_thermo_press[1] c_thermo_press[2]  c_thermo_press[3] c_thermo_press[4]  c_thermo_press[5] c_thermo_press[6]  file  stress.${T}
fix ps1 all ave/time 1 1 1000 c_thermo_press[1] c_thermo_press[2]  c_thermo_press[3] c_thermo_press[4]  c_thermo_press[5] c_thermo_press[6]  file  stress.${T}
fix ps1 all ave/time 1 1 1000 c_thermo_press[1] c_thermo_press[2]  c_thermo_press[3] c_thermo_press[4]  c_thermo_press[5] c_thermo_press[6]  file  stress.510
dump            1 all custom ${dumpStep} dump.${T} id type x y z
dump            1 all custom 100000 dump.${T} id type x y z
dump            1 all custom 100000 dump.510 id type x y z
dump_modify 1 sort id
fix nodrift all momentum 1  linear 1 1 1
fix com_seed all recenter INIT INIT INIT shift all
run ${runStep}
run 1000000
Generated 0 of 1 mixed pair_coeff terms from geometric mixing rule
Per MPI rank memory allocation (min/avg/max) = 21.18 | 21.18 | 21.18 Mbytes
   Step          Temp          PotEng         TotEng         Press          Volume           Lx             Ly             Lz      
         0   0.50928907    -7.8012268     -7.037304       3.7707789      50218.233      36.893836      36.893836      36.893836    
      1000   0.5113643     -7.7993734     -7.0323378      3.7756701      50218.233      36.893836      36.893836      36.893836    
      2000   0.5115665     -7.7931323     -7.0257934      3.8221085      50218.233      36.893836      36.893836      36.893836    
      3000   0.50901995    -7.7965204     -7.0330014      3.8163058      50218.233      36.893836      36.893836      36.893836    
      4000   0.50716899    -7.7967722     -7.0360296      3.7836781      50218.233      36.893836      36.893836      36.893836    
      5000   0.50738039    -7.7943512     -7.0332914      3.8210755      50218.233      36.893836      36.893836      36.893836    
      6000   0.51058339    -7.8005746     -7.0347104      3.7692789      50218.233      36.893836      36.893836      36.893836    
      7000   0.5094773     -7.7927151     -7.02851        3.8311656      50218.233      36.893836      36.893836      36.893836    
      8000   0.50886532    -7.7991464     -7.0358593      3.7788586      50218.233      36.893836      36.893836      36.893836    
      9000   0.50760466    -7.7967061     -7.03531        3.8087473      50218.233      36.893836      36.893836      36.893836    
     10000   0.50879129    -7.7948073     -7.0316312      3.8033999      50218.233      36.893836      36.893836      36.893836    
     11000   0.51186827    -7.7950988     -7.0273074      3.8183274      50218.233      36.893836      36.893836      36.893836    
     12000   0.50933396    -7.7922006     -7.0282105      3.8243572      50218.233      36.893836      36.893836      36.893836    
     13000   0.50879704    -7.7943727     -7.031188       3.8147475      50218.233      36.893836      36.893836      36.893836    
     14000   0.50852554    -7.7948975     -7.0321201      3.8145437      50218.233      36.893836      36.893836      36.893836    
     15000   0.50862632    -7.7947393     -7.0318107      3.8087757      50218.233      36.893836      36.893836      36.893836    
     16000   0.50832519    -7.7940849     -7.031608       3.8005163      50218.233      36.893836      36.893836      36.893836    
     17000   0.50824924    -7.7900534     -7.0276904      3.8458321      50218.233      36.893836      36.893836      36.893836    
     18000   0.51184575    -7.7959675     -7.0282098      3.8083208      50218.233      36.893836      36.893836      36.893836    
     19000   0.50827774    -7.7877598     -7.0253541      3.8625241      50218.233      36.893836      36.893836      36.893836    
     20000   0.51078688    -7.794257      -7.0280876      3.8197632      50218.233      36.893836      36.893836      36.893836    
     21000   0.50595231    -7.7970264     -7.0381088      3.7870788      50218.233      36.893836      36.893836      36.893836    
     22000   0.51041708    -7.792033      -7.0264182      3.8356967      50218.233      36.893836      36.893836      36.893836    
     23000   0.50944701    -7.7950009     -7.0308413      3.8171979      50218.233      36.893836      36.893836      36.893836    
     24000   0.50641142    -7.7940566     -7.0344503      3.8144583      50218.233      36.893836      36.893836      36.893836    
     25000   0.509284      -7.7959784     -7.0320632      3.7936555      50218.233      36.893836      36.893836      36.893836    
     26000   0.51024699    -7.7966891     -7.0313295      3.8040222      50218.233      36.893836      36.893836      36.893836    
     27000   0.50958724    -7.7969183     -7.0325483      3.8016189      50218.233      36.893836      36.893836      36.893836    
     28000   0.51069933    -7.7919332     -7.0258951      3.8305029      50218.233      36.893836      36.893836      36.893836    
     29000   0.51235414    -7.7924758     -7.0239555      3.8380328      50218.233      36.893836      36.893836      36.893836    
     30000   0.50899279    -7.7954528     -7.0319745      3.8063376      50218.233      36.893836      36.893836      36.893836    
     31000   0.50866702    -7.7951764     -7.0321867      3.8004854      50218.233      36.893836      36.893836      36.893836    
     32000   0.50854921    -7.789082      -7.0262691      3.8525498      50218.233      36.893836      36.893836      36.893836    
     33000   0.51008759    -7.7963295     -7.031209       3.7936162      50218.233      36.893836      36.893836      36.893836    
     34000   0.5078187     -7.7927855     -7.0310683      3.8274048      50218.233      36.893836      36.893836      36.893836    
     35000   0.51024466    -7.79247       -7.0271139      3.8289589      50218.233      36.893836      36.893836      36.893836    
     36000   0.51169029    -7.7915439     -7.0240194      3.8371436      50218.233      36.893836      36.893836      36.893836    
     37000   0.51159173    -7.7953826     -7.0280059      3.8031338      50218.233      36.893836      36.893836      36.893836    
     38000   0.50994552    -7.796371      -7.0314636      3.8066112      50218.233      36.893836      36.893836      36.893836    
     39000   0.51085019    -7.7936895     -7.0274251      3.8345196      50218.233      36.893836      36.893836      36.893836    
     40000   0.50787362    -7.7938262     -7.0320266      3.8117309      50218.233      36.893836      36.893836      36.893836    
     41000   0.50784227    -7.7938098     -7.0320572      3.8148447      50218.233      36.893836      36.893836      36.893836    
     42000   0.5069545     -7.794211      -7.03379        3.8155398      50218.233      36.893836      36.893836      36.893836    
     43000   0.5101958     -7.7965392     -7.0312564      3.8054661      50218.233      36.893836      36.893836      36.893836    
     44000   0.51458907    -7.7932234     -7.0213508      3.8354078      50218.233      36.893836      36.893836      36.893836    
     45000   0.50869634    -7.7936979     -7.0306642      3.8227019      50218.233      36.893836      36.893836      36.893836    
     46000   0.51014694    -7.793641      -7.0284314      3.8225786      50218.233      36.893836      36.893836      36.893836    
     47000   0.50952139    -7.7959412     -7.03167        3.8056554      50218.233      36.893836      36.893836      36.893836    
     48000   0.51241151    -7.7948997     -7.0262934      3.810819       50218.233      36.893836      36.893836      36.893836    
     49000   0.50936525    -7.7982105     -7.0341735      3.789083       50218.233      36.893836      36.893836      36.893836    
     50000   0.51092384    -7.793066      -7.0266912      3.8314291      50218.233      36.893836      36.893836      36.893836    
     51000   0.50910262    -7.793402      -7.0297589      3.8193004      50218.233      36.893836      36.893836      36.893836    
     52000   0.51038192    -7.793314      -7.027752       3.8228062      50218.233      36.893836      36.893836      36.893836    
     53000   0.5106635     -7.7888652     -7.0228808      3.8590691      50218.233      36.893836      36.893836      36.893836    
     54000   0.50850487    -7.7984496     -7.0357031      3.7912203      50218.233      36.893836      36.893836      36.893836    
     55000   0.50937333    -7.7946599     -7.0306107      3.8087795      50218.233      36.893836      36.893836      36.893836    
     56000   0.5095185     -7.7933173     -7.0290504      3.8239697      50218.233      36.893836      36.893836      36.893836    
     57000   0.5095027     -7.7971124     -7.0328693      3.8007928      50218.233      36.893836      36.893836      36.893836    
     58000   0.51010312    -7.7898558     -7.024712       3.8512325      50218.233      36.893836      36.893836      36.893836    
     59000   0.50924287    -7.7969989     -7.0331455      3.8091958      50218.233      36.893836      36.893836      36.893836    
     60000   0.51187944    -7.7936653     -7.025857       3.8270444      50218.233      36.893836      36.893836      36.893836    
     61000   0.50925279    -7.7940947     -7.0302264      3.8088524      50218.233      36.893836      36.893836      36.893836    
     62000   0.51084762    -7.7935322     -7.0272717      3.8258078      50218.233      36.893836      36.893836      36.893836    
     63000   0.50962999    -7.7953673     -7.0309332      3.811862       50218.233      36.893836      36.893836      36.893836    
     64000   0.5085237     -7.7931416     -7.0303669      3.8257786      50218.233      36.893836      36.893836      36.893836    
     65000   0.50880229    -7.7923532     -7.0291606      3.8332973      50218.233      36.893836      36.893836      36.893836    
     66000   0.51176772    -7.7921307     -7.02449        3.840362       50218.233      36.893836      36.893836      36.893836    
     67000   0.50839502    -7.7881699     -7.0255882      3.8548807      50218.233      36.893836      36.893836      36.893836    
     68000   0.51208525    -7.7899786     -7.0218616      3.8423908      50218.233      36.893836      36.893836      36.893836    
     69000   0.51366045    -7.7914902     -7.0210105      3.8453247      50218.233      36.893836      36.893836      36.893836    
     70000   0.5104154     -7.7924638     -7.0268516      3.8331865      50218.233      36.893836      36.893836      36.893836    
     71000   0.50875632    -7.7940876     -7.030964       3.8219547      50218.233      36.893836      36.893836      36.893836    
     72000   0.50842285    -7.7916165     -7.0289931      3.8364199      50218.233      36.893836      36.893836      36.893836    
     73000   0.5094457     -7.7953156     -7.0311579      3.8073004      50218.233      36.893836      36.893836      36.893836    
     74000   0.50966969    -7.7930895     -7.0285958      3.815771       50218.233      36.893836      36.893836      36.893836    
     75000   0.50796702    -7.7917657     -7.029826       3.8279642      50218.233      36.893836      36.893836      36.893836    
     76000   0.51025435    -7.7927396     -7.027369       3.8312974      50218.233      36.893836      36.893836      36.893836    
     77000   0.51208684    -7.7913815     -7.0232621      3.8467962      50218.233      36.893836      36.893836      36.893836    
     78000   0.51142624    -7.7916104     -7.0244819      3.839961       50218.233      36.893836      36.893836      36.893836    
     79000   0.51112576    -7.7934637     -7.026786       3.8240659      50218.233      36.893836      36.893836      36.893836    
     80000   0.51042171    -7.7925788     -7.0269572      3.8378341      50218.233      36.893836      36.893836      36.893836    
     81000   0.50834135    -7.7930027     -7.0305015      3.8386062      50218.233      36.893836      36.893836      36.893836    
     82000   0.50880944    -7.7922073     -7.029004       3.8321161      50218.233      36.893836      36.893836      36.893836    
     83000   0.51127983    -7.7965466     -7.0296378      3.8066704      50218.233      36.893836      36.893836      36.893836    
     84000   0.5082792     -7.7924863     -7.0300783      3.8292682      50218.233      36.893836      36.893836      36.893836    
     85000   0.51033178    -7.7929817     -7.0274949      3.8333357      50218.233      36.893836      36.893836      36.893836    
     86000   0.50739203    -7.7931269     -7.0320496      3.8262721      50218.233      36.893836      36.893836      36.893836    
     87000   0.50951596    -7.7925854     -7.0283223      3.8296085      50218.233      36.893836      36.893836      36.893836    
     88000   0.50894551    -7.7913084     -7.027901       3.8470453      50218.233      36.893836      36.893836      36.893836    
     89000   0.5095865     -7.7873122     -7.0229433      3.8755116      50218.233      36.893836      36.893836      36.893836    
     90000   0.51144884    -7.7954027     -7.0282404      3.8153257      50218.233      36.893836      36.893836      36.893836    
     91000   0.50989938    -7.7948778     -7.0300397      3.8161847      50218.233      36.893836      36.893836      36.893836    
     92000   0.50789899    -7.7886582     -7.0268205      3.8632711      50218.233      36.893836      36.893836      36.893836    
     93000   0.50952844    -7.7951904     -7.0309086      3.8135044      50218.233      36.893836      36.893836      36.893836    
     94000   0.50861363    -7.796773      -7.0338634      3.7979054      50218.233      36.893836      36.893836      36.893836    
     95000   0.50708969    -7.7908425     -7.0302188      3.8362469      50218.233      36.893836      36.893836      36.893836    
     96000   0.51248416    -7.7918496     -7.0231343      3.8391087      50218.233      36.893836      36.893836      36.893836    
     97000   0.51131337    -7.7901589     -7.0231997      3.8533012      50218.233      36.893836      36.893836      36.893836    
     98000   0.50698641    -7.7940064     -7.0335376      3.821617       50218.233      36.893836      36.893836      36.893836    
     99000   0.51265683    -7.7907075     -7.0217332      3.8590061      50218.233      36.893836      36.893836      36.893836    
    100000   0.51016212    -7.7918491     -7.0266168      3.8439795      50218.233      36.893836      36.893836      36.893836    
    101000   0.51025486    -7.7929303     -7.0275589      3.836081       50218.233      36.893836      36.893836      36.893836    
    102000   0.50857487    -7.7931108     -7.0302594      3.8245415      50218.233      36.893836      36.893836      36.893836    
    103000   0.50943346    -7.7955427     -7.0314033      3.810671       50218.233      36.893836      36.893836      36.893836    
    104000   0.50852638    -7.7970834     -7.0343047      3.7887039      50218.233      36.893836      36.893836      36.893836    
    105000   0.50985213    -7.7953075     -7.0305402      3.8174491      50218.233      36.893836      36.893836      36.893836    
    106000   0.50785062    -7.7927541     -7.030989       3.8295851      50218.233      36.893836      36.893836      36.893836    
    107000   0.5092562     -7.794082      -7.0302085      3.8324895      50218.233      36.893836      36.893836      36.893836    
    108000   0.50964618    -7.7932932     -7.0288348      3.8323937      50218.233      36.893836      36.893836      36.893836    
    109000   0.50852912    -7.7910384     -7.0282555      3.8420654      50218.233      36.893836      36.893836      36.893836    
    110000   0.5066556     -7.7967395     -7.0367669      3.8088596      50218.233      36.893836      36.893836      36.893836    
    111000   0.51053995    -7.7910997     -7.0253007      3.8466841      50218.233      36.893836      36.893836      36.893836    
    112000   0.50931324    -7.7945775     -7.0306185      3.8190902      50218.233      36.893836      36.893836      36.893836    
    113000   0.50849117    -7.7967995     -7.0340736      3.795428       50218.233      36.893836      36.893836      36.893836    
    114000   0.50991139    -7.7946565     -7.0298003      3.8200372      50218.233      36.893836      36.893836      36.893836    
    115000   0.51110483    -7.7958434     -7.0291971      3.8108153      50218.233      36.893836      36.893836      36.893836    
    116000   0.50793362    -7.7948811     -7.0329915      3.8135195      50218.233      36.893836      36.893836      36.893836    
    117000   0.51070762    -7.796864      -7.0308135      3.7981979      50218.233      36.893836      36.893836      36.893836    
    118000   0.51248802    -7.7924563     -7.0237352      3.8379581      50218.233      36.893836      36.893836      36.893836    
    119000   0.51013831    -7.7970343     -7.0318377      3.7917314      50218.233      36.893836      36.893836      36.893836    
    120000   0.51051124    -7.7912136     -7.0254576      3.843147       50218.233      36.893836      36.893836      36.893836    
    121000   0.5093933     -7.7935497     -7.0294706      3.8195041      50218.233      36.893836      36.893836      36.893836    
    122000   0.50981848    -7.7947246     -7.0300077      3.8155056      50218.233      36.893836      36.893836      36.893836    
    123000   0.51228413    -7.7933494     -7.0249341      3.8299647      50218.233      36.893836      36.893836      36.893836    
    124000   0.50829799    -7.7898605     -7.0274244      3.8436765      50218.233      36.893836      36.893836      36.893836    
    125000   0.5115792     -7.7937931     -7.0264352      3.8250887      50218.233      36.893836      36.893836      36.893836    
    126000   0.50786892    -7.7904892     -7.0286967      3.8579802      50218.233      36.893836      36.893836      36.893836    
    127000   0.51135281    -7.7933135     -7.0262952      3.823843       50218.233      36.893836      36.893836      36.893836    
    128000   0.51206992    -7.7899079     -7.021814       3.8572991      50218.233      36.893836      36.893836      36.893836    
    129000   0.51185956    -7.7885275     -7.020749       3.866258       50218.233      36.893836      36.893836      36.893836    
    130000   0.51138959    -7.7890604     -7.0219869      3.8560234      50218.233      36.893836      36.893836      36.893836    
    131000   0.51219424    -7.7917294     -7.023449       3.8471136      50218.233      36.893836      36.893836      36.893836    
    132000   0.51144823    -7.7896296     -7.0224681      3.8649839      50218.233      36.893836      36.893836      36.893836    
    133000   0.50862408    -7.7965527     -7.0336274      3.8120473      50218.233      36.893836      36.893836      36.893836    
    134000   0.50859711    -7.7944077     -7.0315228      3.8119673      50218.233      36.893836      36.893836      36.893836    
    135000   0.50921231    -7.7908588     -7.0270512      3.8374574      50218.233      36.893836      36.893836      36.893836    
    136000   0.51180906    -7.7927199     -7.0250173      3.8340491      50218.233      36.893836      36.893836      36.893836    
    137000   0.51103422    -7.7934804     -7.02694        3.8245275      50218.233      36.893836      36.893836      36.893836    
    138000   0.5112125     -7.7909789     -7.024171       3.8446437      50218.233      36.893836      36.893836      36.893836    
    139000   0.50781442    -7.7881319     -7.0264211      3.8670847      50218.233      36.893836      36.893836      36.893836    
    140000   0.5095032     -7.7948305     -7.0305866      3.818904       50218.233      36.893836      36.893836      36.893836    
    141000   0.50922475    -7.7928177     -7.0289914      3.8332147      50218.233      36.893836      36.893836      36.893836    
    142000   0.51093044    -7.7924612     -7.0260765      3.8353776      50218.233      36.893836      36.893836      36.893836    
    143000   0.50915817    -7.7889955     -7.0252691      3.8513892      50218.233      36.893836      36.893836      36.893836    
    144000   0.51205311    -7.7934443     -7.0253755      3.8285782      50218.233      36.893836      36.893836      36.893836    
    145000   0.51046585    -7.7963022     -7.0306143      3.7987483      50218.233      36.893836      36.893836      36.893836    
    146000   0.50931006    -7.7943338     -7.0303796      3.8233823      50218.233      36.893836      36.893836      36.893836    
    147000   0.51243393    -7.7923753     -7.0237354      3.8395383      50218.233      36.893836      36.893836      36.893836    
    148000   0.51228497    -7.7892256     -7.0208091      3.867399       50218.233      36.893836      36.893836      36.893836    
    149000   0.5115869     -7.7921226     -7.0247532      3.84114        50218.233      36.893836      36.893836      36.893836    
    150000   0.51098377    -7.7965681     -7.0301034      3.8077306      50218.233      36.893836      36.893836      36.893836    
    151000   0.5100351     -7.7937154     -7.0286737      3.8260472      50218.233      36.893836      36.893836      36.893836    
    152000   0.51161878    -7.7987223     -7.0313051      3.7901736      50218.233      36.893836      36.893836      36.893836    
    153000   0.50816429    -7.7938689     -7.0316333      3.8339265      50218.233      36.893836      36.893836      36.893836    
    154000   0.50942475    -7.7944241     -7.0302978      3.8259399      50218.233      36.893836      36.893836      36.893836    
    155000   0.50710784    -7.7970276     -7.0363766      3.7927373      50218.233      36.893836      36.893836      36.893836    
    156000   0.5116961     -7.7928877     -7.0253545      3.8477185      50218.233      36.893836      36.893836      36.893836    
    157000   0.51098576    -7.7935826     -7.0271148      3.8288265      50218.233      36.893836      36.893836      36.893836    
    158000   0.50863516    -7.7946751     -7.0317332      3.8259084      50218.233      36.893836      36.893836      36.893836    
    159000   0.5102022     -7.7935389     -7.0282465      3.8264551      50218.233      36.893836      36.893836      36.893836    
    160000   0.51095477    -7.7938764     -7.0274551      3.8187701      50218.233      36.893836      36.893836      36.893836    
    161000   0.51161893    -7.7935096     -7.0260921      3.838304       50218.233      36.893836      36.893836      36.893836    
    162000   0.50804966    -7.7937207     -7.031657       3.835436       50218.233      36.893836      36.893836      36.893836    
    163000   0.50917953    -7.7930493     -7.0292908      3.8212289      50218.233      36.893836      36.893836      36.893836    
    164000   0.50940559    -7.800118      -7.0360205      3.7946907      50218.233      36.893836      36.893836      36.893836    
    165000   0.50791685    -7.7948511     -7.0329867      3.8138496      50218.233      36.893836      36.893836      36.893836    
    166000   0.50997087    -7.7934026     -7.0284572      3.8331075      50218.233      36.893836      36.893836      36.893836    
    167000   0.51028849    -7.7938816     -7.0284597      3.8280705      50218.233      36.893836      36.893836      36.893836    
    168000   0.50874378    -7.7923102     -7.0292054      3.8440131      50218.233      36.893836      36.893836      36.893836    
    169000   0.51273765    -7.792633      -7.0235375      3.8376257      50218.233      36.893836      36.893836      36.893836    
    170000   0.50913409    -7.7903389     -7.0266486      3.8545327      50218.233      36.893836      36.893836      36.893836    
    171000   0.50960544    -7.791549      -7.0271517      3.8426444      50218.233      36.893836      36.893836      36.893836    
    172000   0.51235934    -7.7950081     -7.02648        3.8246806      50218.233      36.893836      36.893836      36.893836    
    173000   0.50938969    -7.7947428     -7.0306692      3.8147586      50218.233      36.893836      36.893836      36.893836    
    174000   0.51155195    -7.7923685     -7.0250515      3.8379326      50218.233      36.893836      36.893836      36.893836    
    175000   0.51015968    -7.7924429     -7.0272142      3.8431064      50218.233      36.893836      36.893836      36.893836    
    176000   0.51072497    -7.7895433     -7.0234667      3.8610867      50218.233      36.893836      36.893836      36.893836    
    177000   0.50960741    -7.7881215     -7.0237213      3.8665939      50218.233      36.893836      36.893836      36.893836    
    178000   0.50821637    -7.790321      -7.0280073      3.8446028      50218.233      36.893836      36.893836      36.893836    
    179000   0.51020338    -7.793668      -7.0283738      3.8309408      50218.233      36.893836      36.893836      36.893836    
    180000   0.51044755    -7.792187      -7.0265265      3.8455479      50218.233      36.893836      36.893836      36.893836    
    181000   0.5075106     -7.7916588     -7.0304037      3.8559129      50218.233      36.893836      36.893836      36.893836    
    182000   0.50902971    -7.7916458     -7.028112       3.846672       50218.233      36.893836      36.893836      36.893836    
    183000   0.51010154    -7.7947554     -7.029614       3.8174302      50218.233      36.893836      36.893836      36.893836    
    184000   0.51060028    -7.7926681     -7.0267786      3.8383935      50218.233      36.893836      36.893836      36.893836    
    185000   0.51174904    -7.7940846     -7.0264719      3.830291       50218.233      36.893836      36.893836      36.893836    
    186000   0.51104428    -7.7884699     -7.0219144      3.8713696      50218.233      36.893836      36.893836      36.893836    
    187000   0.50810552    -7.7954224     -7.0332749      3.8128894      50218.233      36.893836      36.893836      36.893836    
    188000   0.51170154    -7.7923446     -7.0248032      3.8343069      50218.233      36.893836      36.893836      36.893836    
    189000   0.51119968    -7.7931029     -7.0263143      3.8255425      50218.233      36.893836      36.893836      36.893836    
    190000   0.50872879    -7.7967774     -7.0336951      3.8066862      50218.233      36.893836      36.893836      36.893836    
    191000   0.50940613    -7.7938873     -7.029789       3.8261231      50218.233      36.893836      36.893836      36.893836    
    192000   0.51299771    -7.7931999     -7.0237143      3.8295422      50218.233      36.893836      36.893836      36.893836    
    193000   0.51062867    -7.792771      -7.0268389      3.8383885      50218.233      36.893836      36.893836      36.893836    
    194000   0.51096338    -7.7952067     -7.0287725      3.8128191      50218.233      36.893836      36.893836      36.893836    
    195000   0.51122982    -7.7941616     -7.0273278      3.8330831      50218.233      36.893836      36.893836      36.893836    
    196000   0.50869127    -7.790518      -7.0274919      3.8588358      50218.233      36.893836      36.893836      36.893836    
    197000   0.50978353    -7.7977975     -7.0331331      3.7972208      50218.233      36.893836      36.893836      36.893836    
    198000   0.51102002    -7.7961056     -7.0295865      3.8102701      50218.233      36.893836      36.893836      36.893836    
    199000   0.50967782    -7.7907562     -7.0262503      3.8503195      50218.233      36.893836      36.893836      36.893836    
    200000   0.50872737    -7.7935237     -7.0304435      3.8217316      50218.233      36.893836      36.893836      36.893836    
    201000   0.5090305     -7.7927261     -7.0291912      3.8351024      50218.233      36.893836      36.893836      36.893836    
    202000   0.50907775    -7.7914298     -7.027824       3.841807       50218.233      36.893836      36.893836      36.893836    
    203000   0.51004649    -7.7939973     -7.0289384      3.826388       50218.233      36.893836      36.893836      36.893836    
    204000   0.5115397     -7.7917702     -7.0244716      3.8460364      50218.233      36.893836      36.893836      36.893836    
    205000   0.50934236    -7.7955926     -7.0315899      3.8100505      50218.233      36.893836      36.893836      36.893836    
    206000   0.51128033    -7.7915943     -7.0246847      3.8439565      50218.233      36.893836      36.893836      36.893836    
    207000   0.50962378    -7.7935651     -7.0291403      3.8307153      50218.233      36.893836      36.893836      36.893836    
    208000   0.50960662    -7.7899162     -7.0255171      3.8493057      50218.233      36.893836      36.893836      36.893836    
    209000   0.51158602    -7.7959144     -7.0285463      3.8048302      50218.233      36.893836      36.893836      36.893836    
    210000   0.51121138    -7.7930136     -7.0262074      3.8348278      50218.233      36.893836      36.893836      36.893836    
    211000   0.50825973    -7.7945544     -7.0321756      3.8111094      50218.233      36.893836      36.893836      36.893836    
    212000   0.51005945    -7.7941442     -7.0290659      3.8337939      50218.233      36.893836      36.893836      36.893836    
    213000   0.50959665    -7.7923178     -7.0279337      3.8411331      50218.233      36.893836      36.893836      36.893836    
    214000   0.51138953    -7.7932343     -7.026161       3.8350924      50218.233      36.893836      36.893836      36.893836    
    215000   0.50902509    -7.7934931     -7.0299663      3.8200653      50218.233      36.893836      36.893836      36.893836    
    216000   0.51111863    -7.7949056     -7.0282386      3.8128401      50218.233      36.893836      36.893836      36.893836    
    217000   0.50864822    -7.7917097     -7.0287482      3.8478057      50218.233      36.893836      36.893836      36.893836    
    218000   0.51132931    -7.7915181     -7.0245351      3.831371       50218.233      36.893836      36.893836      36.893836    
    219000   0.50905936    -7.7950125     -7.0314344      3.8117947      50218.233      36.893836      36.893836      36.893836    
    220000   0.5106377     -7.7934823     -7.0275366      3.8415964      50218.233      36.893836      36.893836      36.893836    
    221000   0.51227339    -7.7867803     -7.0183811      3.885302       50218.233      36.893836      36.893836      36.893836    
    222000   0.51128132    -7.7867203     -7.0198092      3.8800442      50218.233      36.893836      36.893836      36.893836    
    223000   0.51095862    -7.7868988     -7.0204718      3.8771839      50218.233      36.893836      36.893836      36.893836    
    224000   0.50847976    -7.7920567     -7.0293479      3.8443103      50218.233      36.893836      36.893836      36.893836    
    225000   0.51014335    -7.7900407     -7.0248365      3.8712588      50218.233      36.893836      36.893836      36.893836    
    226000   0.50895705    -7.7938827     -7.030458       3.8153899      50218.233      36.893836      36.893836      36.893836    
    227000   0.50821964    -7.7912946     -7.0289759      3.8460311      50218.233      36.893836      36.893836      36.893836    
    228000   0.50941276    -7.7877466     -7.0236383      3.8804813      50218.233      36.893836      36.893836      36.893836    
    229000   0.51133591    -7.7908932     -7.0239003      3.8641018      50218.233      36.893836      36.893836      36.893836    
    230000   0.51044197    -7.7940188     -7.0283667      3.8237719      50218.233      36.893836      36.893836      36.893836    
    231000   0.50959889    -7.7874348     -7.0230473      3.8674304      50218.233      36.893836      36.893836      36.893836    
    232000   0.5101869     -7.7906968     -7.0254273      3.8447022      50218.233      36.893836      36.893836      36.893836    
    233000   0.51093084    -7.7948352     -7.0284499      3.8255105      50218.233      36.893836      36.893836      36.893836    
    234000   0.51165356    -7.7923046     -7.0248352      3.8456735      50218.233      36.893836      36.893836      36.893836    
    235000   0.51269649    -7.7922981     -7.0232643      3.8459967      50218.233      36.893836      36.893836      36.893836    
    236000   0.50983961    -7.789189      -7.0244404      3.8558062      50218.233      36.893836      36.893836      36.893836    
    237000   0.5120945     -7.7881506     -7.0200197      3.8595665      50218.233      36.893836      36.893836      36.893836    
    238000   0.511408      -7.7924546     -7.0253535      3.8408006      50218.233      36.893836      36.893836      36.893836    
    239000   0.50936721    -7.7919841     -7.0279442      3.8313141      50218.233      36.893836      36.893836      36.893836    
    240000   0.50763503    -7.7896831     -7.0282414      3.860662       50218.233      36.893836      36.893836      36.893836    
    241000   0.51158896    -7.7930598     -7.0256872      3.8426118      50218.233      36.893836      36.893836      36.893836    
    242000   0.50432518    -7.7973455     -7.0408685      3.8003429      50218.233      36.893836      36.893836      36.893836    
    243000   0.51181395    -7.7941873     -7.0264773      3.8338007      50218.233      36.893836      36.893836      36.893836    
    244000   0.50626929    -7.7950987     -7.0357056      3.8186151      50218.233      36.893836      36.893836      36.893836    
    245000   0.51184754    -7.7929688     -7.0252084      3.8351496      50218.233      36.893836      36.893836      36.893836    
    246000   0.50972698    -7.7951095     -7.0305299      3.8150576      50218.233      36.893836      36.893836      36.893836    
    247000   0.51008158    -7.7901542     -7.0250427      3.8468212      50218.233      36.893836      36.893836      36.893836    
    248000   0.51101351    -7.7935349     -7.0270256      3.8331016      50218.233      36.893836      36.893836      36.893836    
    249000   0.50801696    -7.7954244     -7.0334098      3.8240243      50218.233      36.893836      36.893836      36.893836    
    250000   0.51016407    -7.7906407     -7.0254055      3.8488251      50218.233      36.893836      36.893836      36.893836    
    251000   0.51055958    -7.7955518     -7.0297233      3.805987       50218.233      36.893836      36.893836      36.893836    
    252000   0.51144604    -7.7914505     -7.0242924      3.8500689      50218.233      36.893836      36.893836      36.893836    
    253000   0.50997872    -7.7913049     -7.0263477      3.8473782      50218.233      36.893836      36.893836      36.893836    
    254000   0.50805582    -7.7904976     -7.0284247      3.8533324      50218.233      36.893836      36.893836      36.893836    
    255000   0.50935415    -7.796255      -7.0322346      3.8123793      50218.233      36.893836      36.893836      36.893836    
    256000   0.51025104    -7.7907837     -7.025418       3.8506151      50218.233      36.893836      36.893836      36.893836    
    257000   0.50824998    -7.789792      -7.0274279      3.8502338      50218.233      36.893836      36.893836      36.893836    
    258000   0.50945348    -7.7917539     -7.0275845      3.8449984      50218.233      36.893836      36.893836      36.893836    
    259000   0.50918       -7.7907889     -7.0270297      3.8566462      50218.233      36.893836      36.893836      36.893836    
    260000   0.51220162    -7.788434      -7.0201425      3.8611368      50218.233      36.893836      36.893836      36.893836    
    261000   0.50884666    -7.792323      -7.0290638      3.8405607      50218.233      36.893836      36.893836      36.893836    
    262000   0.51203948    -7.7917971     -7.0237488      3.8506956      50218.233      36.893836      36.893836      36.893836    
    263000   0.51057758    -7.7912032     -7.0253477      3.856839       50218.233      36.893836      36.893836      36.893836    
    264000   0.51144711    -7.7926284     -7.0254687      3.836248       50218.233      36.893836      36.893836      36.893836    
    265000   0.5073221     -7.7922124     -7.03124        3.8456515      50218.233      36.893836      36.893836      36.893836    
    266000   0.51008758    -7.7882822     -7.0231617      3.8739994      50218.233      36.893836      36.893836      36.893836    
    267000   0.50850081    -7.7911248     -7.0283844      3.8520907      50218.233      36.893836      36.893836      36.893836    
    268000   0.51031052    -7.7912527     -7.0257978      3.8524155      50218.233      36.893836      36.893836      36.893836    
    269000   0.509881      -7.7895894     -7.0247788      3.8631655      50218.233      36.893836      36.893836      36.893836    
    270000   0.50860984    -7.7938216     -7.0309177      3.8394355      50218.233      36.893836      36.893836      36.893836    
    271000   0.50915891    -7.7911383     -7.0274108      3.8473699      50218.233      36.893836      36.893836      36.893836    
    272000   0.50821432    -7.7900696     -7.027759       3.8592511      50218.233      36.893836      36.893836      36.893836    
    273000   0.51041766    -7.7886085     -7.0229929      3.8727658      50218.233      36.893836      36.893836      36.893836    
    274000   0.51143362    -7.7906007     -7.0234612      3.84602        50218.233      36.893836      36.893836      36.893836    
    275000   0.5081313     -7.7924992     -7.0303131      3.8382535      50218.233      36.893836      36.893836      36.893836    
    276000   0.50715383    -7.7870766     -7.0263567      3.8785195      50218.233      36.893836      36.893836      36.893836    
    277000   0.51029979    -7.7865331     -7.0210943      3.8806221      50218.233      36.893836      36.893836      36.893836    
    278000   0.51070517    -7.7912206     -7.0251738      3.8511898      50218.233      36.893836      36.893836      36.893836    
    279000   0.50819637    -7.7916188     -7.0293351      3.8431973      50218.233      36.893836      36.893836      36.893836    
    280000   0.51070443    -7.7931405     -7.0270947      3.8338119      50218.233      36.893836      36.893836      36.893836    
    281000   0.51002344    -7.790749      -7.0257247      3.8539431      50218.233      36.893836      36.893836      36.893836    
    282000   0.51226858    -7.7927068     -7.0243149      3.8343745      50218.233      36.893836      36.893836      36.893836    
    283000   0.5119636     -7.7937593     -7.0258249      3.8320849      50218.233      36.893836      36.893836      36.893836    
    284000   0.5093643     -7.7913433     -7.0273077      3.8547556      50218.233      36.893836      36.893836      36.893836    
    285000   0.50984988    -7.7908048     -7.0260409      3.8633106      50218.233      36.893836      36.893836      36.893836    
    286000   0.50978568    -7.7922907     -7.0276231      3.8438115      50218.233      36.893836      36.893836      36.893836    
    287000   0.50833897    -7.7960109     -7.0335133      3.805876       50218.233      36.893836      36.893836      36.893836    
    288000   0.51240616    -7.7949872     -7.0263889      3.8296756      50218.233      36.893836      36.893836      36.893836    
    289000   0.51302147    -7.7905544     -7.0210331      3.8572763      50218.233      36.893836      36.893836      36.893836    
    290000   0.5120864     -7.7937968     -7.0256781      3.8388407      50218.233      36.893836      36.893836      36.893836    
    291000   0.50958623    -7.7916657     -7.0272972      3.8375153      50218.233      36.893836      36.893836      36.893836    
    292000   0.51134685    -7.7934194     -7.0264101      3.8328021      50218.233      36.893836      36.893836      36.893836    
    293000   0.51234379    -7.790955      -7.0224502      3.853999       50218.233      36.893836      36.893836      36.893836    
    294000   0.51146008    -7.7895488     -7.0223696      3.8607786      50218.233      36.893836      36.893836      36.893836    
    295000   0.51101742    -7.7891374     -7.0226221      3.8562097      50218.233      36.893836      36.893836      36.893836    
    296000   0.5094203     -7.7902902     -7.0261706      3.8679352      50218.233      36.893836      36.893836      36.893836    
    297000   0.5094483     -7.7865538     -7.0223923      3.8799552      50218.233      36.893836      36.893836      36.893836    
    298000   0.51039187    -7.7917425     -7.0261656      3.8308306      50218.233      36.893836      36.893836      36.893836    
    299000   0.51130585    -7.7898252     -7.0228774      3.8595932      50218.233      36.893836      36.893836      36.893836    
    300000   0.51376434    -7.789936      -7.0193004      3.8745736      50218.233      36.893836      36.893836      36.893836    
    301000   0.50930939    -7.7901122     -7.026159       3.8632372      50218.233      36.893836      36.893836      36.893836    
    302000   0.50745176    -7.7934678     -7.0323009      3.8207737      50218.233      36.893836      36.893836      36.893836    
    303000   0.51177793    -7.7946558     -7.0269998      3.8113486      50218.233      36.893836      36.893836      36.893836    
    304000   0.50828327    -7.7925001     -7.030086       3.8311566      50218.233      36.893836      36.893836      36.893836    
    305000   0.50996441    -7.7936612     -7.0287254      3.8304718      50218.233      36.893836      36.893836      36.893836    
    306000   0.5108176     -7.79369       -7.0274745      3.8275744      50218.233      36.893836      36.893836      36.893836    
    307000   0.5108622     -7.7925559     -7.0262735      3.842013       50218.233      36.893836      36.893836      36.893836    
    308000   0.51100156    -7.7882852     -7.0217938      3.8745405      50218.233      36.893836      36.893836      36.893836    
    309000   0.51036448    -7.7888568     -7.023321       3.8551982      50218.233      36.893836      36.893836      36.893836    
    310000   0.50725091    -7.7857366     -7.024871       3.8871565      50218.233      36.893836      36.893836      36.893836    
    311000   0.50799515    -7.7912        -7.0292181      3.8378408      50218.233      36.893836      36.893836      36.893836    
    312000   0.50780461    -7.7914653     -7.0297692      3.8391406      50218.233      36.893836      36.893836      36.893836    
    313000   0.5120667     -7.7887194     -7.0206303      3.8699945      50218.233      36.893836      36.893836      36.893836    
    314000   0.50721048    -7.7885356     -7.0277307      3.8612726      50218.233      36.893836      36.893836      36.893836    
    315000   0.51252532    -7.7922081     -7.0234311      3.8439999      50218.233      36.893836      36.893836      36.893836    
    316000   0.51185627    -7.7893794     -7.0216059      3.8525377      50218.233      36.893836      36.893836      36.893836    
    317000   0.50841448    -7.7875623     -7.0249514      3.8737574      50218.233      36.893836      36.893836      36.893836    
    318000   0.50970806    -7.789854      -7.0253028      3.8522987      50218.233      36.893836      36.893836      36.893836    
    319000   0.51291255    -7.7884491     -7.0190912      3.86373        50218.233      36.893836      36.893836      36.893836    
    320000   0.51140728    -7.7889527     -7.0218527      3.8605013      50218.233      36.893836      36.893836      36.893836    
    321000   0.50848684    -7.7860956     -7.0233762      3.8850981      50218.233      36.893836      36.893836      36.893836    
    322000   0.50970136    -7.7911518     -7.0266106      3.841231       50218.233      36.893836      36.893836      36.893836    
    323000   0.50843242    -7.7902583     -7.0276205      3.8582998      50218.233      36.893836      36.893836      36.893836    
    324000   0.51152248    -7.7911677     -7.0238949      3.8506941      50218.233      36.893836      36.893836      36.893836    
    325000   0.5114393     -7.7935146     -7.0263666      3.8305578      50218.233      36.893836      36.893836      36.893836    
    326000   0.50891064    -7.7948074     -7.0314523      3.8224475      50218.233      36.893836      36.893836      36.893836    
    327000   0.51008871    -7.7914696     -7.0263475      3.848236       50218.233      36.893836      36.893836      36.893836    
    328000   0.50814616    -7.7930277     -7.0308193      3.8323337      50218.233      36.893836      36.893836      36.893836    
    329000   0.5062174     -7.7900984     -7.0307831      3.8499676      50218.233      36.893836      36.893836      36.893836    
    330000   0.51052148    -7.7934131     -7.0276418      3.823214       50218.233      36.893836      36.893836      36.893836    
    331000   0.5118802     -7.7884494     -7.02064        3.8711314      50218.233      36.893836      36.893836      36.893836    
    332000   0.51012816    -7.7864487     -7.0212674      3.8798408      50218.233      36.893836      36.893836      36.893836    
    333000   0.51309922    -7.7853802     -7.0157423      3.8948727      50218.233      36.893836      36.893836      36.893836    
    334000   0.50955959    -7.7877345     -7.023406       3.869866       50218.233      36.893836      36.893836      36.893836    
    335000   0.50955653    -7.7918189     -7.027495       3.8442607      50218.233      36.893836      36.893836      36.893836    
    336000   0.51131124    -7.7893106     -7.0223546      3.87011        50218.233      36.893836      36.893836      36.893836    
    337000   0.51078196    -7.7862123     -7.0200502      3.8866654      50218.233      36.893836      36.893836      36.893836    
    338000   0.51201302    -7.7892898     -7.0212812      3.8607057      50218.233      36.893836      36.893836      36.893836    
    339000   0.51041583    -7.7912765     -7.0256637      3.8415807      50218.233      36.893836      36.893836      36.893836    
    340000   0.51067588    -7.7893783     -7.0233754      3.8659158      50218.233      36.893836      36.893836      36.893836    
    341000   0.51060594    -7.7896266     -7.0237286      3.8555909      50218.233      36.893836      36.893836      36.893836    
    342000   0.51105712    -7.7897665     -7.0231917      3.8482775      50218.233      36.893836      36.893836      36.893836    
    343000   0.51150261    -7.7947484     -7.0275054      3.8134505      50218.233      36.893836      36.893836      36.893836    
    344000   0.50738168    -7.7868264     -7.0257647      3.8674392      50218.233      36.893836      36.893836      36.893836    
    345000   0.5104936     -7.7913252     -7.0255957      3.8500376      50218.233      36.893836      36.893836      36.893836    
    346000   0.51055403    -7.7845771     -7.018757       3.9009086      50218.233      36.893836      36.893836      36.893836    
    347000   0.50885742    -7.7915114     -7.0282362      3.8356986      50218.233      36.893836      36.893836      36.893836    
    348000   0.51170217    -7.7932107     -7.0256684      3.8257062      50218.233      36.893836      36.893836      36.893836    
    349000   0.50945041    -7.7900148     -7.02585        3.8485137      50218.233      36.893836      36.893836      36.893836    
    350000   0.51042686    -7.7925812     -7.0269518      3.8428847      50218.233      36.893836      36.893836      36.893836    
    351000   0.50880334    -7.7954958     -7.0323016      3.8095299      50218.233      36.893836      36.893836      36.893836    
    352000   0.50852277    -7.7905909     -7.0278176      3.8456373      50218.233      36.893836      36.893836      36.893836    
    353000   0.51035242    -7.7890559     -7.0235382      3.8672181      50218.233      36.893836      36.893836      36.893836    
    354000   0.50853414    -7.7943312     -7.0315408      3.8192216      50218.233      36.893836      36.893836      36.893836    
    355000   0.50880343    -7.7858129     -7.0226186      3.8822846      50218.233      36.893836      36.893836      36.893836    
    356000   0.50852069    -7.7868576     -7.0240874      3.874926       50218.233      36.893836      36.893836      36.893836    
    357000   0.50959603    -7.7887509     -7.0243678      3.8680294      50218.233      36.893836      36.893836      36.893836    
    358000   0.51089217    -7.7929374     -7.02661        3.8327918      50218.233      36.893836      36.893836      36.893836    
    359000   0.509578      -7.7926113     -7.0282552      3.8376775      50218.233      36.893836      36.893836      36.893836    
    360000   0.50743501    -7.7867872     -7.0256455      3.8762748      50218.233      36.893836      36.893836      36.893836    
    361000   0.51059175    -7.7915583     -7.0256815      3.8524462      50218.233      36.893836      36.893836      36.893836    
    362000   0.511828      -7.7885295     -7.0207984      3.8624176      50218.233      36.893836      36.893836      36.893836    
    363000   0.51112428    -7.7927697     -7.0260942      3.8262664      50218.233      36.893836      36.893836      36.893836    
    364000   0.51029405    -7.7879592     -7.022529       3.8713361      50218.233      36.893836      36.893836      36.893836    
    365000   0.51070941    -7.7896674     -7.0236142      3.8510973      50218.233      36.893836      36.893836      36.893836    
    366000   0.51172241    -7.7887116     -7.021139       3.8715413      50218.233      36.893836      36.893836      36.893836    
    367000   0.50772228    -7.7887212     -7.0271486      3.8535825      50218.233      36.893836      36.893836      36.893836    
    368000   0.50854222    -7.7919156     -7.0291131      3.8392437      50218.233      36.893836      36.893836      36.893836    
    369000   0.50830299    -7.7904469     -7.0280033      3.8458252      50218.233      36.893836      36.893836      36.893836    
    370000   0.50955377    -7.7896077     -7.025288       3.8532366      50218.233      36.893836      36.893836      36.893836    
    371000   0.51022921    -7.7901525     -7.0248195      3.8658601      50218.233      36.893836      36.893836      36.893836    
    372000   0.50725396    -7.7937169     -7.0328468      3.8324527      50218.233      36.893836      36.893836      36.893836    
    373000   0.51132861    -7.788417      -7.021435       3.8638825      50218.233      36.893836      36.893836      36.893836    
    374000   0.51041515    -7.7882188     -7.022607       3.8748385      50218.233      36.893836      36.893836      36.893836    
    375000   0.50602097    -7.7888358     -7.0298152      3.8572644      50218.233      36.893836      36.893836      36.893836    
    376000   0.51043434    -7.7896803     -7.0240396      3.8586327      50218.233      36.893836      36.893836      36.893836    
    377000   0.51030654    -7.7866789     -7.0212299      3.8791449      50218.233      36.893836      36.893836      36.893836    
    378000   0.51065091    -7.788733      -7.0227675      3.8633088      50218.233      36.893836      36.893836      36.893836    
    379000   0.50792401    -7.7891719     -7.0272967      3.8610009      50218.233      36.893836      36.893836      36.893836    
    380000   0.51209428    -7.7914492     -7.0233188      3.8427735      50218.233      36.893836      36.893836      36.893836    
    381000   0.50844143    -7.7902436     -7.0275923      3.8511551      50218.233      36.893836      36.893836      36.893836    
    382000   0.51059726    -7.7907556     -7.0248706      3.8512886      50218.233      36.893836      36.893836      36.893836    
    383000   0.5098003     -7.7886328     -7.0239433      3.8619112      50218.233      36.893836      36.893836      36.893836    
    384000   0.5089781     -7.7888769     -7.0254206      3.8684099      50218.233      36.893836      36.893836      36.893836    
    385000   0.51036587    -7.7879214     -7.0223835      3.8685624      50218.233      36.893836      36.893836      36.893836    
    386000   0.51126798    -7.790375      -7.0234839      3.8468259      50218.233      36.893836      36.893836      36.893836    
    387000   0.51175984    -7.7852432     -7.0176143      3.8839528      50218.233      36.893836      36.893836      36.893836    
    388000   0.50780663    -7.7901942     -7.0284951      3.8387701      50218.233      36.893836      36.893836      36.893836    
    389000   0.51041754    -7.7939259     -7.0283104      3.8239713      50218.233      36.893836      36.893836      36.893836    
    390000   0.50871849    -7.7920787     -7.0290118      3.8359325      50218.233      36.893836      36.893836      36.893836    
    391000   0.50657797    -7.7885247     -7.0286685      3.8634466      50218.233      36.893836      36.893836      36.893836    
    392000   0.50823601    -7.7933031     -7.0309599      3.8318861      50218.233      36.893836      36.893836      36.893836    
    393000   0.51059003    -7.7899648     -7.0240906      3.859353       50218.233      36.893836      36.893836      36.893836    
    394000   0.51298338    -7.7922515     -7.0227874      3.8467799      50218.233      36.893836      36.893836      36.893836    
    395000   0.5106754     -7.791208      -7.0252058      3.8652035      50218.233      36.893836      36.893836      36.893836    
    396000   0.51236141    -7.7927153     -7.0241841      3.8346885      50218.233      36.893836      36.893836      36.893836    
    397000   0.50832633    -7.7913197     -7.0288411      3.8398835      50218.233      36.893836      36.893836      36.893836    
    398000   0.50888173    -7.7917638     -7.028452       3.8394087      50218.233      36.893836      36.893836      36.893836    
    399000   0.50954345    -7.7888928     -7.0245885      3.8630531      50218.233      36.893836      36.893836      36.893836    
    400000   0.51064951    -7.7956144     -7.029651       3.8128914      50218.233      36.893836      36.893836      36.893836    
    401000   0.50877143    -7.789975      -7.0268287      3.845888       50218.233      36.893836      36.893836      36.893836    
    402000   0.50934356    -7.7947971     -7.0307926      3.820074       50218.233      36.893836      36.893836      36.893836    
    403000   0.51202537    -7.7919246     -7.0238975      3.8440553      50218.233      36.893836      36.893836      36.893836    
    404000   0.50932819    -7.7920814     -7.0281         3.8470049      50218.233      36.893836      36.893836      36.893836    
    405000   0.51065049    -7.7923283     -7.0263634      3.8375598      50218.233      36.893836      36.893836      36.893836    
    406000   0.5116242     -7.7875142     -7.0200888      3.8809538      50218.233      36.893836      36.893836      36.893836    
    407000   0.50808662    -7.7882642     -7.0261451      3.8614926      50218.233      36.893836      36.893836      36.893836    
    408000   0.51122792    -7.789905      -7.023074       3.860606       50218.233      36.893836      36.893836      36.893836    
    409000   0.51403017    -7.7877025     -7.0166682      3.8787226      50218.233      36.893836      36.893836      36.893836    
    410000   0.50901565    -7.7897852     -7.0262726      3.869587       50218.233      36.893836      36.893836      36.893836    
    411000   0.51023032    -7.79219       -7.0268554      3.8490318      50218.233      36.893836      36.893836      36.893836    
    412000   0.50862166    -7.7863411     -7.0234194      3.8872139      50218.233      36.893836      36.893836      36.893836    
    413000   0.50832991    -7.7953225     -7.0328384      3.8151539      50218.233      36.893836      36.893836      36.893836    
    414000   0.5126285     -7.7942725     -7.0253407      3.8235125      50218.233      36.893836      36.893836      36.893836    
    415000   0.50858311    -7.7923614     -7.0294976      3.8353998      50218.233      36.893836      36.893836      36.893836    
    416000   0.51020747    -7.7882653     -7.022965       3.8797074      50218.233      36.893836      36.893836      36.893836    
    417000   0.50756489    -7.7925519     -7.0312154      3.8323555      50218.233      36.893836      36.893836      36.893836    
    418000   0.51024028    -7.7859064     -7.0205569      3.8878442      50218.233      36.893836      36.893836      36.893836    
    419000   0.51096658    -7.7913009     -7.0248619      3.8519341      50218.233      36.893836      36.893836      36.893836    
    420000   0.51122113    -7.7866183     -7.0197975      3.8841127      50218.233      36.893836      36.893836      36.893836    
    421000   0.51039067    -7.7864492     -7.020874       3.87829        50218.233      36.893836      36.893836      36.893836    
    422000   0.50957908    -7.7887679     -7.0244101      3.8686154      50218.233      36.893836      36.893836      36.893836    
    423000   0.50859448    -7.7886653     -7.0257844      3.8585707      50218.233      36.893836      36.893836      36.893836    
    424000   0.51216504    -7.7920701     -7.0238335      3.8351017      50218.233      36.893836      36.893836      36.893836    
    425000   0.51238967    -7.7844716     -7.015898       3.8912869      50218.233      36.893836      36.893836      36.893836    
    426000   0.51009975    -7.791442      -7.0263033      3.8385311      50218.233      36.893836      36.893836      36.893836    
    427000   0.50833766    -7.7915725     -7.0290769      3.8362303      50218.233      36.893836      36.893836      36.893836    
    428000   0.50939352    -7.7860971     -7.0220177      3.8810972      50218.233      36.893836      36.893836      36.893836    
    429000   0.50955629    -7.7884424     -7.0241189      3.857138       50218.233      36.893836      36.893836      36.893836    
    430000   0.50887354    -7.791255      -7.0279555      3.851547       50218.233      36.893836      36.893836      36.893836    
    431000   0.50991412    -7.7931408     -7.0282805      3.8224129      50218.233      36.893836      36.893836      36.893836    
    432000   0.51027159    -7.7921211     -7.0267246      3.8395618      50218.233      36.893836      36.893836      36.893836    
    433000   0.50879561    -7.78666       -7.0234774      3.8873478      50218.233      36.893836      36.893836      36.893836    
    434000   0.50928852    -7.7900359     -7.026114       3.8578448      50218.233      36.893836      36.893836      36.893836    
    435000   0.51035261    -7.7890804     -7.0235624      3.8490949      50218.233      36.893836      36.893836      36.893836    
    436000   0.51011398    -7.7902569     -7.0250968      3.8517021      50218.233      36.893836      36.893836      36.893836    
    437000   0.51289855    -7.7885034     -7.0191665      3.8687818      50218.233      36.893836      36.893836      36.893836    
    438000   0.50625581    -7.7916519     -7.0322789      3.8346146      50218.233      36.893836      36.893836      36.893836    
    439000   0.51033169    -7.7905662     -7.0250796      3.8537776      50218.233      36.893836      36.893836      36.893836    
    440000   0.51200427    -7.7892952     -7.0212997      3.8599905      50218.233      36.893836      36.893836      36.893836    
    441000   0.51308459    -7.7934909     -7.023875       3.824411       50218.233      36.893836      36.893836      36.893836    
    442000   0.50822794    -7.790606      -7.0282749      3.8496776      50218.233      36.893836      36.893836      36.893836    
    443000   0.5098806     -7.7920045     -7.0271945      3.8386717      50218.233      36.893836      36.893836      36.893836    
    444000   0.50891409    -7.7924141     -7.0290538      3.8421931      50218.233      36.893836      36.893836      36.893836    
    445000   0.50936519    -7.7925625     -7.0285256      3.8281345      50218.233      36.893836      36.893836      36.893836    
    446000   0.51023999    -7.7926767     -7.0273276      3.8390179      50218.233      36.893836      36.893836      36.893836    
    447000   0.50976733    -7.7893296     -7.0246894      3.8550337      50218.233      36.893836      36.893836      36.893836    
    448000   0.51015869    -7.7853907     -7.0201636      3.890125       50218.233      36.893836      36.893836      36.893836    
    449000   0.51406283    -7.7884949     -7.0174117      3.873894       50218.233      36.893836      36.893836      36.893836    
    450000   0.51186782    -7.7913524     -7.0235616      3.8532588      50218.233      36.893836      36.893836      36.893836    
    451000   0.51173823    -7.7877827     -7.0201863      3.8719012      50218.233      36.893836      36.893836      36.893836    
    452000   0.50897855    -7.7932339     -7.029777       3.8342168      50218.233      36.893836      36.893836      36.893836    
    453000   0.50976397    -7.7900862     -7.0254511      3.8539808      50218.233      36.893836      36.893836      36.893836    
    454000   0.5103096     -7.792972      -7.0275185      3.822544       50218.233      36.893836      36.893836      36.893836    
    455000   0.51050997    -7.7912495     -7.0254954      3.8518636      50218.233      36.893836      36.893836      36.893836    
    456000   0.50997959    -7.78945       -7.0244915      3.8541494      50218.233      36.893836      36.893836      36.893836    
    457000   0.50953953    -7.7906982     -7.0263998      3.8421567      50218.233      36.893836      36.893836      36.893836    
    458000   0.50940284    -7.7931991     -7.0291057      3.8314723      50218.233      36.893836      36.893836      36.893836    
    459000   0.5083568     -7.7909128     -7.0283884      3.8502075      50218.233      36.893836      36.893836      36.893836    
    460000   0.50856444    -7.787626      -7.0247902      3.8692756      50218.233      36.893836      36.893836      36.893836    
    461000   0.51079892    -7.7884305     -7.022243       3.8691081      50218.233      36.893836      36.893836      36.893836    
    462000   0.51099963    -7.7898914     -7.0234029      3.8576041      50218.233      36.893836      36.893836      36.893836    
    463000   0.51142328    -7.7882069     -7.0210829      3.8640369      50218.233      36.893836      36.893836      36.893836    
    464000   0.51080984    -7.7902079     -7.0240041      3.8531938      50218.233      36.893836      36.893836      36.893836    
    465000   0.51138859    -7.7893486     -7.0222766      3.8596299      50218.233      36.893836      36.893836      36.893836    
    466000   0.50999409    -7.7919602     -7.0269799      3.8412718      50218.233      36.893836      36.893836      36.893836    
    467000   0.5097274     -7.7866467     -7.0220664      3.8730303      50218.233      36.893836      36.893836      36.893836    
    468000   0.51154234    -7.7883627     -7.0210601      3.8837331      50218.233      36.893836      36.893836      36.893836    
    469000   0.50989356    -7.7836803     -7.0188509      3.9023992      50218.233      36.893836      36.893836      36.893836    
    470000   0.50844407    -7.7937083     -7.0310531      3.8249259      50218.233      36.893836      36.893836      36.893836    
    471000   0.51006378    -7.7844876     -7.0194029      3.9088315      50218.233      36.893836      36.893836      36.893836    
    472000   0.51010002    -7.7921552     -7.027016       3.8436096      50218.233      36.893836      36.893836      36.893836    
    473000   0.50865837    -7.7859533     -7.0229766      3.8834717      50218.233      36.893836      36.893836      36.893836    
    474000   0.50852855    -7.7916984     -7.0289164      3.8454975      50218.233      36.893836      36.893836      36.893836    
    475000   0.5101378     -7.7889839     -7.023788       3.8612112      50218.233      36.893836      36.893836      36.893836    
    476000   0.511728      -7.7891753     -7.0215942      3.865918       50218.233      36.893836      36.893836      36.893836    
    477000   0.51104502    -7.7863586     -7.019802       3.8837744      50218.233      36.893836      36.893836      36.893836    
    478000   0.51395695    -7.7887549     -7.0178304      3.8761316      50218.233      36.893836      36.893836      36.893836    
    479000   0.51037289    -7.7860241     -7.0204756      3.8922701      50218.233      36.893836      36.893836      36.893836    
    480000   0.50516846    -7.7864311     -7.0286892      3.8769575      50218.233      36.893836      36.893836      36.893836    
    481000   0.51114357    -7.7928177     -7.0261133      3.8447545      50218.233      36.893836      36.893836      36.893836    
    482000   0.50868529    -7.7892197     -7.0262027      3.8574727      50218.233      36.893836      36.893836      36.893836    
    483000   0.51032887    -7.7872606     -7.0217782      3.874524       50218.233      36.893836      36.893836      36.893836    
    484000   0.51116608    -7.7891571     -7.0224188      3.855876       50218.233      36.893836      36.893836      36.893836    
    485000   0.50930467    -7.7893129     -7.0253667      3.8548989      50218.233      36.893836      36.893836      36.893836    
    486000   0.51025152    -7.7946557     -7.0292893      3.8243709      50218.233      36.893836      36.893836      36.893836    
    487000   0.50625597    -7.787476      -7.0281029      3.8646985      50218.233      36.893836      36.893836      36.893836    
    488000   0.50900426    -7.7895673     -7.0260718      3.8522987      50218.233      36.893836      36.893836      36.893836    
    489000   0.50777509    -7.7897444     -7.0280926      3.8489724      50218.233      36.893836      36.893836      36.893836    
    490000   0.50901465    -7.7865715     -7.0230604      3.8763841      50218.233      36.893836      36.893836      36.893836    
    491000   0.51047813    -7.788984      -7.0232777      3.8734754      50218.233      36.893836      36.893836      36.893836    
    492000   0.50931994    -7.7929104     -7.0289414      3.8294242      50218.233      36.893836      36.893836      36.893836    
    493000   0.50862592    -7.7881017     -7.0251737      3.8686011      50218.233      36.893836      36.893836      36.893836    
    494000   0.50927551    -7.7928387     -7.0289363      3.8262691      50218.233      36.893836      36.893836      36.893836    
    495000   0.50998204    -7.7875375     -7.0225753      3.8776885      50218.233      36.893836      36.893836      36.893836    
    496000   0.50962327    -7.7908142     -7.0263902      3.8507618      50218.233      36.893836      36.893836      36.893836    
    497000   0.51025136    -7.7939939     -7.0286277      3.8260671      50218.233      36.893836      36.893836      36.893836    
    498000   0.50696494    -7.7903516     -7.029915       3.8436255      50218.233      36.893836      36.893836      36.893836    
    499000   0.50596572    -7.7921251     -7.0331873      3.8294249      50218.233      36.893836      36.893836      36.893836    
    500000   0.50931716    -7.7890581     -7.0250932      3.8637473      50218.233      36.893836      36.893836      36.893836    
    501000   0.50870616    -7.7936315     -7.0305831      3.834676       50218.233      36.893836      36.893836      36.893836    
    502000   0.5109748     -7.7907288     -7.0242775      3.8656828      50218.233      36.893836      36.893836      36.893836    
    503000   0.51065012    -7.792401      -7.0264367      3.8548335      50218.233      36.893836      36.893836      36.893836    
    504000   0.51022029    -7.7858063     -7.0204867      3.8913519      50218.233      36.893836      36.893836      36.893836    
    505000   0.50819541    -7.7862        -7.0239178      3.8906655      50218.233      36.893836      36.893836      36.893836    
    506000   0.51067971    -7.7871866     -7.0211779      3.8851002      50218.233      36.893836      36.893836      36.893836    
    507000   0.51038199    -7.7903822     -7.0248201      3.8521027      50218.233      36.893836      36.893836      36.893836    
    508000   0.50941353    -7.7943989     -7.0302894      3.8157723      50218.233      36.893836      36.893836      36.893836    
    509000   0.51126488    -7.7902895     -7.0234031      3.8492376      50218.233      36.893836      36.893836      36.893836    
    510000   0.50897755    -7.7905076     -7.0270522      3.8494794      50218.233      36.893836      36.893836      36.893836    
    511000   0.50812329    -7.7910444     -7.0288703      3.8401092      50218.233      36.893836      36.893836      36.893836    
    512000   0.50983327    -7.7880123     -7.0232732      3.8614707      50218.233      36.893836      36.893836      36.893836    
    513000   0.51048372    -7.789529      -7.0238143      3.8577235      50218.233      36.893836      36.893836      36.893836    
    514000   0.50762248    -7.7920732     -7.0306503      3.8279101      50218.233      36.893836      36.893836      36.893836    
    515000   0.51022308    -7.7857636     -7.0204398      3.8823412      50218.233      36.893836      36.893836      36.893836    
    516000   0.51165931    -7.7893216     -7.0218436      3.8562757      50218.233      36.893836      36.893836      36.893836    
    517000   0.51207037    -7.7872645     -7.0191699      3.8724064      50218.233      36.893836      36.893836      36.893836    
    518000   0.51100828    -7.7887132     -7.0222117      3.8751619      50218.233      36.893836      36.893836      36.893836    
    519000   0.50944385    -7.7878312     -7.0236763      3.8705652      50218.233      36.893836      36.893836      36.893836    
    520000   0.51299465    -7.7909396     -7.0214586      3.8508113      50218.233      36.893836      36.893836      36.893836    
    521000   0.50882122    -7.7875235     -7.0243026      3.8752426      50218.233      36.893836      36.893836      36.893836    
    522000   0.51015496    -7.7879171     -7.0226956      3.8678052      50218.233      36.893836      36.893836      36.893836    
    523000   0.5109042     -7.7904952     -7.0241498      3.8542231      50218.233      36.893836      36.893836      36.893836    
    524000   0.50914005    -7.7870411     -7.0233419      3.8699261      50218.233      36.893836      36.893836      36.893836    
    525000   0.50950631    -7.7872695     -7.0230209      3.8675729      50218.233      36.893836      36.893836      36.893836    
    526000   0.51052347    -7.7854024     -7.0196281      3.8893806      50218.233      36.893836      36.893836      36.893836    
    527000   0.51272833    -7.7902172     -7.0211357      3.8484985      50218.233      36.893836      36.893836      36.893836    
    528000   0.50830744    -7.7919348     -7.0294845      3.8230909      50218.233      36.893836      36.893836      36.893836    
    529000   0.51136572    -7.7870431     -7.0200055      3.8764351      50218.233      36.893836      36.893836      36.893836    
    530000   0.5123874     -7.7871127     -7.0185425      3.8655388      50218.233      36.893836      36.893836      36.893836    
    531000   0.5107127     -7.7899368     -7.0238786      3.8422577      50218.233      36.893836      36.893836      36.893836    
    532000   0.50703084    -7.7883349     -7.0277995      3.8617693      50218.233      36.893836      36.893836      36.893836    
    533000   0.51097376    -7.7900311     -7.0235813      3.8551266      50218.233      36.893836      36.893836      36.893836    
    534000   0.51212744    -7.7889354     -7.0207552      3.8574764      50218.233      36.893836      36.893836      36.893836    
    535000   0.51152776    -7.7910746     -7.0237939      3.8498996      50218.233      36.893836      36.893836      36.893836    
    536000   0.5082646     -7.7926016     -7.0302155      3.8170342      50218.233      36.893836      36.893836      36.893836    
    537000   0.50851719    -7.7891362     -7.0263713      3.8600342      50218.233      36.893836      36.893836      36.893836    
    538000   0.50971628    -7.7908667     -7.0263031      3.8442506      50218.233      36.893836      36.893836      36.893836    
    539000   0.51022249    -7.7842443     -7.0189215      3.8912363      50218.233      36.893836      36.893836      36.893836    
    540000   0.51163519    -7.7948799     -7.027438       3.8194787      50218.233      36.893836      36.893836      36.893836    
    541000   0.5096892     -7.7915672     -7.0270442      3.8323581      50218.233      36.893836      36.893836      36.893836    
    542000   0.50783383    -7.7898835     -7.0281436      3.846877       50218.233      36.893836      36.893836      36.893836    
    543000   0.51071298    -7.7949912     -7.0289327      3.8154557      50218.233      36.893836      36.893836      36.893836    
    544000   0.5075145     -7.7904663     -7.0292053      3.8502149      50218.233      36.893836      36.893836      36.893836    
    545000   0.51133484    -7.7932798     -7.0262885      3.830584       50218.233      36.893836      36.893836      36.893836    
    546000   0.51064363    -7.7906422     -7.0246876      3.8571973      50218.233      36.893836      36.893836      36.893836    
    547000   0.51039645    -7.7916147     -7.0260309      3.8312644      50218.233      36.893836      36.893836      36.893836    
    548000   0.51157967    -7.7924815     -7.0251229      3.8446286      50218.233      36.893836      36.893836      36.893836    
    549000   0.50993237    -7.7903177     -7.02543        3.8485993      50218.233      36.893836      36.893836      36.893836    
    550000   0.51005248    -7.7889816     -7.0239138      3.8560445      50218.233      36.893836      36.893836      36.893836    
    551000   0.51027907    -7.7957091     -7.0303014      3.8058664      50218.233      36.893836      36.893836      36.893836    
    552000   0.5086237     -7.7905807     -7.027656       3.8393865      50218.233      36.893836      36.893836      36.893836    
    553000   0.51003052    -7.794754      -7.0297191      3.8115118      50218.233      36.893836      36.893836      36.893836    
    554000   0.50997561    -7.7884351     -7.0234825      3.8525183      50218.233      36.893836      36.893836      36.893836    
    555000   0.51214271    -7.7908946     -7.0226915      3.8463322      50218.233      36.893836      36.893836      36.893836    
    556000   0.5096449     -7.7886896     -7.0242331      3.8567501      50218.233      36.893836      36.893836      36.893836    
    557000   0.51177553    -7.7832315     -7.0155791      3.9120761      50218.233      36.893836      36.893836      36.893836    
    558000   0.51190755    -7.7894068     -7.0215564      3.8606083      50218.233      36.893836      36.893836      36.893836    
    559000   0.5096613     -7.7907746     -7.0262935      3.8566081      50218.233      36.893836      36.893836      36.893836    
    560000   0.51070559    -7.7902347     -7.0241872      3.8478548      50218.233      36.893836      36.893836      36.893836    
    561000   0.51042389    -7.792347      -7.026722       3.8387304      50218.233      36.893836      36.893836      36.893836    
    562000   0.5094397     -7.7909903     -7.0268416      3.8450546      50218.233      36.893836      36.893836      36.893836    
    563000   0.51396669    -7.7905465     -7.0196075      3.8562329      50218.233      36.893836      36.893836      36.893836    
    564000   0.51237881    -7.7894499     -7.0208926      3.8520985      50218.233      36.893836      36.893836      36.893836    
    565000   0.50937758    -7.7897408     -7.0256853      3.8497657      50218.233      36.893836      36.893836      36.893836    
    566000   0.51088156    -7.7916382     -7.0253267      3.8420863      50218.233      36.893836      36.893836      36.893836    
    567000   0.50966543    -7.7902319     -7.0257446      3.8418102      50218.233      36.893836      36.893836      36.893836    
    568000   0.51094665    -7.7910941     -7.024685       3.8480346      50218.233      36.893836      36.893836      36.893836    
    569000   0.51354144    -7.7903519     -7.0200507      3.8477774      50218.233      36.893836      36.893836      36.893836    
    570000   0.51178936    -7.7914315     -7.0237583      3.8553955      50218.233      36.893836      36.893836      36.893836    
    571000   0.50778428    -7.7890289     -7.0273633      3.8518059      50218.233      36.893836      36.893836      36.893836    
    572000   0.50745585    -7.7902108     -7.0290378      3.8439279      50218.233      36.893836      36.893836      36.893836    
    573000   0.5108103     -7.7932413     -7.0270368      3.8216507      50218.233      36.893836      36.893836      36.893836    
    574000   0.51135766    -7.7905522     -7.0235267      3.8547063      50218.233      36.893836      36.893836      36.893836    
    575000   0.51229015    -7.7869735     -7.0185492      3.8763329      50218.233      36.893836      36.893836      36.893836    
    576000   0.50848459    -7.7905384     -7.0278223      3.8369399      50218.233      36.893836      36.893836      36.893836    
    577000   0.51006725    -7.7921655     -7.0270755      3.8338017      50218.233      36.893836      36.893836      36.893836    
    578000   0.50782757    -7.7871172     -7.0253866      3.8682101      50218.233      36.893836      36.893836      36.893836    
    579000   0.50850957    -7.789763      -7.0270095      3.8493256      50218.233      36.893836      36.893836      36.893836    
    580000   0.51338921    -7.7901502     -7.0200773      3.8504005      50218.233      36.893836      36.893836      36.893836    
    581000   0.50730451    -7.789198      -7.028252       3.843659       50218.233      36.893836      36.893836      36.893836    
    582000   0.5105232     -7.7910593     -7.0252853      3.8545017      50218.233      36.893836      36.893836      36.893836    
    583000   0.51176072    -7.7934061     -7.025776       3.8215455      50218.233      36.893836      36.893836      36.893836    
    584000   0.51163519    -7.7879318     -7.0204899      3.8726995      50218.233      36.893836      36.893836      36.893836    
    585000   0.50982093    -7.7929768     -7.0282563      3.8300187      50218.233      36.893836      36.893836      36.893836    
    586000   0.51163455    -7.7886958     -7.0212549      3.8665479      50218.233      36.893836      36.893836      36.893836    
    587000   0.50936085    -7.7902816     -7.0262511      3.8588199      50218.233      36.893836      36.893836      36.893836    
    588000   0.51099547    -7.7915273     -7.025045       3.8493049      50218.233      36.893836      36.893836      36.893836    
    589000   0.51070625    -7.7915596     -7.0255111      3.8282229      50218.233      36.893836      36.893836      36.893836    
    590000   0.5126468     -7.7912515     -7.0222922      3.8524801      50218.233      36.893836      36.893836      36.893836    
    591000   0.51173905    -7.7907845     -7.0231868      3.8431167      50218.233      36.893836      36.893836      36.893836    
    592000   0.51136371    -7.7834668     -7.0164322      3.8995248      50218.233      36.893836      36.893836      36.893836    
    593000   0.51054304    -7.7928582     -7.0270545      3.8268986      50218.233      36.893836      36.893836      36.893836    
    594000   0.51061436    -7.7892747     -7.0233641      3.8478776      50218.233      36.893836      36.893836      36.893836    
    595000   0.5089        -7.7916219     -7.0282827      3.8350784      50218.233      36.893836      36.893836      36.893836    
    596000   0.51204466    -7.7935222     -7.0254661      3.8452761      50218.233      36.893836      36.893836      36.893836    
    597000   0.50941465    -7.7900819     -7.0259708      3.8520541      50218.233      36.893836      36.893836      36.893836    
    598000   0.51065169    -7.7910683     -7.0251016      3.8485655      50218.233      36.893836      36.893836      36.893836    
    599000   0.5085343     -7.7890371     -7.0262465      3.8604049      50218.233      36.893836      36.893836      36.893836    
    600000   0.51090692    -7.7881966     -7.0218471      3.8570605      50218.233      36.893836      36.893836      36.893836    
    601000   0.51034686    -7.7923635     -7.0268541      3.8365266      50218.233      36.893836      36.893836      36.893836    
    602000   0.51089031    -7.7908692     -7.0245446      3.8502057      50218.233      36.893836      36.893836      36.893836    
    603000   0.50929839    -7.7928758     -7.028939       3.8279914      50218.233      36.893836      36.893836      36.893836    
    604000   0.50911083    -7.793243      -7.0295876      3.8270191      50218.233      36.893836      36.893836      36.893836    
    605000   0.51052592    -7.7890584     -7.0232804      3.8589108      50218.233      36.893836      36.893836      36.893836    
    606000   0.50927888    -7.7938414     -7.029934       3.8244051      50218.233      36.893836      36.893836      36.893836    
    607000   0.5107713     -7.7953179     -7.0291718      3.8158958      50218.233      36.893836      36.893836      36.893836    
    608000   0.51083337    -7.7901952     -7.023956       3.8464605      50218.233      36.893836      36.893836      36.893836    
    609000   0.50953962    -7.7898066     -7.025508       3.8673501      50218.233      36.893836      36.893836      36.893836    
    610000   0.50959972    -7.7903128     -7.0259241      3.8492234      50218.233      36.893836      36.893836      36.893836    
    611000   0.50878761    -7.7894631     -7.0262926      3.8552937      50218.233      36.893836      36.893836      36.893836    
    612000   0.51008899    -7.7914308     -7.0263082      3.8528443      50218.233      36.893836      36.893836      36.893836    
    613000   0.50841537    -7.7901445     -7.0275323      3.8550006      50218.233      36.893836      36.893836      36.893836    
    614000   0.51016077    -7.7906904     -7.0254601      3.8547355      50218.233      36.893836      36.893836      36.893836    
    615000   0.50704425    -7.7907321     -7.0301766      3.8414971      50218.233      36.893836      36.893836      36.893836    
    616000   0.50888871    -7.7916119     -7.0282897      3.8371383      50218.233      36.893836      36.893836      36.893836    
    617000   0.50958419    -7.7859099     -7.0215445      3.8795315      50218.233      36.893836      36.893836      36.893836    
    618000   0.50957857    -7.7929718     -7.0286148      3.8299571      50218.233      36.893836      36.893836      36.893836    
    619000   0.51039873    -7.7900727     -7.0244855      3.8609678      50218.233      36.893836      36.893836      36.893836    
    620000   0.51061677    -7.7932582     -7.0273439      3.8321943      50218.233      36.893836      36.893836      36.893836    
    621000   0.5102104     -7.7922747     -7.02697        3.8407989      50218.233      36.893836      36.893836      36.893836    
    622000   0.50849688    -7.7904631     -7.0277286      3.8545653      50218.233      36.893836      36.893836      36.893836    
    623000   0.51141248    -7.791937      -7.0248292      3.8294595      50218.233      36.893836      36.893836      36.893836    
    624000   0.51468642    -7.7884743     -7.0164556      3.8683656      50218.233      36.893836      36.893836      36.893836    
    625000   0.51055247    -7.7937154     -7.0278976      3.8233226      50218.233      36.893836      36.893836      36.893836    
    626000   0.50878214    -7.787954      -7.0247917      3.8784555      50218.233      36.893836      36.893836      36.893836    
    627000   0.50880175    -7.7909068     -7.0277151      3.8401871      50218.233      36.893836      36.893836      36.893836    
    628000   0.51056511    -7.7893593     -7.0235225      3.862209       50218.233      36.893836      36.893836      36.893836    
    629000   0.50991847    -7.7843631     -7.0194963      3.8990279      50218.233      36.893836      36.893836      36.893836    
    630000   0.50588151    -7.7938724     -7.0350609      3.8159515      50218.233      36.893836      36.893836      36.893836    
    631000   0.51102251    -7.7925798     -7.026057       3.8410339      50218.233      36.893836      36.893836      36.893836    
    632000   0.51085386    -7.7903743     -7.0241044      3.8575514      50218.233      36.893836      36.893836      36.893836    
    633000   0.51017781    -7.7902009     -7.024945       3.8546515      50218.233      36.893836      36.893836      36.893836    
    634000   0.50747508    -7.7901461     -7.0289443      3.8397916      50218.233      36.893836      36.893836      36.893836    
    635000   0.50784703    -7.7916854     -7.0299257      3.8393359      50218.233      36.893836      36.893836      36.893836    
    636000   0.51065775    -7.7874951     -7.0215193      3.8742259      50218.233      36.893836      36.893836      36.893836    
    637000   0.50998766    -7.7852884     -7.0203178      3.8835617      50218.233      36.893836      36.893836      36.893836    
    638000   0.50877553    -7.7904857     -7.0273332      3.8445094      50218.233      36.893836      36.893836      36.893836    
    639000   0.51037442    -7.7861967     -7.0206459      3.8760022      50218.233      36.893836      36.893836      36.893836    
    640000   0.50924956    -7.7897089     -7.0258454      3.857869       50218.233      36.893836      36.893836      36.893836    
    641000   0.51151454    -7.7903221     -7.0230612      3.8607722      50218.233      36.893836      36.893836      36.893836    
    642000   0.51080413    -7.7909234     -7.0247281      3.8536098      50218.233      36.893836      36.893836      36.893836    
    643000   0.5106251     -7.7906764     -7.0247496      3.8473072      50218.233      36.893836      36.893836      36.893836    
    644000   0.50926077    -7.7923861     -7.0285058      3.8383952      50218.233      36.893836      36.893836      36.893836    
    645000   0.50864146    -7.7838791     -7.0209278      3.9047954      50218.233      36.893836      36.893836      36.893836    
    646000   0.51112478    -7.7880916     -7.0214153      3.8726821      50218.233      36.893836      36.893836      36.893836    
    647000   0.50957413    -7.7893919     -7.0250415      3.8571021      50218.233      36.893836      36.893836      36.893836    
    648000   0.50996916    -7.7921631     -7.0272203      3.833028       50218.233      36.893836      36.893836      36.893836    
    649000   0.5091622     -7.7880012     -7.0242688      3.8624368      50218.233      36.893836      36.893836      36.893836    
    650000   0.51035529    -7.7921006     -7.0265785      3.8416469      50218.233      36.893836      36.893836      36.893836    
    651000   0.50884435    -7.7943437     -7.0310881      3.8277082      50218.233      36.893836      36.893836      36.893836    
    652000   0.51106258    -7.7877148     -7.0211318      3.8717312      50218.233      36.893836      36.893836      36.893836    
    653000   0.50815205    -7.7899865     -7.0277693      3.8647211      50218.233      36.893836      36.893836      36.893836    
    654000   0.51202401    -7.790333      -7.0223079      3.8479223      50218.233      36.893836      36.893836      36.893836    
    655000   0.51199694    -7.7897537     -7.0217692      3.8494963      50218.233      36.893836      36.893836      36.893836    
    656000   0.51205218    -7.7923232     -7.0242558      3.8361643      50218.233      36.893836      36.893836      36.893836    
    657000   0.50805292    -7.7893359     -7.0272674      3.8541232      50218.233      36.893836      36.893836      36.893836    
    658000   0.5124761     -7.788355      -7.0196518      3.8551924      50218.233      36.893836      36.893836      36.893836    
    659000   0.51169714    -7.7890225     -7.0214877      3.8645857      50218.233      36.893836      36.893836      36.893836    
    660000   0.51131042    -7.788048      -7.0210933      3.8642358      50218.233      36.893836      36.893836      36.893836    
    661000   0.51338627    -7.7905463     -7.0204778      3.8614907      50218.233      36.893836      36.893836      36.893836    
    662000   0.5149863     -7.7868403     -7.0143718      3.8700323      50218.233      36.893836      36.893836      36.893836    
    663000   0.50913279    -7.792277      -7.0285887      3.8372117      50218.233      36.893836      36.893836      36.893836    
    664000   0.51090078    -7.7855443     -7.019204       3.8921899      50218.233      36.893836      36.893836      36.893836    
    665000   0.50820209    -7.7925312     -7.0302389      3.8355308      50218.233      36.893836      36.893836      36.893836    
    666000   0.51190628    -7.7856486     -7.0178001      3.8991599      50218.233      36.893836      36.893836      36.893836    
    667000   0.51072525    -7.7893192     -7.0232422      3.8722639      50218.233      36.893836      36.893836      36.893836    
    668000   0.50970622    -7.7933749     -7.0288264      3.8321581      50218.233      36.893836      36.893836      36.893836    
    669000   0.51283212    -7.7856526     -7.0164154      3.9016533      50218.233      36.893836      36.893836      36.893836    
    670000   0.51160616    -7.790105      -7.0227066      3.8628279      50218.233      36.893836      36.893836      36.893836    
    671000   0.50806312    -7.7875379     -7.0254541      3.867564       50218.233      36.893836      36.893836      36.893836    
    672000   0.50839605    -7.7914059     -7.0288226      3.8502807      50218.233      36.893836      36.893836      36.893836    
    673000   0.51113204    -7.7861197     -7.0194325      3.8800476      50218.233      36.893836      36.893836      36.893836    
    674000   0.51079686    -7.7902872     -7.0241028      3.8612881      50218.233      36.893836      36.893836      36.893836    
    675000   0.51065801    -7.7907222     -7.024746       3.8508173      50218.233      36.893836      36.893836      36.893836    
    676000   0.5081336     -7.7944245     -7.032235       3.8180516      50218.233      36.893836      36.893836      36.893836    
    677000   0.50925637    -7.790171      -7.0262973      3.8457515      50218.233      36.893836      36.893836      36.893836    
    678000   0.50909643    -7.7880324     -7.0243986      3.8634177      50218.233      36.893836      36.893836      36.893836    
    679000   0.50832991    -7.7907284     -7.0282443      3.8420599      50218.233      36.893836      36.893836      36.893836    
    680000   0.50839426    -7.7884396     -7.025859       3.8667194      50218.233      36.893836      36.893836      36.893836    
    681000   0.51047181    -7.7928073     -7.0271105      3.8323936      50218.233      36.893836      36.893836      36.893836    
    682000   0.5105634     -7.788702      -7.0228678      3.8624904      50218.233      36.893836      36.893836      36.893836    
    683000   0.51082406    -7.7916466     -7.0254214      3.8360853      50218.233      36.893836      36.893836      36.893836    
    684000   0.50810119    -7.7893348     -7.0271938      3.8494564      50218.233      36.893836      36.893836      36.893836    
    685000   0.50840728    -7.7881881     -7.025588       3.8602433      50218.233      36.893836      36.893836      36.893836    
    686000   0.50976298    -7.7896717     -7.0250382      3.8536115      50218.233      36.893836      36.893836      36.893836    
    687000   0.5095019     -7.7880063     -7.0237643      3.8603415      50218.233      36.893836      36.893836      36.893836    
    688000   0.51183415    -7.7871697     -7.0194293      3.894774       50218.233      36.893836      36.893836      36.893836    
    689000   0.50935806    -7.7860611     -7.0220349      3.8808665      50218.233      36.893836      36.893836      36.893836    
    690000   0.51026558    -7.7862765     -7.020889       3.8814637      50218.233      36.893836      36.893836      36.893836    
    691000   0.5142716     -7.7872622     -7.0158658      3.8727003      50218.233      36.893836      36.893836      36.893836    
    692000   0.50804662    -7.7933593     -7.0313002      3.8317871      50218.233      36.893836      36.893836      36.893836    
    693000   0.50855258    -7.7885027     -7.0256847      3.8693512      50218.233      36.893836      36.893836      36.893836    
    694000   0.50904426    -7.7871259     -7.0235704      3.869439       50218.233      36.893836      36.893836      36.893836    
    695000   0.5085834     -7.7881276     -7.0252633      3.8765475      50218.233      36.893836      36.893836      36.893836    
    696000   0.51079072    -7.7816055     -7.0154303      3.9146362      50218.233      36.893836      36.893836      36.893836    
    697000   0.5111785     -7.7878894     -7.0211325      3.8676639      50218.233      36.893836      36.893836      36.893836    
    698000   0.51021901    -7.7878383     -7.0225207      3.8670458      50218.233      36.893836      36.893836      36.893836    
    699000   0.50950164    -7.7887493     -7.0245077      3.8618237      50218.233      36.893836      36.893836      36.893836    
    700000   0.51176078    -7.7907138     -7.0230836      3.8411234      50218.233      36.893836      36.893836      36.893836    
    701000   0.50733908    -7.7874387     -7.0264409      3.8722358      50218.233      36.893836      36.893836      36.893836    
    702000   0.5076364     -7.7863443     -7.0249006      3.8678361      50218.233      36.893836      36.893836      36.893836    
    703000   0.50841309    -7.791409      -7.0288002      3.8386673      50218.233      36.893836      36.893836      36.893836    
    704000   0.51044129    -7.7898897     -7.0242386      3.84915        50218.233      36.893836      36.893836      36.893836    
    705000   0.50733808    -7.7855873     -7.024591       3.8848105      50218.233      36.893836      36.893836      36.893836    
    706000   0.51102772    -7.7939136     -7.0273829      3.8174252      50218.233      36.893836      36.893836      36.893836    
    707000   0.50807791    -7.7863782     -7.0242721      3.8767085      50218.233      36.893836      36.893836      36.893836    
    708000   0.50965811    -7.785975      -7.0214987      3.8833351      50218.233      36.893836      36.893836      36.893836    
    709000   0.51150486    -7.7881715     -7.0209251      3.8597178      50218.233      36.893836      36.893836      36.893836    
    710000   0.50774572    -7.7876649     -7.0260572      3.866168       50218.233      36.893836      36.893836      36.893836    
    711000   0.50917156    -7.788928      -7.0251815      3.8658987      50218.233      36.893836      36.893836      36.893836    
    712000   0.51028706    -7.7877166     -7.0222969      3.8680525      50218.233      36.893836      36.893836      36.893836    
    713000   0.50800815    -7.787272      -7.0252706      3.8704357      50218.233      36.893836      36.893836      36.893836    
    714000   0.51046325    -7.7894377     -7.0237537      3.8516217      50218.233      36.893836      36.893836      36.893836    
    715000   0.5123569     -7.7876848     -7.0191604      3.8733642      50218.233      36.893836      36.893836      36.893836    
    716000   0.5085502     -7.7889371     -7.0261226      3.8594928      50218.233      36.893836      36.893836      36.893836    
    717000   0.51075942    -7.7877984     -7.0216701      3.8702318      50218.233      36.893836      36.893836      36.893836    
    718000   0.50840479    -7.7887962     -7.0261998      3.851381       50218.233      36.893836      36.893836      36.893836    
    719000   0.51107552    -7.7878141     -7.0212117      3.8666407      50218.233      36.893836      36.893836      36.893836    
    720000   0.51212294    -7.7873564     -7.0191829      3.874119       50218.233      36.893836      36.893836      36.893836    
    721000   0.50796253    -7.789447      -7.0275141      3.85233        50218.233      36.893836      36.893836      36.893836    
    722000   0.50960935    -7.7880205     -7.0236173      3.8614534      50218.233      36.893836      36.893836      36.893836    
    723000   0.51103998    -7.7874502     -7.0209011      3.863261       50218.233      36.893836      36.893836      36.893836    
    724000   0.50850494    -7.7859819     -7.0232353      3.8865187      50218.233      36.893836      36.893836      36.893836    
    725000   0.51215356    -7.7876437     -7.0194243      3.8620043      50218.233      36.893836      36.893836      36.893836    
    726000   0.50643383    -7.7868846     -7.0272446      3.8704403      50218.233      36.893836      36.893836      36.893836    
    727000   0.50998573    -7.7894409     -7.0244732      3.8410653      50218.233      36.893836      36.893836      36.893836    
    728000   0.50928104    -7.7879952     -7.0240845      3.861957       50218.233      36.893836      36.893836      36.893836    
    729000   0.51121997    -7.7869988     -7.0201797      3.8715823      50218.233      36.893836      36.893836      36.893836    
    730000   0.50920913    -7.7892105     -7.0254076      3.8543661      50218.233      36.893836      36.893836      36.893836    
    731000   0.511554      -7.7893053     -7.0219852      3.8486401      50218.233      36.893836      36.893836      36.893836    
    732000   0.51054368    -7.7859142     -7.0201096      3.8751632      50218.233      36.893836      36.893836      36.893836    
    733000   0.50832485    -7.7889334     -7.0264569      3.8537398      50218.233      36.893836      36.893836      36.893836    
    734000   0.50714959    -7.78947       -7.0287564      3.847053       50218.233      36.893836      36.893836      36.893836    
    735000   0.51291705    -7.792954      -7.0235894      3.8393747      50218.233      36.893836      36.893836      36.893836    
    736000   0.51185118    -7.7865428     -7.0187769      3.8795056      50218.233      36.893836      36.893836      36.893836    
    737000   0.50971474    -7.7866581     -7.0220968      3.8673052      50218.233      36.893836      36.893836      36.893836    
    738000   0.51050793    -7.7893803     -7.0236293      3.848734       50218.233      36.893836      36.893836      36.893836    
    739000   0.50799901    -7.7844172     -7.0224295      3.8837464      50218.233      36.893836      36.893836      36.893836    
    740000   0.50809875    -7.7842773     -7.02214        3.8841789      50218.233      36.893836      36.893836      36.893836    
    741000   0.50938695    -7.7920714     -7.0280019      3.8328832      50218.233      36.893836      36.893836      36.893836    
    742000   0.51050946    -7.7906024     -7.0248491      3.8454092      50218.233      36.893836      36.893836      36.893836    
    743000   0.50992443    -7.7905146     -7.0256388      3.8570772      50218.233      36.893836      36.893836      36.893836    
    744000   0.50896893    -7.7880172     -7.0245746      3.8575683      50218.233      36.893836      36.893836      36.893836    
    745000   0.507098      -7.7898437     -7.0292075      3.8556784      50218.233      36.893836      36.893836      36.893836    
    746000   0.51197856    -7.7878352     -7.0198783      3.8665696      50218.233      36.893836      36.893836      36.893836    
    747000   0.50824528    -7.7879422     -7.0255851      3.8600583      50218.233      36.893836      36.893836      36.893836    
    748000   0.50928617    -7.788125      -7.0242067      3.862192       50218.233      36.893836      36.893836      36.893836    
    749000   0.50983589    -7.7913635     -7.0266205      3.8401684      50218.233      36.893836      36.893836      36.893836    
    750000   0.51424393    -7.7916614     -7.0203065      3.8461524      50218.233      36.893836      36.893836      36.893836    
    751000   0.51118988    -7.7857361     -7.0189622      3.890519       50218.233      36.893836      36.893836      36.893836    
    752000   0.51029817    -7.7852944     -7.019858       3.8815192      50218.233      36.893836      36.893836      36.893836    
    753000   0.50955159    -7.7865006     -7.0221841      3.8793792      50218.233      36.893836      36.893836      36.893836    
    754000   0.51249708    -7.7921932     -7.0234585      3.8477918      50218.233      36.893836      36.893836      36.893836    
    755000   0.51141887    -7.7888454     -7.021728       3.8655034      50218.233      36.893836      36.893836      36.893836    
    756000   0.51227374    -7.7846805     -7.0162808      3.9054131      50218.233      36.893836      36.893836      36.893836    
    757000   0.51012994    -7.7913863     -7.0262023      3.8359706      50218.233      36.893836      36.893836      36.893836    
    758000   0.50851899    -7.789295      -7.0265273      3.852688       50218.233      36.893836      36.893836      36.893836    
    759000   0.50907924    -7.7895659     -7.0259579      3.8497951      50218.233      36.893836      36.893836      36.893836    
    760000   0.51006081    -7.791523      -7.0264426      3.8451094      50218.233      36.893836      36.893836      36.893836    
    761000   0.51178557    -7.7906976     -7.0230302      3.8534021      50218.233      36.893836      36.893836      36.893836    
    762000   0.51129192    -7.7866564     -7.0197295      3.8815178      50218.233      36.893836      36.893836      36.893836    
    763000   0.51030702    -7.7887755     -7.0233259      3.8741268      50218.233      36.893836      36.893836      36.893836    
    764000   0.51063018    -7.7888634     -7.0229291      3.8659999      50218.233      36.893836      36.893836      36.893836    
    765000   0.50880963    -7.7905542     -7.0273506      3.8521824      50218.233      36.893836      36.893836      36.893836    
    766000   0.50774486    -7.788689      -7.0270826      3.8713786      50218.233      36.893836      36.893836      36.893836    
    767000   0.51281835    -7.7885639     -7.0193473      3.8662795      50218.233      36.893836      36.893836      36.893836    
    768000   0.51118298    -7.7882054     -7.0214419      3.8673626      50218.233      36.893836      36.893836      36.893836    
    769000   0.51371801    -7.7875849     -7.0170188      3.8814351      50218.233      36.893836      36.893836      36.893836    
    770000   0.50886492    -7.7883608     -7.0250742      3.8584172      50218.233      36.893836      36.893836      36.893836    
    771000   0.50858076    -7.788743      -7.0258827      3.85637        50218.233      36.893836      36.893836      36.893836    
    772000   0.50757575    -7.7899595     -7.0286068      3.8565548      50218.233      36.893836      36.893836      36.893836    
    773000   0.51018423    -7.7876422     -7.0223767      3.8755506      50218.233      36.893836      36.893836      36.893836    
    774000   0.50953302    -7.7869582     -7.0226695      3.8886763      50218.233      36.893836      36.893836      36.893836    
    775000   0.50830544    -7.7856814     -7.0232341      3.8802815      50218.233      36.893836      36.893836      36.893836    
    776000   0.51009066    -7.7909712     -7.0258461      3.8456623      50218.233      36.893836      36.893836      36.893836    
    777000   0.50896849    -7.7860142     -7.0225724      3.8779477      50218.233      36.893836      36.893836      36.893836    
    778000   0.51003262    -7.7861233     -7.0210853      3.8867695      50218.233      36.893836      36.893836      36.893836    
    779000   0.51132594    -7.7903503     -7.0233723      3.8400065      50218.233      36.893836      36.893836      36.893836    
    780000   0.51197585    -7.7918445     -7.0238916      3.8352467      50218.233      36.893836      36.893836      36.893836    
    781000   0.50915679    -7.7888633     -7.0251389      3.8687083      50218.233      36.893836      36.893836      36.893836    
    782000   0.51135046    -7.7889397     -7.021925       3.8629781      50218.233      36.893836      36.893836      36.893836    
    783000   0.5101894     -7.7862599     -7.0209867      3.878526       50218.233      36.893836      36.893836      36.893836    
    784000   0.50878053    -7.7915044     -7.0283445      3.8361328      50218.233      36.893836      36.893836      36.893836    
    785000   0.50734828    -7.7868643     -7.0258527      3.8689423      50218.233      36.893836      36.893836      36.893836    
    786000   0.51106832    -7.7938204     -7.0272289      3.8293094      50218.233      36.893836      36.893836      36.893836    
    787000   0.51001577    -7.7847404     -7.0197276      3.9007192      50218.233      36.893836      36.893836      36.893836    
    788000   0.50715848    -7.7911666     -7.0304397      3.8381541      50218.233      36.893836      36.893836      36.893836    
    789000   0.50964397    -7.7890966     -7.0246415      3.8603733      50218.233      36.893836      36.893836      36.893836    
    790000   0.51246223    -7.7920337     -7.0233513      3.8393097      50218.233      36.893836      36.893836      36.893836    
    791000   0.50876143    -7.7845658     -7.0214345      3.8854242      50218.233      36.893836      36.893836      36.893836    
    792000   0.50972206    -7.7892817     -7.0247095      3.8625128      50218.233      36.893836      36.893836      36.893836    
    793000   0.50799559    -7.7907612     -7.0287786      3.8322106      50218.233      36.893836      36.893836      36.893836    
    794000   0.51171613    -7.7890731     -7.0215098      3.8580176      50218.233      36.893836      36.893836      36.893836    
    795000   0.51049242    -7.78706       -7.0213322      3.8723989      50218.233      36.893836      36.893836      36.893836    
    796000   0.50747587    -7.7895126     -7.0283096      3.8638457      50218.233      36.893836      36.893836      36.893836    
    797000   0.50919225    -7.7890681     -7.0252906      3.8535994      50218.233      36.893836      36.893836      36.893836    
    798000   0.50962584    -7.7837545     -7.0193266      3.8966128      50218.233      36.893836      36.893836      36.893836    
    799000   0.50984583    -7.7925417     -7.0277838      3.8228267      50218.233      36.893836      36.893836      36.893836    
    800000   0.51175906    -7.7872362     -7.0196085      3.8862489      50218.233      36.893836      36.893836      36.893836    
    801000   0.50687248    -7.7880494     -7.0277515      3.8680783      50218.233      36.893836      36.893836      36.893836    
    802000   0.51118376    -7.7928611     -7.0260964      3.8382911      50218.233      36.893836      36.893836      36.893836    
    803000   0.50616426    -7.7870108     -7.0277752      3.8704176      50218.233      36.893836      36.893836      36.893836    
    804000   0.51405516    -7.7910778     -7.020006       3.8466437      50218.233      36.893836      36.893836      36.893836    
    805000   0.51130935    -7.7920164     -7.0250632      3.8475646      50218.233      36.893836      36.893836      36.893836    
    806000   0.51116177    -7.789648      -7.0229162      3.8686145      50218.233      36.893836      36.893836      36.893836    
    807000   0.50931392    -7.7838082     -7.0198482      3.8878732      50218.233      36.893836      36.893836      36.893836    
    808000   0.50899258    -7.7898958     -7.0264178      3.8502839      50218.233      36.893836      36.893836      36.893836    
    809000   0.50919748    -7.7932128     -7.0294275      3.8199764      50218.233      36.893836      36.893836      36.893836    
    810000   0.51055477    -7.7877467     -7.0219254      3.8772379      50218.233      36.893836      36.893836      36.893836    
    811000   0.51025213    -7.7892633     -7.023896       3.8541543      50218.233      36.893836      36.893836      36.893836    
    812000   0.51181844    -7.7892613     -7.0215446      3.8603809      50218.233      36.893836      36.893836      36.893836    
    813000   0.50696367    -7.7888912     -7.0284565      3.857876       50218.233      36.893836      36.893836      36.893836    
    814000   0.50691382    -7.7889672     -7.0286073      3.8414695      50218.233      36.893836      36.893836      36.893836    
    815000   0.5123571     -7.7932998     -7.0247751      3.8310833      50218.233      36.893836      36.893836      36.893836    
    816000   0.50959149    -7.7908198     -7.0264434      3.8423551      50218.233      36.893836      36.893836      36.893836    
    817000   0.51210671    -7.7878035     -7.0196544      3.8757637      50218.233      36.893836      36.893836      36.893836    
    818000   0.50979002    -7.7900854     -7.0254112      3.8366126      50218.233      36.893836      36.893836      36.893836    
    819000   0.51247923    -7.7896652     -7.0209573      3.853311       50218.233      36.893836      36.893836      36.893836    
    820000   0.509552      -7.7911216     -7.0268045      3.8422401      50218.233      36.893836      36.893836      36.893836    
    821000   0.51272915    -7.7898042     -7.0207214      3.8585371      50218.233      36.893836      36.893836      36.893836    
    822000   0.51077725    -7.7886207     -7.0224658      3.8649917      50218.233      36.893836      36.893836      36.893836    
    823000   0.50841737    -7.7923603     -7.0297451      3.827407       50218.233      36.893836      36.893836      36.893836    
    824000   0.51151662    -7.7916908     -7.0244268      3.8379136      50218.233      36.893836      36.893836      36.893836    
    825000   0.51061365    -7.7918355     -7.0259259      3.8372712      50218.233      36.893836      36.893836      36.893836    
    826000   0.51218304    -7.7880055     -7.0197418      3.8774185      50218.233      36.893836      36.893836      36.893836    
    827000   0.50955682    -7.793001      -7.0286766      3.8195333      50218.233      36.893836      36.893836      36.893836    
    828000   0.50922411    -7.7886478     -7.0248225      3.8669062      50218.233      36.893836      36.893836      36.893836    
    829000   0.5083052     -7.7889096     -7.0264626      3.8625234      50218.233      36.893836      36.893836      36.893836    
    830000   0.50664082    -7.792703      -7.0327526      3.8292553      50218.233      36.893836      36.893836      36.893836    
    831000   0.50681685    -7.7888971     -7.0286826      3.8520439      50218.233      36.893836      36.893836      36.893836    
    832000   0.50959737    -7.7902499     -7.0258647      3.8424713      50218.233      36.893836      36.893836      36.893836    
    833000   0.51124872    -7.790327      -7.0234649      3.8504758      50218.233      36.893836      36.893836      36.893836    
    834000   0.50883441    -7.7879035     -7.0246628      3.8662477      50218.233      36.893836      36.893836      36.893836    
    835000   0.50769574    -7.7878324     -7.0262996      3.8805108      50218.233      36.893836      36.893836      36.893836    
    836000   0.5115283     -7.7902721     -7.0229905      3.8454829      50218.233      36.893836      36.893836      36.893836    
    837000   0.51039161    -7.7933617     -7.0277852      3.8304836      50218.233      36.893836      36.893836      36.893836    
    838000   0.5102793     -7.7905296     -7.0251216      3.8538557      50218.233      36.893836      36.893836      36.893836    
    839000   0.51137704    -7.7909114     -7.0238568      3.8474927      50218.233      36.893836      36.893836      36.893836    
    840000   0.50897111    -7.7920926     -7.0286468      3.8410506      50218.233      36.893836      36.893836      36.893836    
    841000   0.51179841    -7.7914343     -7.0237476      3.8337847      50218.233      36.893836      36.893836      36.893836    
    842000   0.50954586    -7.7902641     -7.0259562      3.8453657      50218.233      36.893836      36.893836      36.893836    
    843000   0.50920021    -7.7918209     -7.0280314      3.839701       50218.233      36.893836      36.893836      36.893836    
    844000   0.51017376    -7.7934027     -7.0281529      3.8306811      50218.233      36.893836      36.893836      36.893836    
    845000   0.51154063    -7.7911514     -7.0238514      3.8481691      50218.233      36.893836      36.893836      36.893836    
    846000   0.50871681    -7.7935664     -7.030502       3.8357554      50218.233      36.893836      36.893836      36.893836    
    847000   0.51235062    -7.7917866     -7.0232716      3.8383693      50218.233      36.893836      36.893836      36.893836    
    848000   0.51423876    -7.7939942     -7.022647       3.8243461      50218.233      36.893836      36.893836      36.893836    
    849000   0.51087918    -7.7935483     -7.0272405      3.8109156      50218.233      36.893836      36.893836      36.893836    
    850000   0.51014141    -7.7909339     -7.0257327      3.8363307      50218.233      36.893836      36.893836      36.893836    
    851000   0.50896108    -7.7902108     -7.0267801      3.8453411      50218.233      36.893836      36.893836      36.893836    
    852000   0.51135423    -7.7912268     -7.0242064      3.8346006      50218.233      36.893836      36.893836      36.893836    
    853000   0.51074964    -7.7916363     -7.0255227      3.8376163      50218.233      36.893836      36.893836      36.893836    
    854000   0.51176389    -7.7925508     -7.0249159      3.8341899      50218.233      36.893836      36.893836      36.893836    
    855000   0.50970453    -7.7948942     -7.0303483      3.8000642      50218.233      36.893836      36.893836      36.893836    
    856000   0.5104847     -7.7955741     -7.0298579      3.8117552      50218.233      36.893836      36.893836      36.893836    
    857000   0.50928634    -7.7953364     -7.0314177      3.8078057      50218.233      36.893836      36.893836      36.893836    
    858000   0.51114041    -7.7914162     -7.0247165      3.8503436      50218.233      36.893836      36.893836      36.893836    
    859000   0.50939219    -7.7952266     -7.0311492      3.8247562      50218.233      36.893836      36.893836      36.893836    
    860000   0.51012891    -7.7909098     -7.0257273      3.8449388      50218.233      36.893836      36.893836      36.893836    
    861000   0.5113828     -7.7878392     -7.0207759      3.874209       50218.233      36.893836      36.893836      36.893836    
    862000   0.510329      -7.7923607     -7.026878       3.8363689      50218.233      36.893836      36.893836      36.893836    
    863000   0.50902342    -7.7934175     -7.0298932      3.8239119      50218.233      36.893836      36.893836      36.893836    
    864000   0.50574135    -7.7917954     -7.0331941      3.8295236      50218.233      36.893836      36.893836      36.893836    
    865000   0.51083977    -7.7937556     -7.0275069      3.8207422      50218.233      36.893836      36.893836      36.893836    
    866000   0.50874772    -7.7906616     -7.0275509      3.8475729      50218.233      36.893836      36.893836      36.893836    
    867000   0.50906794    -7.7928714     -7.0292803      3.8242225      50218.233      36.893836      36.893836      36.893836    
    868000   0.5088675     -7.7906089     -7.0273186      3.8474571      50218.233      36.893836      36.893836      36.893836    
    869000   0.512364      -7.7931815     -7.0246464      3.8355894      50218.233      36.893836      36.893836      36.893836    
    870000   0.51167342    -7.7903923     -7.022893       3.8635299      50218.233      36.893836      36.893836      36.893836    
    871000   0.51072582    -7.7906936     -7.0246157      3.8613763      50218.233      36.893836      36.893836      36.893836    
    872000   0.50958839    -7.7889287     -7.0245569      3.850507       50218.233      36.893836      36.893836      36.893836    
    873000   0.51135804    -7.787733      -7.0207069      3.8722667      50218.233      36.893836      36.893836      36.893836    
    874000   0.50893461    -7.7872256     -7.0238346      3.8663549      50218.233      36.893836      36.893836      36.893836    
    875000   0.51009853    -7.7877659     -7.022629       3.8742317      50218.233      36.893836      36.893836      36.893836    
    876000   0.50907393    -7.7875112     -7.0239111      3.8610439      50218.233      36.893836      36.893836      36.893836    
    877000   0.51122719    -7.7907672     -7.0239373      3.8482147      50218.233      36.893836      36.893836      36.893836    
    878000   0.51024738    -7.7915844     -7.0262242      3.8358726      50218.233      36.893836      36.893836      36.893836    
    879000   0.50878658    -7.7899643     -7.0267953      3.857417       50218.233      36.893836      36.893836      36.893836    
    880000   0.51170153    -7.7915192     -7.0239779      3.8492338      50218.233      36.893836      36.893836      36.893836    
    881000   0.51003582    -7.7915991     -7.0265563      3.8348094      50218.233      36.893836      36.893836      36.893836    
    882000   0.50985826    -7.7867111     -7.0219346      3.8921386      50218.233      36.893836      36.893836      36.893836    
    883000   0.51129929    -7.7922257     -7.0252877      3.8361618      50218.233      36.893836      36.893836      36.893836    
    884000   0.51216205    -7.7885839     -7.0203518      3.8735606      50218.233      36.893836      36.893836      36.893836    
    885000   0.50897024    -7.7878181     -7.0243736      3.8712099      50218.233      36.893836      36.893836      36.893836    
    886000   0.50954462    -7.7887473     -7.0244412      3.866643       50218.233      36.893836      36.893836      36.893836    
    887000   0.50585731    -7.7871303     -7.0283551      3.8739697      50218.233      36.893836      36.893836      36.893836    
    888000   0.51038047    -7.7913929     -7.0258331      3.8494614      50218.233      36.893836      36.893836      36.893836    
    889000   0.50821296    -7.7906881     -7.0283795      3.8410361      50218.233      36.893836      36.893836      36.893836    
    890000   0.51068009    -7.7900975     -7.0240883      3.8505991      50218.233      36.893836      36.893836      36.893836    
    891000   0.51113659    -7.7883767     -7.0216827      3.8686202      50218.233      36.893836      36.893836      36.893836    
    892000   0.5111975     -7.7919994     -7.0252141      3.8421116      50218.233      36.893836      36.893836      36.893836    
    893000   0.50918917    -7.7913942     -7.0276214      3.8433695      50218.233      36.893836      36.893836      36.893836    
    894000   0.50984965    -7.7895843     -7.0248207      3.8507524      50218.233      36.893836      36.893836      36.893836    
    895000   0.51282517    -7.7904152     -7.0211884      3.8566021      50218.233      36.893836      36.893836      36.893836    
    896000   0.50939403    -7.7897152     -7.025635       3.8503491      50218.233      36.893836      36.893836      36.893836    
    897000   0.50681356    -7.7868021     -7.0265926      3.8625039      50218.233      36.893836      36.893836      36.893836    
    898000   0.50952803    -7.7883292     -7.024048       3.8650053      50218.233      36.893836      36.893836      36.893836    
    899000   0.51212533    -7.7890319     -7.0208548      3.8577123      50218.233      36.893836      36.893836      36.893836    
    900000   0.51002737    -7.7892321     -7.0242019      3.8493635      50218.233      36.893836      36.893836      36.893836    
    901000   0.50870455    -7.7892887     -7.0262427      3.8532799      50218.233      36.893836      36.893836      36.893836    
    902000   0.51089349    -7.78935       -7.0230207      3.862513       50218.233      36.893836      36.893836      36.893836    
    903000   0.5091876     -7.7945878     -7.0308173      3.815627       50218.233      36.893836      36.893836      36.893836    
    904000   0.5088051     -7.7936767     -7.0304799      3.8250529      50218.233      36.893836      36.893836      36.893836    
    905000   0.50954546    -7.7866948     -7.0223875      3.8718416      50218.233      36.893836      36.893836      36.893836    
    906000   0.51206526    -7.794251      -7.0261641      3.81759        50218.233      36.893836      36.893836      36.893836    
    907000   0.50744891    -7.7890626     -7.0279001      3.8627655      50218.233      36.893836      36.893836      36.893836    
    908000   0.5124788     -7.7900589     -7.0213517      3.8579402      50218.233      36.893836      36.893836      36.893836    
    909000   0.5111261     -7.7859717     -7.0192935      3.8891402      50218.233      36.893836      36.893836      36.893836    
    910000   0.50690747    -7.7903252     -7.0299749      3.8492481      50218.233      36.893836      36.893836      36.893836    
    911000   0.5080729     -7.7935986     -7.0315001      3.8160623      50218.233      36.893836      36.893836      36.893836    
    912000   0.50886489    -7.7881687     -7.0248823      3.8714059      50218.233      36.893836      36.893836      36.893836    
    913000   0.51048245    -7.789947      -7.0242342      3.8435551      50218.233      36.893836      36.893836      36.893836    
    914000   0.51171604    -7.7881488     -7.0205857      3.8676057      50218.233      36.893836      36.893836      36.893836    
    915000   0.50701711    -7.7904718     -7.029957       3.8519145      50218.233      36.893836      36.893836      36.893836    
    916000   0.50894835    -7.7895001     -7.0260884      3.8649002      50218.233      36.893836      36.893836      36.893836    
    917000   0.50995248    -7.7906567     -7.0257389      3.8405679      50218.233      36.893836      36.893836      36.893836    
    918000   0.50718141    -7.7913717     -7.0306104      3.8485201      50218.233      36.893836      36.893836      36.893836    
    919000   0.50930858    -7.7904316     -7.0264796      3.8458152      50218.233      36.893836      36.893836      36.893836    
    920000   0.50987017    -7.7840826     -7.0192882      3.8902379      50218.233      36.893836      36.893836      36.893836    
    921000   0.50965258    -7.789839      -7.025371       3.8500885      50218.233      36.893836      36.893836      36.893836    
    922000   0.50795121    -7.7892327     -7.0273167      3.8417175      50218.233      36.893836      36.893836      36.893836    
    923000   0.51234144    -7.7859154     -7.0174142      3.8827067      50218.233      36.893836      36.893836      36.893836    
    924000   0.51099196    -7.7907052     -7.0242282      3.8553795      50218.233      36.893836      36.893836      36.893836    
    925000   0.51053845    -7.7889152     -7.0231184      3.8537255      50218.233      36.893836      36.893836      36.893836    
    926000   0.5104562     -7.7872052     -7.0215318      3.8787215      50218.233      36.893836      36.893836      36.893836    
    927000   0.50918529    -7.790109      -7.0263419      3.8530104      50218.233      36.893836      36.893836      36.893836    
    928000   0.50753832    -7.7882574     -7.0269607      3.8647267      50218.233      36.893836      36.893836      36.893836    
    929000   0.50775932    -7.7918806     -7.0302525      3.8215392      50218.233      36.893836      36.893836      36.893836    
    930000   0.51068458    -7.7949682     -7.0289522      3.8194278      50218.233      36.893836      36.893836      36.893836    
    931000   0.50849995    -7.7876635     -7.0249244      3.8684832      50218.233      36.893836      36.893836      36.893836    
    932000   0.51053039    -7.7841382     -7.0183535      3.9016279      50218.233      36.893836      36.893836      36.893836    
    933000   0.50750101    -7.7888093     -7.0275686      3.8561856      50218.233      36.893836      36.893836      36.893836    
    934000   0.51162707    -7.787921      -7.0204913      3.861721       50218.233      36.893836      36.893836      36.893836    
    935000   0.51026682    -7.788279      -7.0228896      3.8571388      50218.233      36.893836      36.893836      36.893836    
    936000   0.51326014    -7.7895896     -7.0197104      3.8558587      50218.233      36.893836      36.893836      36.893836    
    937000   0.50933284    -7.7900983     -7.0261099      3.8455699      50218.233      36.893836      36.893836      36.893836    
    938000   0.51010254    -7.7897397     -7.0245968      3.8592028      50218.233      36.893836      36.893836      36.893836    
    939000   0.50993448    -7.7891369     -7.0242461      3.8589378      50218.233      36.893836      36.893836      36.893836    
    940000   0.50675283    -7.7850952     -7.0249768      3.8856216      50218.233      36.893836      36.893836      36.893836    
    941000   0.51194755    -7.7887135     -7.0208031      3.8568801      50218.233      36.893836      36.893836      36.893836    
    942000   0.5090479     -7.7939764     -7.0304154      3.8182765      50218.233      36.893836      36.893836      36.893836    
    943000   0.51046643    -7.7870298     -7.0213411      3.8820866      50218.233      36.893836      36.893836      36.893836    
    944000   0.50980711    -7.7896311     -7.0249313      3.8417822      50218.233      36.893836      36.893836      36.893836    
    945000   0.51055913    -7.7912999     -7.0254721      3.8410342      50218.233      36.893836      36.893836      36.893836    
    946000   0.51068346    -7.7880123     -7.021998       3.8558923      50218.233      36.893836      36.893836      36.893836    
    947000   0.50787933    -7.7888093     -7.0270011      3.8521789      50218.233      36.893836      36.893836      36.893836    
    948000   0.51119668    -7.788855      -7.0220709      3.8667591      50218.233      36.893836      36.893836      36.893836    
    949000   0.50872728    -7.7889757     -7.0258957      3.8541429      50218.233      36.893836      36.893836      36.893836    
    950000   0.51010953    -7.7941276     -7.0289742      3.8195469      50218.233      36.893836      36.893836      36.893836    
    951000   0.5133426     -7.7894482     -7.0194452      3.8517036      50218.233      36.893836      36.893836      36.893836    
    952000   0.50986032    -7.7858104     -7.0210308      3.8750491      50218.233      36.893836      36.893836      36.893836    
    953000   0.50971447    -7.7935778     -7.029017       3.8248936      50218.233      36.893836      36.893836      36.893836    
    954000   0.51090601    -7.7921042     -7.0257561      3.8429411      50218.233      36.893836      36.893836      36.893836    
    955000   0.50899229    -7.7887105     -7.0252329      3.8528537      50218.233      36.893836      36.893836      36.893836    
    956000   0.51124701    -7.790507      -7.0236474      3.8484032      50218.233      36.893836      36.893836      36.893836    
    957000   0.51040416    -7.7888371     -7.0232417      3.8556711      50218.233      36.893836      36.893836      36.893836    
    958000   0.50997284    -7.7891668     -7.0242184      3.8596753      50218.233      36.893836      36.893836      36.893836    
    959000   0.51033247    -7.7853589     -7.019871       3.8778373      50218.233      36.893836      36.893836      36.893836    
    960000   0.51019945    -7.7865222     -7.0212339      3.8730458      50218.233      36.893836      36.893836      36.893836    
    961000   0.51023103    -7.7821533     -7.0168177      3.8964529      50218.233      36.893836      36.893836      36.893836    
    962000   0.51160485    -7.793318      -7.0259216      3.8298875      50218.233      36.893836      36.893836      36.893836    
    963000   0.50970541    -7.7904483     -7.025901       3.8480848      50218.233      36.893836      36.893836      36.893836    
    964000   0.51356424    -7.7869895     -7.0166541      3.8863891      50218.233      36.893836      36.893836      36.893836    
    965000   0.50988427    -7.7903919     -7.0255763      3.8460092      50218.233      36.893836      36.893836      36.893836    
    966000   0.50803829    -7.7919923     -7.0299457      3.8294404      50218.233      36.893836      36.893836      36.893836    
    967000   0.50811056    -7.7876795     -7.0255245      3.8633018      50218.233      36.893836      36.893836      36.893836    
    968000   0.51026338    -7.7867139     -7.0213297      3.873676       50218.233      36.893836      36.893836      36.893836    
    969000   0.51073408    -7.7835272     -7.017437       3.8888599      50218.233      36.893836      36.893836      36.893836    
    970000   0.50972093    -7.7861341     -7.0215635      3.8831778      50218.233      36.893836      36.893836      36.893836    
    971000   0.51280916    -7.7890454     -7.0198426      3.8632586      50218.233      36.893836      36.893836      36.893836    
    972000   0.50860393    -7.7930082     -7.0301132      3.8160532      50218.233      36.893836      36.893836      36.893836    
    973000   0.50986455    -7.7879858     -7.0231999      3.8642955      50218.233      36.893836      36.893836      36.893836    
    974000   0.50897955    -7.7882032     -7.0247448      3.8619668      50218.233      36.893836      36.893836      36.893836    
    975000   0.50959901    -7.7838144     -7.0194267      3.8907961      50218.233      36.893836      36.893836      36.893836    
    976000   0.50733453    -7.7879611     -7.0269701      3.8616349      50218.233      36.893836      36.893836      36.893836    
    977000   0.50891471    -7.7838733     -7.0205121      3.8838486      50218.233      36.893836      36.893836      36.893836    
    978000   0.50828503    -7.7880225     -7.0256058      3.8628079      50218.233      36.893836      36.893836      36.893836    
    979000   0.51059614    -7.7897874     -7.0239041      3.8422891      50218.233      36.893836      36.893836      36.893836    
    980000   0.50856503    -7.7878411     -7.0250044      3.8705797      50218.233      36.893836      36.893836      36.893836    
    981000   0.51243735    -7.7897613     -7.0211163      3.8463591      50218.233      36.893836      36.893836      36.893836    
    982000   0.51116506    -7.7929659     -7.0262292      3.8176388      50218.233      36.893836      36.893836      36.893836    
    983000   0.50784902    -7.7916481     -7.0298854      3.8309564      50218.233      36.893836      36.893836      36.893836    
    984000   0.50944499    -7.7887026     -7.024546       3.8597605      50218.233      36.893836      36.893836      36.893836    
    985000   0.51053616    -7.790957      -7.0251636      3.8477753      50218.233      36.893836      36.893836      36.893836    
    986000   0.51149428    -7.7807254     -7.0134949      3.9208641      50218.233      36.893836      36.893836      36.893836    
    987000   0.51095162    -7.7894841     -7.0230676      3.8604327      50218.233      36.893836      36.893836      36.893836    
    988000   0.51339218    -7.7867704     -7.0166931      3.8758538      50218.233      36.893836      36.893836      36.893836    
    989000   0.51028137    -7.7906713     -7.0252601      3.8486596      50218.233      36.893836      36.893836      36.893836    
    990000   0.51073326    -7.7941163     -7.0280273      3.8241948      50218.233      36.893836      36.893836      36.893836    
    991000   0.51082457    -7.7900946     -7.0238686      3.849089       50218.233      36.893836      36.893836      36.893836    
    992000   0.51016077    -7.7880281     -7.0227979      3.8568012      50218.233      36.893836      36.893836      36.893836    
    993000   0.51090845    -7.7913233     -7.0249715      3.8417997      50218.233      36.893836      36.893836      36.893836    
    994000   0.51188074    -7.7887574     -7.0209473      3.8674125      50218.233      36.893836      36.893836      36.893836    
    995000   0.51116086    -7.784579      -7.0178486      3.8964611      50218.233      36.893836      36.893836      36.893836    
    996000   0.51149519    -7.7888435     -7.0216116      3.8472346      50218.233      36.893836      36.893836      36.893836    
    997000   0.51199019    -7.7907714     -7.022797       3.8468105      50218.233      36.893836      36.893836      36.893836    
    998000   0.510518      -7.7900936     -7.0243275      3.8511987      50218.233      36.893836      36.893836      36.893836    
    999000   0.5075897     -7.7881217     -7.026748       3.8635467      50218.233      36.893836      36.893836      36.893836    
   1000000   0.51075784    -7.7913786     -7.0252527      3.8440482      50218.233      36.893836      36.893836      36.893836    
Loop time of 4239.72 on 1 procs for 1000000 steps with 70304 atoms

Performance: 203787.092 tau/day, 235.865 timesteps/s, 16.582 Matom-step/s
100.0% CPU use with 1 MPI tasks x 1 OpenMP threads

MPI task timing breakdown:
Section |  min time  |  avg time  |  max time  |%varavg| %total
---------------------------------------------------------------
Pair    | 982.6      | 982.6      | 982.6      |   0.0 | 23.18
Neigh   | 40.484     | 40.484     | 40.484     |   0.0 |  0.95
Comm    | 503.12     | 503.12     | 503.12     |   0.0 | 11.87
Output  | 0.74849    | 0.74849    | 0.74849    |   0.0 |  0.02
Modify  | 2264.8     | 2264.8     | 2264.8     |   0.0 | 53.42
Other   |            | 447.9      |            |       | 10.57

Nlocal:          70304 ave       70304 max       70304 min
Histogram: 1 0 0 0 0 0 0 0 0 0
Nghost:          37071 ave       37071 max       37071 min
Histogram: 1 0 0 0 0 0 0 0 0 0
Neighs:              0 ave           0 max           0 min
Histogram: 1 0 0 0 0 0 0 0 0 0

Total # of neighbors = 0
Ave neighs/atom = 0
Neighbor list builds = 206123
Dangerous builds = 0
clear
OMP_NUM_THREADS environment is not set. Defaulting to 1 thread. (src/comm.cpp:98)
  using 1 OpenMP thread(s) per MPI task
package gpu 0
jump dms505.lmp

variable T equal 505
# T = 1000* (temp in LJ unit)
variable f equal 1000
log log.${T}
log log.505
