variable TLJ equal (${T}/1000)
variable TLJ equal (380/1000)
variable NCyle equal 10
variable iStep equal (${f})
variable iStep equal (1000)
variable dumpStep equal (${f}*100)
variable dumpStep equal (1000*100)
variable runStep equal (${f}*100*${NCyle})
variable runStep equal (1000*100*${NCyle})
variable runStep equal (1000*100*10)

units       lj
atom_style  atomic
dimension 3
boundary     p p p
pair_style  lj/cut 2.5
read_data  ../data/T${T}.dat
read_data  ../data/T380.dat
Reading data file ...
  orthogonal box = (0.97250269 0.97250269 0.97250269) to (37.866338 37.866338 37.866338)
  1 by 2 by 2 MPI processor grid
  reading atoms ...
  70304 atoms
  reading velocities ...
  70304 velocities
  read_data CPU = 0.192 seconds
change_box all triclinic
Changing box ...
  triclinic box = (0.97250269 0.97250269 0.97250269) to (37.866338 37.866338 37.866338) with tilt (0 0 0)
mass 1 1
mass 2 1
pair_modify shift yes
pair_coeff  1 1 1 1
pair_coeff  1 2 1.5 0.8
pair_coeff  2 2 0.5 0.88


timestep 0.01
thermo ${iStep}
thermo 1000
reset_timestep 0
thermo_style custom step temp pe etotal press vol lx ly lz
fix             1 all nvt temp ${TLJ}  ${TLJ}  0.1
fix             1 all nvt temp 0.38  ${TLJ}  0.1
fix             1 all nvt temp 0.38  0.38  0.1
thermo_modify flush yes

fix dsf all deform 1 xy  wiggle 0.5  ${f}   units box
fix dsf all deform 1 xy  wiggle 0.5  1000   units box
fix ps1 all ave/time 1 1 ${iStep} c_thermo_press[1] c_thermo_press[2]  c_thermo_press[3] c_thermo_press[4]  c_thermo_press[5] c_thermo_press[6]  file  stress.${T}
fix ps1 all ave/time 1 1 1000 c_thermo_press[1] c_thermo_press[2]  c_thermo_press[3] c_thermo_press[4]  c_thermo_press[5] c_thermo_press[6]  file  stress.${T}
fix ps1 all ave/time 1 1 1000 c_thermo_press[1] c_thermo_press[2]  c_thermo_press[3] c_thermo_press[4]  c_thermo_press[5] c_thermo_press[6]  file  stress.380
dump            1 all custom ${dumpStep} dump.${T} id type x y z
dump            1 all custom 100000 dump.${T} id type x y z
dump            1 all custom 100000 dump.380 id type x y z
dump_modify 1 sort id
fix nodrift all momentum 1  linear 1 1 1
fix com_seed all recenter INIT INIT INIT shift all
run ${runStep}
run 1000000
Generated 0 of 1 mixed pair_coeff terms from geometric mixing rule
Per MPI rank memory allocation (min/avg/max) = 8.611 | 8.614 | 8.618 Mbytes
   Step          Temp          PotEng         TotEng         Press          Volume           Lx             Ly             Lz      
         0   0.37918496    -8.0295222     -7.4607528      1.9016522      50218.233      36.893836      36.893836      36.893836    
      1000   0.37942615    -8.0216944     -7.4525633      1.9580258      50218.233      36.893836      36.893836      36.893836    
      2000   0.37964089    -8.0201803     -7.4507271      1.9792023      50218.233      36.893836      36.893836      36.893836    
      3000   0.38105368    -8.0195723     -7.448          1.9824544      50218.233      36.893836      36.893836      36.893836    
      4000   0.37982023    -8.0205297     -7.4508074      1.9696824      50218.233      36.893836      36.893836      36.893836    
      5000   0.37938006    -8.0193941     -7.4503321      1.9760952      50218.233      36.893836      36.893836      36.893836    
      6000   0.38021102    -8.0162434     -7.445935       2.0009619      50218.233      36.893836      36.893836      36.893836    
      7000   0.38051411    -8.0184988     -7.4477357      1.9838769      50218.233      36.893836      36.893836      36.893836    
      8000   0.38173998    -8.017071      -7.4444691      1.9963864      50218.233      36.893836      36.893836      36.893836    
      9000   0.38129776    -8.0171019     -7.4451634      1.9956493      50218.233      36.893836      36.893836      36.893836    
     10000   0.38014856    -8.0186593     -7.4484446      1.9883179      50218.233      36.893836      36.893836      36.893836    
     11000   0.37996172    -8.0172832     -7.4473488      1.9860392      50218.233      36.893836      36.893836      36.893836    
     12000   0.38111405    -8.0163428     -7.4446798      2.0009757      50218.233      36.893836      36.893836      36.893836    
     13000   0.37784863    -8.0178749     -7.45111        1.9905024      50218.233      36.893836      36.893836      36.893836    
     14000   0.37993568    -8.0185947     -7.4486993      1.9799631      50218.233      36.893836      36.893836      36.893836    
     15000   0.37991474    -8.0160593     -7.4461953      2.0011908      50218.233      36.893836      36.893836      36.893836    
     16000   0.37904644    -8.0172533     -7.4486918      1.9855157      50218.233      36.893836      36.893836      36.893836    
     17000   0.37933027    -8.0214293     -7.452442       1.9652852      50218.233      36.893836      36.893836      36.893836    
     18000   0.37908255    -8.0158087     -7.447193       2.0003886      50218.233      36.893836      36.893836      36.893836    
     19000   0.37963344    -8.0176884     -7.4482463      1.9815534      50218.233      36.893836      36.893836      36.893836    
     20000   0.38089709    -8.0140779     -7.4427404      2.022245       50218.233      36.893836      36.893836      36.893836    
     21000   0.3801274     -8.0174686     -7.4472856      1.9946881      50218.233      36.893836      36.893836      36.893836    
     22000   0.38007292    -8.0175425     -7.4474413      1.9895033      50218.233      36.893836      36.893836      36.893836    
     23000   0.37962871    -8.0154255     -7.4459905      2.0135126      50218.233      36.893836      36.893836      36.893836    
     24000   0.37791996    -8.019833      -7.4529611      1.9678381      50218.233      36.893836      36.893836      36.893836    
     25000   0.38127156    -8.0168755     -7.4449763      1.9983006      50218.233      36.893836      36.893836      36.893836    
     26000   0.38162918    -8.0154294     -7.4429938      2.0104592      50218.233      36.893836      36.893836      36.893836    
     27000   0.37978333    -8.0192203     -7.4495534      1.9816009      50218.233      36.893836      36.893836      36.893836    
     28000   0.3805923     -8.0177119     -7.4468316      1.9912815      50218.233      36.893836      36.893836      36.893836    
     29000   0.38128677    -8.018587      -7.446665       1.9874632      50218.233      36.893836      36.893836      36.893836    
     30000   0.38091786    -8.0173483     -7.4459796      1.997753       50218.233      36.893836      36.893836      36.893836    
     31000   0.37896206    -8.0186876     -7.4502526      1.9816717      50218.233      36.893836      36.893836      36.893836    
     32000   0.37839216    -8.0186839     -7.4511037      1.9788335      50218.233      36.893836      36.893836      36.893836    
     33000   0.37962584    -8.0155818     -7.4461511      2.0133095      50218.233      36.893836      36.893836      36.893836    
     34000   0.37966577    -8.0171173     -7.4476267      1.9901543      50218.233      36.893836      36.893836      36.893836    
     35000   0.3799278     -8.0163818     -7.4464982      2.0029822      50218.233      36.893836      36.893836      36.893836    
     36000   0.38072347    -8.0190717     -7.4479946      1.9837779      50218.233      36.893836      36.893836      36.893836    
     37000   0.38074139    -8.0152298     -7.4441258      2.0134716      50218.233      36.893836      36.893836      36.893836    
     38000   0.38189817    -8.0178461     -7.445007       1.9825516      50218.233      36.893836      36.893836      36.893836    
     39000   0.37979924    -8.0167548     -7.4470641      1.9985693      50218.233      36.893836      36.893836      36.893836    
     40000   0.3795104     -8.0215844     -7.4523269      1.9573768      50218.233      36.893836      36.893836      36.893836    
     41000   0.38187052    -8.0194234     -7.4466257      1.9831119      50218.233      36.893836      36.893836      36.893836    
     42000   0.37903178    -8.0205861     -7.4520465      1.9763063      50218.233      36.893836      36.893836      36.893836    
     43000   0.37873203    -8.01876       -7.45067        1.9742451      50218.233      36.893836      36.893836      36.893836    
     44000   0.38145022    -8.0214834     -7.4493162      1.9649606      50218.233      36.893836      36.893836      36.893836    
     45000   0.3799586     -8.0208826     -7.4509528      1.9708435      50218.233      36.893836      36.893836      36.893836    
     46000   0.37778666    -8.0183828     -7.4517109      1.9801176      50218.233      36.893836      36.893836      36.893836    
     47000   0.38135584    -8.0150726     -7.4430469      2.0101876      50218.233      36.893836      36.893836      36.893836    
     48000   0.37920926    -8.0208078     -7.452002       1.9622589      50218.233      36.893836      36.893836      36.893836    
     49000   0.37985285    -8.0194835     -7.4497123      1.9784088      50218.233      36.893836      36.893836      36.893836    
     50000   0.38018358    -8.0193854     -7.4491181      1.977792       50218.233      36.893836      36.893836      36.893836    
     51000   0.37760202    -8.017         -7.450605       1.9997649      50218.233      36.893836      36.893836      36.893836    
     52000   0.37986769    -8.0208914     -7.4510979      1.9664806      50218.233      36.893836      36.893836      36.893836    
     53000   0.3802699     -8.0186821     -7.4482854      1.9845132      50218.233      36.893836      36.893836      36.893836    
     54000   0.38054869    -8.0204604     -7.4496454      1.9672327      50218.233      36.893836      36.893836      36.893836    
     55000   0.37891704    -8.0194914     -7.4511239      1.9751488      50218.233      36.893836      36.893836      36.893836    
     56000   0.37808856    -8.0193739     -7.4522492      1.993453       50218.233      36.893836      36.893836      36.893836    
     57000   0.38096327    -8.0190746     -7.4476378      1.9800244      50218.233      36.893836      36.893836      36.893836    
     58000   0.38049803    -8.0207284     -7.4499895      1.97046        50218.233      36.893836      36.893836      36.893836    
     59000   0.38123571    -8.0190758     -7.4472303      1.9829172      50218.233      36.893836      36.893836      36.893836    
     60000   0.37844389    -8.0181021     -7.4504443      1.9861678      50218.233      36.893836      36.893836      36.893836    
     61000   0.37996239    -8.0196979     -7.4497624      1.9811092      50218.233      36.893836      36.893836      36.893836    
     62000   0.37914088    -8.0188067     -7.4501035      1.9709256      50218.233      36.893836      36.893836      36.893836    
     63000   0.38153875    -8.0181261     -7.4458261      1.992228       50218.233      36.893836      36.893836      36.893836    
     64000   0.3790222     -8.0158893     -7.4473641      2.0034263      50218.233      36.893836      36.893836      36.893836    
     65000   0.38158884    -8.0170974     -7.4447223      2.0043566      50218.233      36.893836      36.893836      36.893836    
     66000   0.3795027     -8.0192744     -7.4500284      1.9834887      50218.233      36.893836      36.893836      36.893836    
     67000   0.37876882    -8.0164102     -7.448265       2.0004855      50218.233      36.893836      36.893836      36.893836    
     68000   0.38036042    -8.0138359     -7.4433034      2.023112       50218.233      36.893836      36.893836      36.893836    
     69000   0.38078497    -8.0186325     -7.4474632      1.9874902      50218.233      36.893836      36.893836      36.893836    
     70000   0.38018481    -8.017871      -7.4476019      1.986353       50218.233      36.893836      36.893836      36.893836    
     71000   0.37877704    -8.0206939     -7.4525364      1.9627554      50218.233      36.893836      36.893836      36.893836    
     72000   0.37998324    -8.0189716     -7.4490049      1.9782126      50218.233      36.893836      36.893836      36.893836    
     73000   0.38015163    -8.0176754     -7.4474561      1.997552       50218.233      36.893836      36.893836      36.893836    
     74000   0.38075375    -8.0215827     -7.4504602      1.9659158      50218.233      36.893836      36.893836      36.893836    
     75000   0.37932579    -8.0163416     -7.447361       1.9952473      50218.233      36.893836      36.893836      36.893836    
     76000   0.37867305    -8.0175756     -7.4495741      1.9911003      50218.233      36.893836      36.893836      36.893836    
     77000   0.38254924    -8.0151078     -7.4412921      2.014779       50218.233      36.893836      36.893836      36.893836    
     78000   0.37930638    -8.0167815     -7.4478301      2.0006206      50218.233      36.893836      36.893836      36.893836    
     79000   0.38020943    -8.0178996     -7.4475936      1.9819188      50218.233      36.893836      36.893836      36.893836    
     80000   0.37835619    -8.0172788     -7.4497526      1.9894158      50218.233      36.893836      36.893836      36.893836    
     81000   0.38022974    -8.0170882     -7.4467517      1.9947507      50218.233      36.893836      36.893836      36.893836    
     82000   0.38015259    -8.014236      -7.4440152      2.0186775      50218.233      36.893836      36.893836      36.893836    
     83000   0.38074147    -8.0175799     -7.4464758      1.9927325      50218.233      36.893836      36.893836      36.893836    
     84000   0.38143086    -8.0151614     -7.4430232      2.0090386      50218.233      36.893836      36.893836      36.893836    
     85000   0.38007162    -8.0182582     -7.4481589      1.984982       50218.233      36.893836      36.893836      36.893836    
     86000   0.38044872    -8.0187256     -7.4480606      1.978504       50218.233      36.893836      36.893836      36.893836    
     87000   0.38064435    -8.0188385     -7.4478801      1.9836892      50218.233      36.893836      36.893836      36.893836    
     88000   0.37895848    -8.0159929     -7.4475633      2.0076933      50218.233      36.893836      36.893836      36.893836    
     89000   0.37997568    -8.0158245     -7.4458691      2.0033674      50218.233      36.893836      36.893836      36.893836    
     90000   0.38027395    -8.0211409     -7.4507381      1.970632       50218.233      36.893836      36.893836      36.893836    
     91000   0.38016538    -8.0187604     -7.4485204      1.9935797      50218.233      36.893836      36.893836      36.893836    
     92000   0.37905842    -8.0193294     -7.4507499      1.9777984      50218.233      36.893836      36.893836      36.893836    
     93000   0.38194646    -8.018563      -7.4456515      1.9887063      50218.233      36.893836      36.893836      36.893836    
     94000   0.38216834    -8.021348      -7.4481037      1.9717413      50218.233      36.893836      36.893836      36.893836    
     95000   0.37845007    -8.0182739     -7.4506069      1.9935656      50218.233      36.893836      36.893836      36.893836    
     96000   0.37931813    -8.0192268     -7.4502577      1.9742617      50218.233      36.893836      36.893836      36.893836    
     97000   0.37961764    -8.0167865     -7.4473681      2.0046415      50218.233      36.893836      36.893836      36.893836    
     98000   0.37846716    -8.0195564     -7.4518637      1.9838228      50218.233      36.893836      36.893836      36.893836    
     99000   0.37899461    -8.0195371     -7.4510532      1.9815504      50218.233      36.893836      36.893836      36.893836    
    100000   0.37986597    -8.0202307     -7.4504399      1.9718274      50218.233      36.893836      36.893836      36.893836    
    101000   0.37826877    -8.0198566     -7.4524615      1.9800958      50218.233      36.893836      36.893836      36.893836    
    102000   0.3786894     -8.0194866     -7.4514606      1.9827034      50218.233      36.893836      36.893836      36.893836    
    103000   0.37768989    -8.0183669     -7.4518402      1.9817307      50218.233      36.893836      36.893836      36.893836    
    104000   0.3808096     -8.0202144     -7.4490081      1.9786837      50218.233      36.893836      36.893836      36.893836    
    105000   0.37900522    -8.0181329     -7.4496332      1.9826643      50218.233      36.893836      36.893836      36.893836    
    106000   0.38142748    -8.0212633     -7.4491302      1.967215       50218.233      36.893836      36.893836      36.893836    
    107000   0.38202536    -8.0196825     -7.4466526      1.9777328      50218.233      36.893836      36.893836      36.893836    
    108000   0.37949799    -8.0177194     -7.4484805      1.9880323      50218.233      36.893836      36.893836      36.893836    
    109000   0.38063551    -8.0186367     -7.4476916      1.9837592      50218.233      36.893836      36.893836      36.893836    
    110000   0.37993855    -8.0194592     -7.4495595      1.9804889      50218.233      36.893836      36.893836      36.893836    
    111000   0.37885586    -8.0167518     -7.4484761      1.9959336      50218.233      36.893836      36.893836      36.893836    
    112000   0.37906817    -8.0190386     -7.4504444      1.9844548      50218.233      36.893836      36.893836      36.893836    
    113000   0.37887853    -8.019983      -7.4516733      1.9724802      50218.233      36.893836      36.893836      36.893836    
    114000   0.37792586    -8.0151566     -7.4482758      2.0126139      50218.233      36.893836      36.893836      36.893836    
    115000   0.3796798     -8.0178104     -7.4482988      1.9898907      50218.233      36.893836      36.893836      36.893836    
    116000   0.38053418    -8.0155353     -7.4447421      2.0053955      50218.233      36.893836      36.893836      36.893836    
    117000   0.38157222    -8.0186043     -7.4462541      1.9867599      50218.233      36.893836      36.893836      36.893836    
    118000   0.38033471    -8.0175914     -7.4470974      2.0000906      50218.233      36.893836      36.893836      36.893836    
    119000   0.37939395    -8.0161453     -7.4470625      2.001533       50218.233      36.893836      36.893836      36.893836    
    120000   0.38123257    -8.0170516     -7.4452109      2.0013733      50218.233      36.893836      36.893836      36.893836    
    121000   0.38319045    -8.0167257     -7.4419483      2.0013797      50218.233      36.893836      36.893836      36.893836    
    122000   0.37900266    -8.0145672     -7.4460713      2.0128192      50218.233      36.893836      36.893836      36.893836    
    123000   0.37840399    -8.018128      -7.4505301      1.9816365      50218.233      36.893836      36.893836      36.893836    
    124000   0.37901781    -8.0177639     -7.4492452      1.9983614      50218.233      36.893836      36.893836      36.893836    
    125000   0.38083082    -8.0180169     -7.4467788      1.9951805      50218.233      36.893836      36.893836      36.893836    
    126000   0.38295068    -8.0188404     -7.4444225      1.982807       50218.233      36.893836      36.893836      36.893836    
    127000   0.3796538     -8.0182932     -7.4488206      1.9876768      50218.233      36.893836      36.893836      36.893836    
    128000   0.38138717    -8.0188157     -7.4467431      1.9839287      50218.233      36.893836      36.893836      36.893836    
    129000   0.38086162    -8.0162533     -7.444969       2.0081177      50218.233      36.893836      36.893836      36.893836    
    130000   0.38052981    -8.0165719     -7.4457853      2.0031925      50218.233      36.893836      36.893836      36.893836    
    131000   0.37841301    -8.0195698     -7.4519584      1.9696065      50218.233      36.893836      36.893836      36.893836    
    132000   0.38100133    -8.016573      -7.4450791      1.9975564      50218.233      36.893836      36.893836      36.893836    
    133000   0.3811648     -8.017756      -7.4460169      1.9945221      50218.233      36.893836      36.893836      36.893836    
    134000   0.37853677    -8.0203434     -7.4525463      1.9693983      50218.233      36.893836      36.893836      36.893836    
    135000   0.38062727    -8.0166476     -7.4457148      1.9971855      50218.233      36.893836      36.893836      36.893836    
    136000   0.37968783    -8.0185958     -7.4490722      1.9903349      50218.233      36.893836      36.893836      36.893836    
    137000   0.38063514    -8.0189511     -7.4480066      1.9803505      50218.233      36.893836      36.893836      36.893836    
    138000   0.37952492    -8.017982      -7.4487027      1.9958052      50218.233      36.893836      36.893836      36.893836    
    139000   0.37976969    -8.0151699     -7.4455234      2.0129313      50218.233      36.893836      36.893836      36.893836    
    140000   0.37902492    -8.0171627     -7.4486334      1.9936286      50218.233      36.893836      36.893836      36.893836    
    141000   0.3831122     -8.0177976     -7.4431375      2.0003183      50218.233      36.893836      36.893836      36.893836    
    142000   0.37971753    -8.0160535     -7.4464853      2.0068679      50218.233      36.893836      36.893836      36.893836    
    143000   0.38056554    -8.0174779     -7.4466377      1.9943524      50218.233      36.893836      36.893836      36.893836    
    144000   0.38100563    -8.019662      -7.4481617      1.9798645      50218.233      36.893836      36.893836      36.893836    
    145000   0.38045222    -8.0203732     -7.449703       1.974029       50218.233      36.893836      36.893836      36.893836    
    146000   0.38101022    -8.0188616     -7.4473544      1.9924919      50218.233      36.893836      36.893836      36.893836    
    147000   0.37880212    -8.0188175     -7.4506224      1.973306       50218.233      36.893836      36.893836      36.893836    
    148000   0.38123762    -8.0170778     -7.4452295      1.9923574      50218.233      36.893836      36.893836      36.893836    
    149000   0.38160497    -8.0173944     -7.4449951      1.9986359      50218.233      36.893836      36.893836      36.893836    
    150000   0.38062881    -8.0208251     -7.44989        1.9669842      50218.233      36.893836      36.893836      36.893836    
    151000   0.38077936    -8.0200264     -7.4488654      1.9739813      50218.233      36.893836      36.893836      36.893836    
    152000   0.38104019    -8.0210592     -7.449507       1.9710613      50218.233      36.893836      36.893836      36.893836    
    153000   0.37791415    -8.0187752     -7.4519121      1.9840755      50218.233      36.893836      36.893836      36.893836    
    154000   0.37893544    -8.0192632     -7.4508681      1.9746541      50218.233      36.893836      36.893836      36.893836    
    155000   0.38148492    -8.0177309     -7.4455117      1.9782954      50218.233      36.893836      36.893836      36.893836    
    156000   0.38048096    -8.0193526     -7.4486392      1.9713791      50218.233      36.893836      36.893836      36.893836    
    157000   0.37880367    -8.0234225     -7.4552251      1.9530324      50218.233      36.893836      36.893836      36.893836    
    158000   0.37969456    -8.0167346     -7.4472008      2.0018819      50218.233      36.893836      36.893836      36.893836    
    159000   0.37885772    -8.0210135     -7.452735       1.966847       50218.233      36.893836      36.893836      36.893836    
    160000   0.37794591    -8.0192908     -7.45238        1.9723899      50218.233      36.893836      36.893836      36.893836    
    161000   0.38038471    -8.017861      -7.4472921      2.0001956      50218.233      36.893836      36.893836      36.893836    
    162000   0.3808835     -8.0163332     -7.4450161      2.0005335      50218.233      36.893836      36.893836      36.893836    
    163000   0.38072255    -8.0167272     -7.4456515      2.006283       50218.233      36.893836      36.893836      36.893836    
    164000   0.38296747    -8.0197966     -7.4453536      1.973367       50218.233      36.893836      36.893836      36.893836    
    165000   0.38011594    -8.0180595     -7.4478937      1.9880427      50218.233      36.893836      36.893836      36.893836    
    166000   0.38265477    -8.0172949     -7.4433209      2.0010809      50218.233      36.893836      36.893836      36.893836    
    167000   0.38067529    -8.0206629     -7.4496581      1.9725283      50218.233      36.893836      36.893836      36.893836    
    168000   0.37952615    -8.0179013     -7.4486202      1.9908644      50218.233      36.893836      36.893836      36.893836    
    169000   0.37850529    -8.0176867     -7.4499369      1.992002       50218.233      36.893836      36.893836      36.893836    
    170000   0.37915218    -8.0165543     -7.4478341      2.0055048      50218.233      36.893836      36.893836      36.893836    
    171000   0.37790274    -8.0158141     -7.4489681      2.0038456      50218.233      36.893836      36.893836      36.893836    
    172000   0.3801908     -8.0180939     -7.4478159      1.9914098      50218.233      36.893836      36.893836      36.893836    
    173000   0.37963855    -8.0182508     -7.4488011      1.985281       50218.233      36.893836      36.893836      36.893836    
    174000   0.37889693    -8.0180983     -7.449761       1.9891241      50218.233      36.893836      36.893836      36.893836    
    175000   0.37952541    -8.0177629     -7.4484829      1.9897676      50218.233      36.893836      36.893836      36.893836    
    176000   0.38044885    -8.0150663     -7.4444011      2.005701       50218.233      36.893836      36.893836      36.893836    
    177000   0.38015437    -8.018667      -7.4484436      1.9944776      50218.233      36.893836      36.893836      36.893836    
    178000   0.38076656    -8.0195543     -7.4484126      1.9785911      50218.233      36.893836      36.893836      36.893836    
    179000   0.37789446    -8.0169234     -7.4500898      1.9979479      50218.233      36.893836      36.893836      36.893836    
    180000   0.38043035    -8.018202      -7.4475646      1.9879286      50218.233      36.893836      36.893836      36.893836    
    181000   0.38003459    -8.0193194     -7.4492757      1.9841218      50218.233      36.893836      36.893836      36.893836    
    182000   0.37843102    -8.017409      -7.4497706      1.984479       50218.233      36.893836      36.893836      36.893836    
    183000   0.38035573    -8.0204234     -7.4498979      1.9733608      50218.233      36.893836      36.893836      36.893836    
    184000   0.3808347     -8.0216998     -7.4504558      1.9558161      50218.233      36.893836      36.893836      36.893836    
    185000   0.37873268    -8.0188527     -7.4507618      1.977198       50218.233      36.893836      36.893836      36.893836    
    186000   0.38010501    -8.0155756     -7.4454262      2.0131279      50218.233      36.893836      36.893836      36.893836    
    187000   0.37880227    -8.0162379     -7.4480425      2.002524       50218.233      36.893836      36.893836      36.893836    
    188000   0.37999593    -8.0178386     -7.4478528      1.9904008      50218.233      36.893836      36.893836      36.893836    
    189000   0.3797187     -8.0176373     -7.4480674      1.9942213      50218.233      36.893836      36.893836      36.893836    
    190000   0.37910883    -8.0156818     -7.4470266      2.0061094      50218.233      36.893836      36.893836      36.893836    
    191000   0.37947988    -8.0198647     -7.450653       1.9757953      50218.233      36.893836      36.893836      36.893836    
    192000   0.37935693    -8.0223127     -7.4532854      1.95489        50218.233      36.893836      36.893836      36.893836    
    193000   0.37939632    -8.0179683     -7.4488819      1.9895884      50218.233      36.893836      36.893836      36.893836    
    194000   0.37981057    -8.0196807     -7.4499729      1.9837649      50218.233      36.893836      36.893836      36.893836    
    195000   0.38014547    -8.0200981     -7.449888       1.980978       50218.233      36.893836      36.893836      36.893836    
    196000   0.38040548    -8.0177765     -7.4471764      1.9902756      50218.233      36.893836      36.893836      36.893836    
    197000   0.38070723    -8.0208066     -7.4497539      1.9660938      50218.233      36.893836      36.893836      36.893836    
    198000   0.37901428    -8.0199806     -7.4514673      1.9781975      50218.233      36.893836      36.893836      36.893836    
    199000   0.38113546    -8.0213462     -7.4496511      1.9619768      50218.233      36.893836      36.893836      36.893836    
    200000   0.38075205    -8.0198058     -7.4486858      1.9697288      50218.233      36.893836      36.893836      36.893836    
    201000   0.3794185     -8.0211371     -7.4520174      1.966405       50218.233      36.893836      36.893836      36.893836    
    202000   0.37933791    -8.0183238     -7.4493251      1.9838232      50218.233      36.893836      36.893836      36.893836    
    203000   0.38138107    -8.0184188     -7.4463553      2.0025234      50218.233      36.893836      36.893836      36.893836    
    204000   0.37749812    -8.020574      -7.4543349      1.9758933      50218.233      36.893836      36.893836      36.893836    
    205000   0.37979473    -8.0202667     -7.4505827      1.9694267      50218.233      36.893836      36.893836      36.893836    
    206000   0.38047165    -8.0189068     -7.4482075      1.9783989      50218.233      36.893836      36.893836      36.893836    
    207000   0.37972758    -8.0198784     -7.4502951      1.9739295      50218.233      36.893836      36.893836      36.893836    
    208000   0.380902      -8.0199101     -7.4485653      1.9665494      50218.233      36.893836      36.893836      36.893836    
    209000   0.38025374    -8.0191891     -7.4488167      1.9774851      50218.233      36.893836      36.893836      36.893836    
    210000   0.37858239    -8.0204757     -7.4526102      1.9753452      50218.233      36.893836      36.893836      36.893836    
    211000   0.37968796    -8.0207978     -7.451274       1.9675588      50218.233      36.893836      36.893836      36.893836    
    212000   0.38185945    -8.0198217     -7.4470407      1.9667387      50218.233      36.893836      36.893836      36.893836    
    213000   0.37767089    -8.0159118     -7.4494135      1.9922248      50218.233      36.893836      36.893836      36.893836    
    214000   0.37996739    -8.0158926     -7.4459496      2.0058133      50218.233      36.893836      36.893836      36.893836    
    215000   0.38286563    -8.020213      -7.4459228      1.9764447      50218.233      36.893836      36.893836      36.893836    
    216000   0.37986075    -8.0209032     -7.4511201      1.9624097      50218.233      36.893836      36.893836      36.893836    
    217000   0.37957942    -8.0180446     -7.4486836      1.9818448      50218.233      36.893836      36.893836      36.893836    
    218000   0.37971792    -8.018099      -7.4485303      1.9902158      50218.233      36.893836      36.893836      36.893836    
    219000   0.38131462    -8.0170263     -7.4450625      2.0003346      50218.233      36.893836      36.893836      36.893836    
    220000   0.38030655    -8.0183573     -7.4479056      1.9915157      50218.233      36.893836      36.893836      36.893836    
    221000   0.37803269    -8.0177402     -7.4506993      1.9900796      50218.233      36.893836      36.893836      36.893836    
    222000   0.37974999    -8.0185265     -7.4489096      1.9814479      50218.233      36.893836      36.893836      36.893836    
    223000   0.37938733    -8.0149789     -7.445906       2.014167       50218.233      36.893836      36.893836      36.893836    
    224000   0.37823668    -8.0165979     -7.4492509      1.9997569      50218.233      36.893836      36.893836      36.893836    
    225000   0.38061355    -8.0191849     -7.4482727      1.9876995      50218.233      36.893836      36.893836      36.893836    
    226000   0.3793649     -8.0167189     -7.4476796      1.9978633      50218.233      36.893836      36.893836      36.893836    
    227000   0.38268913    -8.0184732     -7.4444477      1.9861941      50218.233      36.893836      36.893836      36.893836    
    228000   0.37888039    -8.0189445     -7.450632       1.9757281      50218.233      36.893836      36.893836      36.893836    
    229000   0.38006008    -8.0164257     -7.4463437      1.9969093      50218.233      36.893836      36.893836      36.893836    
    230000   0.37857372    -8.0167532     -7.4489007      1.9927956      50218.233      36.893836      36.893836      36.893836    
    231000   0.38096506    -8.0177946     -7.4463552      1.9981111      50218.233      36.893836      36.893836      36.893836    
    232000   0.37981071    -8.015242      -7.445534       2.0119834      50218.233      36.893836      36.893836      36.893836    
    233000   0.38046542    -8.0155231     -7.4448331      2.0067895      50218.233      36.893836      36.893836      36.893836    
    234000   0.37950476    -8.0204352     -7.4511862      1.9680024      50218.233      36.893836      36.893836      36.893836    
    235000   0.38037601    -8.0176803     -7.4471244      1.9892759      50218.233      36.893836      36.893836      36.893836    
    236000   0.3806073     -8.019395      -7.4484922      1.9710831      50218.233      36.893836      36.893836      36.893836    
    237000   0.37857465    -8.0175182     -7.4496643      1.9900829      50218.233      36.893836      36.893836      36.893836    
    238000   0.38021117    -8.0170316     -7.4467229      2.0000249      50218.233      36.893836      36.893836      36.893836    
    239000   0.38007226    -8.016036      -7.4459357      2.0057571      50218.233      36.893836      36.893836      36.893836    
    240000   0.38025006    -8.0215294     -7.4511624      1.968493       50218.233      36.893836      36.893836      36.893836    
    241000   0.3795072     -8.0189936     -7.4497409      1.9893457      50218.233      36.893836      36.893836      36.893836    
    242000   0.37951927    -8.0154575     -7.4461867      2.010193       50218.233      36.893836      36.893836      36.893836    
    243000   0.37978949    -8.0197748     -7.4500987      1.9668441      50218.233      36.893836      36.893836      36.893836    
    244000   0.37852325    -8.0202131     -7.4524363      1.9668539      50218.233      36.893836      36.893836      36.893836    
    245000   0.37950699    -8.0189921     -7.4497397      1.9817236      50218.233      36.893836      36.893836      36.893836    
    246000   0.37866996    -8.0179026     -7.4499058      1.992632       50218.233      36.893836      36.893836      36.893836    
    247000   0.37774433    -8.0190981     -7.4524897      1.9741804      50218.233      36.893836      36.893836      36.893836    
    248000   0.38102761    -8.019002      -7.4474687      1.9830104      50218.233      36.893836      36.893836      36.893836    
    249000   0.38054447    -8.0172074     -7.4463988      1.9914507      50218.233      36.893836      36.893836      36.893836    
    250000   0.37888836    -8.0169372     -7.4486128      2.0024117      50218.233      36.893836      36.893836      36.893836    
    251000   0.37892157    -8.0163003     -7.447926       1.9997236      50218.233      36.893836      36.893836      36.893836    
    252000   0.37961321    -8.0186578     -7.4492461      1.981141       50218.233      36.893836      36.893836      36.893836    
    253000   0.37897648    -8.0190855     -7.4506288      1.9851762      50218.233      36.893836      36.893836      36.893836    
    254000   0.37947812    -8.0207437     -7.4515346      1.9677058      50218.233      36.893836      36.893836      36.893836    
    255000   0.37961761    -8.0151199     -7.4457016      2.0004947      50218.233      36.893836      36.893836      36.893836    
    256000   0.38146426    -8.0180363     -7.445848       1.9922263      50218.233      36.893836      36.893836      36.893836    
    257000   0.3794896     -8.0198593     -7.450633       1.9555099      50218.233      36.893836      36.893836      36.893836    
    258000   0.37931404    -8.0187257     -7.4497627      1.9854293      50218.233      36.893836      36.893836      36.893836    
    259000   0.38196455    -8.0201769     -7.4472383      1.9788064      50218.233      36.893836      36.893836      36.893836    
    260000   0.37893369    -8.018408      -7.4500156      1.9796329      50218.233      36.893836      36.893836      36.893836    
    261000   0.37923453    -8.0203556     -7.4515119      1.9651205      50218.233      36.893836      36.893836      36.893836    
    262000   0.38177186    -8.0196485     -7.4469988      1.9791321      50218.233      36.893836      36.893836      36.893836    
    263000   0.37932497    -8.0167665     -7.4477872      1.9904759      50218.233      36.893836      36.893836      36.893836    
    264000   0.38155206    -8.0162224     -7.4439025      2.0035824      50218.233      36.893836      36.893836      36.893836    
    265000   0.37788939    -8.0174272     -7.4506012      1.9824029      50218.233      36.893836      36.893836      36.893836    
    266000   0.38206114    -8.0179097     -7.4448262      1.9942027      50218.233      36.893836      36.893836      36.893836    
    267000   0.37925824    -8.0200301     -7.4511508      1.9740042      50218.233      36.893836      36.893836      36.893836    
    268000   0.37977121    -8.0176263     -7.4479776      1.9906067      50218.233      36.893836      36.893836      36.893836    
    269000   0.38013055    -8.01811       -7.4479222      1.9891406      50218.233      36.893836      36.893836      36.893836    
    270000   0.38003152    -8.0154491     -7.4454099      2.0081811      50218.233      36.893836      36.893836      36.893836    
    271000   0.38062036    -8.0178326     -7.4469102      1.9867419      50218.233      36.893836      36.893836      36.893836    
    272000   0.38032673    -8.0183283     -7.4478463      1.9807052      50218.233      36.893836      36.893836      36.893836    
    273000   0.37979118    -8.0151066     -7.4454279      2.0190327      50218.233      36.893836      36.893836      36.893836    
    274000   0.382486      -8.018066      -7.4443452      1.9926576      50218.233      36.893836      36.893836      36.893836    
    275000   0.37891464    -8.0205893     -7.4522254      1.9808777      50218.233      36.893836      36.893836      36.893836    
    276000   0.37870369    -8.0175129     -7.4494655      1.9946199      50218.233      36.893836      36.893836      36.893836    
    277000   0.38070283    -8.016827      -7.4457809      2.0024343      50218.233      36.893836      36.893836      36.893836    
    278000   0.38062183    -8.0178965     -7.4469719      1.9958076      50218.233      36.893836      36.893836      36.893836    
    279000   0.38043852    -8.0178654     -7.4472158      1.9851278      50218.233      36.893836      36.893836      36.893836    
    280000   0.37990058    -8.0158863     -7.4460435      2.0090264      50218.233      36.893836      36.893836      36.893836    
    281000   0.37894086    -8.018499      -7.4500958      1.9902075      50218.233      36.893836      36.893836      36.893836    
    282000   0.37979426    -8.0167353     -7.447052       1.997798       50218.233      36.893836      36.893836      36.893836    
    283000   0.37918621    -8.0166007     -7.4478295      1.9944238      50218.233      36.893836      36.893836      36.893836    
    284000   0.38251837    -8.0156876     -7.4419182      2.0115238      50218.233      36.893836      36.893836      36.893836    
    285000   0.37956649    -8.0164714     -7.4471297      1.9948139      50218.233      36.893836      36.893836      36.893836    
    286000   0.38207659    -8.0189214     -7.4458147      1.9841453      50218.233      36.893836      36.893836      36.893836    
    287000   0.37747026    -8.018751      -7.4525537      1.9765222      50218.233      36.893836      36.893836      36.893836    
    288000   0.3799608     -8.0155554     -7.4456223      2.0068386      50218.233      36.893836      36.893836      36.893836    
    289000   0.38058812    -8.0181377     -7.4472637      1.9847939      50218.233      36.893836      36.893836      36.893836    
    290000   0.37909004    -8.0205048     -7.4518778      1.9605594      50218.233      36.893836      36.893836      36.893836    
    291000   0.38083303    -8.0155403     -7.4442988      2.0087543      50218.233      36.893836      36.893836      36.893836    
    292000   0.3802228     -8.0158929     -7.4455669      2.0096631      50218.233      36.893836      36.893836      36.893836    
    293000   0.3806066     -8.0153277     -7.4444259      2.0098978      50218.233      36.893836      36.893836      36.893836    
    294000   0.38043746    -8.0207518     -7.4501037      1.9661413      50218.233      36.893836      36.893836      36.893836    
    295000   0.37932401    -8.0188672     -7.4498893      1.9809442      50218.233      36.893836      36.893836      36.893836    
    296000   0.37940853    -8.0176287     -7.448524       1.9927255      50218.233      36.893836      36.893836      36.893836    
    297000   0.38194789    -8.0180752     -7.4451615      1.9916904      50218.233      36.893836      36.893836      36.893836    
    298000   0.38039863    -8.0187033     -7.4481135      1.991233       50218.233      36.893836      36.893836      36.893836    
    299000   0.37832476    -8.0225821     -7.455103       1.9567016      50218.233      36.893836      36.893836      36.893836    
    300000   0.37794254    -8.0184919     -7.4515861      1.9900641      50218.233      36.893836      36.893836      36.893836    
    301000   0.38094042    -8.0195628     -7.4481603      1.9745737      50218.233      36.893836      36.893836      36.893836    
    302000   0.37893731    -8.0170811     -7.4486832      1.9996409      50218.233      36.893836      36.893836      36.893836    
    303000   0.38150932    -8.0161486     -7.4438927      2.0001977      50218.233      36.893836      36.893836      36.893836    
    304000   0.37844823    -8.0187415     -7.4510772      1.9817443      50218.233      36.893836      36.893836      36.893836    
    305000   0.37836321    -8.0162373     -7.4487006      2.0038917      50218.233      36.893836      36.893836      36.893836    
    306000   0.38034085    -8.0188787     -7.4483755      1.9768458      50218.233      36.893836      36.893836      36.893836    
    307000   0.37993491    -8.0215401     -7.4516459      1.9562708      50218.233      36.893836      36.893836      36.893836    
    308000   0.38055974    -8.0166803     -7.4458488      2.002309       50218.233      36.893836      36.893836      36.893836    
    309000   0.37755173    -8.0192866     -7.452967       1.9754249      50218.233      36.893836      36.893836      36.893836    
    310000   0.38071392    -8.0175034     -7.4464406      1.9994641      50218.233      36.893836      36.893836      36.893836    
    311000   0.38075291    -8.0189885     -7.4478673      1.9803016      50218.233      36.893836      36.893836      36.893836    
    312000   0.37840466    -8.0200391     -7.4524402      1.9713171      50218.233      36.893836      36.893836      36.893836    
    313000   0.38005824    -8.0196499     -7.4495706      1.9778778      50218.233      36.893836      36.893836      36.893836    
    314000   0.37870514    -8.0158807     -7.4478311      2.0001872      50218.233      36.893836      36.893836      36.893836    
    315000   0.37819163    -8.0177208     -7.4504414      1.9861429      50218.233      36.893836      36.893836      36.893836    
    316000   0.38105436    -8.0188737     -7.4473003      1.9929529      50218.233      36.893836      36.893836      36.893836    
    317000   0.38176107    -8.0198224     -7.4471889      1.9747948      50218.233      36.893836      36.893836      36.893836    
    318000   0.37943046    -8.020389      -7.4512514      1.974643       50218.233      36.893836      36.893836      36.893836    
    319000   0.38028359    -8.0181025     -7.4476852      1.9834046      50218.233      36.893836      36.893836      36.893836    
    320000   0.37917985    -8.016353      -7.4475913      1.9982824      50218.233      36.893836      36.893836      36.893836    
    321000   0.38008554    -8.0177684     -7.4476482      1.9904449      50218.233      36.893836      36.893836      36.893836    
    322000   0.38043551    -8.0156763     -7.4450311      2.0098843      50218.233      36.893836      36.893836      36.893836    
    323000   0.38029348    -8.0171017     -7.4466696      1.9957292      50218.233      36.893836      36.893836      36.893836    
    324000   0.38063202    -8.0154539     -7.444514       2.009501       50218.233      36.893836      36.893836      36.893836    
    325000   0.37916134    -8.0177299     -7.448996       1.9919387      50218.233      36.893836      36.893836      36.893836    
    326000   0.38078121    -8.0180055     -7.4468418      1.9903994      50218.233      36.893836      36.893836      36.893836    
    327000   0.37765203    -8.0180734     -7.4516034      1.9854209      50218.233      36.893836      36.893836      36.893836    
    328000   0.38200606    -8.0198922     -7.4468912      1.9775473      50218.233      36.893836      36.893836      36.893836    
    329000   0.3792572     -8.015887      -7.4470093      1.9954944      50218.233      36.893836      36.893836      36.893836    
    330000   0.38031825    -8.0169623     -7.4464931      1.9910709      50218.233      36.893836      36.893836      36.893836    
    331000   0.38043018    -8.0142651     -7.4436279      2.0152645      50218.233      36.893836      36.893836      36.893836    
    332000   0.37899992    -8.0177415     -7.4492497      1.9941585      50218.233      36.893836      36.893836      36.893836    
    333000   0.38187741    -8.0164587     -7.4436507      2.0056443      50218.233      36.893836      36.893836      36.893836    
    334000   0.37974545    -8.0154645     -7.4458544      2.0086132      50218.233      36.893836      36.893836      36.893836    
    335000   0.37894944    -8.0222747     -7.4538586      1.9531073      50218.233      36.893836      36.893836      36.893836    
    336000   0.3794133     -8.0177406     -7.4486287      1.9911861      50218.233      36.893836      36.893836      36.893836    
    337000   0.38182782    -8.0170643     -7.4443307      2.0006885      50218.233      36.893836      36.893836      36.893836    
    338000   0.37931204    -8.0201307     -7.4511708      1.9623276      50218.233      36.893836      36.893836      36.893836    
    339000   0.37985763    -8.019954      -7.4501756      1.9683792      50218.233      36.893836      36.893836      36.893836    
    340000   0.37999509    -8.0190306     -7.449046       1.9830961      50218.233      36.893836      36.893836      36.893836    
    341000   0.38051537    -8.0191477     -7.4483828      1.9778714      50218.233      36.893836      36.893836      36.893836    
    342000   0.37995823    -8.0174484     -7.4475191      1.9894657      50218.233      36.893836      36.893836      36.893836    
    343000   0.38004905    -8.0184515     -7.448386       1.9904538      50218.233      36.893836      36.893836      36.893836    
    344000   0.37863036    -8.0178321     -7.4498947      1.9964742      50218.233      36.893836      36.893836      36.893836    
    345000   0.37838262    -8.0196236     -7.4520578      1.9842431      50218.233      36.893836      36.893836      36.893836    
    346000   0.37728506    -8.0208288     -7.4549093      1.966099       50218.233      36.893836      36.893836      36.893836    
    347000   0.38130735    -8.0213836     -7.4494308      1.9632141      50218.233      36.893836      36.893836      36.893836    
    348000   0.38100129    -8.0187313     -7.4472374      1.9961395      50218.233      36.893836      36.893836      36.893836    
    349000   0.38031137    -8.0206026     -7.4501437      1.9649921      50218.233      36.893836      36.893836      36.893836    
    350000   0.37999447    -8.0202003     -7.4502167      1.9729188      50218.233      36.893836      36.893836      36.893836    
    351000   0.38077817    -8.0188232     -7.4476641      1.9845114      50218.233      36.893836      36.893836      36.893836    
    352000   0.37913239    -8.0172642     -7.4485737      1.9927775      50218.233      36.893836      36.893836      36.893836    
    353000   0.37831861    -8.0179245     -7.4504546      1.9845483      50218.233      36.893836      36.893836      36.893836    
    354000   0.37998281    -8.0197445     -7.4497784      1.9740569      50218.233      36.893836      36.893836      36.893836    
    355000   0.38185958    -8.0202324     -7.4474512      1.9838294      50218.233      36.893836      36.893836      36.893836    
    356000   0.37912386    -8.0185718     -7.4498941      1.9836346      50218.233      36.893836      36.893836      36.893836    
    357000   0.38029112    -8.0177776     -7.447349       1.9948035      50218.233      36.893836      36.893836      36.893836    
    358000   0.38096773    -8.0212918     -7.4498483      1.9671328      50218.233      36.893836      36.893836      36.893836    
    359000   0.3805672     -8.0158122     -7.4449696      2.0009471      50218.233      36.893836      36.893836      36.893836    
    360000   0.38267348    -8.0163612     -7.4423591      2.0022141      50218.233      36.893836      36.893836      36.893836    
    361000   0.38172213    -8.019292      -7.4467169      1.9854379      50218.233      36.893836      36.893836      36.893836    
    362000   0.38084769    -8.0182287     -7.4469653      1.9803246      50218.233      36.893836      36.893836      36.893836    
    363000   0.38030795    -8.0182056     -7.4477518      1.9903571      50218.233      36.893836      36.893836      36.893836    
    364000   0.3786366     -8.0161865     -7.4482397      2.0079048      50218.233      36.893836      36.893836      36.893836    
    365000   0.38061865    -8.0185495     -7.4476296      1.9866849      50218.233      36.893836      36.893836      36.893836    
    366000   0.3812819     -8.0167254     -7.4448107      1.9983254      50218.233      36.893836      36.893836      36.893836    
    367000   0.37958134    -8.0171818     -7.4478179      1.9917269      50218.233      36.893836      36.893836      36.893836    
    368000   0.38001828    -8.0171729     -7.4471536      1.9956485      50218.233      36.893836      36.893836      36.893836    
    369000   0.38213783    -8.0151434     -7.4419448      2.0143685      50218.233      36.893836      36.893836      36.893836    
    370000   0.38118666    -8.017277      -7.4455052      1.9942717      50218.233      36.893836      36.893836      36.893836    
    371000   0.37972406    -8.0162884     -7.4467104      2.0012348      50218.233      36.893836      36.893836      36.893836    
    372000   0.37994114    -8.0200727     -7.4501691      1.9684201      50218.233      36.893836      36.893836      36.893836    
    373000   0.37955191    -8.0160187     -7.446699       2.0085911      50218.233      36.893836      36.893836      36.893836    
    374000   0.38124283    -8.0209935     -7.4491374      1.9715112      50218.233      36.893836      36.893836      36.893836    
    375000   0.37766612    -8.0148259     -7.4483348      2.0123519      50218.233      36.893836      36.893836      36.893836    
    376000   0.38008546    -8.0172385     -7.4471184      1.9867049      50218.233      36.893836      36.893836      36.893836    
    377000   0.38142151    -8.0200717     -7.4479476      1.9687592      50218.233      36.893836      36.893836      36.893836    
    378000   0.38097502    -8.0177997     -7.4463453      1.9962942      50218.233      36.893836      36.893836      36.893836    
    379000   0.37872193    -8.0188842     -7.4508093      1.9863762      50218.233      36.893836      36.893836      36.893836    
    380000   0.37789318    -8.0196536     -7.4528219      1.9726326      50218.233      36.893836      36.893836      36.893836    
    381000   0.37980382    -8.0173389     -7.4476413      1.9843386      50218.233      36.893836      36.893836      36.893836    
    382000   0.37944719    -8.0162733     -7.4471106      2.003549       50218.233      36.893836      36.893836      36.893836    
    383000   0.37877158    -8.0177769     -7.4496276      1.9927534      50218.233      36.893836      36.893836      36.893836    
    384000   0.38025621    -8.0183008     -7.4479246      1.9902811      50218.233      36.893836      36.893836      36.893836    
    385000   0.38031736    -8.018244      -7.4477761      1.9908489      50218.233      36.893836      36.893836      36.893836    
    386000   0.38002489    -8.0182959     -7.4482666      1.9910404      50218.233      36.893836      36.893836      36.893836    
    387000   0.38094366    -8.0199498     -7.4485425      1.9775909      50218.233      36.893836      36.893836      36.893836    
    388000   0.3806415     -8.0173009     -7.4463468      1.9990392      50218.233      36.893836      36.893836      36.893836    
    389000   0.38051664    -8.0173965     -7.4466297      1.9844017      50218.233      36.893836      36.893836      36.893836    
    390000   0.37841072    -8.0201827     -7.4525747      1.9605828      50218.233      36.893836      36.893836      36.893836    
    391000   0.37963504    -8.0194224     -7.449978       1.9815279      50218.233      36.893836      36.893836      36.893836    
    392000   0.38060134    -8.0193003     -7.4484064      1.9888839      50218.233      36.893836      36.893836      36.893836    
    393000   0.38183206    -8.0186579     -7.445918       1.9894099      50218.233      36.893836      36.893836      36.893836    
    394000   0.38083263    -8.0182241     -7.4469833      1.9935622      50218.233      36.893836      36.893836      36.893836    
    395000   0.37941437    -8.0189354     -7.4498219      1.989019       50218.233      36.893836      36.893836      36.893836    
    396000   0.38101776    -8.0168687     -7.4453502      1.9999833      50218.233      36.893836      36.893836      36.893836    
    397000   0.37983528    -8.0179161     -7.4481713      1.9853492      50218.233      36.893836      36.893836      36.893836    
    398000   0.38023438    -8.0185681     -7.4482246      1.9843715      50218.233      36.893836      36.893836      36.893836    
    399000   0.38146225    -8.0211025     -7.4489172      1.9555556      50218.233      36.893836      36.893836      36.893836    
    400000   0.37832847    -8.0194073     -7.4519227      1.9786762      50218.233      36.893836      36.893836      36.893836    
    401000   0.38048238    -8.0157012     -7.4449858      2.0129525      50218.233      36.893836      36.893836      36.893836    
    402000   0.38284059    -8.0209014     -7.4466487      1.9765292      50218.233      36.893836      36.893836      36.893836    
    403000   0.37991387    -8.0203019     -7.4504392      1.9800134      50218.233      36.893836      36.893836      36.893836    
    404000   0.3824776     -8.0174934     -7.4437851      1.9989067      50218.233      36.893836      36.893836      36.893836    
    405000   0.38082316    -8.0190719     -7.4478453      1.9873508      50218.233      36.893836      36.893836      36.893836    
    406000   0.37878759    -8.0173509     -7.4491776      1.9862014      50218.233      36.893836      36.893836      36.893836    
    407000   0.37787873    -8.0213204     -7.4545104      1.9607245      50218.233      36.893836      36.893836      36.893836    
    408000   0.38056696    -8.0188082     -7.4479659      1.9883517      50218.233      36.893836      36.893836      36.893836    
    409000   0.37923432    -8.0184537     -7.4496103      1.9873567      50218.233      36.893836      36.893836      36.893836    
    410000   0.38085295    -8.0161343     -7.444863       2.0029756      50218.233      36.893836      36.893836      36.893836    
    411000   0.3803347     -8.0200734     -7.4495794      1.9735814      50218.233      36.893836      36.893836      36.893836    
    412000   0.37961773    -8.0184765     -7.449058       1.9793977      50218.233      36.893836      36.893836      36.893836    
    413000   0.378384      -8.0183281     -7.4507602      1.9838468      50218.233      36.893836      36.893836      36.893836    
    414000   0.38023724    -8.0158563     -7.4455086      2.0073605      50218.233      36.893836      36.893836      36.893836    
    415000   0.37997137    -8.0179711     -7.4480221      1.9980292      50218.233      36.893836      36.893836      36.893836    
    416000   0.38206968    -8.0189284     -7.4458321      1.9947077      50218.233      36.893836      36.893836      36.893836    
    417000   0.38025834    -8.0177502     -7.4473708      1.9970664      50218.233      36.893836      36.893836      36.893836    
    418000   0.38035424    -8.0169274     -7.4464042      2.0035953      50218.233      36.893836      36.893836      36.893836    
    419000   0.38054269    -8.0186694     -7.4478635      1.9912954      50218.233      36.893836      36.893836      36.893836    
    420000   0.37940867    -8.0163599     -7.447255       2.0098791      50218.233      36.893836      36.893836      36.893836    
    421000   0.38032334    -8.0155743     -7.4450974      2.0021152      50218.233      36.893836      36.893836      36.893836    
    422000   0.3793921     -8.0176874     -7.4486073      1.9832869      50218.233      36.893836      36.893836      36.893836    
    423000   0.38076774    -8.0151508     -7.4440073      2.0173075      50218.233      36.893836      36.893836      36.893836    
    424000   0.37989324    -8.0183575     -7.4485257      1.9885366      50218.233      36.893836      36.893836      36.893836    
    425000   0.37910207    -8.0185304     -7.4498854      1.9969014      50218.233      36.893836      36.893836      36.893836    
    426000   0.38087782    -8.0139273     -7.4426187      2.016425       50218.233      36.893836      36.893836      36.893836    
    427000   0.38107083    -8.0187444     -7.4471462      1.9908965      50218.233      36.893836      36.893836      36.893836    
    428000   0.38121586    -8.0193211     -7.4475054      1.9808427      50218.233      36.893836      36.893836      36.893836    
    429000   0.38024756    -8.0135642     -7.443201       2.0207309      50218.233      36.893836      36.893836      36.893836    
    430000   0.37890599    -8.0162949     -7.447944       2.0042135      50218.233      36.893836      36.893836      36.893836    
    431000   0.38017647    -8.0175103     -7.4472537      1.9915712      50218.233      36.893836      36.893836      36.893836    
    432000   0.37841574    -8.0150917     -7.4474762      2.0046324      50218.233      36.893836      36.893836      36.893836    
    433000   0.37880741    -8.018511      -7.450308       1.9900162      50218.233      36.893836      36.893836      36.893836    
    434000   0.37923718    -8.0205589     -7.4517112      1.9682032      50218.233      36.893836      36.893836      36.893836    
    435000   0.38063825    -8.0160097     -7.4450604      2.0082963      50218.233      36.893836      36.893836      36.893836    
    436000   0.37977566    -8.0188841     -7.4492287      1.9827809      50218.233      36.893836      36.893836      36.893836    
    437000   0.38038613    -8.0186361     -7.448065       1.9870713      50218.233      36.893836      36.893836      36.893836    
    438000   0.37843205    -8.0199861     -7.4523461      1.9716871      50218.233      36.893836      36.893836      36.893836    
    439000   0.37950207    -8.0204325     -7.4511875      1.9765208      50218.233      36.893836      36.893836      36.893836    
    440000   0.37995167    -8.017043      -7.4471236      1.9953007      50218.233      36.893836      36.893836      36.893836    
    441000   0.37956968    -8.0205539     -7.4512075      1.9637681      50218.233      36.893836      36.893836      36.893836    
    442000   0.3798233     -8.0175703     -7.4478434      1.9925116      50218.233      36.893836      36.893836      36.893836    
    443000   0.38023673    -8.017033      -7.446686       2.0003277      50218.233      36.893836      36.893836      36.893836    
    444000   0.37957068    -8.0196695     -7.4503216      1.9657056      50218.233      36.893836      36.893836      36.893836    
    445000   0.38303444    -8.0176503     -7.4431068      2.0009803      50218.233      36.893836      36.893836      36.893836    
    446000   0.38110175    -8.0187241     -7.4470796      1.9756561      50218.233      36.893836      36.893836      36.893836    
    447000   0.3802554     -8.0185798     -7.4482048      1.9718484      50218.233      36.893836      36.893836      36.893836    
    448000   0.38038661    -8.0196914     -7.4491196      1.9828965      50218.233      36.893836      36.893836      36.893836    
    449000   0.37937437    -8.0158102     -7.4467567      1.9958235      50218.233      36.893836      36.893836      36.893836    
    450000   0.37949421    -8.0179785     -7.4487453      1.9813097      50218.233      36.893836      36.893836      36.893836    
    451000   0.37975415    -8.0193609     -7.4497377      1.975348       50218.233      36.893836      36.893836      36.893836    
    452000   0.38110102    -8.0169744     -7.445331       2.0029421      50218.233      36.893836      36.893836      36.893836    
    453000   0.37966123    -8.0179027     -7.4484189      1.9845093      50218.233      36.893836      36.893836      36.893836    
    454000   0.3789241     -8.0177454     -7.4493673      1.9844983      50218.233      36.893836      36.893836      36.893836    
    455000   0.37913312    -8.0177395     -7.4490479      1.9784919      50218.233      36.893836      36.893836      36.893836    
    456000   0.38040822    -8.0183404     -7.4477362      1.9793111      50218.233      36.893836      36.893836      36.893836    
    457000   0.38159234    -8.0173056     -7.4449253      1.991622       50218.233      36.893836      36.893836      36.893836    
    458000   0.38107287    -8.0210085     -7.4494074      1.9678559      50218.233      36.893836      36.893836      36.893836    
    459000   0.38151349    -8.0197339     -7.4474718      1.9694903      50218.233      36.893836      36.893836      36.893836    
    460000   0.38146793    -8.0191067     -7.4469129      1.9790144      50218.233      36.893836      36.893836      36.893836    
    461000   0.38112421    -8.0186585     -7.4469803      1.9864913      50218.233      36.893836      36.893836      36.893836    
    462000   0.37907755    -8.0197168     -7.4511086      1.9787647      50218.233      36.893836      36.893836      36.893836    
    463000   0.37978039    -8.0161985     -7.4465361      1.9961454      50218.233      36.893836      36.893836      36.893836    
    464000   0.37994265    -8.0217627     -7.4518568      1.963919       50218.233      36.893836      36.893836      36.893836    
    465000   0.37935989    -8.0217092     -7.4526775      1.9600927      50218.233      36.893836      36.893836      36.893836    
    466000   0.38147656    -8.0153148     -7.4431081      2.0041202      50218.233      36.893836      36.893836      36.893836    
    467000   0.37984334    -8.0222536     -7.4524967      1.9572558      50218.233      36.893836      36.893836      36.893836    
    468000   0.37856019    -8.0168938     -7.4490616      1.9977104      50218.233      36.893836      36.893836      36.893836    
    469000   0.38048917    -8.0154125     -7.4446869      2.0102753      50218.233      36.893836      36.893836      36.893836    
    470000   0.38111193    -8.018628      -7.4469682      1.9744722      50218.233      36.893836      36.893836      36.893836    
    471000   0.38084737    -8.0195915     -7.4483286      1.9846171      50218.233      36.893836      36.893836      36.893836    
    472000   0.37965414    -8.017169      -7.4476959      1.9907858      50218.233      36.893836      36.893836      36.893836    
    473000   0.37807528    -8.0178969     -7.450792       1.9917902      50218.233      36.893836      36.893836      36.893836    
    474000   0.38218148    -8.01613       -7.4428659      2.0075516      50218.233      36.893836      36.893836      36.893836    
    475000   0.38062934    -8.0162243     -7.4452884      1.9997319      50218.233      36.893836      36.893836      36.893836    
    476000   0.38006233    -8.0161638     -7.4460784      1.9936113      50218.233      36.893836      36.893836      36.893836    
    477000   0.38108655    -8.0158537     -7.4442321      2.0034895      50218.233      36.893836      36.893836      36.893836    
    478000   0.37917111    -8.0170536     -7.4483051      1.9924763      50218.233      36.893836      36.893836      36.893836    
    479000   0.37876685    -8.0192935     -7.4511513      1.9792346      50218.233      36.893836      36.893836      36.893836    
    480000   0.38213839    -8.0202419     -7.4470424      1.9721627      50218.233      36.893836      36.893836      36.893836    
    481000   0.38000189    -8.0178503     -7.4478556      1.9870544      50218.233      36.893836      36.893836      36.893836    
    482000   0.3797452     -8.0198607     -7.450251       1.9790692      50218.233      36.893836      36.893836      36.893836    
    483000   0.37745399    -8.0186667     -7.4524938      1.9904069      50218.233      36.893836      36.893836      36.893836    
    484000   0.37668755    -8.0177486     -7.4527253      1.9856302      50218.233      36.893836      36.893836      36.893836    
    485000   0.37976496    -8.0199881     -7.4503488      1.9737851      50218.233      36.893836      36.893836      36.893836    
    486000   0.37950075    -8.0198022     -7.4505591      1.9718253      50218.233      36.893836      36.893836      36.893836    
    487000   0.3787281     -8.0243172     -7.4562332      1.9339203      50218.233      36.893836      36.893836      36.893836    
    488000   0.37824258    -8.0194746     -7.4521188      1.9736739      50218.233      36.893836      36.893836      36.893836    
    489000   0.38265687    -8.0192301     -7.4452529      1.9715509      50218.233      36.893836      36.893836      36.893836    
    490000   0.37883951    -8.0196042     -7.451353       1.9806378      50218.233      36.893836      36.893836      36.893836    
    491000   0.37901247    -8.0185116     -7.450001       1.9841264      50218.233      36.893836      36.893836      36.893836    
    492000   0.38039354    -8.0197598     -7.4491776      1.9768491      50218.233      36.893836      36.893836      36.893836    
    493000   0.38097147    -8.0172753     -7.4458262      1.9938978      50218.233      36.893836      36.893836      36.893836    
    494000   0.37957417    -8.0166077     -7.4472545      1.9993962      50218.233      36.893836      36.893836      36.893836    
    495000   0.38075342    -8.0168755     -7.4457535      1.9933461      50218.233      36.893836      36.893836      36.893836    
    496000   0.37883612    -8.0176997     -7.4494536      1.9839964      50218.233      36.893836      36.893836      36.893836    
    497000   0.38233927    -8.0190562     -7.4455555      1.986056       50218.233      36.893836      36.893836      36.893836    
    498000   0.38107476    -8.015152      -7.443548       2.0084462      50218.233      36.893836      36.893836      36.893836    
    499000   0.38131277    -8.0152703     -7.4433093      2.0123832      50218.233      36.893836      36.893836      36.893836    
    500000   0.37951801    -8.0173724     -7.4481034      1.995839       50218.233      36.893836      36.893836      36.893836    
    501000   0.38054095    -8.0183658     -7.4475625      1.9836297      50218.233      36.893836      36.893836      36.893836    
    502000   0.37945278    -8.0187165     -7.4495454      1.9835016      50218.233      36.893836      36.893836      36.893836    
    503000   0.37865064    -8.0211909     -7.453223       1.9561972      50218.233      36.893836      36.893836      36.893836    
    504000   0.37894991    -8.0191481     -7.4507313      1.9802561      50218.233      36.893836      36.893836      36.893836    
    505000   0.37777166    -8.0176724     -7.451023       1.9899241      50218.233      36.893836      36.893836      36.893836    
    506000   0.37874677    -8.0214759     -7.4533638      1.9611251      50218.233      36.893836      36.893836      36.893836    
    507000   0.3786299     -8.0156974     -7.4477607      2.0048368      50218.233      36.893836      36.893836      36.893836    
    508000   0.38044372    -8.0171722     -7.4465147      1.9988986      50218.233      36.893836      36.893836      36.893836    
    509000   0.37951273    -8.0198992     -7.4506382      1.9801373      50218.233      36.893836      36.893836      36.893836    
    510000   0.37969285    -8.0199653     -7.4504341      1.9780907      50218.233      36.893836      36.893836      36.893836    
    511000   0.37984221    -8.0171303     -7.4473751      1.9878124      50218.233      36.893836      36.893836      36.893836    
    512000   0.37998792    -8.0183223     -7.4483486      1.9919188      50218.233      36.893836      36.893836      36.893836    
    513000   0.37925765    -8.015349      -7.4464707      2.0124293      50218.233      36.893836      36.893836      36.893836    
    514000   0.37737368    -8.0185165     -7.452464       1.9744871      50218.233      36.893836      36.893836      36.893836    
    515000   0.38005919    -8.0174906     -7.44741        1.9876642      50218.233      36.893836      36.893836      36.893836    
    516000   0.37925674    -8.0198332     -7.4509562      1.9718812      50218.233      36.893836      36.893836      36.893836    
    517000   0.37994197    -8.0170812     -7.4471764      1.9978681      50218.233      36.893836      36.893836      36.893836    
    518000   0.37937511    -8.0197485     -7.4506939      1.9740502      50218.233      36.893836      36.893836      36.893836    
    519000   0.38058048    -8.019516      -7.4486534      1.9790867      50218.233      36.893836      36.893836      36.893836    
    520000   0.38068932    -8.0198394     -7.4488135      1.9806827      50218.233      36.893836      36.893836      36.893836    
    521000   0.37879181    -8.0199127     -7.451733       1.9780585      50218.233      36.893836      36.893836      36.893836    
    522000   0.37966533    -8.0174745     -7.4479846      1.9879128      50218.233      36.893836      36.893836      36.893836    
    523000   0.38030167    -8.017733      -7.4472886      1.9874331      50218.233      36.893836      36.893836      36.893836    
    524000   0.37927038    -8.0165686     -7.4476711      2.0034782      50218.233      36.893836      36.893836      36.893836    
    525000   0.38068914    -8.0153924     -7.4443668      2.0074861      50218.233      36.893836      36.893836      36.893836    
    526000   0.37980042    -8.0182911     -7.4485986      1.9893487      50218.233      36.893836      36.893836      36.893836    
    527000   0.37776053    -8.0167684     -7.4501357      2.0053982      50218.233      36.893836      36.893836      36.893836    
    528000   0.38166987    -8.0171758     -7.4446791      1.9979484      50218.233      36.893836      36.893836      36.893836    
    529000   0.38064636    -8.0156523     -7.4446908      2.012594       50218.233      36.893836      36.893836      36.893836    
    530000   0.37786297    -8.0187532     -7.4519668      1.9900738      50218.233      36.893836      36.893836      36.893836    
    531000   0.38001696    -8.0148884     -7.4448711      2.0114031      50218.233      36.893836      36.893836      36.893836    
    532000   0.37899119    -8.0179594     -7.4494807      1.9992135      50218.233      36.893836      36.893836      36.893836    
    533000   0.37849867    -8.0158889     -7.4481489      2.0009296      50218.233      36.893836      36.893836      36.893836    
    534000   0.37945695    -8.019531      -7.4503537      1.9828849      50218.233      36.893836      36.893836      36.893836    
    535000   0.38077226    -8.017083      -7.4459328      1.9964441      50218.233      36.893836      36.893836      36.893836    
    536000   0.38105054    -8.0185301     -7.4469624      1.9875327      50218.233      36.893836      36.893836      36.893836    
    537000   0.3794394     -8.0173761     -7.4482251      1.9901972      50218.233      36.893836      36.893836      36.893836    
    538000   0.38238357    -8.0197324     -7.4461652      1.9793765      50218.233      36.893836      36.893836      36.893836    
    539000   0.37960096    -8.0160556     -7.4466623      2.0058692      50218.233      36.893836      36.893836      36.893836    
    540000   0.38108405    -8.0181117     -7.4464938      1.995311       50218.233      36.893836      36.893836      36.893836    
    541000   0.38132079    -8.0205857     -7.4486126      1.9789827      50218.233      36.893836      36.893836      36.893836    
    542000   0.38015923    -8.0193791     -7.4491483      1.9823772      50218.233      36.893836      36.893836      36.893836    
    543000   0.37910681    -8.018238      -7.4495858      1.9856007      50218.233      36.893836      36.893836      36.893836    
    544000   0.37979927    -8.0173206     -7.4476298      1.9863261      50218.233      36.893836      36.893836      36.893836    
    545000   0.38308376    -8.0161344     -7.441517       2.0113157      50218.233      36.893836      36.893836      36.893836    
    546000   0.37923096    -8.0175481     -7.4487098      1.9854172      50218.233      36.893836      36.893836      36.893836    
    547000   0.38005475    -8.0155793     -7.4455053      2.0111947      50218.233      36.893836      36.893836      36.893836    
    548000   0.378403      -8.0192698     -7.4516733      1.966179       50218.233      36.893836      36.893836      36.893836    
    549000   0.37813343    -8.0224191     -7.4552271      1.9517854      50218.233      36.893836      36.893836      36.893836    
    550000   0.37991574    -8.0199073     -7.4500418      1.9710819      50218.233      36.893836      36.893836      36.893836    
    551000   0.37846156    -8.0200344     -7.4523501      1.9768838      50218.233      36.893836      36.893836      36.893836    
    552000   0.37959602    -8.0215982     -7.4522122      1.9590722      50218.233      36.893836      36.893836      36.893836    
    553000   0.3805385     -8.0183615     -7.4475619      1.9878852      50218.233      36.893836      36.893836      36.893836    
    554000   0.37890628    -8.0190209     -7.4506696      1.9690465      50218.233      36.893836      36.893836      36.893836    
    555000   0.37757137    -8.0175093     -7.4511603      1.9964548      50218.233      36.893836      36.893836      36.893836    
    556000   0.38014073    -8.0211877     -7.4509847      1.9587318      50218.233      36.893836      36.893836      36.893836    
    557000   0.37835027    -8.0210301     -7.4535127      1.963321       50218.233      36.893836      36.893836      36.893836    
    558000   0.38190014    -8.01743       -7.4445879      1.9903828      50218.233      36.893836      36.893836      36.893836    
    559000   0.37988952    -8.0179354     -7.4481092      1.9883443      50218.233      36.893836      36.893836      36.893836    
    560000   0.38173644    -8.0171719     -7.4445754      1.9995808      50218.233      36.893836      36.893836      36.893836    
    561000   0.37805277    -8.018255      -7.451184       1.982277       50218.233      36.893836      36.893836      36.893836    
    562000   0.37922552    -8.0172258     -7.4483956      1.9902378      50218.233      36.893836      36.893836      36.893836    
    563000   0.3776822     -8.0184953     -7.4519801      1.9877575      50218.233      36.893836      36.893836      36.893836    
    564000   0.38007905    -8.016998      -7.4468876      2.004684       50218.233      36.893836      36.893836      36.893836    
    565000   0.38051152    -8.0180096     -7.4472504      1.9878044      50218.233      36.893836      36.893836      36.893836    
    566000   0.38204767    -8.0204771     -7.4474137      1.9822224      50218.233      36.893836      36.893836      36.893836    
    567000   0.38171597    -8.0198972     -7.4473313      1.9824289      50218.233      36.893836      36.893836      36.893836    
    568000   0.38163172    -8.0187353     -7.4462959      1.9967872      50218.233      36.893836      36.893836      36.893836    
    569000   0.3789728     -8.0191636     -7.4507124      1.9750622      50218.233      36.893836      36.893836      36.893836    
    570000   0.38053918    -8.0194102     -7.4486096      1.9722905      50218.233      36.893836      36.893836      36.893836    
    571000   0.38093894    -8.015921      -7.4445207      2.0044137      50218.233      36.893836      36.893836      36.893836    
    572000   0.37785695    -8.0188156     -7.4520383      1.977378       50218.233      36.893836      36.893836      36.893836    
    573000   0.37942283    -8.0183898     -7.4492636      1.9833897      50218.233      36.893836      36.893836      36.893836    
    574000   0.37933706    -8.0197732     -7.4507757      1.9759031      50218.233      36.893836      36.893836      36.893836    
    575000   0.38163119    -8.0176338     -7.4451952      1.9906791      50218.233      36.893836      36.893836      36.893836    
    576000   0.38098706    -8.0181539     -7.4466814      1.9859694      50218.233      36.893836      36.893836      36.893836    
    577000   0.37953581    -8.017437      -7.4481414      1.9969974      50218.233      36.893836      36.893836      36.893836    
    578000   0.3792927     -8.0208924     -7.4519614      1.9525037      50218.233      36.893836      36.893836      36.893836    
    579000   0.38145396    -8.0178207     -7.4456479      2.00717        50218.233      36.893836      36.893836      36.893836    
    580000   0.38005898    -8.0181031     -7.4480227      1.9916495      50218.233      36.893836      36.893836      36.893836    
    581000   0.38026151    -8.0156397     -7.4452555      2.0113985      50218.233      36.893836      36.893836      36.893836    
    582000   0.38154413    -8.0193361     -7.447028       1.9748286      50218.233      36.893836      36.893836      36.893836    
    583000   0.38064152    -8.021246      -7.4502918      1.9703186      50218.233      36.893836      36.893836      36.893836    
    584000   0.37807558    -8.0184251     -7.4513198      1.9758572      50218.233      36.893836      36.893836      36.893836    
    585000   0.38001565    -8.0195693     -7.449554       1.9715648      50218.233      36.893836      36.893836      36.893836    
    586000   0.38203297    -8.0218525     -7.4488112      1.966603       50218.233      36.893836      36.893836      36.893836    
    587000   0.37964437    -8.0194222     -7.4499637      1.9791816      50218.233      36.893836      36.893836      36.893836    
    588000   0.37690735    -8.0165421     -7.4511891      1.989354       50218.233      36.893836      36.893836      36.893836    
    589000   0.38071292    -8.0181509     -7.4470897      1.9861559      50218.233      36.893836      36.893836      36.893836    
    590000   0.3785609     -8.0188529     -7.4510197      1.9742191      50218.233      36.893836      36.893836      36.893836    
    591000   0.37973773    -8.0203416     -7.4507431      1.9649851      50218.233      36.893836      36.893836      36.893836    
    592000   0.3781862     -8.0197292     -7.452458       1.9709966      50218.233      36.893836      36.893836      36.893836    
    593000   0.38086739    -8.017586      -7.4462931      1.9855726      50218.233      36.893836      36.893836      36.893836    
    594000   0.38078841    -8.0194095     -7.448235       1.9704004      50218.233      36.893836      36.893836      36.893836    
    595000   0.38124998    -8.0184651     -7.4465982      1.9839099      50218.233      36.893836      36.893836      36.893836    
    596000   0.37976489    -8.0182313     -7.448592       1.9863237      50218.233      36.893836      36.893836      36.893836    
    597000   0.38042751    -8.0205772     -7.4499441      1.9749241      50218.233      36.893836      36.893836      36.893836    
    598000   0.37952804    -8.0174949     -7.448211       1.992031       50218.233      36.893836      36.893836      36.893836    
    599000   0.38019706    -8.0215996     -7.4513121      1.9640305      50218.233      36.893836      36.893836      36.893836    
    600000   0.3799155     -8.0195554     -7.4496903      1.9684412      50218.233      36.893836      36.893836      36.893836    
    601000   0.38152345    -8.0191546     -7.4468776      1.9742246      50218.233      36.893836      36.893836      36.893836    
    602000   0.37999993    -8.0232425     -7.4532507      1.9528779      50218.233      36.893836      36.893836      36.893836    
    603000   0.37952642    -8.0198129     -7.4505314      1.9699007      50218.233      36.893836      36.893836      36.893836    
    604000   0.38032704    -8.0176619     -7.4471795      1.9915         50218.233      36.893836      36.893836      36.893836    
    605000   0.37761845    -8.0176647     -7.4512451      1.9933445      50218.233      36.893836      36.893836      36.893836    
    606000   0.38202596    -8.0189827     -7.4459519      1.9908127      50218.233      36.893836      36.893836      36.893836    
    607000   0.38005819    -8.0202244     -7.4501452      1.9630239      50218.233      36.893836      36.893836      36.893836    
    608000   0.38004819    -8.0183738     -7.4483097      1.9852128      50218.233      36.893836      36.893836      36.893836    
    609000   0.38120409    -8.0201133     -7.4483153      1.9768522      50218.233      36.893836      36.893836      36.893836    
    610000   0.37985258    -8.0190332     -7.4492624      1.9788014      50218.233      36.893836      36.893836      36.893836    
    611000   0.38077238    -8.0183612     -7.4472107      1.988013       50218.233      36.893836      36.893836      36.893836    
    612000   0.38047363    -8.0193626     -7.4486603      1.975229       50218.233      36.893836      36.893836      36.893836    
    613000   0.37947287    -8.0193359     -7.4501347      1.9858917      50218.233      36.893836      36.893836      36.893836    
    614000   0.38052505    -8.0178286     -7.4470491      1.9875728      50218.233      36.893836      36.893836      36.893836    
    615000   0.37923209    -8.0163954     -7.4475553      1.9980812      50218.233      36.893836      36.893836      36.893836    
    616000   0.37958371    -8.0180335     -7.448666       1.9871729      50218.233      36.893836      36.893836      36.893836    
    617000   0.38003088    -8.0153733     -7.4453351      2.0119346      50218.233      36.893836      36.893836      36.893836    
    618000   0.38105635    -8.0190639     -7.4474875      1.9917305      50218.233      36.893836      36.893836      36.893836    
    619000   0.37838296    -8.0183917     -7.4508253      1.9847248      50218.233      36.893836      36.893836      36.893836    
    620000   0.38076119    -8.0188367     -7.447703       1.9879826      50218.233      36.893836      36.893836      36.893836    
    621000   0.38030519    -8.0174919     -7.4470422      1.9881847      50218.233      36.893836      36.893836      36.893836    
    622000   0.38215658    -8.0184108     -7.4451841      1.9880983      50218.233      36.893836      36.893836      36.893836    
    623000   0.37991632    -8.0197893     -7.4499229      1.9787784      50218.233      36.893836      36.893836      36.893836    
    624000   0.3796324     -8.0192894     -7.4498489      1.9777833      50218.233      36.893836      36.893836      36.893836    
    625000   0.37833646    -8.016609      -7.4491123      2.0029087      50218.233      36.893836      36.893836      36.893836    
    626000   0.37966969    -8.0187953     -7.4492989      1.9794629      50218.233      36.893836      36.893836      36.893836    
    627000   0.38119995    -8.0197914     -7.4479996      1.9811309      50218.233      36.893836      36.893836      36.893836    
    628000   0.37942611    -8.0163721     -7.447241       1.9997332      50218.233      36.893836      36.893836      36.893836    
    629000   0.38111631    -8.0208307     -7.4491643      1.9679602      50218.233      36.893836      36.893836      36.893836    
    630000   0.37856467    -8.0150722     -7.4472333      2.0137244      50218.233      36.893836      36.893836      36.893836    
    631000   0.38056444    -8.0184697     -7.4476312      1.9886999      50218.233      36.893836      36.893836      36.893836    
    632000   0.37983804    -8.0180889     -7.4483399      1.9824605      50218.233      36.893836      36.893836      36.893836    
    633000   0.38086562    -8.0185832     -7.4472929      1.9834897      50218.233      36.893836      36.893836      36.893836    
    634000   0.38022505    -8.0188768     -7.4485473      1.9812159      50218.233      36.893836      36.893836      36.893836    
    635000   0.37832317    -8.0160117     -7.4485351      2.0029045      50218.233      36.893836      36.893836      36.893836    
    636000   0.37985333    -8.023183      -7.4534111      1.9532245      50218.233      36.893836      36.893836      36.893836    
    637000   0.37973442    -8.0195921     -7.4499986      1.9709514      50218.233      36.893836      36.893836      36.893836    
    638000   0.37831709    -8.020118      -7.4526504      1.9663752      50218.233      36.893836      36.893836      36.893836    
    639000   0.38088169    -8.0195825     -7.4482681      1.974838       50218.233      36.893836      36.893836      36.893836    
    640000   0.38102726    -8.020048      -7.4485152      1.9756338      50218.233      36.893836      36.893836      36.893836    
    641000   0.37942359    -8.0196681     -7.4505408      1.9824019      50218.233      36.893836      36.893836      36.893836    
    642000   0.37979065    -8.0188962     -7.4492184      1.9868915      50218.233      36.893836      36.893836      36.893836    
    643000   0.38020206    -8.0174743     -7.4471793      1.9832242      50218.233      36.893836      36.893836      36.893836    
    644000   0.37803852    -8.0202575     -7.4532078      1.962412       50218.233      36.893836      36.893836      36.893836    
    645000   0.37959666    -8.0195862     -7.4501994      1.966162       50218.233      36.893836      36.893836      36.893836    
    646000   0.38123597    -8.0199517     -7.4481059      1.9739939      50218.233      36.893836      36.893836      36.893836    
    647000   0.37921747    -8.0178749     -7.4490568      1.992856       50218.233      36.893836      36.893836      36.893836    
    648000   0.37695649    -8.0216331     -7.4562064      1.9595558      50218.233      36.893836      36.893836      36.893836    
    649000   0.38125935    -8.0179539     -7.446073       2.0003375      50218.233      36.893836      36.893836      36.893836    
    650000   0.37859214    -8.021142      -7.4532619      1.9608901      50218.233      36.893836      36.893836      36.893836    
    651000   0.37967644    -8.0219111     -7.4524046      1.955707       50218.233      36.893836      36.893836      36.893836    
    652000   0.38033522    -8.0183723     -7.4478776      1.9877236      50218.233      36.893836      36.893836      36.893836    
    653000   0.38100565    -8.0199296     -7.4484292      1.9718885      50218.233      36.893836      36.893836      36.893836    
    654000   0.37887811    -8.0197787     -7.4514696      1.9751796      50218.233      36.893836      36.893836      36.893836    
    655000   0.37885036    -8.0148693     -7.4466018      2.0136485      50218.233      36.893836      36.893836      36.893836    
    656000   0.37935622    -8.0204796     -7.4514533      1.9741679      50218.233      36.893836      36.893836      36.893836    
    657000   0.37838569    -8.0182485     -7.4506781      1.9873951      50218.233      36.893836      36.893836      36.893836    
    658000   0.38078547    -8.0184356     -7.4472655      1.9892956      50218.233      36.893836      36.893836      36.893836    
    659000   0.37972471    -8.0215758     -7.4519968      1.9607106      50218.233      36.893836      36.893836      36.893836    
    660000   0.38090555    -8.0214451     -7.4500949      1.9665213      50218.233      36.893836      36.893836      36.893836    
    661000   0.38039644    -8.0178932     -7.4473066      1.9917497      50218.233      36.893836      36.893836      36.893836    
    662000   0.38032594    -8.0204039     -7.4499231      1.9724716      50218.233      36.893836      36.893836      36.893836    
    663000   0.38092068    -8.0182803     -7.4469074      1.9824639      50218.233      36.893836      36.893836      36.893836    
    664000   0.37896886    -8.0192663     -7.4508211      1.9792429      50218.233      36.893836      36.893836      36.893836    
    665000   0.3781193     -8.0185522     -7.4513814      1.9886742      50218.233      36.893836      36.893836      36.893836    
    666000   0.37810256    -8.0156875     -7.4485417      2.0053145      50218.233      36.893836      36.893836      36.893836    
    667000   0.38083808    -8.0163833     -7.4451343      2.0041523      50218.233      36.893836      36.893836      36.893836    
    668000   0.38053352    -8.0223036     -7.4515114      1.9653801      50218.233      36.893836      36.893836      36.893836    
    669000   0.38068022    -8.0174379     -7.4464257      1.9943827      50218.233      36.893836      36.893836      36.893836    
    670000   0.37760324    -8.0172528     -7.450856       1.9918528      50218.233      36.893836      36.893836      36.893836    
    671000   0.38006763    -8.0176901     -7.4475968      1.9946076      50218.233      36.893836      36.893836      36.893836    
    672000   0.37930191    -8.0157945     -7.4468498      2.0044057      50218.233      36.893836      36.893836      36.893836    
    673000   0.3782641     -8.018983      -7.4515949      1.9816141      50218.233      36.893836      36.893836      36.893836    
    674000   0.38024145    -8.0152267     -7.4448727      2.0184857      50218.233      36.893836      36.893836      36.893836    
    675000   0.38030485    -8.0207728     -7.4503237      1.9604166      50218.233      36.893836      36.893836      36.893836    
    676000   0.37856295    -8.0186401     -7.4508038      1.9742573      50218.233      36.893836      36.893836      36.893836    
    677000   0.3805956     -8.0186897     -7.4478044      1.9776257      50218.233      36.893836      36.893836      36.893836    
    678000   0.37985254    -8.0195117     -7.449741       1.9814033      50218.233      36.893836      36.893836      36.893836    
    679000   0.3808999     -8.0206336     -7.4492918      1.9653015      50218.233      36.893836      36.893836      36.893836    
    680000   0.38034496    -8.0191416     -7.4486323      1.9811606      50218.233      36.893836      36.893836      36.893836    
    681000   0.38222827    -8.0164292     -7.4430949      2.0059446      50218.233      36.893836      36.893836      36.893836    
    682000   0.38024268    -8.0191447     -7.4487888      1.9810671      50218.233      36.893836      36.893836      36.893836    
    683000   0.37839658    -8.0163946     -7.4488078      1.9989725      50218.233      36.893836      36.893836      36.893836    
    684000   0.37981854    -8.0201563     -7.4504366      1.9829678      50218.233      36.893836      36.893836      36.893836    
    685000   0.37930287    -8.018159      -7.4492128      1.9845462      50218.233      36.893836      36.893836      36.893836    
    686000   0.38152437    -8.0179096     -7.4456312      1.9896252      50218.233      36.893836      36.893836      36.893836    
    687000   0.38009484    -8.0191016     -7.4489674      1.9891463      50218.233      36.893836      36.893836      36.893836    
    688000   0.38016923    -8.0170965     -7.4468507      2.005824       50218.233      36.893836      36.893836      36.893836    
    689000   0.37898546    -8.017713      -7.4492429      1.9902708      50218.233      36.893836      36.893836      36.893836    
    690000   0.37993736    -8.019207      -7.449309       1.992851       50218.233      36.893836      36.893836      36.893836    
    691000   0.38248132    -8.0165633     -7.4428495      2.004299       50218.233      36.893836      36.893836      36.893836    
    692000   0.38063975    -8.0200115     -7.44906        1.9771896      50218.233      36.893836      36.893836      36.893836    
    693000   0.37964355    -8.0191769     -7.4497197      1.9786242      50218.233      36.893836      36.893836      36.893836    
    694000   0.38074375    -8.0211582     -7.4500507      1.9693703      50218.233      36.893836      36.893836      36.893836    
    695000   0.37978631    -8.0185615     -7.4488901      1.9785096      50218.233      36.893836      36.893836      36.893836    
    696000   0.37934089    -8.0150834     -7.4460801      2.0060341      50218.233      36.893836      36.893836      36.893836    
    697000   0.38062851    -8.0209056     -7.449971       1.9682855      50218.233      36.893836      36.893836      36.893836    
    698000   0.37863931    -8.0198657     -7.4519148      1.9726556      50218.233      36.893836      36.893836      36.893836    
    699000   0.37972101    -8.0185601     -7.4489867      1.9876186      50218.233      36.893836      36.893836      36.893836    
    700000   0.38105556    -8.0215813     -7.4500061      1.9563827      50218.233      36.893836      36.893836      36.893836    
    701000   0.37890545    -8.0198013     -7.4514512      1.9709234      50218.233      36.893836      36.893836      36.893836    
    702000   0.37760037    -8.019765      -7.4533725      1.9682795      50218.233      36.893836      36.893836      36.893836    
    703000   0.38217054    -8.0186685     -7.4454208      1.9780305      50218.233      36.893836      36.893836      36.893836    
    704000   0.37888061    -8.0197846     -7.4514718      1.9689552      50218.233      36.893836      36.893836      36.893836    
    705000   0.37972117    -8.0191285     -7.4495548      1.9803479      50218.233      36.893836      36.893836      36.893836    
    706000   0.38000444    -8.0142314     -7.4442329      2.0218693      50218.233      36.893836      36.893836      36.893836    
    707000   0.3799382     -8.0186647     -7.4487655      1.9803426      50218.233      36.893836      36.893836      36.893836    
    708000   0.37876717    -8.0191451     -7.4510024      1.9831322      50218.233      36.893836      36.893836      36.893836    
    709000   0.38027491    -8.0193708     -7.4489665      1.991533       50218.233      36.893836      36.893836      36.893836    
    710000   0.38021474    -8.0180513     -7.4477373      1.990027       50218.233      36.893836      36.893836      36.893836    
    711000   0.37981223    -8.02009       -7.4503798      1.9773249      50218.233      36.893836      36.893836      36.893836    
    712000   0.37980295    -8.0185774     -7.4488811      1.9884741      50218.233      36.893836      36.893836      36.893836    
    713000   0.38065158    -8.0182155     -7.4472463      1.9831332      50218.233      36.893836      36.893836      36.893836    
    714000   0.37875556    -8.0210659     -7.4529406      1.9642054      50218.233      36.893836      36.893836      36.893836    
    715000   0.38083774    -8.0180206     -7.4467721      1.992034       50218.233      36.893836      36.893836      36.893836    
    716000   0.37995125    -8.0198316     -7.4499128      1.9699275      50218.233      36.893836      36.893836      36.893836    
    717000   0.37992821    -8.0163654     -7.4464812      2.0032156      50218.233      36.893836      36.893836      36.893836    
    718000   0.38005241    -8.0180541     -7.4479835      1.9938795      50218.233      36.893836      36.893836      36.893836    
    719000   0.38073452    -8.0153614     -7.4442677      2.0155989      50218.233      36.893836      36.893836      36.893836    
    720000   0.38117214    -8.0191404     -7.4473904      1.9830868      50218.233      36.893836      36.893836      36.893836    
    721000   0.37952773    -8.0177597     -7.4484762      1.9931888      50218.233      36.893836      36.893836      36.893836    
    722000   0.37982843    -8.0163037     -7.4465692      2.0119069      50218.233      36.893836      36.893836      36.893836    
    723000   0.38015936    -8.0176914     -7.4474604      1.9833651      50218.233      36.893836      36.893836      36.893836    
    724000   0.37885448    -8.0164361     -7.4481625      2.0015348      50218.233      36.893836      36.893836      36.893836    
    725000   0.38204714    -8.0196924     -7.4466298      1.9820878      50218.233      36.893836      36.893836      36.893836    
    726000   0.3774374     -8.0175506     -7.4514026      1.9965249      50218.233      36.893836      36.893836      36.893836    
    727000   0.38022894    -8.017445      -7.4471097      1.9958927      50218.233      36.893836      36.893836      36.893836    
    728000   0.37898523    -8.0184948     -7.450025       1.9855585      50218.233      36.893836      36.893836      36.893836    
    729000   0.3786666     -8.0176994     -7.4497076      1.9925068      50218.233      36.893836      36.893836      36.893836    
    730000   0.38052631    -8.0187575     -7.4479762      1.9911508      50218.233      36.893836      36.893836      36.893836    
    731000   0.37915498    -8.0151324     -7.446408       2.0125302      50218.233      36.893836      36.893836      36.893836    
    732000   0.3809294     -8.0193174     -7.4479314      1.9765607      50218.233      36.893836      36.893836      36.893836    
    733000   0.3777088     -8.0232151     -7.45666        1.946632       50218.233      36.893836      36.893836      36.893836    
    734000   0.3796268     -8.0196229     -7.4501908      1.9753261      50218.233      36.893836      36.893836      36.893836    
    735000   0.37905476    -8.0240266     -7.4554526      1.9385241      50218.233      36.893836      36.893836      36.893836    
    736000   0.37795179    -8.0185508     -7.4516312      1.975517       50218.233      36.893836      36.893836      36.893836    
    737000   0.38000145    -8.0180392     -7.4480452      1.9796962      50218.233      36.893836      36.893836      36.893836    
    738000   0.3797081     -8.0192391     -7.449685       1.9786265      50218.233      36.893836      36.893836      36.893836    
    739000   0.37801507    -8.01796       -7.4509455      1.9865369      50218.233      36.893836      36.893836      36.893836    
    740000   0.37951445    -8.0173581     -7.4480945      1.9847717      50218.233      36.893836      36.893836      36.893836    
    741000   0.37982574    -8.0174748     -7.4477443      1.9912441      50218.233      36.893836      36.893836      36.893836    
    742000   0.38059447    -8.0169802     -7.4460967      2.0002727      50218.233      36.893836      36.893836      36.893836    
    743000   0.37964883    -8.0180392     -7.448574       1.9895115      50218.233      36.893836      36.893836      36.893836    
    744000   0.3799111     -8.021626      -7.4517674      1.9587434      50218.233      36.893836      36.893836      36.893836    
    745000   0.37955037    -8.0160624     -7.4467449      2.0089972      50218.233      36.893836      36.893836      36.893836    
    746000   0.38022543    -8.0184462     -7.4481162      1.9875849      50218.233      36.893836      36.893836      36.893836    
    747000   0.37913557    -8.0179452     -7.4492499      1.9868052      50218.233      36.893836      36.893836      36.893836    
    748000   0.37993195    -8.0192223     -7.4493324      1.974008       50218.233      36.893836      36.893836      36.893836    
    749000   0.38067203    -8.0200549     -7.449055       1.9780844      50218.233      36.893836      36.893836      36.893836    
    750000   0.37866572    -8.0192753     -7.4512848      1.9810793      50218.233      36.893836      36.893836      36.893836    
    751000   0.37939688    -8.0182796     -7.4491924      1.9904089      50218.233      36.893836      36.893836      36.893836    
    752000   0.38017904    -8.021083      -7.4508225      1.9695836      50218.233      36.893836      36.893836      36.893836    
    753000   0.37891779    -8.0176809     -7.4493123      1.985157       50218.233      36.893836      36.893836      36.893836    
    754000   0.37792066    -8.0192347     -7.4523618      1.9762857      50218.233      36.893836      36.893836      36.893836    
    755000   0.37824959    -8.0158596     -7.4484933      2.0039256      50218.233      36.893836      36.893836      36.893836    
    756000   0.3797357     -8.0199023     -7.4503068      1.9799659      50218.233      36.893836      36.893836      36.893836    
    757000   0.37863637    -8.0174866     -7.4495401      1.9940061      50218.233      36.893836      36.893836      36.893836    
    758000   0.38092373    -8.0200403     -7.4486629      1.9741932      50218.233      36.893836      36.893836      36.893836    
    759000   0.38006613    -8.0203123     -7.4502212      1.9712639      50218.233      36.893836      36.893836      36.893836    
    760000   0.3797904     -8.0209719     -7.4512944      1.9675898      50218.233      36.893836      36.893836      36.893836    
    761000   0.37964386    -8.01874       -7.4492823      1.9821778      50218.233      36.893836      36.893836      36.893836    
    762000   0.37958539    -8.0173584     -7.4479884      1.9932486      50218.233      36.893836      36.893836      36.893836    
    763000   0.37851955    -8.0184757     -7.4507044      1.9834914      50218.233      36.893836      36.893836      36.893836    
    764000   0.38022947    -8.0167778     -7.4464417      1.991861       50218.233      36.893836      36.893836      36.893836    
    765000   0.38232674    -8.0179153     -7.4444333      2.0036162      50218.233      36.893836      36.893836      36.893836    
    766000   0.38170113    -8.0163718     -7.4438282      2.0037997      50218.233      36.893836      36.893836      36.893836    
    767000   0.38174772    -8.0165391     -7.4439257      2.0068552      50218.233      36.893836      36.893836      36.893836    
    768000   0.3794078     -8.0171518     -7.4480482      1.990423       50218.233      36.893836      36.893836      36.893836    
    769000   0.38056154    -8.0153888     -7.4445546      2.0107817      50218.233      36.893836      36.893836      36.893836    
    770000   0.37914937    -8.0199107     -7.4511947      1.9748355      50218.233      36.893836      36.893836      36.893836    
    771000   0.38083611    -8.0177162     -7.4464702      1.9895435      50218.233      36.893836      36.893836      36.893836    
    772000   0.37944734    -8.0190186     -7.4498557      1.9818531      50218.233      36.893836      36.893836      36.893836    
    773000   0.37892091    -8.0194443     -7.451071       1.9681604      50218.233      36.893836      36.893836      36.893836    
    774000   0.37792008    -8.0167719     -7.4498999      1.996964       50218.233      36.893836      36.893836      36.893836    
    775000   0.37962019    -8.0186264     -7.4492042      1.9764929      50218.233      36.893836      36.893836      36.893836    
    776000   0.37957942    -8.0175186     -7.4481576      1.9913953      50218.233      36.893836      36.893836      36.893836    
    777000   0.3800887     -8.0163056     -7.4461806      1.9977268      50218.233      36.893836      36.893836      36.893836    
    778000   0.3796929     -8.0179825     -7.4484513      1.9904921      50218.233      36.893836      36.893836      36.893836    
    779000   0.38076425    -8.017384      -7.4462457      1.9974922      50218.233      36.893836      36.893836      36.893836    
    780000   0.37871382    -8.0173789     -7.4493162      1.998548       50218.233      36.893836      36.893836      36.893836    
    781000   0.38013609    -8.0167501     -7.4465541      1.9956689      50218.233      36.893836      36.893836      36.893836    
    782000   0.3791634     -8.0167732     -7.4480362      2.0046097      50218.233      36.893836      36.893836      36.893836    
    783000   0.37849098    -8.0189509     -7.4512225      1.9745242      50218.233      36.893836      36.893836      36.893836    
    784000   0.37800457    -8.0152447     -7.4482459      2.0061428      50218.233      36.893836      36.893836      36.893836    
    785000   0.38232651    -8.0164197     -7.442938       1.9996422      50218.233      36.893836      36.893836      36.893836    
    786000   0.37936943    -8.0201046     -7.4510586      1.9723636      50218.233      36.893836      36.893836      36.893836    
    787000   0.38034294    -8.0189138     -7.4484075      1.9890404      50218.233      36.893836      36.893836      36.893836    
    788000   0.3795643     -8.0173083     -7.44797        1.9882836      50218.233      36.893836      36.893836      36.893836    
    789000   0.3797726     -8.0216299     -7.4519791      1.9607046      50218.233      36.893836      36.893836      36.893836    
    790000   0.38129639    -8.0189827     -7.4470462      1.9843953      50218.233      36.893836      36.893836      36.893836    
    791000   0.37906871    -8.020952      -7.452357       1.9601301      50218.233      36.893836      36.893836      36.893836    
    792000   0.38201542    -8.0207915     -7.4477765      1.9741954      50218.233      36.893836      36.893836      36.893836    
    793000   0.379436      -8.0208278     -7.4516819      1.9610819      50218.233      36.893836      36.893836      36.893836    
    794000   0.37872788    -8.0178248     -7.4497411      1.9874392      50218.233      36.893836      36.893836      36.893836    
    795000   0.3802345     -8.0163865     -7.4460429      1.9964421      50218.233      36.893836      36.893836      36.893836    
    796000   0.37965399    -8.0180166     -7.4485437      1.9872942      50218.233      36.893836      36.893836      36.893836    
    797000   0.37891061    -8.0174842     -7.4491263      1.9822751      50218.233      36.893836      36.893836      36.893836    
    798000   0.38102215    -8.0182611     -7.446736       1.9832409      50218.233      36.893836      36.893836      36.893836    
    799000   0.37805306    -8.0174615     -7.4503899      1.9934272      50218.233      36.893836      36.893836      36.893836    
    800000   0.37934421    -8.018178      -7.4491698      1.9923583      50218.233      36.893836      36.893836      36.893836    
    801000   0.38033259    -8.0211678     -7.450677       1.970798       50218.233      36.893836      36.893836      36.893836    
    802000   0.38008897    -8.0199635     -7.4498382      1.9745013      50218.233      36.893836      36.893836      36.893836    
    803000   0.37936434    -8.0193675     -7.4503291      1.9808319      50218.233      36.893836      36.893836      36.893836    
    804000   0.3805669     -8.0222571     -7.4514148      1.9572395      50218.233      36.893836      36.893836      36.893836    
    805000   0.38027344    -8.0174373     -7.4470353      1.9997625      50218.233      36.893836      36.893836      36.893836    
    806000   0.38020267    -8.0191893     -7.4488934      1.9826753      50218.233      36.893836      36.893836      36.893836    
    807000   0.37932967    -8.0180979     -7.4491114      1.9920341      50218.233      36.893836      36.893836      36.893836    
    808000   0.38094064    -8.0200795     -7.4486766      1.9753493      50218.233      36.893836      36.893836      36.893836    
    809000   0.37918903    -8.0204362     -7.4516607      1.9652349      50218.233      36.893836      36.893836      36.893836    
    810000   0.37763039    -8.0198802     -7.4534427      1.9699546      50218.233      36.893836      36.893836      36.893836    
    811000   0.37885874    -8.0188261     -7.4505461      1.9798442      50218.233      36.893836      36.893836      36.893836    
    812000   0.37852107    -8.0204847     -7.4527111      1.9608193      50218.233      36.893836      36.893836      36.893836    
    813000   0.3785524     -8.0193507     -7.4515302      1.972024       50218.233      36.893836      36.893836      36.893836    
    814000   0.38079683    -8.018673      -7.4474859      1.9771437      50218.233      36.893836      36.893836      36.893836    
    815000   0.37937383    -8.0198476     -7.4507949      1.9807142      50218.233      36.893836      36.893836      36.893836    
    816000   0.37877159    -8.020948      -7.4527987      1.9665177      50218.233      36.893836      36.893836      36.893836    
    817000   0.38206743    -8.0214279     -7.4483349      1.9661859      50218.233      36.893836      36.893836      36.893836    
    818000   0.38240683    -8.0173585     -7.4437564      1.9914004      50218.233      36.893836      36.893836      36.893836    
    819000   0.38040416    -8.019664      -7.4490659      1.9848264      50218.233      36.893836      36.893836      36.893836    
    820000   0.37906956    -8.0144038     -7.4458075      2.0151972      50218.233      36.893836      36.893836      36.893836    
    821000   0.37924837    -8.0177574     -7.4488929      1.9852885      50218.233      36.893836      36.893836      36.893836    
    822000   0.38130658    -8.0169771     -7.4450254      2.0095447      50218.233      36.893836      36.893836      36.893836    
    823000   0.37939462    -8.0168684     -7.4477845      1.9938701      50218.233      36.893836      36.893836      36.893836    
    824000   0.37746508    -8.0183245     -7.452135       1.9835484      50218.233      36.893836      36.893836      36.893836    
    825000   0.38033329    -8.0190098     -7.448518       1.9860698      50218.233      36.893836      36.893836      36.893836    
    826000   0.37821848    -8.018807      -7.4514874      1.9759764      50218.233      36.893836      36.893836      36.893836    
    827000   0.3808093     -8.0179203     -7.4467145      1.9890389      50218.233      36.893836      36.893836      36.893836    
    828000   0.37743955    -8.0172897     -7.4511384      1.9974152      50218.233      36.893836      36.893836      36.893836    
    829000   0.37950161    -8.0195231     -7.4502788      1.9771658      50218.233      36.893836      36.893836      36.893836    
    830000   0.37966643    -8.0178193     -7.4483277      1.9905885      50218.233      36.893836      36.893836      36.893836    
    831000   0.38055465    -8.0189134     -7.4480896      1.9912717      50218.233      36.893836      36.893836      36.893836    
    832000   0.37862586    -8.0163235     -7.4483928      1.9949472      50218.233      36.893836      36.893836      36.893836    
    833000   0.38006972    -8.0185666     -7.4484701      1.9883623      50218.233      36.893836      36.893836      36.893836    
    834000   0.3800284     -8.0192778     -7.4492434      1.9823492      50218.233      36.893836      36.893836      36.893836    
    835000   0.37843849    -8.0188818     -7.4512322      1.9784927      50218.233      36.893836      36.893836      36.893836    
    836000   0.38061371    -8.0158222     -7.4449097      2.0107268      50218.233      36.893836      36.893836      36.893836    
    837000   0.38078525    -8.0182336     -7.4470638      1.9789972      50218.233      36.893836      36.893836      36.893836    
    838000   0.38070952    -8.0205399     -7.4494837      1.9637754      50218.233      36.893836      36.893836      36.893836    
    839000   0.37969509    -8.0152351     -7.4457006      2.0109659      50218.233      36.893836      36.893836      36.893836    
    840000   0.37951298    -8.0166908     -7.4474294      1.9890528      50218.233      36.893836      36.893836      36.893836    
    841000   0.37820059    -8.0213721     -7.4540793      1.9644281      50218.233      36.893836      36.893836      36.893836    
    842000   0.37908414    -8.0179366     -7.4493185      1.9998901      50218.233      36.893836      36.893836      36.893836    
    843000   0.37920248    -8.0200299     -7.4512342      1.9781742      50218.233      36.893836      36.893836      36.893836    
    844000   0.37918294    -8.0169865     -7.4482202      1.9933067      50218.233      36.893836      36.893836      36.893836    
    845000   0.37831823    -8.0202973     -7.452828       1.9756753      50218.233      36.893836      36.893836      36.893836    
    846000   0.37934664    -8.0213675     -7.4523557      1.9645756      50218.233      36.893836      36.893836      36.893836    
    847000   0.37985048    -8.019066      -7.4492984      1.9799284      50218.233      36.893836      36.893836      36.893836    
    848000   0.37919187    -8.0213192     -7.4525395      1.9714247      50218.233      36.893836      36.893836      36.893836    
    849000   0.38155545    -8.0198636     -7.4475386      1.9861766      50218.233      36.893836      36.893836      36.893836    
    850000   0.37902753    -8.019137      -7.4506037      1.9744778      50218.233      36.893836      36.893836      36.893836    
    851000   0.3795377     -8.019769      -7.4504705      1.9776592      50218.233      36.893836      36.893836      36.893836    
    852000   0.38148847    -8.0182313     -7.4460067      1.9866917      50218.233      36.893836      36.893836      36.893836    
    853000   0.38045207    -8.022449      -7.451779       1.9559603      50218.233      36.893836      36.893836      36.893836    
    854000   0.38124483    -8.0210882     -7.4492291      1.9697069      50218.233      36.893836      36.893836      36.893836    
    855000   0.38055876    -8.0184776     -7.4476476      1.9876252      50218.233      36.893836      36.893836      36.893836    
    856000   0.38046771    -8.0206247     -7.4499313      1.967321       50218.233      36.893836      36.893836      36.893836    
    857000   0.38072287    -8.0161847     -7.4451085      2.0116227      50218.233      36.893836      36.893836      36.893836    
    858000   0.3802261     -8.0187567     -7.4484257      1.9894871      50218.233      36.893836      36.893836      36.893836    
    859000   0.37903915    -8.0185307     -7.4499801      1.9815906      50218.233      36.893836      36.893836      36.893836    
    860000   0.37812477    -8.0214708     -7.4542917      1.9607661      50218.233      36.893836      36.893836      36.893836    
    861000   0.37965813    -8.0208231     -7.451344       1.9733287      50218.233      36.893836      36.893836      36.893836    
    862000   0.38142209    -8.0191915     -7.4470665      1.9825973      50218.233      36.893836      36.893836      36.893836    
    863000   0.3799511     -8.0207378     -7.4508193      1.9724702      50218.233      36.893836      36.893836      36.893836    
    864000   0.38064943    -8.0176158     -7.4466497      1.9992046      50218.233      36.893836      36.893836      36.893836    
    865000   0.38032978    -8.0192314     -7.4487448      1.9750293      50218.233      36.893836      36.893836      36.893836    
    866000   0.3813937     -8.0178307     -7.4457483      1.9939375      50218.233      36.893836      36.893836      36.893836    
    867000   0.38124254    -8.0204551     -7.4485994      1.9729187      50218.233      36.893836      36.893836      36.893836    
    868000   0.37792222    -8.0187111     -7.4518358      1.974688       50218.233      36.893836      36.893836      36.893836    
    869000   0.38251161    -8.0171241     -7.4433649      2.0001815      50218.233      36.893836      36.893836      36.893836    
    870000   0.37854295    -8.0207548     -7.4529485      1.9693637      50218.233      36.893836      36.893836      36.893836    
    871000   0.37896792    -8.0145233     -7.4460795      2.0225055      50218.233      36.893836      36.893836      36.893836    
    872000   0.38211055    -8.017148      -7.4439903      2.004905       50218.233      36.893836      36.893836      36.893836    
    873000   0.37967857    -8.0169473     -7.4474375      2.0015563      50218.233      36.893836      36.893836      36.893836    
    874000   0.38085897    -8.0208062     -7.4495258      1.9697822      50218.233      36.893836      36.893836      36.893836    
    875000   0.38184181    -8.0192297     -7.4464752      1.9853648      50218.233      36.893836      36.893836      36.893836    
    876000   0.38122574    -8.0199438     -7.4481133      1.9821653      50218.233      36.893836      36.893836      36.893836    
    877000   0.38217584    -8.0158925     -7.4426369      2.0044376      50218.233      36.893836      36.893836      36.893836    
    878000   0.38161305    -8.0190198     -7.4466084      1.9860254      50218.233      36.893836      36.893836      36.893836    
    879000   0.38163194    -8.0180867     -7.4456469      1.9901144      50218.233      36.893836      36.893836      36.893836    
    880000   0.38066614    -8.0210908     -7.4500997      1.9662537      50218.233      36.893836      36.893836      36.893836    
    881000   0.37961065    -8.0172396     -7.4478317      1.9916518      50218.233      36.893836      36.893836      36.893836    
    882000   0.37897083    -8.0204086     -7.4519604      1.9817461      50218.233      36.893836      36.893836      36.893836    
    883000   0.37781979    -8.0201597     -7.4534381      1.9710597      50218.233      36.893836      36.893836      36.893836    
    884000   0.37969304    -8.0171823     -7.4476508      2.0004858      50218.233      36.893836      36.893836      36.893836    
    885000   0.38143644    -8.0191231     -7.4469766      1.9844429      50218.233      36.893836      36.893836      36.893836    
    886000   0.3797533     -8.0167446     -7.4471227      2.0000121      50218.233      36.893836      36.893836      36.893836    
    887000   0.38179219    -8.0176915     -7.4450114      1.9955206      50218.233      36.893836      36.893836      36.893836    
    888000   0.38135616    -8.0194119     -7.4473858      1.9831796      50218.233      36.893836      36.893836      36.893836    
    889000   0.37917549    -8.0188617     -7.4501065      1.9862006      50218.233      36.893836      36.893836      36.893836    
    890000   0.38047165    -8.0195009     -7.4488016      1.9832432      50218.233      36.893836      36.893836      36.893836    
    891000   0.38118265    -8.0166288     -7.444863       2.0024707      50218.233      36.893836      36.893836      36.893836    
    892000   0.37957946    -8.0219129     -7.4525518      1.9629499      50218.233      36.893836      36.893836      36.893836    
    893000   0.37834527    -8.0212543     -7.4537444      1.9595172      50218.233      36.893836      36.893836      36.893836    
    894000   0.37914573    -8.0226704     -7.4539599      1.9595662      50218.233      36.893836      36.893836      36.893836    
    895000   0.38006734    -8.016617      -7.4465241      2.0026305      50218.233      36.893836      36.893836      36.893836    
    896000   0.38125536    -8.018659      -7.4467841      1.9855822      50218.233      36.893836      36.893836      36.893836    
    897000   0.37923976    -8.0194006     -7.4505491      1.9779099      50218.233      36.893836      36.893836      36.893836    
    898000   0.38158082    -8.0200159     -7.4476528      1.981019       50218.233      36.893836      36.893836      36.893836    
    899000   0.38207245    -8.0218625     -7.4487619      1.9665432      50218.233      36.893836      36.893836      36.893836    
    900000   0.37925921    -8.0184811     -7.4496003      1.9916992      50218.233      36.893836      36.893836      36.893836    
    901000   0.38022418    -8.020956      -7.4506279      1.9643281      50218.233      36.893836      36.893836      36.893836    
    902000   0.3801153     -8.0184923     -7.4483274      1.9899614      50218.233      36.893836      36.893836      36.893836    
    903000   0.38265535    -8.0212997     -7.4473248      1.9668947      50218.233      36.893836      36.893836      36.893836    
    904000   0.37741058    -8.0177823     -7.4516745      1.980165       50218.233      36.893836      36.893836      36.893836    
    905000   0.3782153     -8.0182583     -7.4509434      1.9951132      50218.233      36.893836      36.893836      36.893836    
    906000   0.38172297    -8.0144884     -7.441912       2.0240122      50218.233      36.893836      36.893836      36.893836    
    907000   0.38075635    -8.021352      -7.4502255      1.968118       50218.233      36.893836      36.893836      36.893836    
    908000   0.38143019    -8.0188116     -7.4466745      1.9830297      50218.233      36.893836      36.893836      36.893836    
    909000   0.37745927    -8.0180615     -7.4518806      1.9859938      50218.233      36.893836      36.893836      36.893836    
    910000   0.38064764    -8.0222565     -7.4512931      1.9540091      50218.233      36.893836      36.893836      36.893836    
    911000   0.37997234    -8.0189596     -7.4490092      1.9790653      50218.233      36.893836      36.893836      36.893836    
    912000   0.37860265    -8.0179813     -7.4500854      1.9935652      50218.233      36.893836      36.893836      36.893836    
    913000   0.37963306    -8.0182682     -7.4488267      1.9965186      50218.233      36.893836      36.893836      36.893836    
    914000   0.3801489     -8.0185061     -7.4482909      1.9856276      50218.233      36.893836      36.893836      36.893836    
    915000   0.37976797    -8.0186442     -7.4490003      1.9867995      50218.233      36.893836      36.893836      36.893836    
    916000   0.38064081    -8.0168701     -7.4459171      2.0013412      50218.233      36.893836      36.893836      36.893836    
    917000   0.37964038    -8.0161662     -7.4467137      1.9983737      50218.233      36.893836      36.893836      36.893836    
    918000   0.38044526    -8.0199801     -7.4493203      1.9741405      50218.233      36.893836      36.893836      36.893836    
    919000   0.38009223    -8.0178425     -7.4477123      1.990923       50218.233      36.893836      36.893836      36.893836    
    920000   0.38098077    -8.0170179     -7.4455549      2.0037155      50218.233      36.893836      36.893836      36.893836    
    921000   0.37765425    -8.01675       -7.4502767      1.9948746      50218.233      36.893836      36.893836      36.893836    
    922000   0.37841205    -8.0177151     -7.4501051      1.989055       50218.233      36.893836      36.893836      36.893836    
    923000   0.38125135    -8.0178436     -7.4459747      1.9966445      50218.233      36.893836      36.893836      36.893836    
    924000   0.37997916    -8.0188051     -7.4488444      1.9857257      50218.233      36.893836      36.893836      36.893836    
    925000   0.37952504    -8.0181582     -7.4488787      1.9856987      50218.233      36.893836      36.893836      36.893836    
    926000   0.38034588    -8.0154136     -7.4449029      2.0058652      50218.233      36.893836      36.893836      36.893836    
    927000   0.38032116    -8.0180458     -7.4475721      1.9931666      50218.233      36.893836      36.893836      36.893836    
    928000   0.3794431     -8.0166178     -7.4474612      1.995827       50218.233      36.893836      36.893836      36.893836    
    929000   0.38109156    -8.0183752     -7.446746       1.9912472      50218.233      36.893836      36.893836      36.893836    
    930000   0.38103689    -8.020305      -7.4487578      1.9805394      50218.233      36.893836      36.893836      36.893836    
    931000   0.38011617    -8.0162771     -7.4461109      2.0034228      50218.233      36.893836      36.893836      36.893836    
    932000   0.37999144    -8.0159341     -7.4459551      2.0008254      50218.233      36.893836      36.893836      36.893836    
    933000   0.38012323    -8.0190402     -7.4488635      1.9879833      50218.233      36.893836      36.893836      36.893836    
    934000   0.37991753    -8.0169523     -7.4470841      1.9958577      50218.233      36.893836      36.893836      36.893836    
    935000   0.37914684    -8.0192573     -7.4505451      1.9857277      50218.233      36.893836      36.893836      36.893836    
    936000   0.37839312    -8.0179035     -7.4503219      1.988081       50218.233      36.893836      36.893836      36.893836    
    937000   0.38224864    -8.0205218     -7.4471569      1.9670284      50218.233      36.893836      36.893836      36.893836    
    938000   0.37980114    -8.0189715     -7.4492779      1.9864281      50218.233      36.893836      36.893836      36.893836    
    939000   0.38216043    -8.0173261     -7.4440936      2.0026666      50218.233      36.893836      36.893836      36.893836    
    940000   0.38109937    -8.0192355     -7.4475946      1.9781846      50218.233      36.893836      36.893836      36.893836    
    941000   0.37885226    -8.0197856     -7.4515153      1.9750785      50218.233      36.893836      36.893836      36.893836    
    942000   0.38184825    -8.0183072     -7.4455429      1.9832345      50218.233      36.893836      36.893836      36.893836    
    943000   0.37974681    -8.0209396     -7.4513275      1.9673436      50218.233      36.893836      36.893836      36.893836    
    944000   0.37956579    -8.0200796     -7.450739       1.9731709      50218.233      36.893836      36.893836      36.893836    
    945000   0.37780434    -8.0202492     -7.4535508      1.9604124      50218.233      36.893836      36.893836      36.893836    
    946000   0.37840603    -8.0227167     -7.4551157      1.9531377      50218.233      36.893836      36.893836      36.893836    
    947000   0.37858714    -8.0191672     -7.4512945      1.9779934      50218.233      36.893836      36.893836      36.893836    
    948000   0.380356      -8.0192691     -7.4487432      1.9828057      50218.233      36.893836      36.893836      36.893836    
    949000   0.37867853    -8.0204168     -7.4524071      1.9718654      50218.233      36.893836      36.893836      36.893836    
    950000   0.38011687    -8.0174619     -7.4472947      1.9895749      50218.233      36.893836      36.893836      36.893836    
    951000   0.38074481    -8.0169858     -7.4458767      1.9944784      50218.233      36.893836      36.893836      36.893836    
    952000   0.38003212    -8.020863      -7.4508229      1.9752068      50218.233      36.893836      36.893836      36.893836    
    953000   0.38123316    -8.018525      -7.4466834      1.9777735      50218.233      36.893836      36.893836      36.893836    
    954000   0.37924624    -8.0232048     -7.4543436      1.9452218      50218.233      36.893836      36.893836      36.893836    
    955000   0.38052485    -8.0177586     -7.4469794      1.9937024      50218.233      36.893836      36.893836      36.893836    
    956000   0.38022283    -8.0190191     -7.448693       1.9898757      50218.233      36.893836      36.893836      36.893836    
    957000   0.37987572    -8.021792      -7.4519865      1.9546334      50218.233      36.893836      36.893836      36.893836    
    958000   0.37959802    -8.0207862     -7.4513972      1.9672959      50218.233      36.893836      36.893836      36.893836    
    959000   0.38240726    -8.0176392     -7.4440365      1.9970628      50218.233      36.893836      36.893836      36.893836    
    960000   0.37937537    -8.0153307     -7.4462758      2.0095088      50218.233      36.893836      36.893836      36.893836    
    961000   0.38146472    -8.0197866     -7.4475977      1.9674698      50218.233      36.893836      36.893836      36.893836    
    962000   0.38125003    -8.0162956     -7.4444287      2.0060392      50218.233      36.893836      36.893836      36.893836    
    963000   0.37963023    -8.0199188     -7.4504816      1.9646169      50218.233      36.893836      36.893836      36.893836    
    964000   0.37961252    -8.0178351     -7.4484244      1.9921021      50218.233      36.893836      36.893836      36.893836    
    965000   0.38036001    -8.0198421     -7.4493102      1.9767945      50218.233      36.893836      36.893836      36.893836    
    966000   0.37960578    -8.0174267     -7.4480261      1.9922672      50218.233      36.893836      36.893836      36.893836    
    967000   0.38033524    -8.0176094     -7.4471146      1.993045       50218.233      36.893836      36.893836      36.893836    
    968000   0.38090017    -8.0203089     -7.4489668      1.9709191      50218.233      36.893836      36.893836      36.893836    
    969000   0.37757278    -8.0201918     -7.4538407      1.9603616      50218.233      36.893836      36.893836      36.893836    
    970000   0.37815403    -8.0199072     -7.4526842      1.9715521      50218.233      36.893836      36.893836      36.893836    
    971000   0.3792719     -8.0195865     -7.4506867      1.9742102      50218.233      36.893836      36.893836      36.893836    
    972000   0.37906448    -8.0189114     -7.4503228      1.9758308      50218.233      36.893836      36.893836      36.893836    
    973000   0.37919755    -8.0182908     -7.4495025      1.9771251      50218.233      36.893836      36.893836      36.893836    
    974000   0.37949431    -8.0214003     -7.452167       1.9613362      50218.233      36.893836      36.893836      36.893836    
    975000   0.38061959    -8.0168637     -7.4459424      1.9949137      50218.233      36.893836      36.893836      36.893836    
    976000   0.38201261    -8.0168103     -7.4437995      2.0035769      50218.233      36.893836      36.893836      36.893836    
    977000   0.38019272    -8.0200206     -7.4497397      1.9708535      50218.233      36.893836      36.893836      36.893836    
    978000   0.38051071    -8.0191179     -7.44836        1.9855277      50218.233      36.893836      36.893836      36.893836    
    979000   0.37840705    -8.017306      -7.4497035      1.9806893      50218.233      36.893836      36.893836      36.893836    
    980000   0.38103684    -8.0202508     -7.4487037      1.9762233      50218.233      36.893836      36.893836      36.893836    
    981000   0.37875085    -8.0176232     -7.449505       1.9863392      50218.233      36.893836      36.893836      36.893836    
    982000   0.37938958    -8.0166465     -7.4475703      1.9999202      50218.233      36.893836      36.893836      36.893836    
    983000   0.37906286    -8.0183118     -7.4497256      1.9850927      50218.233      36.893836      36.893836      36.893836    
    984000   0.38134137    -8.0155686     -7.4435647      2.0122592      50218.233      36.893836      36.893836      36.893836    
    985000   0.37719135    -8.0137965     -7.4480175      2.0259295      50218.233      36.893836      36.893836      36.893836    
    986000   0.37958667    -8.0200414     -7.4506695      1.9711152      50218.233      36.893836      36.893836      36.893836    
    987000   0.37755724    -8.0181235     -7.4517957      1.9844874      50218.233      36.893836      36.893836      36.893836    
    988000   0.38063641    -8.016868      -7.4459215      2.0032554      50218.233      36.893836      36.893836      36.893836    
    989000   0.38256313    -8.0172554     -7.4434189      1.9969324      50218.233      36.893836      36.893836      36.893836    
    990000   0.3801576     -8.0183795     -7.4481512      1.9770214      50218.233      36.893836      36.893836      36.893836    
    991000   0.3782033     -8.0206481     -7.4533512      1.9651064      50218.233      36.893836      36.893836      36.893836    
    992000   0.38156734    -8.0194103     -7.4470674      1.9736762      50218.233      36.893836      36.893836      36.893836    
    993000   0.37917403    -8.0201391     -7.4513861      1.9674433      50218.233      36.893836      36.893836      36.893836    
    994000   0.37883292    -8.021168      -7.4529267      1.965571       50218.233      36.893836      36.893836      36.893836    
    995000   0.38035368    -8.0193442     -7.4488218      1.9847874      50218.233      36.893836      36.893836      36.893836    
    996000   0.38225713    -8.0198781     -7.4465006      1.97551        50218.233      36.893836      36.893836      36.893836    
    997000   0.38108799    -8.0184499     -7.4468261      1.987603       50218.233      36.893836      36.893836      36.893836    
    998000   0.38233859    -8.0166622     -7.4431625      1.9966146      50218.233      36.893836      36.893836      36.893836    
    999000   0.37947049    -8.0184008     -7.4492032      1.9784987      50218.233      36.893836      36.893836      36.893836    
   1000000   0.37890194    -8.0162426     -7.4478978      1.9937525      50218.233      36.893836      36.893836      36.893836    
Loop time of 1573.12 on 4 procs for 1000000 steps with 70304 atoms

Performance: 549226.023 tau/day, 635.678 timesteps/s, 44.691 Matom-step/s
95.5% CPU use with 4 MPI tasks x 1 OpenMP threads

MPI task timing breakdown:
Section |  min time  |  avg time  |  max time  |%varavg| %total
---------------------------------------------------------------
Pair    | 479.17     | 554.93     | 662.92     | 295.5 | 35.28
Neigh   | 5.6394     | 6.0312     | 6.3823     |  12.6 |  0.38
Comm    | 230.62     | 231.82     | 233.71     |   8.2 | 14.74
Output  | 0.1994     | 0.20551    | 0.21583    |   1.4 |  0.01
Modify  | 587.03     | 694.97     | 773.17     | 266.1 | 44.18
Other   |            | 85.17      |            |       |  5.41

Nlocal:          17576 ave       17595 max       17559 min
Histogram: 1 0 1 0 0 0 1 0 0 1
Nghost:        16828.5 ave       16850 max       16812 min
Histogram: 2 0 0 0 0 0 0 1 0 1
Neighs:              0 ave           0 max           0 min
Histogram: 4 0 0 0 0 0 0 0 0 0

Total # of neighbors = 0
Ave neighs/atom = 0
Neighbor list builds = 183396
Dangerous builds = 0
clear
OMP_NUM_THREADS environment is not set. Defaulting to 1 thread. (src/comm.cpp:98)
  using 1 OpenMP thread(s) per MPI task
package gpu 0
jump dms360.lmp

variable T equal 360
# T = 1000* (temp in LJ unit)
variable f equal 1000
log log.${T}
log log.360
