variable TLJ equal (${T}/1000)
variable TLJ equal (120/1000)
variable NCyle equal 10
variable iStep equal (${f})
variable iStep equal (1000)
variable dumpStep equal (${f}*100)
variable dumpStep equal (1000*100)
variable runStep equal (${f}*100*${NCyle})
variable runStep equal (1000*100*${NCyle})
variable runStep equal (1000*100*10)

units       lj
atom_style  atomic
dimension 3
boundary     p p p
pair_style  lj/cut 2.5
read_data  ../data/T${T}.dat
read_data  ../data/T120.dat
Reading data file ...
  orthogonal box = (0.97250269 0.97250269 0.97250269) to (37.866338 37.866338 37.866338)
  1 by 2 by 2 MPI processor grid
  reading atoms ...
  70304 atoms
  reading velocities ...
  70304 velocities
  read_data CPU = 0.189 seconds
change_box all triclinic
Changing box ...
  triclinic box = (0.97250269 0.97250269 0.97250269) to (37.866338 37.866338 37.866338) with tilt (0 0 0)
mass 1 1
mass 2 1
pair_modify shift yes
pair_coeff  1 1 1 1
pair_coeff  1 2 1.5 0.8
pair_coeff  2 2 0.5 0.88


timestep 0.01
thermo ${iStep}
thermo 1000
reset_timestep 0
thermo_style custom step temp pe etotal press vol lx ly lz
fix             1 all nvt temp ${TLJ}  ${TLJ}  0.1
fix             1 all nvt temp 0.12  ${TLJ}  0.1
fix             1 all nvt temp 0.12  0.12  0.1
thermo_modify flush yes

fix dsf all deform 1 xy  wiggle 0.5  ${f}   units box
fix dsf all deform 1 xy  wiggle 0.5  1000   units box
fix ps1 all ave/time 1 1 ${iStep} c_thermo_press[1] c_thermo_press[2]  c_thermo_press[3] c_thermo_press[4]  c_thermo_press[5] c_thermo_press[6]  file  stress.${T}
fix ps1 all ave/time 1 1 1000 c_thermo_press[1] c_thermo_press[2]  c_thermo_press[3] c_thermo_press[4]  c_thermo_press[5] c_thermo_press[6]  file  stress.${T}
fix ps1 all ave/time 1 1 1000 c_thermo_press[1] c_thermo_press[2]  c_thermo_press[3] c_thermo_press[4]  c_thermo_press[5] c_thermo_press[6]  file  stress.120
dump            1 all custom ${dumpStep} dump.${T} id type x y z
dump            1 all custom 100000 dump.${T} id type x y z
dump            1 all custom 100000 dump.120 id type x y z
dump_modify 1 sort id
fix nodrift all momentum 1  linear 1 1 1
fix com_seed all recenter INIT INIT INIT shift all
run ${runStep}
run 1000000
Generated 0 of 1 mixed pair_coeff terms from geometric mixing rule
Per MPI rank memory allocation (min/avg/max) = 8.609 | 8.612 | 8.613 Mbytes
   Step          Temp          PotEng         TotEng         Press          Volume           Lx             Ly             Lz      
         0   0.11994034    -8.4035034     -8.2235954     -1.2392343      50218.233      36.893836      36.893836      36.893836    
      1000   0.12011113    -8.4006131     -8.2204489     -1.2140281      50218.233      36.893836      36.893836      36.893836    
      2000   0.12053365    -8.4001989     -8.2194009     -1.2123195      50218.233      36.893836      36.893836      36.893836    
      3000   0.11966163    -8.400453      -8.2209631     -1.2201962      50218.233      36.893836      36.893836      36.893836    
      4000   0.12054751    -8.4001435     -8.2193248     -1.212542       50218.233      36.893836      36.893836      36.893836    
      5000   0.12000289    -8.4000112     -8.2200094     -1.205934       50218.233      36.893836      36.893836      36.893836    
      6000   0.12004306    -8.400289      -8.220227      -1.2172882      50218.233      36.893836      36.893836      36.893836    
      7000   0.12028914    -8.4008946     -8.2204635     -1.2181135      50218.233      36.893836      36.893836      36.893836    
      8000   0.12036192    -8.3999093     -8.219369      -1.2162051      50218.233      36.893836      36.893836      36.893836    
      9000   0.1201988     -8.3998539     -8.2195583     -1.2130191      50218.233      36.893836      36.893836      36.893836    
     10000   0.12040561    -8.3994963     -8.2188904     -1.2058385      50218.233      36.893836      36.893836      36.893836    
     11000   0.1201914     -8.3996188     -8.2193343     -1.2047803      50218.233      36.893836      36.893836      36.893836    
     12000   0.11918888    -8.3994976     -8.2207168     -1.2107374      50218.233      36.893836      36.893836      36.893836    
     13000   0.12025355    -8.4001668     -8.219789      -1.2099157      50218.233      36.893836      36.893836      36.893836    
     14000   0.12002904    -8.3999762     -8.2199352     -1.2103889      50218.233      36.893836      36.893836      36.893836    
     15000   0.12022665    -8.4001507     -8.2198133     -1.2123606      50218.233      36.893836      36.893836      36.893836    
     16000   0.12031718    -8.3991548     -8.2186816     -1.2126662      50218.233      36.893836      36.893836      36.893836    
     17000   0.12001696    -8.399485      -8.2194621     -1.210253       50218.233      36.893836      36.893836      36.893836    
     18000   0.12081693    -8.3997082     -8.2184854     -1.2106925      50218.233      36.893836      36.893836      36.893836    
     19000   0.11989647    -8.3983157     -8.2184735     -1.206007       50218.233      36.893836      36.893836      36.893836    
     20000   0.12064408    -8.3993498     -8.2183862     -1.2096364      50218.233      36.893836      36.893836      36.893836    
     21000   0.1204422     -8.3989651     -8.2183043     -1.2097597      50218.233      36.893836      36.893836      36.893836    
     22000   0.11987695    -8.398276      -8.2184631     -1.2008912      50218.233      36.893836      36.893836      36.893836    
     23000   0.12061736    -8.3982729     -8.2173494     -1.1964342      50218.233      36.893836      36.893836      36.893836    
     24000   0.11966666    -8.3989139     -8.2194164     -1.2073283      50218.233      36.893836      36.893836      36.893836    
     25000   0.12010299    -8.3983514     -8.2181995     -1.1962107      50218.233      36.893836      36.893836      36.893836    
     26000   0.11936449    -8.3990743     -8.2200301     -1.2047807      50218.233      36.893836      36.893836      36.893836    
     27000   0.1195827     -8.3978172     -8.2184457     -1.1951396      50218.233      36.893836      36.893836      36.893836    
     28000   0.11921549    -8.3993813     -8.2205606     -1.2109148      50218.233      36.893836      36.893836      36.893836    
     29000   0.12017583    -8.398773      -8.2185118     -1.2006037      50218.233      36.893836      36.893836      36.893836    
     30000   0.12031292    -8.3991178     -8.218651      -1.2068826      50218.233      36.893836      36.893836      36.893836    
     31000   0.11997163    -8.3989418     -8.2189869     -1.2028562      50218.233      36.893836      36.893836      36.893836    
     32000   0.12002183    -8.3988693     -8.2188391     -1.2056612      50218.233      36.893836      36.893836      36.893836    
     33000   0.12020891    -8.3996619     -8.2193511     -1.2100247      50218.233      36.893836      36.893836      36.893836    
     34000   0.11974511    -8.3992668     -8.2196517     -1.2065257      50218.233      36.893836      36.893836      36.893836    
     35000   0.12004362    -8.3995794     -8.2195165     -1.2073642      50218.233      36.893836      36.893836      36.893836    
     36000   0.11995573    -8.4005157     -8.2205847     -1.2183696      50218.233      36.893836      36.893836      36.893836    
     37000   0.11998042    -8.3995157     -8.2195476     -1.2061361      50218.233      36.893836      36.893836      36.893836    
     38000   0.12014343    -8.3993098     -8.2190972     -1.20768        50218.233      36.893836      36.893836      36.893836    
     39000   0.11958291    -8.4002651     -8.2208933     -1.2137526      50218.233      36.893836      36.893836      36.893836    
     40000   0.12022976    -8.4004832     -8.2201411     -1.2183609      50218.233      36.893836      36.893836      36.893836    
     41000   0.1207801     -8.400318      -8.2191505     -1.2167706      50218.233      36.893836      36.893836      36.893836    
     42000   0.12010661    -8.3995623     -8.219405      -1.2104804      50218.233      36.893836      36.893836      36.893836    
     43000   0.11936444    -8.3999298     -8.2208857     -1.2131433      50218.233      36.893836      36.893836      36.893836    
     44000   0.12020749    -8.3996152     -8.2193065     -1.2092862      50218.233      36.893836      36.893836      36.893836    
     45000   0.11976336    -8.4003911     -8.2207487     -1.2204214      50218.233      36.893836      36.893836      36.893836    
     46000   0.11989572    -8.399589      -8.219748      -1.2132463      50218.233      36.893836      36.893836      36.893836    
     47000   0.11955364    -8.4004242     -8.2210963     -1.2157271      50218.233      36.893836      36.893836      36.893836    
     48000   0.11981857    -8.4003301     -8.2206048     -1.2172975      50218.233      36.893836      36.893836      36.893836    
     49000   0.12040767    -8.4005804     -8.2199715     -1.2177463      50218.233      36.893836      36.893836      36.893836    
     50000   0.11989593    -8.4002897     -8.2204484     -1.2106818      50218.233      36.893836      36.893836      36.893836    
     51000   0.11940486    -8.4008227     -8.221718      -1.2228061      50218.233      36.893836      36.893836      36.893836    
     52000   0.11983831    -8.3997957     -8.2200408     -1.2149234      50218.233      36.893836      36.893836      36.893836    
     53000   0.11962143    -8.4006663     -8.2212367     -1.2146556      50218.233      36.893836      36.893836      36.893836    
     54000   0.1201012     -8.4007928     -8.2206436     -1.2126738      50218.233      36.893836      36.893836      36.893836    
     55000   0.11977421    -8.3997957     -8.2201369     -1.212913       50218.233      36.893836      36.893836      36.893836    
     56000   0.12059428    -8.4015243     -8.2206354     -1.2243816      50218.233      36.893836      36.893836      36.893836    
     57000   0.11991577    -8.4000187     -8.2201476     -1.2132966      50218.233      36.893836      36.893836      36.893836    
     58000   0.11960412    -8.4003152     -8.2209116     -1.2096152      50218.233      36.893836      36.893836      36.893836    
     59000   0.12001726    -8.3991335     -8.2191102     -1.205315       50218.233      36.893836      36.893836      36.893836    
     60000   0.12006362    -8.3990938     -8.2190009     -1.2028782      50218.233      36.893836      36.893836      36.893836    
     61000   0.11970774    -8.4002947     -8.2207356     -1.2151681      50218.233      36.893836      36.893836      36.893836    
     62000   0.11986346    -8.4002811     -8.2204885     -1.2197551      50218.233      36.893836      36.893836      36.893836    
     63000   0.11968471    -8.3995506     -8.2200261     -1.2120365      50218.233      36.893836      36.893836      36.893836    
     64000   0.11942736    -8.3998409     -8.2207024     -1.2171206      50218.233      36.893836      36.893836      36.893836    
     65000   0.11979791    -8.3991654     -8.2194711     -1.2092693      50218.233      36.893836      36.893836      36.893836    
     66000   0.11994552    -8.3999695     -8.2200538     -1.2132419      50218.233      36.893836      36.893836      36.893836    
     67000   0.11968019    -8.3993026     -8.2197848     -1.2057371      50218.233      36.893836      36.893836      36.893836    
     68000   0.12073491    -8.4004499     -8.2193501     -1.2190282      50218.233      36.893836      36.893836      36.893836    
     69000   0.12011139    -8.4001318     -8.2199673     -1.2139724      50218.233      36.893836      36.893836      36.893836    
     70000   0.12027374    -8.3985993     -8.2181912     -1.1966563      50218.233      36.893836      36.893836      36.893836    
     71000   0.12009681    -8.399351      -8.2192083     -1.2047978      50218.233      36.893836      36.893836      36.893836    
     72000   0.11969634    -8.3985059     -8.2189639     -1.2001882      50218.233      36.893836      36.893836      36.893836    
     73000   0.11983012    -8.3990042     -8.2192616     -1.2039066      50218.233      36.893836      36.893836      36.893836    
     74000   0.11981576    -8.3984253     -8.2187042     -1.2024522      50218.233      36.893836      36.893836      36.893836    
     75000   0.12032738    -8.3986168     -8.2181283     -1.2015021      50218.233      36.893836      36.893836      36.893836    
     76000   0.12013205    -8.3993132     -8.2191176     -1.2122684      50218.233      36.893836      36.893836      36.893836    
     77000   0.1203069     -8.3998608     -8.219403      -1.2095779      50218.233      36.893836      36.893836      36.893836    
     78000   0.11980917    -8.3983418     -8.2186306     -1.1963608      50218.233      36.893836      36.893836      36.893836    
     79000   0.11991051    -8.3990173     -8.2191541     -1.2033507      50218.233      36.893836      36.893836      36.893836    
     80000   0.11996144    -8.3996563     -8.2197167     -1.2092878      50218.233      36.893836      36.893836      36.893836    
     81000   0.11991979    -8.398485      -8.2186079     -1.2022835      50218.233      36.893836      36.893836      36.893836    
     82000   0.12011718    -8.3993124     -8.2191392     -1.2098463      50218.233      36.893836      36.893836      36.893836    
     83000   0.11985227    -8.3995335     -8.2197577     -1.2087224      50218.233      36.893836      36.893836      36.893836    
     84000   0.1202936     -8.3990839     -8.2186461     -1.2063885      50218.233      36.893836      36.893836      36.893836    
     85000   0.12016401    -8.3996274     -8.2193839     -1.2071623      50218.233      36.893836      36.893836      36.893836    
     86000   0.11979149    -8.3995816     -8.2198969     -1.2128387      50218.233      36.893836      36.893836      36.893836    
     87000   0.11987355    -8.3987546     -8.2189469     -1.2041172      50218.233      36.893836      36.893836      36.893836    
     88000   0.11950895    -8.4008212     -8.2215604     -1.2155018      50218.233      36.893836      36.893836      36.893836    
     89000   0.11982075    -8.4006961     -8.2209675     -1.217619       50218.233      36.893836      36.893836      36.893836    
     90000   0.1199202     -8.399954      -8.2200762     -1.2124909      50218.233      36.893836      36.893836      36.893836    
     91000   0.12068182    -8.399945      -8.2189248     -1.2139132      50218.233      36.893836      36.893836      36.893836    
     92000   0.1199555     -8.4002794     -8.2203487     -1.2159492      50218.233      36.893836      36.893836      36.893836    
     93000   0.1203867     -8.4006187     -8.2200412     -1.2193898      50218.233      36.893836      36.893836      36.893836    
     94000   0.12009855    -8.3997651     -8.2196199     -1.2119002      50218.233      36.893836      36.893836      36.893836    
     95000   0.12066426    -8.3998129     -8.2188191     -1.2085343      50218.233      36.893836      36.893836      36.893836    
     96000   0.11965035    -8.4014871     -8.2220141     -1.2278407      50218.233      36.893836      36.893836      36.893836    
     97000   0.12068274    -8.3992754     -8.2182538     -1.2067325      50218.233      36.893836      36.893836      36.893836    
     98000   0.11986818    -8.4001339     -8.2203342     -1.2083669      50218.233      36.893836      36.893836      36.893836    
     99000   0.12026546    -8.3999842     -8.2195886     -1.2146089      50218.233      36.893836      36.893836      36.893836    
    100000   0.11961824    -8.4005814     -8.2211565     -1.2152304      50218.233      36.893836      36.893836      36.893836    
    101000   0.1197158     -8.3999789     -8.2204077     -1.2104354      50218.233      36.893836      36.893836      36.893836    
    102000   0.11988496    -8.4000898     -8.2202649     -1.2160038      50218.233      36.893836      36.893836      36.893836    
    103000   0.12006457    -8.4008235     -8.2207292     -1.2209304      50218.233      36.893836      36.893836      36.893836    
    104000   0.12000777    -8.4000066     -8.2199975     -1.2191834      50218.233      36.893836      36.893836      36.893836    
    105000   0.11976049    -8.3993748     -8.2197366     -1.2093775      50218.233      36.893836      36.893836      36.893836    
    106000   0.12030306    -8.4003637     -8.2199117     -1.2137964      50218.233      36.893836      36.893836      36.893836    
    107000   0.11966947    -8.399364      -8.2198623     -1.210992       50218.233      36.893836      36.893836      36.893836    
    108000   0.12038886    -8.4007349     -8.2201542     -1.218769       50218.233      36.893836      36.893836      36.893836    
    109000   0.12031539    -8.4000139     -8.2195434     -1.2090681      50218.233      36.893836      36.893836      36.893836    
    110000   0.12034453    -8.3996623     -8.219148      -1.2042483      50218.233      36.893836      36.893836      36.893836    
    111000   0.12021556    -8.3998343     -8.2195136     -1.208867       50218.233      36.893836      36.893836      36.893836    
    112000   0.12029963    -8.4005258     -8.2200789     -1.2143998      50218.233      36.893836      36.893836      36.893836    
    113000   0.11968709    -8.4001694     -8.2206413     -1.2176355      50218.233      36.893836      36.893836      36.893836    
    114000   0.11923272    -8.3994533     -8.2206068     -1.2112649      50218.233      36.893836      36.893836      36.893836    
    115000   0.11965744    -8.3999838     -8.2205002     -1.2088937      50218.233      36.893836      36.893836      36.893836    
    116000   0.12011073    -8.4005552     -8.2203916     -1.2169046      50218.233      36.893836      36.893836      36.893836    
    117000   0.11970962    -8.4001924     -8.2206305     -1.2198004      50218.233      36.893836      36.893836      36.893836    
    118000   0.11979       -8.3995214     -8.2198389     -1.2131653      50218.233      36.893836      36.893836      36.893836    
    119000   0.12046074    -8.3990763     -8.2183878     -1.2057851      50218.233      36.893836      36.893836      36.893836    
    120000   0.12004799    -8.3989498     -8.2188804     -1.2026752      50218.233      36.893836      36.893836      36.893836    
    121000   0.12063894    -8.3984884     -8.2175326     -1.2014565      50218.233      36.893836      36.893836      36.893836    
    122000   0.12024104    -8.3995369     -8.2191779     -1.2110404      50218.233      36.893836      36.893836      36.893836    
    123000   0.11989567    -8.3989052     -8.2190642     -1.2018554      50218.233      36.893836      36.893836      36.893836    
    124000   0.12001804    -8.3978782     -8.2178537     -1.2016603      50218.233      36.893836      36.893836      36.893836    
    125000   0.12038047    -8.3979465     -8.2173783     -1.1976221      50218.233      36.893836      36.893836      36.893836    
    126000   0.11989284    -8.3985942     -8.2187575     -1.2069793      50218.233      36.893836      36.893836      36.893836    
    127000   0.12031006    -8.3996966     -8.2192341     -1.2064356      50218.233      36.893836      36.893836      36.893836    
    128000   0.11994734    -8.3986104     -8.218692      -1.1975946      50218.233      36.893836      36.893836      36.893836    
    129000   0.12000284    -8.4001652     -8.2201635     -1.212545       50218.233      36.893836      36.893836      36.893836    
    130000   0.11977556    -8.3997264     -8.2200656     -1.2117531      50218.233      36.893836      36.893836      36.893836    
    131000   0.11962937    -8.3991761     -8.2197346     -1.2076416      50218.233      36.893836      36.893836      36.893836    
    132000   0.12026231    -8.3997626     -8.2193717     -1.2095414      50218.233      36.893836      36.893836      36.893836    
    133000   0.11999229    -8.3990825     -8.2190966     -1.2028614      50218.233      36.893836      36.893836      36.893836    
    134000   0.11972728    -8.4005281     -8.2209398     -1.2127411      50218.233      36.893836      36.893836      36.893836    
    135000   0.11981234    -8.3999562     -8.2202403     -1.2166254      50218.233      36.893836      36.893836      36.893836    
    136000   0.11966396    -8.3993753     -8.2198819     -1.2116911      50218.233      36.893836      36.893836      36.893836    
    137000   0.11974216    -8.3999479     -8.2203372     -1.2129653      50218.233      36.893836      36.893836      36.893836    
    138000   0.12044478    -8.3995682     -8.2189036     -1.209223       50218.233      36.893836      36.893836      36.893836    
    139000   0.12019362    -8.3991184     -8.2188305     -1.2074632      50218.233      36.893836      36.893836      36.893836    
    140000   0.12042298    -8.3999573     -8.2193254     -1.2215581      50218.233      36.893836      36.893836      36.893836    
    141000   0.11978197    -8.4005239     -8.2208535     -1.2173468      50218.233      36.893836      36.893836      36.893836    
    142000   0.12020798    -8.3999719     -8.2196625     -1.2155497      50218.233      36.893836      36.893836      36.893836    
    143000   0.12043031    -8.4006455     -8.2200026     -1.2216274      50218.233      36.893836      36.893836      36.893836    
    144000   0.1193924     -8.3998932     -8.2208072     -1.217324       50218.233      36.893836      36.893836      36.893836    
    145000   0.11974768    -8.4004058     -8.2207868     -1.2131544      50218.233      36.893836      36.893836      36.893836    
    146000   0.11991771    -8.4001926     -8.2203186     -1.2163181      50218.233      36.893836      36.893836      36.893836    
    147000   0.11989928    -8.4007856     -8.2209392     -1.2186077      50218.233      36.893836      36.893836      36.893836    
    148000   0.11937738    -8.4007488     -8.2216853     -1.2169076      50218.233      36.893836      36.893836      36.893836    
    149000   0.11962282    -8.3995055     -8.2200738     -1.2099801      50218.233      36.893836      36.893836      36.893836    
    150000   0.12077672    -8.3999335     -8.218771      -1.2179071      50218.233      36.893836      36.893836      36.893836    
    151000   0.12002614    -8.4021507     -8.222114      -1.2283036      50218.233      36.893836      36.893836      36.893836    
    152000   0.1201648     -8.3999129     -8.2196683     -1.2165345      50218.233      36.893836      36.893836      36.893836    
    153000   0.12056471    -8.4003788     -8.2195343     -1.2156412      50218.233      36.893836      36.893836      36.893836    
    154000   0.12017909    -8.4006662     -8.2204002     -1.2159756      50218.233      36.893836      36.893836      36.893836    
    155000   0.1207958     -8.3991421     -8.2179509     -1.207878       50218.233      36.893836      36.893836      36.893836    
    156000   0.11991053    -8.4003981     -8.2205349     -1.2149842      50218.233      36.893836      36.893836      36.893836    
    157000   0.11959049    -8.4001345     -8.2207513     -1.2154821      50218.233      36.893836      36.893836      36.893836    
    158000   0.11987039    -8.401068      -8.221265      -1.2253881      50218.233      36.893836      36.893836      36.893836    
    159000   0.12044528    -8.4005047     -8.2198394     -1.2165664      50218.233      36.893836      36.893836      36.893836    
    160000   0.1196913     -8.4006931     -8.2211587     -1.2175082      50218.233      36.893836      36.893836      36.893836    
    161000   0.11935059    -8.4001389     -8.2211155     -1.2192699      50218.233      36.893836      36.893836      36.893836    
    162000   0.12017301    -8.3997624     -8.2195055     -1.2136447      50218.233      36.893836      36.893836      36.893836    
    163000   0.11939017    -8.399395      -8.2203123     -1.2144346      50218.233      36.893836      36.893836      36.893836    
    164000   0.11992934    -8.3990809     -8.2191895     -1.2015464      50218.233      36.893836      36.893836      36.893836    
    165000   0.11971803    -8.3994902     -8.2199157     -1.2065428      50218.233      36.893836      36.893836      36.893836    
    166000   0.12014219    -8.3999137     -8.219703      -1.2086231      50218.233      36.893836      36.893836      36.893836    
    167000   0.11992228    -8.3997856     -8.2199047     -1.2118663      50218.233      36.893836      36.893836      36.893836    
    168000   0.11986237    -8.3995516     -8.2197606     -1.2099646      50218.233      36.893836      36.893836      36.893836    
    169000   0.11942129    -8.3989896     -8.2198603     -1.210376       50218.233      36.893836      36.893836      36.893836    
    170000   0.11969205    -8.4001321     -8.2205966     -1.2193946      50218.233      36.893836      36.893836      36.893836    
    171000   0.12009706    -8.3989661     -8.2188231     -1.2051594      50218.233      36.893836      36.893836      36.893836    
    172000   0.12034934    -8.3994373     -8.2189159     -1.2110737      50218.233      36.893836      36.893836      36.893836    
    173000   0.12062261    -8.3985423     -8.217611      -1.1975179      50218.233      36.893836      36.893836      36.893836    
    174000   0.1197338     -8.3992487     -8.2196506     -1.2069425      50218.233      36.893836      36.893836      36.893836    
    175000   0.12053339    -8.3992253     -8.2184278     -1.2080792      50218.233      36.893836      36.893836      36.893836    
    176000   0.12020984    -8.3986737     -8.2183615     -1.2027284      50218.233      36.893836      36.893836      36.893836    
    177000   0.11953697    -8.3998296     -8.2205267     -1.2132337      50218.233      36.893836      36.893836      36.893836    
    178000   0.11968591    -8.3994545     -8.2199282     -1.2090555      50218.233      36.893836      36.893836      36.893836    
    179000   0.1201993     -8.3987782     -8.2184818     -1.200168       50218.233      36.893836      36.893836      36.893836    
    180000   0.12010624    -8.3991761     -8.2190193     -1.2030799      50218.233      36.893836      36.893836      36.893836    
    181000   0.12074395    -8.3990874     -8.217974      -1.2072659      50218.233      36.893836      36.893836      36.893836    
    182000   0.11972707    -8.3998215     -8.2202334     -1.2141287      50218.233      36.893836      36.893836      36.893836    
    183000   0.12009135    -8.4000296     -8.2198951     -1.2141962      50218.233      36.893836      36.893836      36.893836    
    184000   0.1202599     -8.3999665     -8.2195792     -1.211008       50218.233      36.893836      36.893836      36.893836    
    185000   0.12009881    -8.400616      -8.2204704     -1.2221571      50218.233      36.893836      36.893836      36.893836    
    186000   0.12014071    -8.3999479     -8.2197394     -1.2124095      50218.233      36.893836      36.893836      36.893836    
    187000   0.12017563    -8.4001521     -8.2198912     -1.2124971      50218.233      36.893836      36.893836      36.893836    
    188000   0.11946982    -8.3999328     -8.2207306     -1.2147093      50218.233      36.893836      36.893836      36.893836    
    189000   0.12035079    -8.3999331     -8.2194095     -1.2125533      50218.233      36.893836      36.893836      36.893836    
    190000   0.12010978    -8.3998274     -8.2196653     -1.2144895      50218.233      36.893836      36.893836      36.893836    
    191000   0.12036034    -8.4005171     -8.2199792     -1.2148877      50218.233      36.893836      36.893836      36.893836    
    192000   0.11960261    -8.3996052     -8.2202038     -1.2104663      50218.233      36.893836      36.893836      36.893836    
    193000   0.1199279     -8.3996519     -8.2197626     -1.2124532      50218.233      36.893836      36.893836      36.893836    
    194000   0.11903175    -8.3998925     -8.2213474     -1.2133035      50218.233      36.893836      36.893836      36.893836    
    195000   0.12014192    -8.3996264     -8.2194161     -1.2128305      50218.233      36.893836      36.893836      36.893836    
    196000   0.11979343    -8.3993674     -8.2196798     -1.2108336      50218.233      36.893836      36.893836      36.893836    
    197000   0.12065071    -8.4012377     -8.2202642     -1.2284769      50218.233      36.893836      36.893836      36.893836    
    198000   0.12000443    -8.4009229     -8.2209188     -1.2176044      50218.233      36.893836      36.893836      36.893836    
    199000   0.11995301    -8.4008359     -8.2209089     -1.2256619      50218.233      36.893836      36.893836      36.893836    
    200000   0.1195896     -8.400842      -8.2214601     -1.2203344      50218.233      36.893836      36.893836      36.893836    
    201000   0.12001663    -8.4001499     -8.2201275     -1.2191378      50218.233      36.893836      36.893836      36.893836    
    202000   0.11989166    -8.4017251     -8.2218902     -1.2272818      50218.233      36.893836      36.893836      36.893836    
    203000   0.11988596    -8.4008343     -8.2210079     -1.2246818      50218.233      36.893836      36.893836      36.893836    
    204000   0.11936909    -8.4000099     -8.2209588     -1.2178569      50218.233      36.893836      36.893836      36.893836    
    205000   0.12029343    -8.4010416     -8.220604      -1.2186389      50218.233      36.893836      36.893836      36.893836    
    206000   0.11981789    -8.3997022     -8.2199779     -1.2113396      50218.233      36.893836      36.893836      36.893836    
    207000   0.11963688    -8.3987017     -8.2192489     -1.2082592      50218.233      36.893836      36.893836      36.893836    
    208000   0.11989085    -8.3995083     -8.2196746     -1.2094897      50218.233      36.893836      36.893836      36.893836    
    209000   0.12028762    -8.4005047     -8.2200759     -1.2168751      50218.233      36.893836      36.893836      36.893836    
    210000   0.11968531    -8.3997384     -8.220213      -1.2123538      50218.233      36.893836      36.893836      36.893836    
    211000   0.1201011     -8.3998508     -8.2197017     -1.2165567      50218.233      36.893836      36.893836      36.893836    
    212000   0.12024431    -8.4000003     -8.2196364     -1.2115515      50218.233      36.893836      36.893836      36.893836    
    213000   0.12015556    -8.3996908     -8.21946       -1.2081451      50218.233      36.893836      36.893836      36.893836    
    214000   0.12006052    -8.3995996     -8.2195114     -1.2159637      50218.233      36.893836      36.893836      36.893836    
    215000   0.11954144    -8.4001359     -8.2208263     -1.2118094      50218.233      36.893836      36.893836      36.893836    
    216000   0.12054534    -8.3996694     -8.218854      -1.2146155      50218.233      36.893836      36.893836      36.893836    
    217000   0.11970294    -8.3994349     -8.2198831     -1.2096473      50218.233      36.893836      36.893836      36.893836    
    218000   0.12039588    -8.3987196     -8.2181284     -1.1990878      50218.233      36.893836      36.893836      36.893836    
    219000   0.11980259    -8.3996227     -8.2199214     -1.2090096      50218.233      36.893836      36.893836      36.893836    
    220000   0.12000596    -8.3995529     -8.2195465     -1.2085522      50218.233      36.893836      36.893836      36.893836    
    221000   0.11982273    -8.3992495     -8.2195179     -1.2109871      50218.233      36.893836      36.893836      36.893836    
    222000   0.11960657    -8.3984703     -8.219063      -1.2025336      50218.233      36.893836      36.893836      36.893836    
    223000   0.11974472    -8.3992779     -8.2196634     -1.2040771      50218.233      36.893836      36.893836      36.893836    
    224000   0.11997048    -8.3992372     -8.2192841     -1.2056232      50218.233      36.893836      36.893836      36.893836    
    225000   0.12051096    -8.3985434     -8.2177795     -1.2007414      50218.233      36.893836      36.893836      36.893836    
    226000   0.11990548    -8.3983425     -8.2184869     -1.1974337      50218.233      36.893836      36.893836      36.893836    
    227000   0.11975849    -8.3993257     -8.2196905     -1.2097045      50218.233      36.893836      36.893836      36.893836    
    228000   0.11990422    -8.3991699     -8.2193162     -1.2102186      50218.233      36.893836      36.893836      36.893836    
    229000   0.11956568    -8.4003083     -8.2209624     -1.2141609      50218.233      36.893836      36.893836      36.893836    
    230000   0.11988761    -8.3989159     -8.219087      -1.2065675      50218.233      36.893836      36.893836      36.893836    
    231000   0.11933858    -8.3991411     -8.2201358     -1.2068468      50218.233      36.893836      36.893836      36.893836    
    232000   0.11913539    -8.3989457     -8.2202452     -1.2084282      50218.233      36.893836      36.893836      36.893836    
    233000   0.12023633    -8.3997734     -8.2194214     -1.2117818      50218.233      36.893836      36.893836      36.893836    
    234000   0.12008169    -8.3997738     -8.2196538     -1.2147406      50218.233      36.893836      36.893836      36.893836    
    235000   0.11995332    -8.4001369     -8.2202095     -1.2123592      50218.233      36.893836      36.893836      36.893836    
    236000   0.11975433    -8.4000393     -8.2204103     -1.2180343      50218.233      36.893836      36.893836      36.893836    
    237000   0.12056633    -8.3995748     -8.2187279     -1.211384       50218.233      36.893836      36.893836      36.893836    
    238000   0.11966495    -8.4005321     -8.2210372     -1.2224579      50218.233      36.893836      36.893836      36.893836    
    239000   0.12057606    -8.4003765     -8.219515      -1.2221909      50218.233      36.893836      36.893836      36.893836    
    240000   0.11993249    -8.399557      -8.2196608     -1.2056631      50218.233      36.893836      36.893836      36.893836    
    241000   0.12039515    -8.39961       -8.2190198     -1.206444       50218.233      36.893836      36.893836      36.893836    
    242000   0.11985809    -8.3997966     -8.2200121     -1.2117335      50218.233      36.893836      36.893836      36.893836    
    243000   0.12008284    -8.4004732     -8.2203515     -1.2169294      50218.233      36.893836      36.893836      36.893836    
    244000   0.12017055    -8.400819      -8.2205657     -1.2217928      50218.233      36.893836      36.893836      36.893836    
    245000   0.12063674    -8.4007049     -8.2197524     -1.2129965      50218.233      36.893836      36.893836      36.893836    
    246000   0.12010155    -8.399991      -8.2198413     -1.2147688      50218.233      36.893836      36.893836      36.893836    
    247000   0.12006602    -8.3997903     -8.2196938     -1.210534       50218.233      36.893836      36.893836      36.893836    
    248000   0.12010764    -8.3996539     -8.2194951     -1.2126406      50218.233      36.893836      36.893836      36.893836    
    249000   0.11996474    -8.4001196     -8.220175      -1.219449       50218.233      36.893836      36.893836      36.893836    
    250000   0.11976502    -8.4008139     -8.2211689     -1.2211318      50218.233      36.893836      36.893836      36.893836    
    251000   0.11991092    -8.4000017     -8.2201379     -1.2143319      50218.233      36.893836      36.893836      36.893836    
    252000   0.11964548    -8.4007572     -8.2212915     -1.2199859      50218.233      36.893836      36.893836      36.893836    
    253000   0.12026081    -8.4010915     -8.2207029     -1.2182431      50218.233      36.893836      36.893836      36.893836    
    254000   0.12017652    -8.4009833     -8.2207211     -1.2234381      50218.233      36.893836      36.893836      36.893836    
    255000   0.11948649    -8.4013029     -8.2220757     -1.2213005      50218.233      36.893836      36.893836      36.893836    
    256000   0.12048635    -8.4002437     -8.2195167     -1.2203428      50218.233      36.893836      36.893836      36.893836    
    257000   0.12014473    -8.3991718     -8.2189573     -1.2058267      50218.233      36.893836      36.893836      36.893836    
    258000   0.12027252    -8.4002205     -8.2198143     -1.2139115      50218.233      36.893836      36.893836      36.893836    
    259000   0.12012739    -8.4012745     -8.221086      -1.2238293      50218.233      36.893836      36.893836      36.893836    
    260000   0.12086494    -8.3989384     -8.2176436     -1.1998413      50218.233      36.893836      36.893836      36.893836    
    261000   0.12033212    -8.4006698     -8.2201742     -1.2191688      50218.233      36.893836      36.893836      36.893836    
    262000   0.12088151    -8.4002651     -8.2189454     -1.2092801      50218.233      36.893836      36.893836      36.893836    
    263000   0.12013421    -8.3994306     -8.2192319     -1.2088634      50218.233      36.893836      36.893836      36.893836    
    264000   0.11956235    -8.3990067     -8.2196658     -1.2113075      50218.233      36.893836      36.893836      36.893836    
    265000   0.11966726    -8.3998961     -8.2203978     -1.2094047      50218.233      36.893836      36.893836      36.893836    
    266000   0.12008637    -8.399878      -8.219751      -1.2111918      50218.233      36.893836      36.893836      36.893836    
    267000   0.11938045    -8.3995294     -8.2204613     -1.2095507      50218.233      36.893836      36.893836      36.893836    
    268000   0.12027859    -8.398483      -8.2180677     -1.2012232      50218.233      36.893836      36.893836      36.893836    
    269000   0.1203089     -8.3980547     -8.2175939     -1.1953263      50218.233      36.893836      36.893836      36.893836    
    270000   0.11965351    -8.3984435     -8.2189658     -1.2032552      50218.233      36.893836      36.893836      36.893836    
    271000   0.11946608    -8.3995348     -8.2203383     -1.2091948      50218.233      36.893836      36.893836      36.893836    
    272000   0.11932068    -8.3998922     -8.2209137     -1.21258        50218.233      36.893836      36.893836      36.893836    
    273000   0.12042005    -8.3985706     -8.2179431     -1.2049725      50218.233      36.893836      36.893836      36.893836    
    274000   0.11953985    -8.3994383     -8.220131      -1.2139868      50218.233      36.893836      36.893836      36.893836    
    275000   0.11925043    -8.3994269     -8.2205538     -1.2102664      50218.233      36.893836      36.893836      36.893836    
    276000   0.11959108    -8.3984166     -8.2190325     -1.204388       50218.233      36.893836      36.893836      36.893836    
    277000   0.11960418    -8.3989188     -8.2195151     -1.2081848      50218.233      36.893836      36.893836      36.893836    
    278000   0.1193304     -8.4001445     -8.2211514     -1.2166674      50218.233      36.893836      36.893836      36.893836    
    279000   0.12009424    -8.3995892     -8.2194504     -1.2096953      50218.233      36.893836      36.893836      36.893836    
    280000   0.12035387    -8.4004654     -8.2199372     -1.214955       50218.233      36.893836      36.893836      36.893836    
    281000   0.11983168    -8.3989172     -8.2191722     -1.2046043      50218.233      36.893836      36.893836      36.893836    
    282000   0.11995351    -8.3988252     -8.2188975     -1.2015138      50218.233      36.893836      36.893836      36.893836    
    283000   0.11991378    -8.4000834     -8.2202153     -1.2147009      50218.233      36.893836      36.893836      36.893836    
    284000   0.12006902    -8.3991337     -8.2190328     -1.2086973      50218.233      36.893836      36.893836      36.893836    
    285000   0.12000752    -8.3998275     -8.2198188     -1.2126512      50218.233      36.893836      36.893836      36.893836    
    286000   0.11989188    -8.4001385     -8.2203032     -1.2158681      50218.233      36.893836      36.893836      36.893836    
    287000   0.12022417    -8.4001037     -8.21977       -1.2092706      50218.233      36.893836      36.893836      36.893836    
    288000   0.11927044    -8.3992443     -8.2203412     -1.2105982      50218.233      36.893836      36.893836      36.893836    
    289000   0.12021764    -8.4005092     -8.2201853     -1.2175957      50218.233      36.893836      36.893836      36.893836    
    290000   0.12002652    -8.4007817     -8.2207445     -1.21965        50218.233      36.893836      36.893836      36.893836    
    291000   0.12031536    -8.3999452     -8.2194747     -1.2115261      50218.233      36.893836      36.893836      36.893836    
    292000   0.12031014    -8.4009984     -8.2205358     -1.2238199      50218.233      36.893836      36.893836      36.893836    
    293000   0.11977674    -8.4000079     -8.2203453     -1.2080827      50218.233      36.893836      36.893836      36.893836    
    294000   0.12030231    -8.4003677     -8.2199168     -1.216685       50218.233      36.893836      36.893836      36.893836    
    295000   0.11990184    -8.3999649     -8.2201147     -1.2101675      50218.233      36.893836      36.893836      36.893836    
    296000   0.12045479    -8.4007417     -8.2200621     -1.2208962      50218.233      36.893836      36.893836      36.893836    
    297000   0.11987079    -8.4000611     -8.2202575     -1.2138236      50218.233      36.893836      36.893836      36.893836    
    298000   0.12014577    -8.3996172     -8.2194011     -1.2127617      50218.233      36.893836      36.893836      36.893836    
    299000   0.12013272    -8.399904      -8.2197075     -1.2132755      50218.233      36.893836      36.893836      36.893836    
    300000   0.12042209    -8.4002693     -8.2196387     -1.218005       50218.233      36.893836      36.893836      36.893836    
    301000   0.12015456    -8.4001408     -8.2199115     -1.2157845      50218.233      36.893836      36.893836      36.893836    
    302000   0.12031718    -8.4013773     -8.2209041     -1.227404       50218.233      36.893836      36.893836      36.893836    
    303000   0.11998529    -8.4003254     -8.22035       -1.2138724      50218.233      36.893836      36.893836      36.893836    
    304000   0.1198032     -8.4006698     -8.2209676     -1.222998       50218.233      36.893836      36.893836      36.893836    
    305000   0.12004309    -8.4001881     -8.220126      -1.2144398      50218.233      36.893836      36.893836      36.893836    
    306000   0.12049833    -8.4004778     -8.2197328     -1.2171775      50218.233      36.893836      36.893836      36.893836    
    307000   0.12067854    -8.399659      -8.2186438     -1.2048003      50218.233      36.893836      36.893836      36.893836    
    308000   0.12051974    -8.3998419     -8.2190648     -1.2095943      50218.233      36.893836      36.893836      36.893836    
    309000   0.11980663    -8.3997258     -8.2200184     -1.2090635      50218.233      36.893836      36.893836      36.893836    
    310000   0.12017878    -8.3997756     -8.21951       -1.2098189      50218.233      36.893836      36.893836      36.893836    
    311000   0.12054364    -8.3997846     -8.2189717     -1.2093632      50218.233      36.893836      36.893836      36.893836    
    312000   0.12036144    -8.3997538     -8.2192142     -1.2105395      50218.233      36.893836      36.893836      36.893836    
    313000   0.11999485    -8.3989152     -8.2189254     -1.2066366      50218.233      36.893836      36.893836      36.893836    
    314000   0.11929611    -8.3997254     -8.2207838     -1.2122679      50218.233      36.893836      36.893836      36.893836    
    315000   0.12051042    -8.3998397     -8.2190766     -1.2137445      50218.233      36.893836      36.893836      36.893836    
    316000   0.11975983    -8.3992055     -8.2195683     -1.2075497      50218.233      36.893836      36.893836      36.893836    
    317000   0.1200302     -8.398742      -8.2186993     -1.2009362      50218.233      36.893836      36.893836      36.893836    
    318000   0.12012565    -8.4003641     -8.2201781     -1.2150712      50218.233      36.893836      36.893836      36.893836    
    319000   0.12019346    -8.3997522     -8.2194646     -1.2148504      50218.233      36.893836      36.893836      36.893836    
    320000   0.12046137    -8.3992621     -8.2185726     -1.2017819      50218.233      36.893836      36.893836      36.893836    
    321000   0.11996707    -8.3988386     -8.2188906     -1.1969552      50218.233      36.893836      36.893836      36.893836    
    322000   0.12005242    -8.3988956     -8.2188195     -1.2074437      50218.233      36.893836      36.893836      36.893836    
    323000   0.11964141    -8.3990768     -8.2196172     -1.2059729      50218.233      36.893836      36.893836      36.893836    
    324000   0.11994308    -8.3985347     -8.2186227     -1.2031225      50218.233      36.893836      36.893836      36.893836    
    325000   0.11930411    -8.3991293     -8.2201757     -1.2094537      50218.233      36.893836      36.893836      36.893836    
    326000   0.12007796    -8.3994008     -8.2192864     -1.2052457      50218.233      36.893836      36.893836      36.893836    
    327000   0.11978145    -8.3993396     -8.21967       -1.2066872      50218.233      36.893836      36.893836      36.893836    
    328000   0.12028782    -8.398982      -8.2185528     -1.2136157      50218.233      36.893836      36.893836      36.893836    
    329000   0.11943215    -8.3994589     -8.2203132     -1.2075475      50218.233      36.893836      36.893836      36.893836    
    330000   0.12033595    -8.3995889     -8.2190875     -1.2065666      50218.233      36.893836      36.893836      36.893836    
    331000   0.11941881    -8.3999198     -8.2207942     -1.2158327      50218.233      36.893836      36.893836      36.893836    
    332000   0.11980196    -8.3992767     -8.2195763     -1.2159321      50218.233      36.893836      36.893836      36.893836    
    333000   0.12041839    -8.3982033     -8.2175783     -1.1983856      50218.233      36.893836      36.893836      36.893836    
    334000   0.12025126    -8.3990012     -8.2186269     -1.2029544      50218.233      36.893836      36.893836      36.893836    
    335000   0.12042363    -8.3997188     -8.2190859     -1.2093188      50218.233      36.893836      36.893836      36.893836    
    336000   0.12029314    -8.4002424     -8.2198052     -1.2159099      50218.233      36.893836      36.893836      36.893836    
    337000   0.1200477     -8.399196      -8.2191271     -1.2067878      50218.233      36.893836      36.893836      36.893836    
    338000   0.11972206    -8.3997494     -8.2201689     -1.2064565      50218.233      36.893836      36.893836      36.893836    
    339000   0.11993116    -8.3994822     -8.219588      -1.2120365      50218.233      36.893836      36.893836      36.893836    
    340000   0.12050099    -8.3994422     -8.2186932     -1.2082175      50218.233      36.893836      36.893836      36.893836    
    341000   0.11982363    -8.3993041     -8.2195712     -1.2130624      50218.233      36.893836      36.893836      36.893836    
    342000   0.11954539    -8.4005907     -8.2212751     -1.2201647      50218.233      36.893836      36.893836      36.893836    
    343000   0.11974592    -8.4004314     -8.2208151     -1.2116795      50218.233      36.893836      36.893836      36.893836    
    344000   0.11963706    -8.3996666     -8.2202136     -1.2174911      50218.233      36.893836      36.893836      36.893836    
    345000   0.12003408    -8.4013356     -8.221287      -1.2233237      50218.233      36.893836      36.893836      36.893836    
    346000   0.11978116    -8.400107      -8.2204378     -1.2162737      50218.233      36.893836      36.893836      36.893836    
    347000   0.11945896    -8.4001966     -8.2210107     -1.2151918      50218.233      36.893836      36.893836      36.893836    
    348000   0.12000064    -8.400499      -8.2205006     -1.2178949      50218.233      36.893836      36.893836      36.893836    
    349000   0.11972479    -8.4010179     -8.2214333     -1.2200723      50218.233      36.893836      36.893836      36.893836    
    350000   0.11955806    -8.401317      -8.2219825     -1.2230725      50218.233      36.893836      36.893836      36.893836    
    351000   0.11996994    -8.4006557     -8.2207033     -1.2198546      50218.233      36.893836      36.893836      36.893836    
    352000   0.11942923    -8.4011888     -8.2220475     -1.2246618      50218.233      36.893836      36.893836      36.893836    
    353000   0.11996592    -8.4010055     -8.2210592     -1.2259003      50218.233      36.893836      36.893836      36.893836    
    354000   0.11913209    -8.4003231     -8.2216275     -1.2232323      50218.233      36.893836      36.893836      36.893836    
    355000   0.12048942    -8.4006226     -8.2198911     -1.2197724      50218.233      36.893836      36.893836      36.893836    
    356000   0.12030155    -8.4007787     -8.220329      -1.2151379      50218.233      36.893836      36.893836      36.893836    
    357000   0.11956015    -8.4000968     -8.2207592     -1.215793       50218.233      36.893836      36.893836      36.893836    
    358000   0.12034223    -8.4011469     -8.2206361     -1.224925       50218.233      36.893836      36.893836      36.893836    
    359000   0.11985384    -8.3993145     -8.2195363     -1.2095829      50218.233      36.893836      36.893836      36.893836    
    360000   0.12022437    -8.4000079     -8.2196739     -1.2092755      50218.233      36.893836      36.893836      36.893836    
    361000   0.12016661    -8.3995775     -8.2193301     -1.2112903      50218.233      36.893836      36.893836      36.893836    
    362000   0.1195359     -8.3999749     -8.2206736     -1.2170939      50218.233      36.893836      36.893836      36.893836    
    363000   0.11979473    -8.4000579     -8.2203684     -1.2155059      50218.233      36.893836      36.893836      36.893836    
    364000   0.12029118    -8.3984018     -8.2179676     -1.1993245      50218.233      36.893836      36.893836      36.893836    
    365000   0.12034476    -8.4001405     -8.2196259     -1.2141191      50218.233      36.893836      36.893836      36.893836    
    366000   0.11999754    -8.3996965     -8.2197027     -1.2096467      50218.233      36.893836      36.893836      36.893836    
    367000   0.12021011    -8.3992291     -8.2189165     -1.206616       50218.233      36.893836      36.893836      36.893836    
    368000   0.12013163    -8.3988973     -8.2187024     -1.2091195      50218.233      36.893836      36.893836      36.893836    
    369000   0.11990838    -8.3991615     -8.2193015     -1.2061809      50218.233      36.893836      36.893836      36.893836    
    370000   0.11959765    -8.4004846     -8.2210906     -1.2195858      50218.233      36.893836      36.893836      36.893836    
    371000   0.1202053     -8.398247      -8.2179416     -1.19867        50218.233      36.893836      36.893836      36.893836    
    372000   0.12028575    -8.3982675     -8.2178414     -1.1993869      50218.233      36.893836      36.893836      36.893836    
    373000   0.12044396    -8.3981823     -8.2175189     -1.198225       50218.233      36.893836      36.893836      36.893836    
    374000   0.12029341    -8.3990491     -8.2186115     -1.2024342      50218.233      36.893836      36.893836      36.893836    
    375000   0.12030836    -8.3990486     -8.2185887     -1.2074183      50218.233      36.893836      36.893836      36.893836    
    376000   0.12019574    -8.3994016     -8.2191105     -1.2109195      50218.233      36.893836      36.893836      36.893836    
    377000   0.12010223    -8.3990967     -8.2189459     -1.2026827      50218.233      36.893836      36.893836      36.893836    
    378000   0.12014061    -8.3987719     -8.2185635     -1.2061041      50218.233      36.893836      36.893836      36.893836    
    379000   0.11960851    -8.399296      -8.2198858     -1.2058011      50218.233      36.893836      36.893836      36.893836    
    380000   0.1203375     -8.3990787     -8.218575      -1.2033336      50218.233      36.893836      36.893836      36.893836    
    381000   0.11959199    -8.3995306     -8.2201451     -1.212563       50218.233      36.893836      36.893836      36.893836    
    382000   0.12027955    -8.3992022     -8.2187854     -1.2133197      50218.233      36.893836      36.893836      36.893836    
    383000   0.11960914    -8.3989057     -8.2194945     -1.2082525      50218.233      36.893836      36.893836      36.893836    
    384000   0.11964694    -8.3991265     -8.2196586     -1.2132558      50218.233      36.893836      36.893836      36.893836    
    385000   0.12072097    -8.3999551     -8.2188762     -1.2154335      50218.233      36.893836      36.893836      36.893836    
    386000   0.11992306    -8.3998419     -8.2199599     -1.210826       50218.233      36.893836      36.893836      36.893836    
    387000   0.11987451    -8.4005786     -8.2207694     -1.2163731      50218.233      36.893836      36.893836      36.893836    
    388000   0.12012475    -8.3997226     -8.2195381     -1.2112848      50218.233      36.893836      36.893836      36.893836    
    389000   0.11984602    -8.4001994     -8.2204329     -1.2142804      50218.233      36.893836      36.893836      36.893836    
    390000   0.12045722    -8.3996743     -8.218991      -1.2072056      50218.233      36.893836      36.893836      36.893836    
    391000   0.1201093     -8.3999208     -8.2197594     -1.2149726      50218.233      36.893836      36.893836      36.893836    
    392000   0.11991345    -8.3995973     -8.2197297     -1.2088534      50218.233      36.893836      36.893836      36.893836    
    393000   0.11966894    -8.3995272     -8.2200264     -1.2152799      50218.233      36.893836      36.893836      36.893836    
    394000   0.12023788    -8.4001151     -8.2197608     -1.2172971      50218.233      36.893836      36.893836      36.893836    
    395000   0.11898354    -8.3999404     -8.2214676     -1.2110042      50218.233      36.893836      36.893836      36.893836    
    396000   0.11997657    -8.3996836     -8.2197213     -1.2119143      50218.233      36.893836      36.893836      36.893836    
    397000   0.11951289    -8.4001842     -8.2209174     -1.215385       50218.233      36.893836      36.893836      36.893836    
    398000   0.11970209    -8.3997812     -8.2202307     -1.2119713      50218.233      36.893836      36.893836      36.893836    
    399000   0.12035601    -8.4002236     -8.2196921     -1.219582       50218.233      36.893836      36.893836      36.893836    
    400000   0.11998175    -8.4001658     -8.2201957     -1.2179519      50218.233      36.893836      36.893836      36.893836    
    401000   0.11943626    -8.3996549     -8.2205031     -1.2127368      50218.233      36.893836      36.893836      36.893836    
    402000   0.1190333     -8.4000025     -8.2214551     -1.216285       50218.233      36.893836      36.893836      36.893836    
    403000   0.12018069    -8.3998816     -8.2196131     -1.2120242      50218.233      36.893836      36.893836      36.893836    
    404000   0.11987853    -8.4008842     -8.2210689     -1.2191144      50218.233      36.893836      36.893836      36.893836    
    405000   0.11986857    -8.4010626     -8.2212623     -1.2231942      50218.233      36.893836      36.893836      36.893836    
    406000   0.12006569    -8.4007527     -8.2206567     -1.2147269      50218.233      36.893836      36.893836      36.893836    
    407000   0.11994446    -8.4008176     -8.2209035     -1.2186964      50218.233      36.893836      36.893836      36.893836    
    408000   0.12013583    -8.4004038     -8.2202026     -1.2157353      50218.233      36.893836      36.893836      36.893836    
    409000   0.1200874     -8.3996769     -8.2195484     -1.2120695      50218.233      36.893836      36.893836      36.893836    
    410000   0.12079234    -8.400585      -8.2193991     -1.2194639      50218.233      36.893836      36.893836      36.893836    
    411000   0.12023755    -8.4004644     -8.2201106     -1.2173085      50218.233      36.893836      36.893836      36.893836    
    412000   0.12003123    -8.3996212     -8.2195769     -1.2056827      50218.233      36.893836      36.893836      36.893836    
    413000   0.1196099     -8.4008457     -8.2214334     -1.2181246      50218.233      36.893836      36.893836      36.893836    
    414000   0.1201448     -8.3993457     -8.219131      -1.2086322      50218.233      36.893836      36.893836      36.893836    
    415000   0.12063261    -8.3992398     -8.2182934     -1.2097624      50218.233      36.893836      36.893836      36.893836    
    416000   0.12019169    -8.4003504     -8.2200654     -1.2147712      50218.233      36.893836      36.893836      36.893836    
    417000   0.12025012    -8.3980644     -8.2176918     -1.2012367      50218.233      36.893836      36.893836      36.893836    
    418000   0.11966567    -8.3988279     -8.2193319     -1.2036159      50218.233      36.893836      36.893836      36.893836    
    419000   0.11956204    -8.3987957     -8.2194551     -1.2055398      50218.233      36.893836      36.893836      36.893836    
    420000   0.119923      -8.3991777     -8.2192957     -1.2082552      50218.233      36.893836      36.893836      36.893836    
    421000   0.12014114    -8.3993061     -8.2190969     -1.2035254      50218.233      36.893836      36.893836      36.893836    
    422000   0.11994448    -8.3988938     -8.2189797     -1.203406       50218.233      36.893836      36.893836      36.893836    
    423000   0.12094409    -8.398429      -8.2170155     -1.1959871      50218.233      36.893836      36.893836      36.893836    
    424000   0.11999419    -8.398874      -8.2188853     -1.2037726      50218.233      36.893836      36.893836      36.893836    
    425000   0.12001207    -8.3987416     -8.218726      -1.2083028      50218.233      36.893836      36.893836      36.893836    
    426000   0.1201366     -8.3994338     -8.2192315     -1.2047747      50218.233      36.893836      36.893836      36.893836    
    427000   0.12068295    -8.3994433     -8.2184214     -1.206264       50218.233      36.893836      36.893836      36.893836    
    428000   0.11998253    -8.3991572     -8.2191859     -1.2077708      50218.233      36.893836      36.893836      36.893836    
    429000   0.11952353    -8.3992315     -8.2199487     -1.2091982      50218.233      36.893836      36.893836      36.893836    
    430000   0.11940538    -8.3989459     -8.2198403     -1.2025266      50218.233      36.893836      36.893836      36.893836    
    431000   0.12022142    -8.3985164     -8.2181869     -1.1967856      50218.233      36.893836      36.893836      36.893836    
    432000   0.11952834    -8.3986198     -8.2193298     -1.1986437      50218.233      36.893836      36.893836      36.893836    
    433000   0.11952014    -8.3985965     -8.2193189     -1.2056801      50218.233      36.893836      36.893836      36.893836    
    434000   0.11971967    -8.3986532     -8.2190762     -1.2056654      50218.233      36.893836      36.893836      36.893836    
    435000   0.12028541    -8.3994333     -8.2190078     -1.2055341      50218.233      36.893836      36.893836      36.893836    
    436000   0.12010447    -8.399725      -8.2195708     -1.208899       50218.233      36.893836      36.893836      36.893836    
    437000   0.1199874     -8.3989819     -8.2190033     -1.2046115      50218.233      36.893836      36.893836      36.893836    
    438000   0.12045713    -8.3999729     -8.2192898     -1.2129968      50218.233      36.893836      36.893836      36.893836    
    439000   0.12068384    -8.3997118     -8.2186886     -1.2121268      50218.233      36.893836      36.893836      36.893836    
    440000   0.11976299    -8.3999412     -8.2202992     -1.2173876      50218.233      36.893836      36.893836      36.893836    
    441000   0.12058552    -8.3996349     -8.2187592     -1.2047631      50218.233      36.893836      36.893836      36.893836    
    442000   0.11952615    -8.400444      -8.2211573     -1.2230621      50218.233      36.893836      36.893836      36.893836    
    443000   0.1200967     -8.4006378     -8.2204953     -1.2234896      50218.233      36.893836      36.893836      36.893836    
    444000   0.12020965    -8.400979      -8.2206671     -1.2183249      50218.233      36.893836      36.893836      36.893836    
    445000   0.1201623     -8.3999789     -8.219738      -1.2174726      50218.233      36.893836      36.893836      36.893836    
    446000   0.12007228    -8.4006556     -8.2205497     -1.2130786      50218.233      36.893836      36.893836      36.893836    
    447000   0.12009375    -8.401173      -8.2210349     -1.2246046      50218.233      36.893836      36.893836      36.893836    
    448000   0.11976605    -8.4005382     -8.2208917     -1.2217212      50218.233      36.893836      36.893836      36.893836    
    449000   0.11991442    -8.400712      -8.2208429     -1.2191459      50218.233      36.893836      36.893836      36.893836    
    450000   0.11884151    -8.4008002     -8.2225405     -1.2205659      50218.233      36.893836      36.893836      36.893836    
    451000   0.1199971     -8.4004303     -8.2204372     -1.2232268      50218.233      36.893836      36.893836      36.893836    
    452000   0.12028315    -8.3996449     -8.2192228     -1.2106635      50218.233      36.893836      36.893836      36.893836    
    453000   0.12089982    -8.4009645     -8.2196174     -1.2211092      50218.233      36.893836      36.893836      36.893836    
    454000   0.11973442    -8.4020219     -8.2224228     -1.2321021      50218.233      36.893836      36.893836      36.893836    
    455000   0.11959735    -8.4000977     -8.2207042     -1.2108342      50218.233      36.893836      36.893836      36.893836    
    456000   0.11973009    -8.4005613     -8.2209687     -1.2184735      50218.233      36.893836      36.893836      36.893836    
    457000   0.11981987    -8.3995898     -8.2198625     -1.2043464      50218.233      36.893836      36.893836      36.893836    
    458000   0.12008496    -8.3992872     -8.2191623     -1.2095681      50218.233      36.893836      36.893836      36.893836    
    459000   0.11942777    -8.3992655     -8.2201264     -1.2074985      50218.233      36.893836      36.893836      36.893836    
    460000   0.12061788    -8.3995097     -8.2185854     -1.2118211      50218.233      36.893836      36.893836      36.893836    
    461000   0.11973934    -8.4001026     -8.2204961     -1.215051       50218.233      36.893836      36.893836      36.893836    
    462000   0.12016964    -8.4000654     -8.2198135     -1.2130907      50218.233      36.893836      36.893836      36.893836    
    463000   0.11913517    -8.399666      -8.2209658     -1.2142128      50218.233      36.893836      36.893836      36.893836    
    464000   0.11988954    -8.4000793     -8.2202475     -1.2174321      50218.233      36.893836      36.893836      36.893836    
    465000   0.11942745    -8.3989859     -8.2198473     -1.203637       50218.233      36.893836      36.893836      36.893836    
    466000   0.11990575    -8.3993935     -8.2195375     -1.2085149      50218.233      36.893836      36.893836      36.893836    
    467000   0.11937109    -8.4001835     -8.2211294     -1.2191947      50218.233      36.893836      36.893836      36.893836    
    468000   0.11986718    -8.4002772     -8.220479      -1.2181837      50218.233      36.893836      36.893836      36.893836    
    469000   0.12051936    -8.3997425     -8.218966      -1.215692       50218.233      36.893836      36.893836      36.893836    
    470000   0.11971212    -8.3997066     -8.220141      -1.2133845      50218.233      36.893836      36.893836      36.893836    
    471000   0.11959771    -8.3990853     -8.2196913     -1.2089815      50218.233      36.893836      36.893836      36.893836    
    472000   0.12046208    -8.3988005     -8.2181099     -1.206366       50218.233      36.893836      36.893836      36.893836    
    473000   0.11885563    -8.3980457     -8.2197648     -1.2039525      50218.233      36.893836      36.893836      36.893836    
    474000   0.12021477    -8.3981364     -8.2178168     -1.1972879      50218.233      36.893836      36.893836      36.893836    
    475000   0.1190836     -8.3994377     -8.2208148     -1.2145123      50218.233      36.893836      36.893836      36.893836    
    476000   0.12066259    -8.3996491     -8.2186578     -1.2083501      50218.233      36.893836      36.893836      36.893836    
    477000   0.12035004    -8.4001037     -8.2195812     -1.2133931      50218.233      36.893836      36.893836      36.893836    
    478000   0.11987563    -8.3988611     -8.2190502     -1.2007111      50218.233      36.893836      36.893836      36.893836    
    479000   0.1196769     -8.3991104     -8.2195976     -1.2105224      50218.233      36.893836      36.893836      36.893836    
    480000   0.11953941    -8.3995465     -8.2202399     -1.2147043      50218.233      36.893836      36.893836      36.893836    
    481000   0.1194853     -8.3998184     -8.220593      -1.2154949      50218.233      36.893836      36.893836      36.893836    
    482000   0.11937711    -8.3995309     -8.2204678     -1.2138836      50218.233      36.893836      36.893836      36.893836    
    483000   0.11953381    -8.3997399     -8.2204418     -1.2107999      50218.233      36.893836      36.893836      36.893836    
    484000   0.12062018    -8.3999027     -8.218975      -1.2109718      50218.233      36.893836      36.893836      36.893836    
    485000   0.1200486     -8.3997808     -8.2197105     -1.2053533      50218.233      36.893836      36.893836      36.893836    
    486000   0.11930556    -8.4003259     -8.2213701     -1.2184845      50218.233      36.893836      36.893836      36.893836    
    487000   0.11973684    -8.3992272     -8.2196245     -1.2091439      50218.233      36.893836      36.893836      36.893836    
    488000   0.12065279    -8.399293      -8.2183164     -1.2068998      50218.233      36.893836      36.893836      36.893836    
    489000   0.12003293    -8.4005231     -8.2204763     -1.2212005      50218.233      36.893836      36.893836      36.893836    
    490000   0.12011014    -8.3998515     -8.2196889     -1.2134809      50218.233      36.893836      36.893836      36.893836    
    491000   0.12048154    -8.398815      -8.2180952     -1.2076813      50218.233      36.893836      36.893836      36.893836    
    492000   0.11997826    -8.400957      -8.2209922     -1.2199702      50218.233      36.893836      36.893836      36.893836    
    493000   0.12025334    -8.4002483     -8.2198708     -1.2181761      50218.233      36.893836      36.893836      36.893836    
    494000   0.11999853    -8.4001684     -8.2201732     -1.2140067      50218.233      36.893836      36.893836      36.893836    
    495000   0.11930574    -8.4013526     -8.2223965     -1.2204914      50218.233      36.893836      36.893836      36.893836    
    496000   0.12030577    -8.4007678     -8.2203117     -1.223324       50218.233      36.893836      36.893836      36.893836    
    497000   0.12026049    -8.4003516     -8.2199634     -1.2183143      50218.233      36.893836      36.893836      36.893836    
    498000   0.12105081    -8.4007979     -8.2192243     -1.2180419      50218.233      36.893836      36.893836      36.893836    
    499000   0.12047154    -8.3999086     -8.2192039     -1.2157564      50218.233      36.893836      36.893836      36.893836    
    500000   0.11975734    -8.4006947     -8.2210613     -1.2146179      50218.233      36.893836      36.893836      36.893836    
    501000   0.12006111    -8.4004433     -8.2203542     -1.2193523      50218.233      36.893836      36.893836      36.893836    
    502000   0.11990377    -8.3995979     -8.2197448     -1.2133808      50218.233      36.893836      36.893836      36.893836    
    503000   0.11968457    -8.4004309     -8.2209066     -1.2169265      50218.233      36.893836      36.893836      36.893836    
    504000   0.12003472    -8.4001952     -8.2201457     -1.2137205      50218.233      36.893836      36.893836      36.893836    
    505000   0.11980383    -8.4006006     -8.2208974     -1.2233373      50218.233      36.893836      36.893836      36.893836    
    506000   0.11984364    -8.4007627     -8.2209998     -1.2202551      50218.233      36.893836      36.893836      36.893836    
    507000   0.12039062    -8.3992768     -8.2186935     -1.209218       50218.233      36.893836      36.893836      36.893836    
    508000   0.12073169    -8.4004015     -8.2193065     -1.2159595      50218.233      36.893836      36.893836      36.893836    
    509000   0.1196071     -8.3996339     -8.2202258     -1.2129635      50218.233      36.893836      36.893836      36.893836    
    510000   0.12002029    -8.3990582     -8.2190304     -1.2057031      50218.233      36.893836      36.893836      36.893836    
    511000   0.11960574    -8.4005369     -8.2211309     -1.2197344      50218.233      36.893836      36.893836      36.893836    
    512000   0.12027554    -8.400211      -8.2198003     -1.2131563      50218.233      36.893836      36.893836      36.893836    
    513000   0.12018142    -8.3993121     -8.2190425     -1.2047605      50218.233      36.893836      36.893836      36.893836    
    514000   0.11989204    -8.3992978     -8.2194623     -1.206594       50218.233      36.893836      36.893836      36.893836    
    515000   0.12058674    -8.3996297     -8.2187521     -1.2075912      50218.233      36.893836      36.893836      36.893836    
    516000   0.11957562    -8.399542      -8.2201811     -1.2113213      50218.233      36.893836      36.893836      36.893836    
    517000   0.1203534     -8.3990098     -8.2184823     -1.2061316      50218.233      36.893836      36.893836      36.893836    
    518000   0.11917654    -8.399417      -8.2206547     -1.207699       50218.233      36.893836      36.893836      36.893836    
    519000   0.11968099    -8.3998327     -8.2203138     -1.2124967      50218.233      36.893836      36.893836      36.893836    
    520000   0.11992006    -8.3992754     -8.2193978     -1.2066365      50218.233      36.893836      36.893836      36.893836    
    521000   0.11983458    -8.3998152     -8.2200659     -1.2139423      50218.233      36.893836      36.893836      36.893836    
    522000   0.12082242    -8.399106      -8.217875      -1.2035553      50218.233      36.893836      36.893836      36.893836    
    523000   0.1203525     -8.3987058     -8.2181796     -1.2009224      50218.233      36.893836      36.893836      36.893836    
    524000   0.12055266    -8.3986693     -8.2178429     -1.2043816      50218.233      36.893836      36.893836      36.893836    
    525000   0.12007642    -8.3982        -8.2180879     -1.1959181      50218.233      36.893836      36.893836      36.893836    
    526000   0.12031154    -8.3990677     -8.218603      -1.1999262      50218.233      36.893836      36.893836      36.893836    
    527000   0.11964142    -8.3983266     -8.218867      -1.2022734      50218.233      36.893836      36.893836      36.893836    
    528000   0.12041664    -8.3992458     -8.2186234     -1.2055311      50218.233      36.893836      36.893836      36.893836    
    529000   0.12014345    -8.3985375     -8.2183249     -1.2060814      50218.233      36.893836      36.893836      36.893836    
    530000   0.11967547    -8.3990821     -8.2195715     -1.2054457      50218.233      36.893836      36.893836      36.893836    
    531000   0.12018123    -8.3996804     -8.2194112     -1.2121598      50218.233      36.893836      36.893836      36.893836    
    532000   0.119681      -8.3997228     -8.2202038     -1.2070199      50218.233      36.893836      36.893836      36.893836    
    533000   0.119568      -8.398797      -8.2194475     -1.204994       50218.233      36.893836      36.893836      36.893836    
    534000   0.12000306    -8.4000304     -8.2200284     -1.2188413      50218.233      36.893836      36.893836      36.893836    
    535000   0.1197058     -8.3991364     -8.2195802     -1.2010303      50218.233      36.893836      36.893836      36.893836    
    536000   0.12009991    -8.4000885     -8.2199412     -1.2169864      50218.233      36.893836      36.893836      36.893836    
    537000   0.11987725    -8.4008069     -8.2209935     -1.2194538      50218.233      36.893836      36.893836      36.893836    
    538000   0.12014891    -8.3993236     -8.2191028     -1.2116107      50218.233      36.893836      36.893836      36.893836    
    539000   0.1199062     -8.3999692     -8.2201125     -1.2140635      50218.233      36.893836      36.893836      36.893836    
    540000   0.1200757     -8.3994322     -8.2193212     -1.210658       50218.233      36.893836      36.893836      36.893836    
    541000   0.11933141    -8.4006074     -8.2216128     -1.2205644      50218.233      36.893836      36.893836      36.893836    
    542000   0.12028661    -8.3992911     -8.2188638     -1.2066256      50218.233      36.893836      36.893836      36.893836    
    543000   0.11969235    -8.4005463     -8.2210103     -1.222657       50218.233      36.893836      36.893836      36.893836    
    544000   0.11991906    -8.4001691     -8.220293      -1.2137759      50218.233      36.893836      36.893836      36.893836    
    545000   0.12034703    -8.4005452     -8.2200272     -1.2197844      50218.233      36.893836      36.893836      36.893836    
    546000   0.11980206    -8.4003104     -8.2206099     -1.2147667      50218.233      36.893836      36.893836      36.893836    
    547000   0.11984462    -8.4008583     -8.2210939     -1.2193448      50218.233      36.893836      36.893836      36.893836    
    548000   0.11980716    -8.399201      -8.2194928     -1.2117457      50218.233      36.893836      36.893836      36.893836    
    549000   0.12062532    -8.4004512     -8.2195158     -1.2141376      50218.233      36.893836      36.893836      36.893836    
    550000   0.12015502    -8.4011049     -8.2208749     -1.2204088      50218.233      36.893836      36.893836      36.893836    
    551000   0.11976442    -8.4008553     -8.2212113     -1.2218496      50218.233      36.893836      36.893836      36.893836    
    552000   0.12023946    -8.4007291     -8.2203724     -1.2217734      50218.233      36.893836      36.893836      36.893836    
    553000   0.12071908    -8.3996712     -8.2185951     -1.2095656      50218.233      36.893836      36.893836      36.893836    
    554000   0.1199482     -8.4014065     -8.2214868     -1.2255138      50218.233      36.893836      36.893836      36.893836    
    555000   0.11981048    -8.3999875     -8.2202744     -1.2160768      50218.233      36.893836      36.893836      36.893836    
    556000   0.12011379    -8.4015927     -8.2214246     -1.2289056      50218.233      36.893836      36.893836      36.893836    
    557000   0.12038222    -8.4006652     -8.2200944     -1.2211411      50218.233      36.893836      36.893836      36.893836    
    558000   0.12033267    -8.399967      -8.2194706     -1.2139976      50218.233      36.893836      36.893836      36.893836    
    559000   0.12001067    -8.3993688     -8.2193554     -1.2057846      50218.233      36.893836      36.893836      36.893836    
    560000   0.12009571    -8.3998921     -8.2197511     -1.2128122      50218.233      36.893836      36.893836      36.893836    
    561000   0.12056374    -8.3993892     -8.2185462     -1.2081944      50218.233      36.893836      36.893836      36.893836    
    562000   0.12021113    -8.4005617     -8.2202476     -1.2176376      50218.233      36.893836      36.893836      36.893836    
    563000   0.11965194    -8.3985785     -8.2191032     -1.2043748      50218.233      36.893836      36.893836      36.893836    
    564000   0.11987697    -8.3992655     -8.2194526     -1.2117905      50218.233      36.893836      36.893836      36.893836    
    565000   0.12067908    -8.3997653     -8.2187493     -1.212327       50218.233      36.893836      36.893836      36.893836    
    566000   0.11948822    -8.3986391     -8.2194094     -1.2067893      50218.233      36.893836      36.893836      36.893836    
    567000   0.12064762    -8.3996225     -8.2186537     -1.2107634      50218.233      36.893836      36.893836      36.893836    
    568000   0.12002716    -8.3995298     -8.2194916     -1.2119793      50218.233      36.893836      36.893836      36.893836    
    569000   0.12045882    -8.3999705     -8.2192848     -1.2150191      50218.233      36.893836      36.893836      36.893836    
    570000   0.11946992    -8.3986293     -8.2194269     -1.2059158      50218.233      36.893836      36.893836      36.893836    
    571000   0.11978868    -8.3987124     -8.2190319     -1.2113362      50218.233      36.893836      36.893836      36.893836    
    572000   0.12013825    -8.3994393     -8.2192345     -1.2126735      50218.233      36.893836      36.893836      36.893836    
    573000   0.12083955    -8.3993534     -8.2180966     -1.2036017      50218.233      36.893836      36.893836      36.893836    
    574000   0.11992408    -8.3983916     -8.218508      -1.2004922      50218.233      36.893836      36.893836      36.893836    
    575000   0.11945065    -8.3991593     -8.2199859     -1.2104874      50218.233      36.893836      36.893836      36.893836    
    576000   0.12039858    -8.3992501     -8.2186548     -1.2056165      50218.233      36.893836      36.893836      36.893836    
    577000   0.12039       -8.3993902     -8.2188078     -1.2087362      50218.233      36.893836      36.893836      36.893836    
    578000   0.11988279    -8.3992605     -8.2194389     -1.2084438      50218.233      36.893836      36.893836      36.893836    
    579000   0.11947714    -8.3988158     -8.2196026     -1.2080155      50218.233      36.893836      36.893836      36.893836    
    580000   0.12027154    -8.3993821     -8.2189773     -1.2092414      50218.233      36.893836      36.893836      36.893836    
    581000   0.11974782    -8.3987252     -8.219106      -1.2049245      50218.233      36.893836      36.893836      36.893836    
    582000   0.11983005    -8.3995474     -8.2198049     -1.2098195      50218.233      36.893836      36.893836      36.893836    
    583000   0.12008273    -8.3995191     -8.2193975     -1.2147367      50218.233      36.893836      36.893836      36.893836    
    584000   0.12027764    -8.3992655     -8.2188516     -1.2067124      50218.233      36.893836      36.893836      36.893836    
    585000   0.11943165    -8.3999905     -8.2208455     -1.2097993      50218.233      36.893836      36.893836      36.893836    
    586000   0.11997169    -8.399647      -8.219692      -1.2123856      50218.233      36.893836      36.893836      36.893836    
    587000   0.12045132    -8.3989234     -8.218249      -1.1995616      50218.233      36.893836      36.893836      36.893836    
    588000   0.11959992    -8.4000211     -8.2206238     -1.2137284      50218.233      36.893836      36.893836      36.893836    
    589000   0.11994196    -8.39966       -8.2197496     -1.2133246      50218.233      36.893836      36.893836      36.893836    
    590000   0.11996555    -8.4001515     -8.2202057     -1.2150285      50218.233      36.893836      36.893836      36.893836    
    591000   0.12008924    -8.4000756     -8.2199443     -1.2215031      50218.233      36.893836      36.893836      36.893836    
    592000   0.12044959    -8.3987701     -8.2180983     -1.2056457      50218.233      36.893836      36.893836      36.893836    
    593000   0.12014029    -8.4002221     -8.2200143     -1.2121202      50218.233      36.893836      36.893836      36.893836    
    594000   0.12036537    -8.3998788     -8.2193333     -1.2133411      50218.233      36.893836      36.893836      36.893836    
    595000   0.11996115    -8.3998802     -8.2199411     -1.2098454      50218.233      36.893836      36.893836      36.893836    
    596000   0.12016707    -8.4012124     -8.2209644     -1.2243615      50218.233      36.893836      36.893836      36.893836    
    597000   0.12010027    -8.4003215     -8.2201737     -1.2148075      50218.233      36.893836      36.893836      36.893836    
    598000   0.12094805    -8.4006789     -8.2192594     -1.2154325      50218.233      36.893836      36.893836      36.893836    
    599000   0.1199542     -8.4014586     -8.2215299     -1.2223976      50218.233      36.893836      36.893836      36.893836    
    600000   0.11968225    -8.4007229     -8.2212021     -1.2198404      50218.233      36.893836      36.893836      36.893836    
    601000   0.11978299    -8.3998116     -8.2201397     -1.211948       50218.233      36.893836      36.893836      36.893836    
    602000   0.12064654    -8.4007655     -8.2197983     -1.2212957      50218.233      36.893836      36.893836      36.893836    
    603000   0.1198481     -8.4004969     -8.2207273     -1.2202577      50218.233      36.893836      36.893836      36.893836    
    604000   0.12000463    -8.400224      -8.2202197     -1.2167348      50218.233      36.893836      36.893836      36.893836    
    605000   0.1202324     -8.4003622     -8.2200162     -1.210648       50218.233      36.893836      36.893836      36.893836    
    606000   0.11961516    -8.3998847     -8.2204645     -1.2163875      50218.233      36.893836      36.893836      36.893836    
    607000   0.1200019     -8.4005285     -8.2205282     -1.2215536      50218.233      36.893836      36.893836      36.893836    
    608000   0.12070055    -8.4007092     -8.219661      -1.2211694      50218.233      36.893836      36.893836      36.893836    
    609000   0.12022332    -8.3995623     -8.2192299     -1.2072136      50218.233      36.893836      36.893836      36.893836    
    610000   0.1202519     -8.4005712     -8.2201959     -1.2214484      50218.233      36.893836      36.893836      36.893836    
    611000   0.12003557    -8.4002988     -8.2202481     -1.2178862      50218.233      36.893836      36.893836      36.893836    
    612000   0.11985768    -8.4005409     -8.220757      -1.216051       50218.233      36.893836      36.893836      36.893836    
    613000   0.12012669    -8.4002736     -8.2200862     -1.2199427      50218.233      36.893836      36.893836      36.893836    
    614000   0.12057468    -8.3983093     -8.2174498     -1.1985662      50218.233      36.893836      36.893836      36.893836    
    615000   0.12024824    -8.399622      -8.2192522     -1.2134242      50218.233      36.893836      36.893836      36.893836    
    616000   0.11962427    -8.3986342     -8.2192004     -1.2036868      50218.233      36.893836      36.893836      36.893836    
    617000   0.11984218    -8.398843      -8.2190823     -1.2018316      50218.233      36.893836      36.893836      36.893836    
    618000   0.11996535    -8.3988169     -8.2188715     -1.2091793      50218.233      36.893836      36.893836      36.893836    
    619000   0.11989576    -8.3996388     -8.2197977     -1.2140871      50218.233      36.893836      36.893836      36.893836    
    620000   0.12055449    -8.3992253     -8.2183961     -1.201955       50218.233      36.893836      36.893836      36.893836    
    621000   0.12012266    -8.3988757     -8.2186943     -1.2064044      50218.233      36.893836      36.893836      36.893836    
    622000   0.12062196    -8.3993298     -8.2183994     -1.2060031      50218.233      36.893836      36.893836      36.893836    
    623000   0.12008307    -8.3988701     -8.2187481     -1.2058391      50218.233      36.893836      36.893836      36.893836    
    624000   0.11969801    -8.3993147     -8.2197703     -1.2093629      50218.233      36.893836      36.893836      36.893836    
    625000   0.11975148    -8.3987863     -8.2191616     -1.2051688      50218.233      36.893836      36.893836      36.893836    
    626000   0.11998424    -8.3979401     -8.2179663     -1.2025518      50218.233      36.893836      36.893836      36.893836    
    627000   0.11974407    -8.3985893     -8.2189757     -1.2033263      50218.233      36.893836      36.893836      36.893836    
    628000   0.12002913    -8.398318      -8.2182769     -1.1995532      50218.233      36.893836      36.893836      36.893836    
    629000   0.12006917    -8.3990571     -8.2189559     -1.2060086      50218.233      36.893836      36.893836      36.893836    
    630000   0.11928127    -8.3989132     -8.2199938     -1.2021903      50218.233      36.893836      36.893836      36.893836    
    631000   0.12030776    -8.4001354     -8.2196763     -1.2139234      50218.233      36.893836      36.893836      36.893836    
    632000   0.11996521    -8.3988546     -8.2189093     -1.2064074      50218.233      36.893836      36.893836      36.893836    
    633000   0.12018661    -8.3993866     -8.2191093     -1.2053606      50218.233      36.893836      36.893836      36.893836    
    634000   0.11972102    -8.400074      -8.2204951     -1.2179409      50218.233      36.893836      36.893836      36.893836    
    635000   0.11985022    -8.3994173     -8.2196446     -1.212919       50218.233      36.893836      36.893836      36.893836    
    636000   0.11951061    -8.4001092     -8.2208458     -1.2107643      50218.233      36.893836      36.893836      36.893836    
    637000   0.12012826    -8.4006834     -8.2204935     -1.2226948      50218.233      36.893836      36.893836      36.893836    
    638000   0.12032686    -8.4001367     -8.219649      -1.2175132      50218.233      36.893836      36.893836      36.893836    
    639000   0.11963324    -8.3989772     -8.2195299     -1.2139624      50218.233      36.893836      36.893836      36.893836    
    640000   0.12045054    -8.3999785     -8.2193053     -1.2109974      50218.233      36.893836      36.893836      36.893836    
    641000   0.12015523    -8.4003938     -8.2201635     -1.2203279      50218.233      36.893836      36.893836      36.893836    
    642000   0.11963011    -8.4006285     -8.2211859     -1.2138317      50218.233      36.893836      36.893836      36.893836    
    643000   0.12057046    -8.4008545     -8.2200013     -1.2239352      50218.233      36.893836      36.893836      36.893836    
    644000   0.11983487    -8.4004684     -8.2207186     -1.2171011      50218.233      36.893836      36.893836      36.893836    
    645000   0.12001507    -8.3991555     -8.2191354     -1.2057751      50218.233      36.893836      36.893836      36.893836    
    646000   0.11995503    -8.3996745     -8.2197445     -1.2080529      50218.233      36.893836      36.893836      36.893836    
    647000   0.12050617    -8.4003432     -8.2195865     -1.2178708      50218.233      36.893836      36.893836      36.893836    
    648000   0.12048333    -8.4013136     -8.2205912     -1.2292159      50218.233      36.893836      36.893836      36.893836    
    649000   0.12065216    -8.3999611     -8.2189854     -1.214668       50218.233      36.893836      36.893836      36.893836    
    650000   0.11981805    -8.4000215     -8.220297      -1.2149488      50218.233      36.893836      36.893836      36.893836    
    651000   0.11917131    -8.4006546     -8.2219002     -1.2195097      50218.233      36.893836      36.893836      36.893836    
    652000   0.12049696    -8.4005344     -8.2197916     -1.2146169      50218.233      36.893836      36.893836      36.893836    
    653000   0.11961073    -8.4011805     -8.221767      -1.2219083      50218.233      36.893836      36.893836      36.893836    
    654000   0.12089248    -8.3998626     -8.2185265     -1.2079835      50218.233      36.893836      36.893836      36.893836    
    655000   0.12065739    -8.4003592     -8.2193757     -1.2131267      50218.233      36.893836      36.893836      36.893836    
    656000   0.11978539    -8.4005154     -8.2208399     -1.2217482      50218.233      36.893836      36.893836      36.893836    
    657000   0.12014399    -8.4007142     -8.2205008     -1.216624       50218.233      36.893836      36.893836      36.893836    
    658000   0.11988979    -8.4003551     -8.220523      -1.2146621      50218.233      36.893836      36.893836      36.893836    
    659000   0.11973555    -8.3984149     -8.2188141     -1.2069138      50218.233      36.893836      36.893836      36.893836    
    660000   0.11982401    -8.3998562     -8.2201227     -1.2141367      50218.233      36.893836      36.893836      36.893836    
    661000   0.11996276    -8.4003116     -8.22037       -1.2102495      50218.233      36.893836      36.893836      36.893836    
    662000   0.119933      -8.4001085     -8.2202115     -1.2137919      50218.233      36.893836      36.893836      36.893836    
    663000   0.11970519    -8.3998076     -8.2202524     -1.2064675      50218.233      36.893836      36.893836      36.893836    
    664000   0.12009867    -8.3996568     -8.2195113     -1.2117342      50218.233      36.893836      36.893836      36.893836    
    665000   0.1202578     -8.4004574     -8.2200733     -1.2179268      50218.233      36.893836      36.893836      36.893836    
    666000   0.11979683    -8.3991964     -8.2195038     -1.2051608      50218.233      36.893836      36.893836      36.893836    
    667000   0.12022802    -8.399637      -8.2192976     -1.2059895      50218.233      36.893836      36.893836      36.893836    
    668000   0.11936449    -8.3999473     -8.2209032     -1.2109521      50218.233      36.893836      36.893836      36.893836    
    669000   0.11976879    -8.3989008     -8.2192502     -1.2087821      50218.233      36.893836      36.893836      36.893836    
    670000   0.12027545    -8.3997245     -8.2193139     -1.2147783      50218.233      36.893836      36.893836      36.893836    
    671000   0.12028354    -8.3987643     -8.2183416     -1.2029373      50218.233      36.893836      36.893836      36.893836    
    672000   0.1195496     -8.3978031     -8.2184812     -1.1983966      50218.233      36.893836      36.893836      36.893836    
    673000   0.12013651    -8.3985729     -8.2183707     -1.2061539      50218.233      36.893836      36.893836      36.893836    
    674000   0.12008337    -8.3993824     -8.2192599     -1.2067454      50218.233      36.893836      36.893836      36.893836    
    675000   0.12011918    -8.3993808     -8.2192046     -1.2080712      50218.233      36.893836      36.893836      36.893836    
    676000   0.1200217     -8.3997992     -8.2197692     -1.2087818      50218.233      36.893836      36.893836      36.893836    
    677000   0.12003763    -8.3981937     -8.2181399     -1.1944538      50218.233      36.893836      36.893836      36.893836    
    678000   0.11957379    -8.3989007     -8.2195426     -1.2084835      50218.233      36.893836      36.893836      36.893836    
    679000   0.11960541    -8.399247      -8.2198415     -1.2069634      50218.233      36.893836      36.893836      36.893836    
    680000   0.11973409    -8.398505      -8.2189064     -1.2058611      50218.233      36.893836      36.893836      36.893836    
    681000   0.119997      -8.398963      -8.2189701     -1.2047043      50218.233      36.893836      36.893836      36.893836    
    682000   0.12027477    -8.3989971     -8.2185875     -1.2039311      50218.233      36.893836      36.893836      36.893836    
    683000   0.12027715    -8.3988774     -8.2184643     -1.2026332      50218.233      36.893836      36.893836      36.893836    
    684000   0.11936147    -8.3995775     -8.2205378     -1.2117443      50218.233      36.893836      36.893836      36.893836    
    685000   0.12023536    -8.4000876     -8.2197372     -1.2102598      50218.233      36.893836      36.893836      36.893836    
    686000   0.11972534    -8.3996961     -8.2201107     -1.2133255      50218.233      36.893836      36.893836      36.893836    
    687000   0.11989133    -8.3995155     -8.219681      -1.2056494      50218.233      36.893836      36.893836      36.893836    
    688000   0.11982312    -8.3991949     -8.2194628     -1.2099669      50218.233      36.893836      36.893836      36.893836    
    689000   0.12002751    -8.3998859     -8.2198472     -1.2137228      50218.233      36.893836      36.893836      36.893836    
    690000   0.11957756    -8.4002629     -8.2208991     -1.2185192      50218.233      36.893836      36.893836      36.893836    
    691000   0.11987192    -8.4005765     -8.2207712     -1.2191394      50218.233      36.893836      36.893836      36.893836    
    692000   0.12035739    -8.4011478     -8.2206143     -1.2192846      50218.233      36.893836      36.893836      36.893836    
    693000   0.1199763     -8.4003636     -8.2204017     -1.2175195      50218.233      36.893836      36.893836      36.893836    
    694000   0.12039586    -8.4010387     -8.2204475     -1.2277884      50218.233      36.893836      36.893836      36.893836    
    695000   0.11996046    -8.400407      -8.2204689     -1.2162562      50218.233      36.893836      36.893836      36.893836    
    696000   0.12053972    -8.4003033     -8.2194963     -1.216531       50218.233      36.893836      36.893836      36.893836    
    697000   0.12014726    -8.3999232     -8.2197049     -1.2137403      50218.233      36.893836      36.893836      36.893836    
    698000   0.11950825    -8.4010942     -8.2218344     -1.2269422      50218.233      36.893836      36.893836      36.893836    
    699000   0.12051867    -8.4011486     -8.2203731     -1.2244173      50218.233      36.893836      36.893836      36.893836    
    700000   0.1206617     -8.3998389     -8.2188489     -1.2112098      50218.233      36.893836      36.893836      36.893836    
    701000   0.11930751    -8.4005977     -8.2216389     -1.2213489      50218.233      36.893836      36.893836      36.893836    
    702000   0.12020962    -8.4008625     -8.2205507     -1.2185002      50218.233      36.893836      36.893836      36.893836    
    703000   0.1198004     -8.4020229     -8.2223249     -1.2280604      50218.233      36.893836      36.893836      36.893836    
    704000   0.11996278    -8.4005807     -8.2206391     -1.2133372      50218.233      36.893836      36.893836      36.893836    
    705000   0.12006848    -8.4004567     -8.2203566     -1.2205182      50218.233      36.893836      36.893836      36.893836    
    706000   0.11988603    -8.3991961     -8.2193696     -1.2103536      50218.233      36.893836      36.893836      36.893836    
    707000   0.12067369    -8.4002179     -8.21921       -1.2120166      50218.233      36.893836      36.893836      36.893836    
    708000   0.12088923    -8.3999604     -8.2186291     -1.2106697      50218.233      36.893836      36.893836      36.893836    
    709000   0.11978658    -8.3999027     -8.2202253     -1.2140213      50218.233      36.893836      36.893836      36.893836    
    710000   0.12003281    -8.3991706     -8.219124      -1.2079027      50218.233      36.893836      36.893836      36.893836    
    711000   0.11984476    -8.4000826     -8.220318      -1.2161894      50218.233      36.893836      36.893836      36.893836    
    712000   0.11926013    -8.4008003     -8.2219126     -1.2219003      50218.233      36.893836      36.893836      36.893836    
    713000   0.11931356    -8.3990826     -8.2201148     -1.2067943      50218.233      36.893836      36.893836      36.893836    
    714000   0.12067676    -8.3986508     -8.2176382     -1.202038       50218.233      36.893836      36.893836      36.893836    
    715000   0.11965499    -8.399522      -8.2200421     -1.2104271      50218.233      36.893836      36.893836      36.893836    
    716000   0.12014981    -8.39895       -8.2187279     -1.2024129      50218.233      36.893836      36.893836      36.893836    
    717000   0.11973253    -8.3993244     -8.2197282     -1.2141807      50218.233      36.893836      36.893836      36.893836    
    718000   0.11959291    -8.399809      -8.2204222     -1.2137513      50218.233      36.893836      36.893836      36.893836    
    719000   0.12000766    -8.3985944     -8.2185855     -1.1987416      50218.233      36.893836      36.893836      36.893836    
    720000   0.12025787    -8.3990906     -8.2187064     -1.2040303      50218.233      36.893836      36.893836      36.893836    
    721000   0.12065071    -8.3985724     -8.2175989     -1.1963734      50218.233      36.893836      36.893836      36.893836    
    722000   0.11972126    -8.4001826     -8.2206032     -1.2171266      50218.233      36.893836      36.893836      36.893836    
    723000   0.12034365    -8.3986483     -8.2181354     -1.2017753      50218.233      36.893836      36.893836      36.893836    
    724000   0.11957248    -8.3968506     -8.2174944     -1.1879843      50218.233      36.893836      36.893836      36.893836    
    725000   0.12043439    -8.3994068     -8.2187578     -1.2112278      50218.233      36.893836      36.893836      36.893836    
    726000   0.11950952    -8.3991316     -8.2198699     -1.2076416      50218.233      36.893836      36.893836      36.893836    
    727000   0.11937113    -8.3993359     -8.2202817     -1.2082247      50218.233      36.893836      36.893836      36.893836    
    728000   0.119867      -8.3986286     -8.2188307     -1.1988827      50218.233      36.893836      36.893836      36.893836    
    729000   0.12054074    -8.3997071     -8.2188986     -1.2091566      50218.233      36.893836      36.893836      36.893836    
    730000   0.11947134    -8.3989277     -8.2197232     -1.2089823      50218.233      36.893836      36.893836      36.893836    
    731000   0.12039921    -8.3998337     -8.2192374     -1.2065872      50218.233      36.893836      36.893836      36.893836    
    732000   0.11972881    -8.3995268     -8.2199361     -1.2143366      50218.233      36.893836      36.893836      36.893836    
    733000   0.12012684    -8.399492      -8.2193044     -1.2070455      50218.233      36.893836      36.893836      36.893836    
    734000   0.12011987    -8.3991884     -8.2190112     -1.2065818      50218.233      36.893836      36.893836      36.893836    
    735000   0.12010481    -8.398996      -8.2188413     -1.207263       50218.233      36.893836      36.893836      36.893836    
    736000   0.1195073     -8.400382      -8.2211236     -1.2185594      50218.233      36.893836      36.893836      36.893836    
    737000   0.12002744    -8.4003966     -8.220358      -1.2127387      50218.233      36.893836      36.893836      36.893836    
    738000   0.1204373     -8.3989811     -8.2183278     -1.2065942      50218.233      36.893836      36.893836      36.893836    
    739000   0.12009869    -8.3993884     -8.2192429     -1.2105393      50218.233      36.893836      36.893836      36.893836    
    740000   0.12000906    -8.400439      -8.220428      -1.2195401      50218.233      36.893836      36.893836      36.893836    
    741000   0.11980935    -8.3998915     -8.2201801     -1.2135229      50218.233      36.893836      36.893836      36.893836    
    742000   0.12005317    -8.4003715     -8.2202943     -1.2161814      50218.233      36.893836      36.893836      36.893836    
    743000   0.11936186    -8.3998451     -8.2208049     -1.2159558      50218.233      36.893836      36.893836      36.893836    
    744000   0.11949613    -8.3998248     -8.2205832     -1.2144117      50218.233      36.893836      36.893836      36.893836    
    745000   0.12019459    -8.3999509     -8.2196615     -1.2134338      50218.233      36.893836      36.893836      36.893836    
    746000   0.12035513    -8.4010831     -8.220553      -1.2214125      50218.233      36.893836      36.893836      36.893836    
    747000   0.12017621    -8.3999273     -8.2196656     -1.2129907      50218.233      36.893836      36.893836      36.893836    
    748000   0.11984157    -8.4002491     -8.2204893     -1.216653       50218.233      36.893836      36.893836      36.893836    
    749000   0.12014708    -8.4003612     -8.2201432     -1.21863        50218.233      36.893836      36.893836      36.893836    
    750000   0.12002508    -8.4006082     -8.2205732     -1.2161107      50218.233      36.893836      36.893836      36.893836    
    751000   0.12026874    -8.4009646     -8.2205641     -1.2250704      50218.233      36.893836      36.893836      36.893836    
    752000   0.12055406    -8.4001974     -8.2193689     -1.210541       50218.233      36.893836      36.893836      36.893836    
    753000   0.12041696    -8.3991064     -8.2184835     -1.2098884      50218.233      36.893836      36.893836      36.893836    
    754000   0.11982136    -8.4006316     -8.2209022     -1.2240658      50218.233      36.893836      36.893836      36.893836    
    755000   0.11972013    -8.4003885     -8.2208108     -1.2213711      50218.233      36.893836      36.893836      36.893836    
    756000   0.12003414    -8.3995602     -8.2195116     -1.2117929      50218.233      36.893836      36.893836      36.893836    
    757000   0.11962152    -8.4009365     -8.2215067     -1.2234264      50218.233      36.893836      36.893836      36.893836    
    758000   0.11970613    -8.4005674     -8.2210108     -1.2194394      50218.233      36.893836      36.893836      36.893836    
    759000   0.11995047    -8.3997278     -8.2198047     -1.2141597      50218.233      36.893836      36.893836      36.893836    
    760000   0.11938674    -8.4006969     -8.2216194     -1.2263142      50218.233      36.893836      36.893836      36.893836    
    761000   0.11919662    -8.4002488     -8.2214565     -1.2123076      50218.233      36.893836      36.893836      36.893836    
    762000   0.11987724    -8.4003422     -8.2205289     -1.2167504      50218.233      36.893836      36.893836      36.893836    
    763000   0.12002246    -8.399432      -8.2194008     -1.2110379      50218.233      36.893836      36.893836      36.893836    
    764000   0.12087598    -8.3995915     -8.2182801     -1.2105259      50218.233      36.893836      36.893836      36.893836    
    765000   0.11970957    -8.3992637     -8.2197019     -1.2059717      50218.233      36.893836      36.893836      36.893836    
    766000   0.12019842    -8.3984169     -8.2181218     -1.20627        50218.233      36.893836      36.893836      36.893836    
    767000   0.11987975    -8.3992818     -8.2194647     -1.2071425      50218.233      36.893836      36.893836      36.893836    
    768000   0.12015159    -8.3991914     -8.2189666     -1.2149376      50218.233      36.893836      36.893836      36.893836    
    769000   0.12011651    -8.398846      -8.2186738     -1.2002029      50218.233      36.893836      36.893836      36.893836    
    770000   0.11958368    -8.3992093     -8.2198364     -1.2114953      50218.233      36.893836      36.893836      36.893836    
    771000   0.12048233    -8.3983657     -8.2176447     -1.1961642      50218.233      36.893836      36.893836      36.893836    
    772000   0.12045792    -8.3990102     -8.2183259     -1.202107       50218.233      36.893836      36.893836      36.893836    
    773000   0.11955642    -8.3990346     -8.2197025     -1.1994558      50218.233      36.893836      36.893836      36.893836    
    774000   0.11923149    -8.3984201     -8.2195754     -1.2020506      50218.233      36.893836      36.893836      36.893836    
    775000   0.12040607    -8.3987937     -8.2181872     -1.1989258      50218.233      36.893836      36.893836      36.893836    
    776000   0.12011977    -8.3988575     -8.2186804     -1.2072374      50218.233      36.893836      36.893836      36.893836    
    777000   0.11961669    -8.3991569     -8.2197344     -1.2092598      50218.233      36.893836      36.893836      36.893836    
    778000   0.12036837    -8.3991728     -8.2186228     -1.2039727      50218.233      36.893836      36.893836      36.893836    
    779000   0.12036035    -8.3986791     -8.2181411     -1.2020502      50218.233      36.893836      36.893836      36.893836    
    780000   0.11988232    -8.3981613     -8.2183404     -1.1985459      50218.233      36.893836      36.893836      36.893836    
    781000   0.1200832     -8.399745      -8.2196227     -1.2074502      50218.233      36.893836      36.893836      36.893836    
    782000   0.12007315    -8.3975341     -8.217427      -1.1966529      50218.233      36.893836      36.893836      36.893836    
    783000   0.12030777    -8.3996783     -8.2192192     -1.2117371      50218.233      36.893836      36.893836      36.893836    
    784000   0.11978257    -8.3985917     -8.2189204     -1.2091128      50218.233      36.893836      36.893836      36.893836    
    785000   0.11996334    -8.3991986     -8.2192561     -1.2053537      50218.233      36.893836      36.893836      36.893836    
    786000   0.12030194    -8.4001237     -8.2196734     -1.2133233      50218.233      36.893836      36.893836      36.893836    
    787000   0.11969701    -8.3996531     -8.2201102     -1.2142855      50218.233      36.893836      36.893836      36.893836    
    788000   0.12009596    -8.400174      -8.2200326     -1.2177676      50218.233      36.893836      36.893836      36.893836    
    789000   0.12039368    -8.4006619     -8.220074      -1.2132562      50218.233      36.893836      36.893836      36.893836    
    790000   0.12020731    -8.4003375     -8.2200291     -1.2144072      50218.233      36.893836      36.893836      36.893836    
    791000   0.11992498    -8.3998537     -8.2199688     -1.2131327      50218.233      36.893836      36.893836      36.893836    
    792000   0.12010204    -8.4004532     -8.2203027     -1.2185911      50218.233      36.893836      36.893836      36.893836    
    793000   0.12018559    -8.3991224     -8.2188466     -1.2073549      50218.233      36.893836      36.893836      36.893836    
    794000   0.12041112    -8.3997474     -8.2191333     -1.2063821      50218.233      36.893836      36.893836      36.893836    
    795000   0.11983617    -8.3997799     -8.2200282     -1.2134848      50218.233      36.893836      36.893836      36.893836    
    796000   0.11905112    -8.4007731     -8.222199      -1.2265341      50218.233      36.893836      36.893836      36.893836    
    797000   0.12047107    -8.4003783     -8.2196742     -1.2162167      50218.233      36.893836      36.893836      36.893836    
    798000   0.11993035    -8.4009685     -8.2210755     -1.2210792      50218.233      36.893836      36.893836      36.893836    
    799000   0.12004395    -8.4009031     -8.2208397     -1.2204625      50218.233      36.893836      36.893836      36.893836    
    800000   0.12010394    -8.4000845     -8.2199311     -1.2101582      50218.233      36.893836      36.893836      36.893836    
    801000   0.12009972    -8.4006595     -8.2205125     -1.2200888      50218.233      36.893836      36.893836      36.893836    
    802000   0.11982098    -8.4012854     -8.2215565     -1.2255263      50218.233      36.893836      36.893836      36.893836    
    803000   0.12005568    -8.4010524     -8.2209715     -1.2262786      50218.233      36.893836      36.893836      36.893836    
    804000   0.11958586    -8.4004188     -8.2210426     -1.2121091      50218.233      36.893836      36.893836      36.893836    
    805000   0.11942825    -8.3998508     -8.220711      -1.2118071      50218.233      36.893836      36.893836      36.893836    
    806000   0.12034053    -8.3997457     -8.2192375     -1.2140366      50218.233      36.893836      36.893836      36.893836    
    807000   0.1199478     -8.399938      -8.2200189     -1.2141595      50218.233      36.893836      36.893836      36.893836    
    808000   0.1199739     -8.3999738     -8.2200155     -1.2146748      50218.233      36.893836      36.893836      36.893836    
    809000   0.12011316    -8.4010782     -8.2209111     -1.226236       50218.233      36.893836      36.893836      36.893836    
    810000   0.12068271    -8.400429      -8.2194075     -1.213557       50218.233      36.893836      36.893836      36.893836    
    811000   0.12018732    -8.40032       -8.2200416     -1.2116261      50218.233      36.893836      36.893836      36.893836    
    812000   0.119716      -8.3994475     -8.2198761     -1.2127791      50218.233      36.893836      36.893836      36.893836    
    813000   0.11947784    -8.3999659     -8.2207517     -1.2112075      50218.233      36.893836      36.893836      36.893836    
    814000   0.11981949    -8.3995123     -8.2197856     -1.2120232      50218.233      36.893836      36.893836      36.893836    
    815000   0.11993841    -8.4002458     -8.2203408     -1.2144434      50218.233      36.893836      36.893836      36.893836    
    816000   0.11977982    -8.3994245     -8.2197573     -1.2067745      50218.233      36.893836      36.893836      36.893836    
    817000   0.12006777    -8.3990112     -8.2189122     -1.2067748      50218.233      36.893836      36.893836      36.893836    
    818000   0.11984779    -8.399371      -8.2196019     -1.2088527      50218.233      36.893836      36.893836      36.893836    
    819000   0.11981301    -8.399492      -8.219775      -1.2075601      50218.233      36.893836      36.893836      36.893836    
    820000   0.11986966    -8.3994873     -8.2196853     -1.2055782      50218.233      36.893836      36.893836      36.893836    
    821000   0.11985434    -8.3994766     -8.2196977     -1.2048497      50218.233      36.893836      36.893836      36.893836    
    822000   0.1196563     -8.3984275     -8.2189456     -1.2031622      50218.233      36.893836      36.893836      36.893836    
    823000   0.1196535     -8.3984115     -8.2189338     -1.2019875      50218.233      36.893836      36.893836      36.893836    
    824000   0.11987506    -8.3990869     -8.2192769     -1.2050371      50218.233      36.893836      36.893836      36.893836    
    825000   0.12073973    -8.3995183     -8.2184113     -1.2042092      50218.233      36.893836      36.893836      36.893836    
    826000   0.1192518     -8.3988396     -8.2199644     -1.2048829      50218.233      36.893836      36.893836      36.893836    
    827000   0.12034213    -8.3983316     -8.217821      -1.2008379      50218.233      36.893836      36.893836      36.893836    
    828000   0.11970382    -8.3998733     -8.2203202     -1.2134416      50218.233      36.893836      36.893836      36.893836    
    829000   0.1203746     -8.3992251     -8.2186657     -1.2071339      50218.233      36.893836      36.893836      36.893836    
    830000   0.11953039    -8.3995392     -8.2202462     -1.2073346      50218.233      36.893836      36.893836      36.893836    
    831000   0.11979279    -8.399251      -8.2195643     -1.2102196      50218.233      36.893836      36.893836      36.893836    
    832000   0.1201249     -8.399799      -8.2196142     -1.2114722      50218.233      36.893836      36.893836      36.893836    
    833000   0.12019343    -8.3995514     -8.2192638     -1.2074316      50218.233      36.893836      36.893836      36.893836    
    834000   0.11985212    -8.3994334     -8.2196578     -1.2137117      50218.233      36.893836      36.893836      36.893836    
    835000   0.11989429    -8.3993386     -8.2194997     -1.2067875      50218.233      36.893836      36.893836      36.893836    
    836000   0.119558      -8.3990927     -8.2197583     -1.1971605      50218.233      36.893836      36.893836      36.893836    
    837000   0.11994989    -8.4006902     -8.2207679     -1.2205716      50218.233      36.893836      36.893836      36.893836    
    838000   0.1202144     -8.3997459     -8.2194269     -1.2065343      50218.233      36.893836      36.893836      36.893836    
    839000   0.12033806    -8.4002163     -8.2197118     -1.2082042      50218.233      36.893836      36.893836      36.893836    
    840000   0.11995581    -8.400038      -8.2201069     -1.2140552      50218.233      36.893836      36.893836      36.893836    
    841000   0.12059371    -8.39978       -8.2188921     -1.2073376      50218.233      36.893836      36.893836      36.893836    
    842000   0.12041452    -8.3999684     -8.2193492     -1.2130317      50218.233      36.893836      36.893836      36.893836    
    843000   0.1197801     -8.400634      -8.2209664     -1.21903        50218.233      36.893836      36.893836      36.893836    
    844000   0.11927418    -8.4001659     -8.2212572     -1.2153262      50218.233      36.893836      36.893836      36.893836    
    845000   0.12020695    -8.4012196     -8.2209118     -1.2210316      50218.233      36.893836      36.893836      36.893836    
    846000   0.11961814    -8.4018318     -8.2224071     -1.226032       50218.233      36.893836      36.893836      36.893836    
    847000   0.12010876    -8.4009468     -8.2207863     -1.2217032      50218.233      36.893836      36.893836      36.893836    
    848000   0.12005758    -8.4006073     -8.2205235     -1.2167509      50218.233      36.893836      36.893836      36.893836    
    849000   0.12046806    -8.4005025     -8.2198029     -1.2200682      50218.233      36.893836      36.893836      36.893836    
    850000   0.12041362    -8.3998349     -8.219217      -1.2146672      50218.233      36.893836      36.893836      36.893836    
    851000   0.12028335    -8.3994285     -8.219006      -1.206395       50218.233      36.893836      36.893836      36.893836    
    852000   0.11949786    -8.399889      -8.2206448     -1.2164096      50218.233      36.893836      36.893836      36.893836    
    853000   0.12013366    -8.3998615     -8.2196636     -1.2102284      50218.233      36.893836      36.893836      36.893836    
    854000   0.12039313    -8.4001269     -8.2195398     -1.2148212      50218.233      36.893836      36.893836      36.893836    
    855000   0.11957186    -8.4008469     -8.2214917     -1.2208782      50218.233      36.893836      36.893836      36.893836    
    856000   0.12045488    -8.4003469     -8.2196671     -1.2189545      50218.233      36.893836      36.893836      36.893836    
    857000   0.12011106    -8.4013772     -8.2212131     -1.2202463      50218.233      36.893836      36.893836      36.893836    
    858000   0.12001862    -8.3999038     -8.2198784     -1.2141039      50218.233      36.893836      36.893836      36.893836    
    859000   0.11956259    -8.4000365     -8.2206952     -1.2209982      50218.233      36.893836      36.893836      36.893836    
    860000   0.12051002    -8.3995317     -8.2187692     -1.2140125      50218.233      36.893836      36.893836      36.893836    
    861000   0.11924984    -8.3997541     -8.2208819     -1.2163425      50218.233      36.893836      36.893836      36.893836    
    862000   0.1200124     -8.4004076     -8.2203916     -1.2199521      50218.233      36.893836      36.893836      36.893836    
    863000   0.12042725    -8.398876      -8.2182377     -1.2052651      50218.233      36.893836      36.893836      36.893836    
    864000   0.11993264    -8.400124      -8.2202276     -1.2151046      50218.233      36.893836      36.893836      36.893836    
    865000   0.12094648    -8.3996887     -8.2182716     -1.2143455      50218.233      36.893836      36.893836      36.893836    
    866000   0.1196857     -8.3981367     -8.2186107     -1.2036049      50218.233      36.893836      36.893836      36.893836    
    867000   0.1206429     -8.400161      -8.2191992     -1.2149671      50218.233      36.893836      36.893836      36.893836    
    868000   0.11991561    -8.3988838     -8.2190129     -1.2027808      50218.233      36.893836      36.893836      36.893836    
    869000   0.12030729    -8.3995883     -8.21913       -1.2157506      50218.233      36.893836      36.893836      36.893836    
    870000   0.11989232    -8.4000027     -8.2201668     -1.2168532      50218.233      36.893836      36.893836      36.893836    
    871000   0.120496      -8.3996479     -8.2189065     -1.2099249      50218.233      36.893836      36.893836      36.893836    
    872000   0.11985012    -8.3995144     -8.2197418     -1.213658       50218.233      36.893836      36.893836      36.893836    
    873000   0.1198255     -8.3985562     -8.2188205     -1.2055436      50218.233      36.893836      36.893836      36.893836    
    874000   0.12031269    -8.3989584     -8.218492      -1.2045961      50218.233      36.893836      36.893836      36.893836    
    875000   0.12018271    -8.3992837     -8.2190122     -1.2052066      50218.233      36.893836      36.893836      36.893836    
    876000   0.11965571    -8.3989205     -8.2194395     -1.2096446      50218.233      36.893836      36.893836      36.893836    
    877000   0.12005333    -8.3990841     -8.2190066     -1.2071372      50218.233      36.893836      36.893836      36.893836    
    878000   0.11981325    -8.3990491     -8.2193318     -1.2107402      50218.233      36.893836      36.893836      36.893836    
    879000   0.11944573    -8.399344      -8.2201779     -1.2120813      50218.233      36.893836      36.893836      36.893836    
    880000   0.11979579    -8.3992219     -8.2195308     -1.2085541      50218.233      36.893836      36.893836      36.893836    
    881000   0.12010966    -8.398845      -8.2186831     -1.2062258      50218.233      36.893836      36.893836      36.893836    
    882000   0.12021595    -8.3990521     -8.2187308     -1.2090131      50218.233      36.893836      36.893836      36.893836    
    883000   0.11994618    -8.3995457     -8.219629      -1.2065846      50218.233      36.893836      36.893836      36.893836    
    884000   0.12000957    -8.399564      -8.2195523     -1.2092591      50218.233      36.893836      36.893836      36.893836    
    885000   0.11992657    -8.398962      -8.2190747     -1.2133045      50218.233      36.893836      36.893836      36.893836    
    886000   0.12001448    -8.3993304     -8.2193112     -1.2069113      50218.233      36.893836      36.893836      36.893836    
    887000   0.11989415    -8.3990354     -8.2191967     -1.2075389      50218.233      36.893836      36.893836      36.893836    
    888000   0.12013902    -8.3998194     -8.2196135     -1.2094549      50218.233      36.893836      36.893836      36.893836    
    889000   0.11955766    -8.4005055     -8.2211715     -1.2174569      50218.233      36.893836      36.893836      36.893836    
    890000   0.12020106    -8.3995267     -8.2192276     -1.2144351      50218.233      36.893836      36.893836      36.893836    
    891000   0.12022693    -8.399107      -8.2187692     -1.2072743      50218.233      36.893836      36.893836      36.893836    
    892000   0.12002948    -8.4001376     -8.220096      -1.2128446      50218.233      36.893836      36.893836      36.893836    
    893000   0.11983462    -8.4007313     -8.220982      -1.2123682      50218.233      36.893836      36.893836      36.893836    
    894000   0.12007507    -8.4003111     -8.2202011     -1.2127934      50218.233      36.893836      36.893836      36.893836    
    895000   0.11934077    -8.3998984     -8.2208898     -1.2126703      50218.233      36.893836      36.893836      36.893836    
    896000   0.11943922    -8.4009324     -8.2217761     -1.2235349      50218.233      36.893836      36.893836      36.893836    
    897000   0.11976679    -8.4011992     -8.2215516     -1.2216393      50218.233      36.893836      36.893836      36.893836    
    898000   0.12025397    -8.4006999     -8.2203215     -1.2244892      50218.233      36.893836      36.893836      36.893836    
    899000   0.11966328    -8.3997578     -8.2202654     -1.2098377      50218.233      36.893836      36.893836      36.893836    
    900000   0.12013274    -8.4012942     -8.2210977     -1.2251986      50218.233      36.893836      36.893836      36.893836    
    901000   0.12050148    -8.401026      -8.2202764     -1.2240326      50218.233      36.893836      36.893836      36.893836    
    902000   0.11960636    -8.4003216     -8.2209146     -1.2118704      50218.233      36.893836      36.893836      36.893836    
    903000   0.11964344    -8.4002008     -8.2207382     -1.2167718      50218.233      36.893836      36.893836      36.893836    
    904000   0.11959492    -8.4005393     -8.2211495     -1.2183961      50218.233      36.893836      36.893836      36.893836    
    905000   0.11968162    -8.4005459     -8.2210261     -1.216207       50218.233      36.893836      36.893836      36.893836    
    906000   0.12071466    -8.3985302     -8.2174608     -1.2004502      50218.233      36.893836      36.893836      36.893836    
    907000   0.11976404    -8.4000108     -8.2203673     -1.2148451      50218.233      36.893836      36.893836      36.893836    
    908000   0.11968027    -8.3996055     -8.2200876     -1.2148974      50218.233      36.893836      36.893836      36.893836    
    909000   0.11931242    -8.400169      -8.2212029     -1.2199917      50218.233      36.893836      36.893836      36.893836    
    910000   0.12015323    -8.3997634     -8.2195362     -1.210185       50218.233      36.893836      36.893836      36.893836    
    911000   0.12043705    -8.4002186     -8.2195656     -1.2121229      50218.233      36.893836      36.893836      36.893836    
    912000   0.11928042    -8.4005745     -8.2216564     -1.2176463      50218.233      36.893836      36.893836      36.893836    
    913000   0.1198083     -8.3993534     -8.2196435     -1.2107174      50218.233      36.893836      36.893836      36.893836    
    914000   0.11973051    -8.399668      -8.2200747     -1.2137838      50218.233      36.893836      36.893836      36.893836    
    915000   0.11959171    -8.3979583     -8.2185733     -1.2069757      50218.233      36.893836      36.893836      36.893836    
    916000   0.11969344    -8.3991851     -8.2196475     -1.2077324      50218.233      36.893836      36.893836      36.893836    
    917000   0.11957576    -8.3992821     -8.2199211     -1.2084184      50218.233      36.893836      36.893836      36.893836    
    918000   0.12024964    -8.3986493     -8.2182774     -1.1955427      50218.233      36.893836      36.893836      36.893836    
    919000   0.12017338    -8.3985336     -8.2182761     -1.1995965      50218.233      36.893836      36.893836      36.893836    
    920000   0.11998136    -8.3993509     -8.2193814     -1.2066867      50218.233      36.893836      36.893836      36.893836    
    921000   0.11992157    -8.3981527     -8.2182729     -1.2012048      50218.233      36.893836      36.893836      36.893836    
    922000   0.11988594    -8.3999507     -8.2201244     -1.2132653      50218.233      36.893836      36.893836      36.893836    
    923000   0.11961462    -8.3991517     -8.2197323     -1.2055419      50218.233      36.893836      36.893836      36.893836    
    924000   0.11976188    -8.3994769     -8.2198367     -1.207745       50218.233      36.893836      36.893836      36.893836    
    925000   0.12017969    -8.398372      -8.218105      -1.2010716      50218.233      36.893836      36.893836      36.893836    
    926000   0.12021979    -8.3993289     -8.2190018     -1.2024353      50218.233      36.893836      36.893836      36.893836    
    927000   0.11979705    -8.3991517     -8.2194587     -1.2047532      50218.233      36.893836      36.893836      36.893836    
    928000   0.12007873    -8.3987465     -8.218631      -1.2076387      50218.233      36.893836      36.893836      36.893836    
    929000   0.12039446    -8.3982794     -8.2176903     -1.2001011      50218.233      36.893836      36.893836      36.893836    
    930000   0.11989474    -8.3992556     -8.219416      -1.2102614      50218.233      36.893836      36.893836      36.893836    
    931000   0.11963297    -8.3999939     -8.220547      -1.2129076      50218.233      36.893836      36.893836      36.893836    
    932000   0.11947538    -8.3989811     -8.2197706     -1.2088892      50218.233      36.893836      36.893836      36.893836    
    933000   0.12042885    -8.3989321     -8.2182914     -1.2039054      50218.233      36.893836      36.893836      36.893836    
    934000   0.11970597    -8.3992767     -8.2197203     -1.2021097      50218.233      36.893836      36.893836      36.893836    
    935000   0.12005604    -8.3986686     -8.2185871     -1.2100296      50218.233      36.893836      36.893836      36.893836    
    936000   0.11996917    -8.3995525     -8.2196013     -1.209917       50218.233      36.893836      36.893836      36.893836    
    937000   0.11984594    -8.4003097     -8.2205434     -1.2175441      50218.233      36.893836      36.893836      36.893836    
    938000   0.12023887    -8.4001668     -8.2198111     -1.2146507      50218.233      36.893836      36.893836      36.893836    
    939000   0.12047821    -8.399444      -8.2187292     -1.2094857      50218.233      36.893836      36.893836      36.893836    
    940000   0.12017033    -8.4000137     -8.2197608     -1.2133691      50218.233      36.893836      36.893836      36.893836    
    941000   0.11975907    -8.4007075     -8.2210715     -1.2186398      50218.233      36.893836      36.893836      36.893836    
    942000   0.12011394    -8.3989568     -8.2187885     -1.2051845      50218.233      36.893836      36.893836      36.893836    
    943000   0.11978821    -8.4004279     -8.2207481     -1.2167288      50218.233      36.893836      36.893836      36.893836    
    944000   0.12023922    -8.4001645     -8.2198082     -1.217446       50218.233      36.893836      36.893836      36.893836    
    945000   0.1197094     -8.4001051     -8.2205436     -1.2119661      50218.233      36.893836      36.893836      36.893836    
    946000   0.12018073    -8.4001127     -8.2198442     -1.2162415      50218.233      36.893836      36.893836      36.893836    
    947000   0.11954162    -8.3999872     -8.2206773     -1.2154332      50218.233      36.893836      36.893836      36.893836    
    948000   0.12077977    -8.4006587     -8.2194916     -1.2207438      50218.233      36.893836      36.893836      36.893836    
    949000   0.11960519    -8.4008341     -8.2214289     -1.2241467      50218.233      36.893836      36.893836      36.893836    
    950000   0.11980277    -8.399558      -8.2198564     -1.2074209      50218.233      36.893836      36.893836      36.893836    
    951000   0.11954462    -8.4016433     -8.2223289     -1.2334139      50218.233      36.893836      36.893836      36.893836    
    952000   0.1200619     -8.3998075     -8.2197172     -1.2142547      50218.233      36.893836      36.893836      36.893836    
    953000   0.12026434    -8.4002566     -8.2198627     -1.2177878      50218.233      36.893836      36.893836      36.893836    
    954000   0.1202584     -8.4001045     -8.2197194     -1.2154016      50218.233      36.893836      36.893836      36.893836    
    955000   0.12011773    -8.4007499     -8.2205758     -1.2204453      50218.233      36.893836      36.893836      36.893836    
    956000   0.11961848    -8.399573      -8.2201478     -1.2165076      50218.233      36.893836      36.893836      36.893836    
    957000   0.1194919     -8.3996209     -8.2203856     -1.2179324      50218.233      36.893836      36.893836      36.893836    
    958000   0.12000566    -8.39982       -8.2198141     -1.2108238      50218.233      36.893836      36.893836      36.893836    
    959000   0.11993814    -8.4002942     -8.2203896     -1.2135605      50218.233      36.893836      36.893836      36.893836    
    960000   0.11985115    -8.4007882     -8.2210141     -1.2200415      50218.233      36.893836      36.893836      36.893836    
    961000   0.12019712    -8.4004305     -8.2201374     -1.2165451      50218.233      36.893836      36.893836      36.893836    
    962000   0.12008261    -8.4001789     -8.2200575     -1.2197983      50218.233      36.893836      36.893836      36.893836    
    963000   0.12065174    -8.3990424     -8.2180674     -1.2021223      50218.233      36.893836      36.893836      36.893836    
    964000   0.11974583    -8.3997158     -8.2200996     -1.2175325      50218.233      36.893836      36.893836      36.893836    
    965000   0.12017112    -8.3983603     -8.2181062     -1.2072086      50218.233      36.893836      36.893836      36.893836    
    966000   0.12010338    -8.399249      -8.2190965     -1.2051226      50218.233      36.893836      36.893836      36.893836    
    967000   0.11958388    -8.3992098     -8.2198365     -1.2086184      50218.233      36.893836      36.893836      36.893836    
    968000   0.11974809    -8.3988088     -8.2191892     -1.2030962      50218.233      36.893836      36.893836      36.893836    
    969000   0.1199874     -8.3982475     -8.218269      -1.1998761      50218.233      36.893836      36.893836      36.893836    
    970000   0.11990615    -8.3986173     -8.2187607     -1.1989227      50218.233      36.893836      36.893836      36.893836    
    971000   0.12018714    -8.3988389     -8.2185607     -1.203916       50218.233      36.893836      36.893836      36.893836    
    972000   0.11956206    -8.3990517     -8.2197112     -1.2148337      50218.233      36.893836      36.893836      36.893836    
    973000   0.11960472    -8.398316      -8.2189115     -1.201051       50218.233      36.893836      36.893836      36.893836    
    974000   0.11986352    -8.3988062     -8.2190134     -1.2055938      50218.233      36.893836      36.893836      36.893836    
    975000   0.11969587    -8.3988104     -8.2192691     -1.2090351      50218.233      36.893836      36.893836      36.893836    
    976000   0.12041916    -8.3989151     -8.2182889     -1.2059341      50218.233      36.893836      36.893836      36.893836    
    977000   0.1201874     -8.398945      -8.2186665     -1.2049901      50218.233      36.893836      36.893836      36.893836    
    978000   0.11950429    -8.3990388     -8.2197849     -1.2051145      50218.233      36.893836      36.893836      36.893836    
    979000   0.12041182    -8.3996699     -8.2190548     -1.2114885      50218.233      36.893836      36.893836      36.893836    
    980000   0.1198305     -8.3986915     -8.2189483     -1.2028199      50218.233      36.893836      36.893836      36.893836    
    981000   0.12018367    -8.3997549     -8.2194819     -1.2139731      50218.233      36.893836      36.893836      36.893836    
    982000   0.11997057    -8.3990213     -8.219068      -1.2026507      50218.233      36.893836      36.893836      36.893836    
    983000   0.11977893    -8.3999736     -8.2203078     -1.2132289      50218.233      36.893836      36.893836      36.893836    
    984000   0.11987914    -8.3990062     -8.21919       -1.2085354      50218.233      36.893836      36.893836      36.893836    
    985000   0.11945062    -8.3991598     -8.2199864     -1.2064241      50218.233      36.893836      36.893836      36.893836    
    986000   0.12016534    -8.400461      -8.2202156     -1.2120697      50218.233      36.893836      36.893836      36.893836    
    987000   0.11953728    -8.4000138     -8.2207105     -1.2126114      50218.233      36.893836      36.893836      36.893836    
    988000   0.12046893    -8.3996939     -8.2189931     -1.2092344      50218.233      36.893836      36.893836      36.893836    
    989000   0.11996801    -8.3988548     -8.2189054     -1.2085408      50218.233      36.893836      36.893836      36.893836    
    990000   0.12065421    -8.3998679     -8.2188891     -1.2129023      50218.233      36.893836      36.893836      36.893836    
    991000   0.12026703    -8.3998617     -8.2194637     -1.2121481      50218.233      36.893836      36.893836      36.893836    
    992000   0.11999923    -8.3998245     -8.2198282     -1.2170733      50218.233      36.893836      36.893836      36.893836    
    993000   0.11952994    -8.400748      -8.2214557     -1.2190128      50218.233      36.893836      36.893836      36.893836    
    994000   0.11982161    -8.4001221     -8.2203922     -1.2087752      50218.233      36.893836      36.893836      36.893836    
    995000   0.11965875    -8.3995192     -8.2200336     -1.2067816      50218.233      36.893836      36.893836      36.893836    
    996000   0.12040794    -8.4004554     -8.2198461     -1.2140951      50218.233      36.893836      36.893836      36.893836    
    997000   0.12019581    -8.4003737     -8.2200825     -1.2202098      50218.233      36.893836      36.893836      36.893836    
    998000   0.11889249    -8.4006185     -8.2222823     -1.2224938      50218.233      36.893836      36.893836      36.893836    
    999000   0.11979042    -8.4003219     -8.2206388     -1.2233531      50218.233      36.893836      36.893836      36.893836    
   1000000   0.11961562    -8.4001312     -8.2207103     -1.2164016      50218.233      36.893836      36.893836      36.893836    
Loop time of 1426.35 on 4 procs for 1000000 steps with 70304 atoms

Performance: 605740.331 tau/day, 701.088 timesteps/s, 49.289 Matom-step/s
95.3% CPU use with 4 MPI tasks x 1 OpenMP threads

MPI task timing breakdown:
Section |  min time  |  avg time  |  max time  |%varavg| %total
---------------------------------------------------------------
Pair    | 411.05     | 474.05     | 548.95     | 227.6 | 33.24
Neigh   | 3.0821     | 3.2574     | 3.445      |   9.1 |  0.23
Comm    | 191.47     | 192.72     | 195.06     |  10.3 | 13.51
Output  | 0.19913    | 0.21229    | 0.24345    |   3.9 |  0.01
Modify  | 605.09     | 679.54     | 743.27     | 190.3 | 47.64
Other   |            | 76.57      |            |       |  5.37

Nlocal:          17576 ave       17613 max       17540 min
Histogram: 1 0 0 0 1 1 0 0 0 1
Nghost:        16812.8 ave       16865 max       16775 min
Histogram: 1 0 0 2 0 0 0 0 0 1
Neighs:              0 ave           0 max           0 min
Histogram: 4 0 0 0 0 0 0 0 0 0

Total # of neighbors = 0
Ave neighs/atom = 0
Neighbor list builds = 98880
Dangerous builds = 0
clear
OMP_NUM_THREADS environment is not set. Defaulting to 1 thread. (src/comm.cpp:98)
  using 1 OpenMP thread(s) per MPI task
package gpu 0
jump dms100.lmp

variable T equal 100
# T = 1000* (temp in LJ unit)
variable f equal 1000
log log.${T}
log log.100
