variable TLJ equal (${T}/1000)
variable TLJ equal (540/1000)
variable NCyle equal 10
variable iStep equal (${f})
variable iStep equal (1000)
variable dumpStep equal (${f}*100)
variable dumpStep equal (1000*100)
variable runStep equal (${f}*100*${NCyle})
variable runStep equal (1000*100*${NCyle})
variable runStep equal (1000*100*10)

units       lj
atom_style  atomic
dimension 3
boundary     p p p
pair_style  lj/cut 2.5
read_data  ../data/T${T}.dat
read_data  ../data/T540.dat
Reading data file ...
  orthogonal box = (0.97250269 0.97250269 0.97250269) to (37.866338 37.866338 37.866338)
  1 by 2 by 2 MPI processor grid
  reading atoms ...
  70304 atoms
  reading velocities ...
  70304 velocities
  read_data CPU = 0.192 seconds
change_box all triclinic
Changing box ...
  triclinic box = (0.97250269 0.97250269 0.97250269) to (37.866338 37.866338 37.866338) with tilt (0 0 0)
mass 1 1
mass 2 1
pair_modify shift yes
pair_coeff  1 1 1 1
pair_coeff  1 2 1.5 0.8
pair_coeff  2 2 0.5 0.88


timestep 0.01
thermo ${iStep}
thermo 1000
reset_timestep 0
thermo_style custom step temp pe etotal press vol lx ly lz
fix             1 all nvt temp ${TLJ}  ${TLJ}  0.1
fix             1 all nvt temp 0.54  ${TLJ}  0.1
fix             1 all nvt temp 0.54  0.54  0.1
thermo_modify flush yes

fix dsf all deform 1 xy  wiggle 0.5  ${f}   units box
fix dsf all deform 1 xy  wiggle 0.5  1000   units box
fix ps1 all ave/time 1 1 ${iStep} c_thermo_press[1] c_thermo_press[2]  c_thermo_press[3] c_thermo_press[4]  c_thermo_press[5] c_thermo_press[6]  file  stress.${T}
fix ps1 all ave/time 1 1 1000 c_thermo_press[1] c_thermo_press[2]  c_thermo_press[3] c_thermo_press[4]  c_thermo_press[5] c_thermo_press[6]  file  stress.${T}
fix ps1 all ave/time 1 1 1000 c_thermo_press[1] c_thermo_press[2]  c_thermo_press[3] c_thermo_press[4]  c_thermo_press[5] c_thermo_press[6]  file  stress.540
dump            1 all custom ${dumpStep} dump.${T} id type x y z
dump            1 all custom 100000 dump.${T} id type x y z
dump            1 all custom 100000 dump.540 id type x y z
dump_modify 1 sort id
fix nodrift all momentum 1  linear 1 1 1
fix com_seed all recenter INIT INIT INIT shift all
run ${runStep}
run 1000000
Generated 0 of 1 mixed pair_coeff terms from geometric mixing rule
Per MPI rank memory allocation (min/avg/max) = 8.613 | 8.614 | 8.616 Mbytes
   Step          Temp          PotEng         TotEng         Press          Volume           Lx             Ly             Lz      
         0   0.53940878    -7.7369398     -6.9278382      4.2909817      50218.233      36.893836      36.893836      36.893836    
      1000   0.54150641    -7.729261      -6.917013       4.3538196      50218.233      36.893836      36.893836      36.893836    
      2000   0.5382781     -7.7318082     -6.9244025      4.3245873      50218.233      36.893836      36.893836      36.893836    
      3000   0.53977324    -7.7272055     -6.9175571      4.3681676      50218.233      36.893836      36.893836      36.893836    
      4000   0.54193763    -7.7270215     -6.9141266      4.3765258      50218.233      36.893836      36.893836      36.893836    
      5000   0.54081366    -7.729148      -6.917939       4.3503142      50218.233      36.893836      36.893836      36.893836    
      6000   0.54360632    -7.7273465     -6.9119486      4.3739259      50218.233      36.893836      36.893836      36.893836    
      7000   0.53603421    -7.7285097     -6.9244698      4.3561556      50218.233      36.893836      36.893836      36.893836    
      8000   0.53840599    -7.725005      -6.9174075      4.3758196      50218.233      36.893836      36.893836      36.893836    
      9000   0.53723033    -7.7270211     -6.9211871      4.368242       50218.233      36.893836      36.893836      36.893836    
     10000   0.53993997    -7.7229952     -6.9130967      4.3836093      50218.233      36.893836      36.893836      36.893836    
     11000   0.54298399    -7.7318866     -6.9174222      4.323666       50218.233      36.893836      36.893836      36.893836    
     12000   0.5397895     -7.7277837     -6.918111       4.3634469      50218.233      36.893836      36.893836      36.893836    
     13000   0.54230886    -7.7285109     -6.9150592      4.3491376      50218.233      36.893836      36.893836      36.893836    
     14000   0.54067206    -7.7272316     -6.9162351      4.3601594      50218.233      36.893836      36.893836      36.893836    
     15000   0.53966553    -7.7284567     -6.9189699      4.3544747      50218.233      36.893836      36.893836      36.893836    
     16000   0.53832735    -7.7283026     -6.920823       4.358517       50218.233      36.893836      36.893836      36.893836    
     17000   0.5419208     -7.7251855     -6.9123159      4.3842464      50218.233      36.893836      36.893836      36.893836    
     18000   0.54080422    -7.729361      -6.9181662      4.3519617      50218.233      36.893836      36.893836      36.893836    
     19000   0.5380211     -7.7219953     -6.9149751      4.3948733      50218.233      36.893836      36.893836      36.893836    
     20000   0.53882907    -7.7266822     -6.9184501      4.368243       50218.233      36.893836      36.893836      36.893836    
     21000   0.53910994    -7.7294222     -6.9207688      4.3446493      50218.233      36.893836      36.893836      36.893836    
     22000   0.54134326    -7.7257009     -6.9136976      4.3731912      50218.233      36.893836      36.893836      36.893836    
     23000   0.54101658    -7.7270178     -6.9155044      4.3669997      50218.233      36.893836      36.893836      36.893836    
     24000   0.53748174    -7.7220813     -6.9158701      4.3980428      50218.233      36.893836      36.893836      36.893836    
     25000   0.53687331    -7.725184      -6.9198855      4.3765928      50218.233      36.893836      36.893836      36.893836    
     26000   0.53892632    -7.7269137     -6.9185357      4.3604434      50218.233      36.893836      36.893836      36.893836    
     27000   0.53884881    -7.7259001     -6.9176383      4.3678879      50218.233      36.893836      36.893836      36.893836    
     28000   0.53929837    -7.7283226     -6.9193865      4.3597099      50218.233      36.893836      36.893836      36.893836    
     29000   0.53961353    -7.7272919     -6.9178831      4.3686755      50218.233      36.893836      36.893836      36.893836    
     30000   0.53944112    -7.7323267     -6.9231765      4.3225923      50218.233      36.893836      36.893836      36.893836    
     31000   0.53788245    -7.7287972     -6.921985       4.3569844      50218.233      36.893836      36.893836      36.893836    
     32000   0.53804591    -7.7259744     -6.918917       4.3720723      50218.233      36.893836      36.893836      36.893836    
     33000   0.54063238    -7.7262081     -6.915271       4.3630887      50218.233      36.893836      36.893836      36.893836    
     34000   0.54282416    -7.7264692     -6.9122446      4.3805429      50218.233      36.893836      36.893836      36.893836    
     35000   0.5401113     -7.7253        -6.9151445      4.3749977      50218.233      36.893836      36.893836      36.893836    
     36000   0.53943648    -7.7261159     -6.9169727      4.3629003      50218.233      36.893836      36.893836      36.893836    
     37000   0.53926167    -7.7268598     -6.9179788      4.3650226      50218.233      36.893836      36.893836      36.893836    
     38000   0.53991633    -7.7300134     -6.9201505      4.3434288      50218.233      36.893836      36.893836      36.893836    
     39000   0.54060663    -7.726711      -6.9158126      4.3728749      50218.233      36.893836      36.893836      36.893836    
     40000   0.53802584    -7.7285937     -6.9215665      4.3568171      50218.233      36.893836      36.893836      36.893836    
     41000   0.53961012    -7.7230302     -6.9136265      4.4049774      50218.233      36.893836      36.893836      36.893836    
     42000   0.54167935    -7.7315433     -6.9190358      4.3345709      50218.233      36.893836      36.893836      36.893836    
     43000   0.5401517     -7.7272063     -6.9169902      4.363316       50218.233      36.893836      36.893836      36.893836    
     44000   0.54231876    -7.7261416     -6.912675       4.3810337      50218.233      36.893836      36.893836      36.893836    
     45000   0.5397928     -7.7263681     -6.9166904      4.3671861      50218.233      36.893836      36.893836      36.893836    
     46000   0.53959955    -7.7288463     -6.9194585      4.3435903      50218.233      36.893836      36.893836      36.893836    
     47000   0.54117026    -7.7302819     -6.918538       4.354713       50218.233      36.893836      36.893836      36.893836    
     48000   0.53795836    -7.7238632     -6.9169371      4.3891331      50218.233      36.893836      36.893836      36.893836    
     49000   0.53841101    -7.7267923     -6.9191872      4.3572335      50218.233      36.893836      36.893836      36.893836    
     50000   0.54180193    -7.7288199     -6.9161285      4.3517318      50218.233      36.893836      36.893836      36.893836    
     51000   0.54087905    -7.7293279     -6.9180209      4.3390842      50218.233      36.893836      36.893836      36.893836    
     52000   0.54297615    -7.7267809     -6.9123282      4.3620495      50218.233      36.893836      36.893836      36.893836    
     53000   0.54269296    -7.7310279     -6.917          4.3423724      50218.233      36.893836      36.893836      36.893836    
     54000   0.53996338    -7.723775      -6.9138414      4.3810027      50218.233      36.893836      36.893836      36.893836    
     55000   0.54174776    -7.7268859     -6.9142758      4.3708913      50218.233      36.893836      36.893836      36.893836    
     56000   0.5378794     -7.7249051     -6.9180975      4.3768141      50218.233      36.893836      36.893836      36.893836    
     57000   0.53784291    -7.7308551     -6.9241022      4.3261629      50218.233      36.893836      36.893836      36.893836    
     58000   0.54103158    -7.7250026     -6.9134667      4.3934243      50218.233      36.893836      36.893836      36.893836    
     59000   0.54029787    -7.7243287     -6.9138934      4.3854567      50218.233      36.893836      36.893836      36.893836    
     60000   0.54088822    -7.7259531     -6.9146323      4.3812315      50218.233      36.893836      36.893836      36.893836    
     61000   0.54003145    -7.7277131     -6.9176774      4.3648931      50218.233      36.893836      36.893836      36.893836    
     62000   0.53777037    -7.722226      -6.9155819      4.4032566      50218.233      36.893836      36.893836      36.893836    
     63000   0.53985168    -7.7261303     -6.9163643      4.3635461      50218.233      36.893836      36.893836      36.893836    
     64000   0.53920697    -7.7237096     -6.9149106      4.396072       50218.233      36.893836      36.893836      36.893836    
     65000   0.53676609    -7.7258792     -6.9207415      4.3687802      50218.233      36.893836      36.893836      36.893836    
     66000   0.53942349    -7.7222922     -6.9131684      4.4076469      50218.233      36.893836      36.893836      36.893836    
     67000   0.54074279    -7.7285385     -6.9174358      4.3630995      50218.233      36.893836      36.893836      36.893836    
     68000   0.54166276    -7.7256092     -6.9131266      4.3700203      50218.233      36.893836      36.893836      36.893836    
     69000   0.54042206    -7.7289402     -6.9183186      4.3429562      50218.233      36.893836      36.893836      36.893836    
     70000   0.53902012    -7.7290164     -6.9204977      4.3426318      50218.233      36.893836      36.893836      36.893836    
     71000   0.54024248    -7.7259153     -6.9155631      4.3611283      50218.233      36.893836      36.893836      36.893836    
     72000   0.54088596    -7.7276184     -6.916301       4.3631968      50218.233      36.893836      36.893836      36.893836    
     73000   0.53724171    -7.7284715     -6.9226204      4.3545709      50218.233      36.893836      36.893836      36.893836    
     74000   0.5391697     -7.726654      -6.917911       4.3723946      50218.233      36.893836      36.893836      36.893836    
     75000   0.53774923    -7.7290663     -6.922454       4.3497399      50218.233      36.893836      36.893836      36.893836    
     76000   0.53879967    -7.7300946     -6.9219066      4.3475647      50218.233      36.893836      36.893836      36.893836    
     77000   0.5396437     -7.7279165     -6.9184625      4.3591222      50218.233      36.893836      36.893836      36.893836    
     78000   0.53748214    -7.7281962     -6.9219845      4.3547962      50218.233      36.893836      36.893836      36.893836    
     79000   0.54109565    -7.7252367     -6.9136048      4.3898061      50218.233      36.893836      36.893836      36.893836    
     80000   0.5394145     -7.7295744     -6.9204642      4.3463304      50218.233      36.893836      36.893836      36.893836    
     81000   0.53955464    -7.7277362     -6.9184158      4.3548582      50218.233      36.893836      36.893836      36.893836    
     82000   0.539809      -7.7283783     -6.9186763      4.3547206      50218.233      36.893836      36.893836      36.893836    
     83000   0.53871344    -7.7244268     -6.9163681      4.3707654      50218.233      36.893836      36.893836      36.893836    
     84000   0.53921404    -7.7265707     -6.9177611      4.372006       50218.233      36.893836      36.893836      36.893836    
     85000   0.54085917    -7.7229462     -6.911669       4.3944513      50218.233      36.893836      36.893836      36.893836    
     86000   0.54112893    -7.7263816     -6.9146998      4.3694911      50218.233      36.893836      36.893836      36.893836    
     87000   0.54260145    -7.72493       -6.9110394      4.3766337      50218.233      36.893836      36.893836      36.893836    
     88000   0.5371314     -7.7316578     -6.9259722      4.3256255      50218.233      36.893836      36.893836      36.893836    
     89000   0.544249      -7.7250938     -6.9087319      4.3862112      50218.233      36.893836      36.893836      36.893836    
     90000   0.54010857    -7.7227014     -6.9125501      4.3919401      50218.233      36.893836      36.893836      36.893836    
     91000   0.54160466    -7.7277133     -6.9153179      4.3638959      50218.233      36.893836      36.893836      36.893836    
     92000   0.54260282    -7.7250708     -6.9111782      4.3796369      50218.233      36.893836      36.893836      36.893836    
     93000   0.5385724     -7.7299747     -6.9221276      4.3480857      50218.233      36.893836      36.893836      36.893836    
     94000   0.54120512    -7.7274662     -6.9156701      4.3598126      50218.233      36.893836      36.893836      36.893836    
     95000   0.53783827    -7.726304      -6.9195581      4.3635045      50218.233      36.893836      36.893836      36.893836    
     96000   0.53716722    -7.7298034     -6.924064       4.3293599      50218.233      36.893836      36.893836      36.893836    
     97000   0.53690674    -7.728531      -6.9231824      4.3461064      50218.233      36.893836      36.893836      36.893836    
     98000   0.54137322    -7.7320269     -6.9199786      4.3276867      50218.233      36.893836      36.893836      36.893836    
     99000   0.53807232    -7.7242243     -6.9171273      4.3776958      50218.233      36.893836      36.893836      36.893836    
    100000   0.54117475    -7.7258114     -6.9140608      4.367198       50218.233      36.893836      36.893836      36.893836    
    101000   0.54011859    -7.723752      -6.9135857      4.3929107      50218.233      36.893836      36.893836      36.893836    
    102000   0.54021287    -7.7262158     -6.915908       4.3668985      50218.233      36.893836      36.893836      36.893836    
    103000   0.541199      -7.7284592     -6.9166723      4.3501391      50218.233      36.893836      36.893836      36.893836    
    104000   0.54178531    -7.7223292     -6.9096627      4.4046761      50218.233      36.893836      36.893836      36.893836    
    105000   0.53947881    -7.7248506     -6.9156439      4.3867659      50218.233      36.893836      36.893836      36.893836    
    106000   0.54037018    -7.7263764     -6.9158326      4.3590713      50218.233      36.893836      36.893836      36.893836    
    107000   0.53954079    -7.7218372     -6.9125375      4.410059       50218.233      36.893836      36.893836      36.893836    
    108000   0.54108812    -7.7313976     -6.9197769      4.3296742      50218.233      36.893836      36.893836      36.893836    
    109000   0.54149439    -7.7225138     -6.9102838      4.3942716      50218.233      36.893836      36.893836      36.893836    
    110000   0.53976624    -7.7257805     -6.9161427      4.3716874      50218.233      36.893836      36.893836      36.893836    
    111000   0.53992654    -7.7224631     -6.9125849      4.391199       50218.233      36.893836      36.893836      36.893836    
    112000   0.53832494    -7.7248538     -6.9173779      4.3751248      50218.233      36.893836      36.893836      36.893836    
    113000   0.54172875    -7.7220516     -6.90947        4.3979108      50218.233      36.893836      36.893836      36.893836    
    114000   0.54356676    -7.7258657     -6.9105271      4.3777929      50218.233      36.893836      36.893836      36.893836    
    115000   0.53960952    -7.7215045     -6.9121018      4.3999612      50218.233      36.893836      36.893836      36.893836    
    116000   0.54321609    -7.7233644     -6.9085519      4.3918292      50218.233      36.893836      36.893836      36.893836    
    117000   0.53744746    -7.7285706     -6.9224109      4.3482254      50218.233      36.893836      36.893836      36.893836    
    118000   0.54109971    -7.7274418     -6.9158037      4.3589781      50218.233      36.893836      36.893836      36.893836    
    119000   0.54261878    -7.7226636     -6.908747       4.4032831      50218.233      36.893836      36.893836      36.893836    
    120000   0.53838482    -7.720942      -6.9133763      4.4043753      50218.233      36.893836      36.893836      36.893836    
    121000   0.54109698    -7.7190271     -6.9073931      4.4089643      50218.233      36.893836      36.893836      36.893836    
    122000   0.53961935    -7.7238388     -6.9144212      4.380507       50218.233      36.893836      36.893836      36.893836    
    123000   0.53803548    -7.7267705     -6.9197288      4.344369       50218.233      36.893836      36.893836      36.893836    
    124000   0.53885648    -7.7249451     -6.9166719      4.3699133      50218.233      36.893836      36.893836      36.893836    
    125000   0.54135821    -7.7228795     -6.9108538      4.4000878      50218.233      36.893836      36.893836      36.893836    
    126000   0.5412396     -7.7243338     -6.9124859      4.3826949      50218.233      36.893836      36.893836      36.893836    
    127000   0.53705601    -7.7260177     -6.9204452      4.3646022      50218.233      36.893836      36.893836      36.893836    
    128000   0.54253948    -7.7246143     -6.9108166      4.3805773      50218.233      36.893836      36.893836      36.893836    
    129000   0.53720987    -7.7252225     -6.9194191      4.3803739      50218.233      36.893836      36.893836      36.893836    
    130000   0.54013125    -7.7289378     -6.9187525      4.3430485      50218.233      36.893836      36.893836      36.893836    
    131000   0.54134907    -7.7254331     -6.9134211      4.3792         50218.233      36.893836      36.893836      36.893836    
    132000   0.53921619    -7.7300206     -6.9212079      4.3352077      50218.233      36.893836      36.893836      36.893836    
    133000   0.53938326    -7.7323927     -6.9233293      4.3120997      50218.233      36.893836      36.893836      36.893836    
    134000   0.53833238    -7.727803      -6.920316       4.3624227      50218.233      36.893836      36.893836      36.893836    
    135000   0.54246238    -7.7280907     -6.9144087      4.3645069      50218.233      36.893836      36.893836      36.893836    
    136000   0.53858783    -7.7286514     -6.9207812      4.337306       50218.233      36.893836      36.893836      36.893836    
    137000   0.54319487    -7.7277369     -6.9129562      4.34804        50218.233      36.893836      36.893836      36.893836    
    138000   0.54041425    -7.7247461     -6.9141363      4.3877177      50218.233      36.893836      36.893836      36.893836    
    139000   0.54085836    -7.7206378     -6.9093618      4.4146394      50218.233      36.893836      36.893836      36.893836    
    140000   0.54210304    -7.7269723     -6.9138293      4.3641571      50218.233      36.893836      36.893836      36.893836    
    141000   0.53835395    -7.7240092     -6.9164897      4.3739159      50218.233      36.893836      36.893836      36.893836    
    142000   0.53945839    -7.7218781     -6.912702       4.3918656      50218.233      36.893836      36.893836      36.893836    
    143000   0.54063417    -7.7285628     -6.9176231      4.3553881      50218.233      36.893836      36.893836      36.893836    
    144000   0.53952557    -7.72337       -6.9140932      4.3885267      50218.233      36.893836      36.893836      36.893836    
    145000   0.54019318    -7.7285123     -6.9182341      4.3578163      50218.233      36.893836      36.893836      36.893836    
    146000   0.54155065    -7.7327238     -6.9204093      4.3332099      50218.233      36.893836      36.893836      36.893836    
    147000   0.53749592    -7.7205551     -6.9143227      4.4038096      50218.233      36.893836      36.893836      36.893836    
    148000   0.54094429    -7.7254403     -6.9140354      4.3795128      50218.233      36.893836      36.893836      36.893836    
    149000   0.54001108    -7.7274998     -6.9174947      4.3673653      50218.233      36.893836      36.893836      36.893836    
    150000   0.54265089    -7.7288958     -6.914931       4.3550697      50218.233      36.893836      36.893836      36.893836    
    151000   0.54080179    -7.7268238     -6.9156327      4.3654609      50218.233      36.893836      36.893836      36.893836    
    152000   0.53970592    -7.7242486     -6.9147012      4.3922251      50218.233      36.893836      36.893836      36.893836    
    153000   0.53734922    -7.7235956     -6.9175832      4.3889927      50218.233      36.893836      36.893836      36.893836    
    154000   0.54009535    -7.7250979     -6.9149664      4.3864818      50218.233      36.893836      36.893836      36.893836    
    155000   0.53882804    -7.7224572     -6.9142267      4.3923496      50218.233      36.893836      36.893836      36.893836    
    156000   0.5422499     -7.7265056     -6.9131423      4.3727907      50218.233      36.893836      36.893836      36.893836    
    157000   0.53930698    -7.724024      -6.915075       4.3814868      50218.233      36.893836      36.893836      36.893836    
    158000   0.54038674    -7.7248139     -6.9142453      4.3804001      50218.233      36.893836      36.893836      36.893836    
    159000   0.5389802     -7.7249412     -6.9164824      4.3896149      50218.233      36.893836      36.893836      36.893836    
    160000   0.54221401    -7.7211393     -6.9078299      4.4090281      50218.233      36.893836      36.893836      36.893836    
    161000   0.54178302    -7.7260107     -6.9133477      4.3830954      50218.233      36.893836      36.893836      36.893836    
    162000   0.53587871    -7.7280788     -6.9242721      4.3543786      50218.233      36.893836      36.893836      36.893836    
    163000   0.53711521    -7.7233075     -6.9176461      4.4019347      50218.233      36.893836      36.893836      36.893836    
    164000   0.53852026    -7.7267781     -6.9190092      4.3703706      50218.233      36.893836      36.893836      36.893836    
    165000   0.54049699    -7.7255707     -6.9148367      4.3741398      50218.233      36.893836      36.893836      36.893836    
    166000   0.5392469     -7.7303614     -6.9215025      4.3406547      50218.233      36.893836      36.893836      36.893836    
    167000   0.54067263    -7.7280635     -6.9170661      4.3697973      50218.233      36.893836      36.893836      36.893836    
    168000   0.53587727    -7.7270769     -6.9232724      4.36282        50218.233      36.893836      36.893836      36.893836    
    169000   0.54192062    -7.7273016     -6.9144322      4.3595584      50218.233      36.893836      36.893836      36.893836    
    170000   0.53862872    -7.7275117     -6.9195801      4.3587155      50218.233      36.893836      36.893836      36.893836    
    171000   0.53785767    -7.7220397     -6.9152647      4.3974741      50218.233      36.893836      36.893836      36.893836    
    172000   0.54076935    -7.722498      -6.9113555      4.4023197      50218.233      36.893836      36.893836      36.893836    
    173000   0.54084954    -7.7205024     -6.9092396      4.4193467      50218.233      36.893836      36.893836      36.893836    
    174000   0.53909781    -7.7232995     -6.9146643      4.3916281      50218.233      36.893836      36.893836      36.893836    
    175000   0.54008297    -7.7249025     -6.9147896      4.3700824      50218.233      36.893836      36.893836      36.893836    
    176000   0.54249482    -7.7245685     -6.9108378      4.3963288      50218.233      36.893836      36.893836      36.893836    
    177000   0.53964622    -7.724083      -6.9146252      4.3938458      50218.233      36.893836      36.893836      36.893836    
    178000   0.54008938    -7.7232903     -6.9131677      4.3898275      50218.233      36.893836      36.893836      36.893836    
    179000   0.53883441    -7.7235256     -6.9152855      4.3879795      50218.233      36.893836      36.893836      36.893836    
    180000   0.53916205    -7.7283032     -6.9195717      4.342836       50218.233      36.893836      36.893836      36.893836    
    181000   0.54212256    -7.7245674     -6.9113951      4.3795742      50218.233      36.893836      36.893836      36.893836    
    182000   0.54262179    -7.7228164     -6.9088953      4.4063016      50218.233      36.893836      36.893836      36.893836    
    183000   0.53819752    -7.7241633     -6.9168785      4.3776353      50218.233      36.893836      36.893836      36.893836    
    184000   0.54185444    -7.7258568     -6.9130867      4.3772857      50218.233      36.893836      36.893836      36.893836    
    185000   0.54216025    -7.7199908     -6.906762       4.4228563      50218.233      36.893836      36.893836      36.893836    
    186000   0.54088886    -7.7254759     -6.9141541      4.373563       50218.233      36.893836      36.893836      36.893836    
    187000   0.53644048    -7.7252711     -6.9206218      4.3700184      50218.233      36.893836      36.893836      36.893836    
    188000   0.54020622    -7.7222105     -6.9119127      4.4002315      50218.233      36.893836      36.893836      36.893836    
    189000   0.53969423    -7.7230363     -6.9135064      4.3899422      50218.233      36.893836      36.893836      36.893836    
    190000   0.54108268    -7.7184921     -6.9068796      4.4443844      50218.233      36.893836      36.893836      36.893836    
    191000   0.54246046    -7.7240601     -6.910381       4.3871149      50218.233      36.893836      36.893836      36.893836    
    192000   0.53786204    -7.730579      -6.9237974      4.3293056      50218.233      36.893836      36.893836      36.893836    
    193000   0.53919417    -7.7264372     -6.9176574      4.3726421      50218.233      36.893836      36.893836      36.893836    
    194000   0.54241252    -7.7234051     -6.9097979      4.3962318      50218.233      36.893836      36.893836      36.893836    
    195000   0.54059072    -7.7219327     -6.9110581      4.4010128      50218.233      36.893836      36.893836      36.893836    
    196000   0.53988908    -7.7220481     -6.912226       4.3989746      50218.233      36.893836      36.893836      36.893836    
    197000   0.539699      -7.7280447     -6.9185077      4.3569486      50218.233      36.893836      36.893836      36.893836    
    198000   0.5402069     -7.7243358     -6.914037       4.3792698      50218.233      36.893836      36.893836      36.893836    
    199000   0.53868697    -7.7303246     -6.9223056      4.3497557      50218.233      36.893836      36.893836      36.893836    
    200000   0.5374132     -7.7265237     -6.9204154      4.3718316      50218.233      36.893836      36.893836      36.893836    
    201000   0.54030738    -7.7246838     -6.9142343      4.3858598      50218.233      36.893836      36.893836      36.893836    
    202000   0.53829419    -7.7301908     -6.922761       4.3343017      50218.233      36.893836      36.893836      36.893836    
    203000   0.5411666     -7.7235213     -6.9117829      4.3980896      50218.233      36.893836      36.893836      36.893836    
    204000   0.53748057    -7.7271561     -6.9209467      4.3496133      50218.233      36.893836      36.893836      36.893836    
    205000   0.54108992    -7.7252225     -6.9135991      4.3853768      50218.233      36.893836      36.893836      36.893836    
    206000   0.53928825    -7.7248627     -6.9159418      4.3850228      50218.233      36.893836      36.893836      36.893836    
    207000   0.54161202    -7.7215389     -6.9091324      4.3942006      50218.233      36.893836      36.893836      36.893836    
    208000   0.54238744    -7.7289548     -6.9153852      4.3441478      50218.233      36.893836      36.893836      36.893836    
    209000   0.5410367     -7.7261163     -6.9145728      4.3728098      50218.233      36.893836      36.893836      36.893836    
    210000   0.53865138    -7.7205045     -6.9125389      4.4048627      50218.233      36.893836      36.893836      36.893836    
    211000   0.53961484    -7.7230108     -6.9136001      4.3863783      50218.233      36.893836      36.893836      36.893836    
    212000   0.54279919    -7.7244867     -6.9102995      4.3855338      50218.233      36.893836      36.893836      36.893836    
    213000   0.53985082    -7.7243038     -6.9145391      4.3795748      50218.233      36.893836      36.893836      36.893836    
    214000   0.53975801    -7.7240804     -6.9144549      4.3846282      50218.233      36.893836      36.893836      36.893836    
    215000   0.54305769    -7.7300203     -6.9154453      4.3546988      50218.233      36.893836      36.893836      36.893836    
    216000   0.54059409    -7.7257842     -6.9149046      4.3747094      50218.233      36.893836      36.893836      36.893836    
    217000   0.5435175     -7.7218921     -6.9066275      4.4091584      50218.233      36.893836      36.893836      36.893836    
    218000   0.54289915    -7.7250165     -6.9106794      4.3753731      50218.233      36.893836      36.893836      36.893836    
    219000   0.54025625    -7.7219868     -6.9116139      4.390871       50218.233      36.893836      36.893836      36.893836    
    220000   0.53855152    -7.7211054     -6.9132896      4.4058571      50218.233      36.893836      36.893836      36.893836    
    221000   0.54106124    -7.7259067     -6.9143264      4.3761303      50218.233      36.893836      36.893836      36.893836    
    222000   0.54208649    -7.7223153     -6.9091971      4.3963809      50218.233      36.893836      36.893836      36.893836    
    223000   0.53914775    -7.724715      -6.9160048      4.3702034      50218.233      36.893836      36.893836      36.893836    
    224000   0.53983483    -7.72425       -6.9145092      4.3767126      50218.233      36.893836      36.893836      36.893836    
    225000   0.53898633    -7.7238868     -6.9154188      4.390365       50218.233      36.893836      36.893836      36.893836    
    226000   0.53982224    -7.7215438     -6.911822       4.4014952      50218.233      36.893836      36.893836      36.893836    
    227000   0.54083867    -7.7248142     -6.9135677      4.3901969      50218.233      36.893836      36.893836      36.893836    
    228000   0.53805976    -7.720139      -6.9130609      4.3998894      50218.233      36.893836      36.893836      36.893836    
    229000   0.53741823    -7.7260968     -6.919981       4.3684301      50218.233      36.893836      36.893836      36.893836    
    230000   0.54003312    -7.7284149     -6.9183767      4.3454351      50218.233      36.893836      36.893836      36.893836    
    231000   0.53771518    -7.7294034     -6.9228421      4.3415078      50218.233      36.893836      36.893836      36.893836    
    232000   0.54137069    -7.723019      -6.9109745      4.3878237      50218.233      36.893836      36.893836      36.893836    
    233000   0.54097861    -7.7246847     -6.9132284      4.3799092      50218.233      36.893836      36.893836      36.893836    
    234000   0.53777313    -7.7258682     -6.91922        4.3649648      50218.233      36.893836      36.893836      36.893836    
    235000   0.54074734    -7.7244134     -6.9133039      4.3764742      50218.233      36.893836      36.893836      36.893836    
    236000   0.54023299    -7.7236926     -6.9133546      4.3918343      50218.233      36.893836      36.893836      36.893836    
    237000   0.5402525     -7.7231788     -6.9128116      4.3843775      50218.233      36.893836      36.893836      36.893836    
    238000   0.54038675    -7.7290759     -6.9185073      4.3472862      50218.233      36.893836      36.893836      36.893836    
    239000   0.54195554    -7.7261139     -6.9131921      4.3783819      50218.233      36.893836      36.893836      36.893836    
    240000   0.54002925    -7.7265219     -6.9164896      4.3637925      50218.233      36.893836      36.893836      36.893836    
    241000   0.54052068    -7.7248131     -6.9140437      4.3812282      50218.233      36.893836      36.893836      36.893836    
    242000   0.54189594    -7.7264562     -6.9136239      4.3685431      50218.233      36.893836      36.893836      36.893836    
    243000   0.54237557    -7.7231351     -6.9095833      4.4073323      50218.233      36.893836      36.893836      36.893836    
    244000   0.53972405    -7.7236575     -6.9140829      4.3997267      50218.233      36.893836      36.893836      36.893836    
    245000   0.54422915    -7.7267504     -6.9104182      4.3767025      50218.233      36.893836      36.893836      36.893836    
    246000   0.53879305    -7.7260004     -6.9178224      4.372999       50218.233      36.893836      36.893836      36.893836    
    247000   0.53787815    -7.7252484     -6.9184427      4.3789851      50218.233      36.893836      36.893836      36.893836    
    248000   0.53742358    -7.7269662     -6.9208423      4.3613821      50218.233      36.893836      36.893836      36.893836    
    249000   0.54012453    -7.7234563     -6.9132811      4.393582       50218.233      36.893836      36.893836      36.893836    
    250000   0.536801      -7.7316601     -6.9264701      4.3236767      50218.233      36.893836      36.893836      36.893836    
    251000   0.53905123    -7.7265765     -6.9180111      4.3650486      50218.233      36.893836      36.893836      36.893836    
    252000   0.53917636    -7.7222394     -6.9134863      4.3925662      50218.233      36.893836      36.893836      36.893836    
    253000   0.53830484    -7.7232683     -6.9158225      4.3945759      50218.233      36.893836      36.893836      36.893836    
    254000   0.53773804    -7.7224837     -6.9158881      4.4028738      50218.233      36.893836      36.893836      36.893836    
    255000   0.53922164    -7.7235364     -6.9147155      4.3826277      50218.233      36.893836      36.893836      36.893836    
    256000   0.53815795    -7.7271267     -6.9199013      4.3606636      50218.233      36.893836      36.893836      36.893836    
    257000   0.54126837    -7.7277122     -6.9158212      4.3623042      50218.233      36.893836      36.893836      36.893836    
    258000   0.53853726    -7.7294975     -6.9217031      4.3489412      50218.233      36.893836      36.893836      36.893836    
    259000   0.54538055    -7.723416      -6.9053568      4.3930908      50218.233      36.893836      36.893836      36.893836    
    260000   0.53909139    -7.7264007     -6.9177751      4.3602844      50218.233      36.893836      36.893836      36.893836    
    261000   0.54007826    -7.727369      -6.9172631      4.3603598      50218.233      36.893836      36.893836      36.893836    
    262000   0.53678838    -7.7269453     -6.9217742      4.3724224      50218.233      36.893836      36.893836      36.893836    
    263000   0.53961512    -7.7298689     -6.9204577      4.3399329      50218.233      36.893836      36.893836      36.893836    
    264000   0.54089407    -7.7300795     -6.9187499      4.3291398      50218.233      36.893836      36.893836      36.893836    
    265000   0.54043638    -7.730675      -6.9200319      4.3407106      50218.233      36.893836      36.893836      36.893836    
    266000   0.53824314    -7.7232598     -6.9159066      4.397138       50218.233      36.893836      36.893836      36.893836    
    267000   0.53773462    -7.7294827     -6.9228922      4.3432043      50218.233      36.893836      36.893836      36.893836    
    268000   0.54167432    -7.7273796     -6.9148797      4.3596558      50218.233      36.893836      36.893836      36.893836    
    269000   0.54351893    -7.7279613     -6.9126945      4.3622632      50218.233      36.893836      36.893836      36.893836    
    270000   0.5383505     -7.7255728     -6.9180586      4.3676129      50218.233      36.893836      36.893836      36.893836    
    271000   0.54009111    -7.7245525     -6.9144274      4.379977       50218.233      36.893836      36.893836      36.893836    
    272000   0.53979825    -7.7279038     -6.918218       4.3611143      50218.233      36.893836      36.893836      36.893836    
    273000   0.54152247    -7.7247486     -6.9124764      4.384196       50218.233      36.893836      36.893836      36.893836    
    274000   0.53949157    -7.7243811     -6.9151553      4.3874961      50218.233      36.893836      36.893836      36.893836    
    275000   0.53999266    -7.7283164     -6.918339       4.357219       50218.233      36.893836      36.893836      36.893836    
    276000   0.54085405    -7.7236605     -6.912391       4.3886574      50218.233      36.893836      36.893836      36.893836    
    277000   0.53735896    -7.7263787     -6.9203518      4.3695943      50218.233      36.893836      36.893836      36.893836    
    278000   0.54147977    -7.727493      -6.9152849      4.3737245      50218.233      36.893836      36.893836      36.893836    
    279000   0.54046158    -7.7251378     -6.914457       4.3760587      50218.233      36.893836      36.893836      36.893836    
    280000   0.54013127    -7.7277388     -6.9175535      4.3625172      50218.233      36.893836      36.893836      36.893836    
    281000   0.54153116    -7.7228994     -6.9106142      4.4030985      50218.233      36.893836      36.893836      36.893836    
    282000   0.54022601    -7.7216948     -6.9113673      4.4062616      50218.233      36.893836      36.893836      36.893836    
    283000   0.53897297    -7.7280615     -6.9196136      4.3461612      50218.233      36.893836      36.893836      36.893836    
    284000   0.54155608    -7.723942      -6.9116194      4.397479       50218.233      36.893836      36.893836      36.893836    
    285000   0.54102268    -7.7266325     -6.91511        4.3663136      50218.233      36.893836      36.893836      36.893836    
    286000   0.54106974    -7.7227228     -6.9111298      4.3983648      50218.233      36.893836      36.893836      36.893836    
    287000   0.53973236    -7.7254669     -6.9158798      4.3760432      50218.233      36.893836      36.893836      36.893836    
    288000   0.53961341    -7.7266016     -6.917193       4.3637787      50218.233      36.893836      36.893836      36.893836    
    289000   0.54322689    -7.724769      -6.9099403      4.386483       50218.233      36.893836      36.893836      36.893836    
    290000   0.54137239    -7.7214273     -6.9093803      4.4129492      50218.233      36.893836      36.893836      36.893836    
    291000   0.5417034     -7.7263098     -6.9137662      4.3640887      50218.233      36.893836      36.893836      36.893836    
    292000   0.53918445    -7.7234943     -6.9147291      4.3923292      50218.233      36.893836      36.893836      36.893836    
    293000   0.54186941    -7.7294914     -6.9166988      4.3548475      50218.233      36.893836      36.893836      36.893836    
    294000   0.54224663    -7.725551      -6.9121927      4.3780438      50218.233      36.893836      36.893836      36.893836    
    295000   0.53998849    -7.7253223     -6.9153511      4.3927235      50218.233      36.893836      36.893836      36.893836    
    296000   0.54135056    -7.7255999     -6.9135856      4.383519       50218.233      36.893836      36.893836      36.893836    
    297000   0.54192092    -7.7265164     -6.9136466      4.3684724      50218.233      36.893836      36.893836      36.893836    
    298000   0.53808196    -7.727254      -6.9201425      4.3574921      50218.233      36.893836      36.893836      36.893836    
    299000   0.54007677    -7.7263611     -6.9162575      4.371159       50218.233      36.893836      36.893836      36.893836    
    300000   0.53802881    -7.7272108     -6.9201791      4.3617015      50218.233      36.893836      36.893836      36.893836    
    301000   0.54010918    -7.7302855     -6.9201332      4.3439309      50218.233      36.893836      36.893836      36.893836    
    302000   0.53871122    -7.7226714     -6.914616       4.4052192      50218.233      36.893836      36.893836      36.893836    
    303000   0.54031279    -7.723577      -6.9131193      4.3907391      50218.233      36.893836      36.893836      36.893836    
    304000   0.54078808    -7.7258255     -6.9146549      4.3691283      50218.233      36.893836      36.893836      36.893836    
    305000   0.5366369     -7.7294208     -6.9244769      4.352103       50218.233      36.893836      36.893836      36.893836    
    306000   0.54120862    -7.7218328     -6.9100314      4.4002443      50218.233      36.893836      36.893836      36.893836    
    307000   0.54152257    -7.7239655     -6.9116932      4.379107       50218.233      36.893836      36.893836      36.893836    
    308000   0.54234787    -7.7263425     -6.9128323      4.3766865      50218.233      36.893836      36.893836      36.893836    
    309000   0.54162549    -7.7277171     -6.9152904      4.3597562      50218.233      36.893836      36.893836      36.893836    
    310000   0.53820071    -7.7268209     -6.9195314      4.3743748      50218.233      36.893836      36.893836      36.893836    
    311000   0.54015055    -7.7296753     -6.919461       4.343353       50218.233      36.893836      36.893836      36.893836    
    312000   0.53668958    -7.7248789     -6.919856       4.3721073      50218.233      36.893836      36.893836      36.893836    
    313000   0.5407219     -7.7213376     -6.9102662      4.4102272      50218.233      36.893836      36.893836      36.893836    
    314000   0.54185847    -7.7225499     -6.9097738      4.3938857      50218.233      36.893836      36.893836      36.893836    
    315000   0.54433747    -7.7235428     -6.9070482      4.3992742      50218.233      36.893836      36.893836      36.893836    
    316000   0.5382588     -7.7240028     -6.9166261      4.3804818      50218.233      36.893836      36.893836      36.893836    
    317000   0.54041652    -7.7205193     -6.9099061      4.4083137      50218.233      36.893836      36.893836      36.893836    
    318000   0.53919081    -7.7244039     -6.9156292      4.3884776      50218.233      36.893836      36.893836      36.893836    
    319000   0.54081085    -7.725945      -6.9147403      4.3660869      50218.233      36.893836      36.893836      36.893836    
    320000   0.54027191    -7.7201312     -6.9097349      4.4272499      50218.233      36.893836      36.893836      36.893836    
    321000   0.53956649    -7.7298492     -6.920511       4.3286678      50218.233      36.893836      36.893836      36.893836    
    322000   0.54062317    -7.7190865     -6.9081633      4.4301281      50218.233      36.893836      36.893836      36.893836    
    323000   0.53849232    -7.727864      -6.920137       4.3597409      50218.233      36.893836      36.893836      36.893836    
    324000   0.54020216    -7.7219995     -6.9117078      4.3949468      50218.233      36.893836      36.893836      36.893836    
    325000   0.54086782    -7.7237384     -6.9124482      4.3796615      50218.233      36.893836      36.893836      36.893836    
    326000   0.53890874    -7.7268238     -6.9184722      4.3510899      50218.233      36.893836      36.893836      36.893836    
    327000   0.53985796    -7.7321031     -6.9223277      4.3282955      50218.233      36.893836      36.893836      36.893836    
    328000   0.53813097    -7.724273      -6.917088       4.3830491      50218.233      36.893836      36.893836      36.893836    
    329000   0.53802086    -7.7288934     -6.9218736      4.3470145      50218.233      36.893836      36.893836      36.893836    
    330000   0.5394541     -7.7213185     -6.9121488      4.3998625      50218.233      36.893836      36.893836      36.893836    
    331000   0.5413922     -7.7273752     -6.9152985      4.3770773      50218.233      36.893836      36.893836      36.893836    
    332000   0.54024463    -7.726079      -6.9157236      4.3808976      50218.233      36.893836      36.893836      36.893836    
    333000   0.54061746    -7.7253844     -6.9144698      4.3831265      50218.233      36.893836      36.893836      36.893836    
    334000   0.53830905    -7.7231439     -6.9156918      4.3863092      50218.233      36.893836      36.893836      36.893836    
    335000   0.53870053    -7.7256105     -6.9175712      4.3741793      50218.233      36.893836      36.893836      36.893836    
    336000   0.5367529     -7.7295026     -6.9243847      4.3452151      50218.233      36.893836      36.893836      36.893836    
    337000   0.54094233    -7.7265394     -6.9151375      4.3635637      50218.233      36.893836      36.893836      36.893836    
    338000   0.53781337    -7.719566      -6.9128574      4.415485       50218.233      36.893836      36.893836      36.893836    
    339000   0.53919009    -7.7301649     -6.9213913      4.3399424      50218.233      36.893836      36.893836      36.893836    
    340000   0.53987153    -7.7260053     -6.9162095      4.3764255      50218.233      36.893836      36.893836      36.893836    
    341000   0.54104135    -7.7224527     -6.9109022      4.3952518      50218.233      36.893836      36.893836      36.893836    
    342000   0.53794997    -7.7240129     -6.9170994      4.3824801      50218.233      36.893836      36.893836      36.893836    
    343000   0.53850852    -7.7272833     -6.919532       4.3506398      50218.233      36.893836      36.893836      36.893836    
    344000   0.54194339    -7.7268326     -6.9139291      4.3761216      50218.233      36.893836      36.893836      36.893836    
    345000   0.53816634    -7.7250862     -6.9178482      4.375604       50218.233      36.893836      36.893836      36.893836    
    346000   0.5392403     -7.7279959     -6.9191469      4.3543856      50218.233      36.893836      36.893836      36.893836    
    347000   0.54201071    -7.7264543     -6.9134498      4.3696717      50218.233      36.893836      36.893836      36.893836    
    348000   0.54174646    -7.7212334     -6.9086252      4.3957385      50218.233      36.893836      36.893836      36.893836    
    349000   0.54158689    -7.7249448     -6.912576       4.3841748      50218.233      36.893836      36.893836      36.893836    
    350000   0.54112182    -7.7262942     -6.914623       4.3626696      50218.233      36.893836      36.893836      36.893836    
    351000   0.54068678    -7.726556      -6.9155374      4.358172       50218.233      36.893836      36.893836      36.893836    
    352000   0.54070034    -7.7271414     -6.9161025      4.3644969      50218.233      36.893836      36.893836      36.893836    
    353000   0.53879952    -7.729138      -6.9209503      4.3551566      50218.233      36.893836      36.893836      36.893836    
    354000   0.53945519    -7.725367      -6.9161957      4.3746401      50218.233      36.893836      36.893836      36.893836    
    355000   0.53879388    -7.7237129     -6.9155336      4.3952001      50218.233      36.893836      36.893836      36.893836    
    356000   0.54038435    -7.7267649     -6.9161999      4.3715325      50218.233      36.893836      36.893836      36.893836    
    357000   0.53961524    -7.7247421     -6.9153308      4.3780461      50218.233      36.893836      36.893836      36.893836    
    358000   0.53975985    -7.7257291     -6.9161009      4.3719525      50218.233      36.893836      36.893836      36.893836    
    359000   0.5419563     -7.7238323     -6.9109095      4.3844396      50218.233      36.893836      36.893836      36.893836    
    360000   0.53834789    -7.7309251     -6.9234147      4.3353366      50218.233      36.893836      36.893836      36.893836    
    361000   0.53995464    -7.7235497     -6.9136293      4.3752011      50218.233      36.893836      36.893836      36.893836    
    362000   0.53990313    -7.7262833     -6.9164401      4.3732481      50218.233      36.893836      36.893836      36.893836    
    363000   0.54003431    -7.7254612     -6.9154212      4.3751974      50218.233      36.893836      36.893836      36.893836    
    364000   0.54145919    -7.7287039     -6.9165267      4.3590228      50218.233      36.893836      36.893836      36.893836    
    365000   0.53910703    -7.7228694     -6.9142203      4.3873547      50218.233      36.893836      36.893836      36.893836    
    366000   0.53976222    -7.7226506     -6.9130187      4.3937807      50218.233      36.893836      36.893836      36.893836    
    367000   0.54248459    -7.7266539     -6.9129386      4.3781911      50218.233      36.893836      36.893836      36.893836    
    368000   0.54036103    -7.7221478     -6.9116178      4.398087       50218.233      36.893836      36.893836      36.893836    
    369000   0.53880678    -7.7250567     -6.9168581      4.3759112      50218.233      36.893836      36.893836      36.893836    
    370000   0.53998344    -7.7258561     -6.9158925      4.3655334      50218.233      36.893836      36.893836      36.893836    
    371000   0.54175377    -7.726797      -6.9141779      4.3512335      50218.233      36.893836      36.893836      36.893836    
    372000   0.53881654    -7.7259368     -6.9177235      4.362903       50218.233      36.893836      36.893836      36.893836    
    373000   0.54181952    -7.7255434     -6.9128257      4.3795581      50218.233      36.893836      36.893836      36.893836    
    374000   0.54096059    -7.728693      -6.9172637      4.341574       50218.233      36.893836      36.893836      36.893836    
    375000   0.54187107    -7.7246481     -6.911853       4.3697338      50218.233      36.893836      36.893836      36.893836    
    376000   0.53870345    -7.7248422     -6.9167985      4.3763986      50218.233      36.893836      36.893836      36.893836    
    377000   0.53857611    -7.7256442     -6.9177915      4.3623635      50218.233      36.893836      36.893836      36.893836    
    378000   0.54174787    -7.7262261     -6.9136159      4.3624368      50218.233      36.893836      36.893836      36.893836    
    379000   0.53839028    -7.7210475     -6.9134736      4.4123581      50218.233      36.893836      36.893836      36.893836    
    380000   0.53664378    -7.7267662     -6.921812       4.3579047      50218.233      36.893836      36.893836      36.893836    
    381000   0.53897993    -7.7265136     -6.9180552      4.3645073      50218.233      36.893836      36.893836      36.893836    
    382000   0.54150399    -7.7243399     -6.9120954      4.3794347      50218.233      36.893836      36.893836      36.893836    
    383000   0.53975819    -7.7231799     -6.9135542      4.3858969      50218.233      36.893836      36.893836      36.893836    
    384000   0.54329846    -7.7258724     -6.9109363      4.3610972      50218.233      36.893836      36.893836      36.893836    
    385000   0.53613305    -7.7235329     -6.9193447      4.3768431      50218.233      36.893836      36.893836      36.893836    
    386000   0.53991996    -7.7317284     -6.92186        4.3225827      50218.233      36.893836      36.893836      36.893836    
    387000   0.54331811    -7.7244505     -6.909485       4.3873921      50218.233      36.893836      36.893836      36.893836    
    388000   0.53775754    -7.7267819     -6.9201571      4.3599733      50218.233      36.893836      36.893836      36.893836    
    389000   0.54108347    -7.7229743     -6.9113606      4.3853876      50218.233      36.893836      36.893836      36.893836    
    390000   0.5392213     -7.7299679     -6.9211474      4.3387524      50218.233      36.893836      36.893836      36.893836    
    391000   0.53762398    -7.7222901     -6.9158656      4.3831911      50218.233      36.893836      36.893836      36.893836    
    392000   0.53906404    -7.7264094     -6.9178249      4.3617263      50218.233      36.893836      36.893836      36.893836    
    393000   0.54100482    -7.7273586     -6.9158629      4.3491109      50218.233      36.893836      36.893836      36.893836    
    394000   0.53671062    -7.7215631     -6.9165086      4.3966063      50218.233      36.893836      36.893836      36.893836    
    395000   0.54113216    -7.7275065     -6.9158198      4.3615367      50218.233      36.893836      36.893836      36.893836    
    396000   0.54158002    -7.7259796     -6.9136211      4.3742335      50218.233      36.893836      36.893836      36.893836    
    397000   0.53993357    -7.7208604     -6.9109715      4.4088075      50218.233      36.893836      36.893836      36.893836    
    398000   0.53946423    -7.7230516     -6.9138668      4.3944314      50218.233      36.893836      36.893836      36.893836    
    399000   0.54201744    -7.7272901     -6.9142755      4.3696026      50218.233      36.893836      36.893836      36.893836    
    400000   0.54014329    -7.7225671     -6.9123636      4.3984268      50218.233      36.893836      36.893836      36.893836    
    401000   0.5384512     -7.7249019     -6.9172366      4.38072        50218.233      36.893836      36.893836      36.893836    
    402000   0.53859383    -7.7229126     -6.9150334      4.3946031      50218.233      36.893836      36.893836      36.893836    
    403000   0.53857229    -7.7212792     -6.9134322      4.4089207      50218.233      36.893836      36.893836      36.893836    
    404000   0.53897374    -7.725046      -6.9165969      4.3810014      50218.233      36.893836      36.893836      36.893836    
    405000   0.54497433    -7.7263434     -6.9088935      4.3730782      50218.233      36.893836      36.893836      36.893836    
    406000   0.53872748    -7.7251566     -6.9170768      4.3789309      50218.233      36.893836      36.893836      36.893836    
    407000   0.54258839    -7.7229227     -6.9090517      4.3971088      50218.233      36.893836      36.893836      36.893836    
    408000   0.53928328    -7.7258492     -6.9169358      4.3753188      50218.233      36.893836      36.893836      36.893836    
    409000   0.53961489    -7.7272432     -6.9178324      4.3666193      50218.233      36.893836      36.893836      36.893836    
    410000   0.53811421    -7.7278875     -6.9207276      4.3553521      50218.233      36.893836      36.893836      36.893836    
    411000   0.53970726    -7.7243672     -6.9148178      4.3803536      50218.233      36.893836      36.893836      36.893836    
    412000   0.53986792    -7.7286679     -6.9188776      4.3530876      50218.233      36.893836      36.893836      36.893836    
    413000   0.5388779     -7.7263335     -6.9180281      4.3677145      50218.233      36.893836      36.893836      36.893836    
    414000   0.53932734    -7.7230263     -6.9140468      4.4001277      50218.233      36.893836      36.893836      36.893836    
    415000   0.53927119    -7.7246258     -6.9157305      4.3963106      50218.233      36.893836      36.893836      36.893836    
    416000   0.5383648     -7.7212415     -6.9137058      4.4191325      50218.233      36.893836      36.893836      36.893836    
    417000   0.53836533    -7.7220514     -6.9145149      4.3969191      50218.233      36.893836      36.893836      36.893836    
    418000   0.53863271    -7.7224653     -6.9145277      4.387864       50218.233      36.893836      36.893836      36.893836    
    419000   0.53944697    -7.7261285     -6.9169695      4.3839851      50218.233      36.893836      36.893836      36.893836    
    420000   0.54178395    -7.7260581     -6.9133937      4.383374       50218.233      36.893836      36.893836      36.893836    
    421000   0.53889055    -7.7227164     -6.914392       4.3917289      50218.233      36.893836      36.893836      36.893836    
    422000   0.54228518    -7.7234043     -6.9099881      4.3895763      50218.233      36.893836      36.893836      36.893836    
    423000   0.53664604    -7.7270458     -6.9220882      4.3576215      50218.233      36.893836      36.893836      36.893836    
    424000   0.53845669    -7.72306       -6.9153864      4.3812219      50218.233      36.893836      36.893836      36.893836    
    425000   0.54255082    -7.7203688     -6.9065542      4.4177909      50218.233      36.893836      36.893836      36.893836    
    426000   0.53882831    -7.7210605     -6.9128296      4.4159735      50218.233      36.893836      36.893836      36.893836    
    427000   0.54092021    -7.7211162     -6.9097474      4.4040331      50218.233      36.893836      36.893836      36.893836    
    428000   0.54137601    -7.7250856     -6.9130331      4.3784032      50218.233      36.893836      36.893836      36.893836    
    429000   0.53916293    -7.7222673     -6.9135344      4.3939008      50218.233      36.893836      36.893836      36.893836    
    430000   0.53981518    -7.7223505     -6.9126392      4.39573        50218.233      36.893836      36.893836      36.893836    
    431000   0.53635237    -7.7226255     -6.9181084      4.3959451      50218.233      36.893836      36.893836      36.893836    
    432000   0.53985129    -7.7217431     -6.9119777      4.4024798      50218.233      36.893836      36.893836      36.893836    
    433000   0.54231852    -7.7238356     -6.9103694      4.3841354      50218.233      36.893836      36.893836      36.893836    
    434000   0.53504585    -7.7237863     -6.9212289      4.3779739      50218.233      36.893836      36.893836      36.893836    
    435000   0.54296545    -7.7216532     -6.9072166      4.409359       50218.233      36.893836      36.893836      36.893836    
    436000   0.53885311    -7.7252892     -6.917021       4.3713075      50218.233      36.893836      36.893836      36.893836    
    437000   0.53984459    -7.7261752     -6.9164198      4.3669703      50218.233      36.893836      36.893836      36.893836    
    438000   0.53970056    -7.7222744     -6.9127351      4.3991496      50218.233      36.893836      36.893836      36.893836    
    439000   0.54065997    -7.7278567     -6.9168783      4.3535474      50218.233      36.893836      36.893836      36.893836    
    440000   0.53965487    -7.724118      -6.9146472      4.3944191      50218.233      36.893836      36.893836      36.893836    
    441000   0.54460529    -7.7240618     -6.9071655      4.3942841      50218.233      36.893836      36.893836      36.893836    
    442000   0.53823823    -7.7233343     -6.9159884      4.3890188      50218.233      36.893836      36.893836      36.893836    
    443000   0.54428754    -7.7241567     -6.907737       4.3993741      50218.233      36.893836      36.893836      36.893836    
    444000   0.53874365    -7.7238256     -6.9157216      4.3960505      50218.233      36.893836      36.893836      36.893836    
    445000   0.54178197    -7.7256797     -6.9130183      4.3702472      50218.233      36.893836      36.893836      36.893836    
    446000   0.53872347    -7.721392      -6.9133183      4.4112974      50218.233      36.893836      36.893836      36.893836    
    447000   0.53998741    -7.7244945     -6.9145249      4.3858298      50218.233      36.893836      36.893836      36.893836    
    448000   0.53874798    -7.7222277     -6.9141172      4.3955044      50218.233      36.893836      36.893836      36.893836    
    449000   0.54083495    -7.7195943     -6.9083534      4.4240146      50218.233      36.893836      36.893836      36.893836    
    450000   0.5381917     -7.7201417     -6.9128656      4.4182903      50218.233      36.893836      36.893836      36.893836    
    451000   0.53891054    -7.7228179     -6.9144636      4.3861142      50218.233      36.893836      36.893836      36.893836    
    452000   0.53758063    -7.7247024     -6.918343       4.3849412      50218.233      36.893836      36.893836      36.893836    
    453000   0.53795512    -7.7286852     -6.921764       4.3481143      50218.233      36.893836      36.893836      36.893836    
    454000   0.53853392    -7.71973       -6.9119406      4.4067992      50218.233      36.893836      36.893836      36.893836    
    455000   0.53806737    -7.7262418     -6.9191522      4.3685146      50218.233      36.893836      36.893836      36.893836    
    456000   0.54172985    -7.7252273     -6.9126441      4.3809348      50218.233      36.893836      36.893836      36.893836    
    457000   0.53971701    -7.7254611     -6.9158971      4.3722703      50218.233      36.893836      36.893836      36.893836    
    458000   0.53943448    -7.7239265     -6.9147863      4.3934348      50218.233      36.893836      36.893836      36.893836    
    459000   0.54135499    -7.7235979     -6.911577       4.3909229      50218.233      36.893836      36.893836      36.893836    
    460000   0.53944395    -7.720842      -6.9116876      4.4050016      50218.233      36.893836      36.893836      36.893836    
    461000   0.5373639     -7.7209145     -6.9148801      4.4012054      50218.233      36.893836      36.893836      36.893836    
    462000   0.53983567    -7.7235105     -6.9137685      4.383623       50218.233      36.893836      36.893836      36.893836    
    463000   0.53738946    -7.7257069     -6.9196342      4.3694389      50218.233      36.893836      36.893836      36.893836    
    464000   0.53924999    -7.7251878     -6.9163244      4.3795395      50218.233      36.893836      36.893836      36.893836    
    465000   0.542285      -7.7236203     -6.9102044      4.3917088      50218.233      36.893836      36.893836      36.893836    
    466000   0.54044976    -7.7225273     -6.9118642      4.3997524      50218.233      36.893836      36.893836      36.893836    
    467000   0.53713078    -7.7238483     -6.9181635      4.3847961      50218.233      36.893836      36.893836      36.893836    
    468000   0.53720508    -7.7223395     -6.9165434      4.391828       50218.233      36.893836      36.893836      36.893836    
    469000   0.54144449    -7.7263159     -6.9141607      4.3785413      50218.233      36.893836      36.893836      36.893836    
    470000   0.53999397    -7.7229626     -6.9129832      4.3910564      50218.233      36.893836      36.893836      36.893836    
    471000   0.54145185    -7.722811      -6.9106448      4.3856582      50218.233      36.893836      36.893836      36.893836    
    472000   0.54027134    -7.7221777     -6.9117822      4.3950742      50218.233      36.893836      36.893836      36.893836    
    473000   0.53905903    -7.7255508     -6.9169737      4.3851666      50218.233      36.893836      36.893836      36.893836    
    474000   0.54017428    -7.7272447     -6.9169948      4.3520246      50218.233      36.893836      36.893836      36.893836    
    475000   0.53994971    -7.7286257     -6.9187127      4.3609114      50218.233      36.893836      36.893836      36.893836    
    476000   0.53841105    -7.7253447     -6.9177396      4.3842877      50218.233      36.893836      36.893836      36.893836    
    477000   0.54168725    -7.7258699     -6.9133506      4.3716495      50218.233      36.893836      36.893836      36.893836    
    478000   0.53929523    -7.7259531     -6.9170218      4.3797282      50218.233      36.893836      36.893836      36.893836    
    479000   0.54052268    -7.7202455     -6.909473       4.3971633      50218.233      36.893836      36.893836      36.893836    
    480000   0.53912925    -7.7260661     -6.9173837      4.3743842      50218.233      36.893836      36.893836      36.893836    
    481000   0.5414155     -7.7224524     -6.9103407      4.4019648      50218.233      36.893836      36.893836      36.893836    
    482000   0.54011991    -7.7228292     -6.9126609      4.3974052      50218.233      36.893836      36.893836      36.893836    
    483000   0.53938175    -7.7240215     -6.9149604      4.389368       50218.233      36.893836      36.893836      36.893836    
    484000   0.54279284    -7.7224423     -6.9082646      4.4027579      50218.233      36.893836      36.893836      36.893836    
    485000   0.53928519    -7.7236085     -6.9146922      4.3747328      50218.233      36.893836      36.893836      36.893836    
    486000   0.54110101    -7.7211222     -6.9094822      4.3953147      50218.233      36.893836      36.893836      36.893836    
    487000   0.54066581    -7.7259241     -6.914937       4.3670963      50218.233      36.893836      36.893836      36.893836    
    488000   0.54006339    -7.7218565     -6.9117729      4.405545       50218.233      36.893836      36.893836      36.893836    
    489000   0.5391164     -7.7196523     -6.9109892      4.4194227      50218.233      36.893836      36.893836      36.893836    
    490000   0.54273958    -7.723844      -6.9097463      4.3915452      50218.233      36.893836      36.893836      36.893836    
    491000   0.53916599    -7.7219222     -6.9131847      4.3946643      50218.233      36.893836      36.893836      36.893836    
    492000   0.53829473    -7.7273331     -6.9199025      4.359932       50218.233      36.893836      36.893836      36.893836    
    493000   0.5392665     -7.7246171     -6.9157288      4.3639781      50218.233      36.893836      36.893836      36.893836    
    494000   0.54055015    -7.7275264     -6.9167127      4.3546093      50218.233      36.893836      36.893836      36.893836    
    495000   0.54202703    -7.7208395     -6.9078105      4.405367       50218.233      36.893836      36.893836      36.893836    
    496000   0.54067593    -7.7235229     -6.9125205      4.3915219      50218.233      36.893836      36.893836      36.893836    
    497000   0.54230209    -7.721992      -6.9085504      4.3975348      50218.233      36.893836      36.893836      36.893836    
    498000   0.53925647    -7.7207494     -6.9118763      4.4029265      50218.233      36.893836      36.893836      36.893836    
    499000   0.54214919    -7.7253849     -6.9121726      4.3698773      50218.233      36.893836      36.893836      36.893836    
    500000   0.53946894    -7.7250378     -6.9158459      4.3889285      50218.233      36.893836      36.893836      36.893836    
    501000   0.54228576    -7.7239217     -6.9105046      4.391133       50218.233      36.893836      36.893836      36.893836    
    502000   0.53873304    -7.7194899     -6.9114018      4.4097588      50218.233      36.893836      36.893836      36.893836    
    503000   0.5416249     -7.7267278     -6.914302       4.3703681      50218.233      36.893836      36.893836      36.893836    
    504000   0.53984935    -7.7246875     -6.914925       4.3842237      50218.233      36.893836      36.893836      36.893836    
    505000   0.53867582    -7.7194802     -6.9114779      4.4124608      50218.233      36.893836      36.893836      36.893836    
    506000   0.54439359    -7.7228836     -6.9063048      4.3845839      50218.233      36.893836      36.893836      36.893836    
    507000   0.53998029    -7.7226999     -6.912741       4.3965183      50218.233      36.893836      36.893836      36.893836    
    508000   0.5364746     -7.7243703     -6.9196699      4.3757238      50218.233      36.893836      36.893836      36.893836    
    509000   0.54068623    -7.7235605     -6.9125427      4.391759       50218.233      36.893836      36.893836      36.893836    
    510000   0.53740104    -7.7232367     -6.9171466      4.3824726      50218.233      36.893836      36.893836      36.893836    
    511000   0.54161274    -7.7254164     -6.9130089      4.3821892      50218.233      36.893836      36.893836      36.893836    
    512000   0.53669462    -7.7228518     -6.9178213      4.3891265      50218.233      36.893836      36.893836      36.893836    
    513000   0.53996444    -7.7235728     -6.9136377      4.3854485      50218.233      36.893836      36.893836      36.893836    
    514000   0.53710546    -7.7213838     -6.915737       4.392907       50218.233      36.893836      36.893836      36.893836    
    515000   0.54185757    -7.7237505     -6.9109757      4.3793632      50218.233      36.893836      36.893836      36.893836    
    516000   0.53737281    -7.7278001     -6.9217523      4.351848       50218.233      36.893836      36.893836      36.893836    
    517000   0.5434231     -7.7263057     -6.9111826      4.3824856      50218.233      36.893836      36.893836      36.893836    
    518000   0.539267      -7.7182505     -6.9093615      4.4266116      50218.233      36.893836      36.893836      36.893836    
    519000   0.53962716    -7.7212564     -6.9118272      4.4014019      50218.233      36.893836      36.893836      36.893836    
    520000   0.54145025    -7.7164459     -6.9042821      4.4489475      50218.233      36.893836      36.893836      36.893836    
    521000   0.53920543    -7.7188163     -6.9100196      4.4214677      50218.233      36.893836      36.893836      36.893836    
    522000   0.54193149    -7.7243296     -6.9114439      4.3831315      50218.233      36.893836      36.893836      36.893836    
    523000   0.54028246    -7.7236746     -6.9132624      4.3918297      50218.233      36.893836      36.893836      36.893836    
    524000   0.54081017    -7.7216424     -6.9104386      4.3966787      50218.233      36.893836      36.893836      36.893836    
    525000   0.54516623    -7.719738      -6.9020003      4.4281528      50218.233      36.893836      36.893836      36.893836    
    526000   0.54145282    -7.7235169     -6.9113492      4.3872991      50218.233      36.893836      36.893836      36.893836    
    527000   0.54227589    -7.7222969     -6.9088947      4.3907136      50218.233      36.893836      36.893836      36.893836    
    528000   0.54227839    -7.723305      -6.909899       4.3851175      50218.233      36.893836      36.893836      36.893836    
    529000   0.5442112     -7.7229523     -6.9066471      4.39933        50218.233      36.893836      36.893836      36.893836    
    530000   0.5385288     -7.72414       -6.9163583      4.3767158      50218.233      36.893836      36.893836      36.893836    
    531000   0.54071478    -7.7198874     -6.9088268      4.4119332      50218.233      36.893836      36.893836      36.893836    
    532000   0.53802919    -7.7234583     -6.916426       4.3871803      50218.233      36.893836      36.893836      36.893836    
    533000   0.54296934    -7.7198885     -6.9054461      4.410346       50218.233      36.893836      36.893836      36.893836    
    534000   0.54190122    -7.7200632     -6.907223       4.4178787      50218.233      36.893836      36.893836      36.893836    
    535000   0.54202518    -7.723174      -6.9101478      4.3944873      50218.233      36.893836      36.893836      36.893836    
    536000   0.53831649    -7.7252238     -6.9177606      4.3824802      50218.233      36.893836      36.893836      36.893836    
    537000   0.54060888    -7.7226952     -6.9117935      4.3976765      50218.233      36.893836      36.893836      36.893836    
    538000   0.54143556    -7.726478      -6.9143362      4.3697889      50218.233      36.893836      36.893836      36.893836    
    539000   0.53814418    -7.7230429     -6.9158381      4.3918507      50218.233      36.893836      36.893836      36.893836    
    540000   0.53905296    -7.7246668     -6.9160988      4.3800504      50218.233      36.893836      36.893836      36.893836    
    541000   0.54058798    -7.7221551     -6.9112846      4.3827555      50218.233      36.893836      36.893836      36.893836    
    542000   0.53943101    -7.721038      -6.911903       4.4072526      50218.233      36.893836      36.893836      36.893836    
    543000   0.54128056    -7.7208872     -6.9089779      4.4029412      50218.233      36.893836      36.893836      36.893836    
    544000   0.53956616    -7.7195627     -6.910225       4.4158333      50218.233      36.893836      36.893836      36.893836    
    545000   0.53923089    -7.7192388     -6.910404       4.4105278      50218.233      36.893836      36.893836      36.893836    
    546000   0.53975897    -7.722037      -6.9124101      4.3868438      50218.233      36.893836      36.893836      36.893836    
    547000   0.540862      -7.7265015     -6.91522        4.3644696      50218.233      36.893836      36.893836      36.893836    
    548000   0.54091534    -7.7235331     -6.9121717      4.3859321      50218.233      36.893836      36.893836      36.893836    
    549000   0.54187262    -7.7216137     -6.9088163      4.4012429      50218.233      36.893836      36.893836      36.893836    
    550000   0.53709087    -7.7255513     -6.9199265      4.371626       50218.233      36.893836      36.893836      36.893836    
    551000   0.53843514    -7.7248616     -6.9172204      4.3706226      50218.233      36.893836      36.893836      36.893836    
    552000   0.53784652    -7.7289366     -6.9221783      4.3401292      50218.233      36.893836      36.893836      36.893836    
    553000   0.54177264    -7.7251831     -6.9125357      4.3801946      50218.233      36.893836      36.893836      36.893836    
    554000   0.53915661    -7.7236656     -6.9149422      4.3661385      50218.233      36.893836      36.893836      36.893836    
    555000   0.54241364    -7.7239771     -6.9103682      4.3763408      50218.233      36.893836      36.893836      36.893836    
    556000   0.54035082    -7.7260732     -6.9155585      4.3698566      50218.233      36.893836      36.893836      36.893836    
    557000   0.53863945    -7.7271226     -6.9191749      4.3529642      50218.233      36.893836      36.893836      36.893836    
    558000   0.53709844    -7.7246364     -6.9190002      4.3638823      50218.233      36.893836      36.893836      36.893836    
    559000   0.54075987    -7.7280655     -6.9169373      4.3591248      50218.233      36.893836      36.893836      36.893836    
    560000   0.53967916    -7.7237824     -6.9142752      4.3799539      50218.233      36.893836      36.893836      36.893836    
    561000   0.54212401    -7.7272829     -6.9141085      4.3672386      50218.233      36.893836      36.893836      36.893836    
    562000   0.53955383    -7.7262554     -6.9169361      4.3892602      50218.233      36.893836      36.893836      36.893836    
    563000   0.54109801    -7.7239307     -6.9122952      4.3864472      50218.233      36.893836      36.893836      36.893836    
    564000   0.54323715    -7.7270141     -6.9121699      4.3615676      50218.233      36.893836      36.893836      36.893836    
    565000   0.54132056    -7.7247977     -6.9128284      4.3834243      50218.233      36.893836      36.893836      36.893836    
    566000   0.53596375    -7.7206264     -6.9166922      4.3993415      50218.233      36.893836      36.893836      36.893836    
    567000   0.5397669     -7.7280781     -6.9184393      4.3580776      50218.233      36.893836      36.893836      36.893836    
    568000   0.53844978    -7.7253488     -6.9176856      4.3697604      50218.233      36.893836      36.893836      36.893836    
    569000   0.53558746    -7.7232953     -6.9199256      4.3755416      50218.233      36.893836      36.893836      36.893836    
    570000   0.54226989    -7.7201928     -6.9067996      4.4114191      50218.233      36.893836      36.893836      36.893836    
    571000   0.54424569    -7.7214258     -6.9050689      4.406071       50218.233      36.893836      36.893836      36.893836    
    572000   0.53981111    -7.7256818     -6.9159767      4.3586655      50218.233      36.893836      36.893836      36.893836    
    573000   0.54027321    -7.7235791     -6.9131808      4.3875421      50218.233      36.893836      36.893836      36.893836    
    574000   0.53913613    -7.7231295     -6.9144369      4.3816382      50218.233      36.893836      36.893836      36.893836    
    575000   0.54190432    -7.7238319     -6.910987       4.3752389      50218.233      36.893836      36.893836      36.893836    
    576000   0.53816973    -7.7252952     -6.9180521      4.3728776      50218.233      36.893836      36.893836      36.893836    
    577000   0.53977646    -7.7254217     -6.9157685      4.3742309      50218.233      36.893836      36.893836      36.893836    
    578000   0.54030299    -7.7252008     -6.9147578      4.3769033      50218.233      36.893836      36.893836      36.893836    
    579000   0.53967591    -7.7276456     -6.9181432      4.3617864      50218.233      36.893836      36.893836      36.893836    
    580000   0.54216319    -7.7222536     -6.9090204      4.3914838      50218.233      36.893836      36.893836      36.893836    
    581000   0.53885782    -7.7193719     -6.9110966      4.4301288      50218.233      36.893836      36.893836      36.893836    
    582000   0.53759179    -7.7263335     -6.9199573      4.3717838      50218.233      36.893836      36.893836      36.893836    
    583000   0.53946536    -7.730494      -6.9213075      4.3324694      50218.233      36.893836      36.893836      36.893836    
    584000   0.53963999    -7.7227382     -6.9132897      4.3985278      50218.233      36.893836      36.893836      36.893836    
    585000   0.54128951    -7.7210629     -6.9091402      4.4068612      50218.233      36.893836      36.893836      36.893836    
    586000   0.54472115    -7.7263821     -6.909312       4.3759119      50218.233      36.893836      36.893836      36.893836    
    587000   0.53885209    -7.7257697     -6.9175031      4.3759858      50218.233      36.893836      36.893836      36.893836    
    588000   0.53854215    -7.7203632     -6.9125614      4.4042345      50218.233      36.893836      36.893836      36.893836    
    589000   0.54144846    -7.719948      -6.9077868      4.4297885      50218.233      36.893836      36.893836      36.893836    
    590000   0.54010479    -7.7247104     -6.9145647      4.3786132      50218.233      36.893836      36.893836      36.893836    
    591000   0.5413482     -7.7239197     -6.911909       4.3899609      50218.233      36.893836      36.893836      36.893836    
    592000   0.54343725    -7.7259809     -6.9108367      4.3747123      50218.233      36.893836      36.893836      36.893836    
    593000   0.5409211     -7.7272223     -6.9158522      4.3645657      50218.233      36.893836      36.893836      36.893836    
    594000   0.53864131    -7.720788      -6.9128376      4.4003177      50218.233      36.893836      36.893836      36.893836    
    595000   0.53907482    -7.7283207     -6.91972        4.353206       50218.233      36.893836      36.893836      36.893836    
    596000   0.54446914    -7.7279118     -6.9112197      4.3684893      50218.233      36.893836      36.893836      36.893836    
    597000   0.53964065    -7.7228276     -6.9133781      4.3869116      50218.233      36.893836      36.893836      36.893836    
    598000   0.53991897    -7.7241495     -6.9142825      4.3802394      50218.233      36.893836      36.893836      36.893836    
    599000   0.54168972    -7.7238207     -6.9112977      4.3935177      50218.233      36.893836      36.893836      36.893836    
    600000   0.54219726    -7.7265064     -6.9132221      4.3758981      50218.233      36.893836      36.893836      36.893836    
    601000   0.53730319    -7.7281124     -6.922169       4.3488075      50218.233      36.893836      36.893836      36.893836    
    602000   0.53807923    -7.7270558     -6.9199484      4.3661759      50218.233      36.893836      36.893836      36.893836    
    603000   0.54328103    -7.722365      -6.9074551      4.3932662      50218.233      36.893836      36.893836      36.893836    
    604000   0.54016187    -7.7204183     -6.910187       4.4149021      50218.233      36.893836      36.893836      36.893836    
    605000   0.5437753     -7.7207496     -6.9050982      4.4199835      50218.233      36.893836      36.893836      36.893836    
    606000   0.53882204    -7.7229519     -6.9147304      4.3949565      50218.233      36.893836      36.893836      36.893836    
    607000   0.54078153    -7.7211792     -6.9100185      4.4115592      50218.233      36.893836      36.893836      36.893836    
    608000   0.54038105    -7.7222971     -6.9117371      4.4039169      50218.233      36.893836      36.893836      36.893836    
    609000   0.5359459     -7.7230477     -6.9191403      4.3968281      50218.233      36.893836      36.893836      36.893836    
    610000   0.53776191    -7.7235571     -6.9169258      4.3787965      50218.233      36.893836      36.893836      36.893836    
    611000   0.5394502     -7.7240665     -6.9149027      4.3745643      50218.233      36.893836      36.893836      36.893836    
    612000   0.53994611    -7.7239495     -6.9140418      4.3941187      50218.233      36.893836      36.893836      36.893836    
    613000   0.53942506    -7.7258027     -6.9166767      4.3764207      50218.233      36.893836      36.893836      36.893836    
    614000   0.53765774    -7.726074      -6.9195989      4.3607166      50218.233      36.893836      36.893836      36.893836    
    615000   0.53735703    -7.725004      -6.9189799      4.3656037      50218.233      36.893836      36.893836      36.893836    
    616000   0.54052922    -7.7232461     -6.9124638      4.3914376      50218.233      36.893836      36.893836      36.893836    
    617000   0.53841974    -7.7273821     -6.919764       4.3521645      50218.233      36.893836      36.893836      36.893836    
    618000   0.54013893    -7.7246915     -6.9144946      4.3834872      50218.233      36.893836      36.893836      36.893836    
    619000   0.54013742    -7.7250097     -6.9148151      4.3742935      50218.233      36.893836      36.893836      36.893836    
    620000   0.54022355    -7.729324      -6.9190002      4.3388208      50218.233      36.893836      36.893836      36.893836    
    621000   0.54140581    -7.7287587     -6.9166615      4.346976       50218.233      36.893836      36.893836      36.893836    
    622000   0.53932337    -7.7239071     -6.9149335      4.3857331      50218.233      36.893836      36.893836      36.893836    
    623000   0.54213162    -7.7244104     -6.9112245      4.3903208      50218.233      36.893836      36.893836      36.893836    
    624000   0.53749751    -7.7244671     -6.9182323      4.3855157      50218.233      36.893836      36.893836      36.893836    
    625000   0.53954168    -7.7228794     -6.9135784      4.397826       50218.233      36.893836      36.893836      36.893836    
    626000   0.5436348     -7.7256388     -6.9101982      4.3701704      50218.233      36.893836      36.893836      36.893836    
    627000   0.54301442    -7.7239929     -6.9094829      4.3932995      50218.233      36.893836      36.893836      36.893836    
    628000   0.5383485     -7.7230261     -6.9155148      4.3882026      50218.233      36.893836      36.893836      36.893836    
    629000   0.54098609    -7.7226044     -6.9111368      4.3991438      50218.233      36.893836      36.893836      36.893836    
    630000   0.54483867    -7.7219531     -6.9047067      4.420926       50218.233      36.893836      36.893836      36.893836    
    631000   0.53927877    -7.722634      -6.9137273      4.3934847      50218.233      36.893836      36.893836      36.893836    
    632000   0.53865106    -7.7249144     -6.9169493      4.3794118      50218.233      36.893836      36.893836      36.893836    
    633000   0.53910399    -7.7188888     -6.9102443      4.4193827      50218.233      36.893836      36.893836      36.893836    
    634000   0.539613      -7.7255615     -6.9161535      4.3843212      50218.233      36.893836      36.893836      36.893836    
    635000   0.54090057    -7.7241463     -6.912807       4.3978181      50218.233      36.893836      36.893836      36.893836    
    636000   0.53729717    -7.7221653     -6.916231       4.4029172      50218.233      36.893836      36.893836      36.893836    
    637000   0.54007923    -7.7283577     -6.9182504      4.3612462      50218.233      36.893836      36.893836      36.893836    
    638000   0.53723962    -7.7226522     -6.9168043      4.4074846      50218.233      36.893836      36.893836      36.893836    
    639000   0.53895109    -7.7256819     -6.9172668      4.3701457      50218.233      36.893836      36.893836      36.893836    
    640000   0.54328795    -7.7262511     -6.9113308      4.3818679      50218.233      36.893836      36.893836      36.893836    
    641000   0.53964868    -7.7292694     -6.9198079      4.3562146      50218.233      36.893836      36.893836      36.893836    
    642000   0.53862772    -7.7240881     -6.916158       4.3934264      50218.233      36.893836      36.893836      36.893836    
    643000   0.53987437    -7.7255812     -6.9157811      4.3785421      50218.233      36.893836      36.893836      36.893836    
    644000   0.54168719    -7.725514      -6.9129947      4.3860731      50218.233      36.893836      36.893836      36.893836    
    645000   0.5397542     -7.7229474     -6.9133276      4.3926522      50218.233      36.893836      36.893836      36.893836    
    646000   0.536407      -7.7253748     -6.9207757      4.3801712      50218.233      36.893836      36.893836      36.893836    
    647000   0.54016405    -7.7244549     -6.9142203      4.38142        50218.233      36.893836      36.893836      36.893836    
    648000   0.539683      -7.72465       -6.915137       4.382983       50218.233      36.893836      36.893836      36.893836    
    649000   0.54254522    -7.7257359     -6.9119296      4.3947644      50218.233      36.893836      36.893836      36.893836    
    650000   0.53603314    -7.7226375     -6.9185992      4.4017085      50218.233      36.893836      36.893836      36.893836    
    651000   0.53683006    -7.7230134     -6.9177798      4.4016569      50218.233      36.893836      36.893836      36.893836    
    652000   0.53817362    -7.7252271     -6.9179781      4.381615       50218.233      36.893836      36.893836      36.893836    
    653000   0.53905885    -7.7247118     -6.9161351      4.3728468      50218.233      36.893836      36.893836      36.893836    
    654000   0.5372071     -7.7268989     -6.9210997      4.3626321      50218.233      36.893836      36.893836      36.893836    
    655000   0.53730471    -7.7273394     -6.9213938      4.3651973      50218.233      36.893836      36.893836      36.893836    
    656000   0.53902816    -7.7247821     -6.9162514      4.3723638      50218.233      36.893836      36.893836      36.893836    
    657000   0.54037001    -7.7274325     -6.916889       4.3651257      50218.233      36.893836      36.893836      36.893836    
    658000   0.53825489    -7.7222765     -6.9149056      4.3870057      50218.233      36.893836      36.893836      36.893836    
    659000   0.54157772    -7.7256418     -6.9132868      4.3774141      50218.233      36.893836      36.893836      36.893836    
    660000   0.53884475    -7.7257782     -6.9175225      4.3719361      50218.233      36.893836      36.893836      36.893836    
    661000   0.54012632    -7.7256232     -6.9154452      4.379725       50218.233      36.893836      36.893836      36.893836    
    662000   0.54005231    -7.7226464     -6.9125795      4.3980374      50218.233      36.893836      36.893836      36.893836    
    663000   0.53958485    -7.723673      -6.9143072      4.389632       50218.233      36.893836      36.893836      36.893836    
    664000   0.54043251    -7.7209004     -6.9102631      4.4165101      50218.233      36.893836      36.893836      36.893836    
    665000   0.54013713    -7.7296529     -6.9194587      4.3420375      50218.233      36.893836      36.893836      36.893836    
    666000   0.54171707    -7.7209627     -6.9083986      4.4091109      50218.233      36.893836      36.893836      36.893836    
    667000   0.54118121    -7.723566      -6.9118057      4.390458       50218.233      36.893836      36.893836      36.893836    
    668000   0.54038679    -7.7238257     -6.913257       4.3866588      50218.233      36.893836      36.893836      36.893836    
    669000   0.54228744    -7.7253755     -6.9119559      4.376293       50218.233      36.893836      36.893836      36.893836    
    670000   0.53882649    -7.7277583     -6.91953        4.3666074      50218.233      36.893836      36.893836      36.893836    
    671000   0.53893096    -7.7224157     -6.9140307      4.3955131      50218.233      36.893836      36.893836      36.893836    
    672000   0.54158206    -7.720455      -6.9080935      4.4120927      50218.233      36.893836      36.893836      36.893836    
    673000   0.53941264    -7.725663      -6.9165556      4.3799367      50218.233      36.893836      36.893836      36.893836    
    674000   0.54033389    -7.7270665     -6.9165772      4.3651519      50218.233      36.893836      36.893836      36.893836    
    675000   0.54022008    -7.7236114     -6.9132928      4.3930977      50218.233      36.893836      36.893836      36.893836    
    676000   0.53882205    -7.7259439     -6.9177223      4.368423       50218.233      36.893836      36.893836      36.893836    
    677000   0.5402468     -7.720613      -6.9102543      4.4092471      50218.233      36.893836      36.893836      36.893836    
    678000   0.53942378    -7.7235773     -6.9144531      4.3905067      50218.233      36.893836      36.893836      36.893836    
    679000   0.54011709    -7.7204996     -6.9103355      4.4095469      50218.233      36.893836      36.893836      36.893836    
    680000   0.54126828    -7.7221564     -6.9102656      4.3937139      50218.233      36.893836      36.893836      36.893836    
    681000   0.5413944     -7.7232622     -6.9111822      4.395802       50218.233      36.893836      36.893836      36.893836    
    682000   0.53969281    -7.7255512     -6.9160235      4.3725911      50218.233      36.893836      36.893836      36.893836    
    683000   0.53817603    -7.7263137     -6.9190612      4.3552976      50218.233      36.893836      36.893836      36.893836    
    684000   0.53911875    -7.7255069     -6.9168403      4.3758846      50218.233      36.893836      36.893836      36.893836    
    685000   0.5411613     -7.727778      -6.9160476      4.3677602      50218.233      36.893836      36.893836      36.893836    
    686000   0.53872001    -7.7234761     -6.9154075      4.3891746      50218.233      36.893836      36.893836      36.893836    
    687000   0.53652971    -7.7230756     -6.9182924      4.3826059      50218.233      36.893836      36.893836      36.893836    
    688000   0.53638252    -7.7257228     -6.9211604      4.3720193      50218.233      36.893836      36.893836      36.893836    
    689000   0.54034615    -7.7218196     -6.9113119      4.393955       50218.233      36.893836      36.893836      36.893836    
    690000   0.54176405    -7.7286048     -6.9159703      4.3539937      50218.233      36.893836      36.893836      36.893836    
    691000   0.53871387    -7.7240236     -6.9159643      4.3868012      50218.233      36.893836      36.893836      36.893836    
    692000   0.53961983    -7.7230631     -6.9136448      4.3812854      50218.233      36.893836      36.893836      36.893836    
    693000   0.53811961    -7.726588      -6.9194201      4.3542712      50218.233      36.893836      36.893836      36.893836    
    694000   0.53995506    -7.7245348     -6.9146137      4.366063       50218.233      36.893836      36.893836      36.893836    
    695000   0.53894087    -7.7262904     -6.9178906      4.3553022      50218.233      36.893836      36.893836      36.893836    
    696000   0.54194391    -7.7223291     -6.9094248      4.3979451      50218.233      36.893836      36.893836      36.893836    
    697000   0.54150948    -7.7266691     -6.9144164      4.3668197      50218.233      36.893836      36.893836      36.893836    
    698000   0.53762563    -7.727192      -6.920765       4.3570575      50218.233      36.893836      36.893836      36.893836    
    699000   0.54288394    -7.7264682     -6.9121538      4.374768       50218.233      36.893836      36.893836      36.893836    
    700000   0.5415702     -7.7264499     -6.9141062      4.3683103      50218.233      36.893836      36.893836      36.893836    
    701000   0.53744977    -7.7228924     -6.9167292      4.3895162      50218.233      36.893836      36.893836      36.893836    
    702000   0.54260995    -7.7298575     -6.9159542      4.3523518      50218.233      36.893836      36.893836      36.893836    
    703000   0.54042503    -7.722837      -6.912211       4.3931597      50218.233      36.893836      36.893836      36.893836    
    704000   0.53974984    -7.7231694     -6.9135561      4.3866679      50218.233      36.893836      36.893836      36.893836    
    705000   0.54121445    -7.7257421     -6.913932       4.3763109      50218.233      36.893836      36.893836      36.893836    
    706000   0.53996097    -7.7259465     -6.9160166      4.3721435      50218.233      36.893836      36.893836      36.893836    
    707000   0.53832986    -7.7258361     -6.9183528      4.3671545      50218.233      36.893836      36.893836      36.893836    
    708000   0.53943312    -7.7268874     -6.9177493      4.3601782      50218.233      36.893836      36.893836      36.893836    
    709000   0.5371086     -7.722848      -6.9171966      4.3910882      50218.233      36.893836      36.893836      36.893836    
    710000   0.54224677    -7.7253853     -6.9120267      4.3816342      50218.233      36.893836      36.893836      36.893836    
    711000   0.54199991    -7.7224085     -6.9094202      4.3955289      50218.233      36.893836      36.893836      36.893836    
    712000   0.53749562    -7.7195725     -6.9133405      4.4116049      50218.233      36.893836      36.893836      36.893836    
    713000   0.53996776    -7.7255307     -6.9155905      4.360728       50218.233      36.893836      36.893836      36.893836    
    714000   0.54037638    -7.7188017     -6.9082487      4.428274       50218.233      36.893836      36.893836      36.893836    
    715000   0.53818389    -7.7236334     -6.9163691      4.3734538      50218.233      36.893836      36.893836      36.893836    
    716000   0.54045487    -7.7211779     -6.9105071      4.4160697      50218.233      36.893836      36.893836      36.893836    
    717000   0.53981229    -7.7305246     -6.9208177      4.3275841      50218.233      36.893836      36.893836      36.893836    
    718000   0.54102483    -7.7197174     -6.9081917      4.4130582      50218.233      36.893836      36.893836      36.893836    
    719000   0.53804983    -7.723982      -6.9169187      4.3810295      50218.233      36.893836      36.893836      36.893836    
    720000   0.5394294     -7.723822      -6.9146894      4.3840524      50218.233      36.893836      36.893836      36.893836    
    721000   0.54015381    -7.723579      -6.9133598      4.3871486      50218.233      36.893836      36.893836      36.893836    
    722000   0.53830579    -7.7270629     -6.9196157      4.3526027      50218.233      36.893836      36.893836      36.893836    
    723000   0.54289367    -7.7215276     -6.9071986      4.4002786      50218.233      36.893836      36.893836      36.893836    
    724000   0.53977296    -7.72098       -6.9113321      4.4030248      50218.233      36.893836      36.893836      36.893836    
    725000   0.54128439    -7.7241933     -6.9122783      4.380949       50218.233      36.893836      36.893836      36.893836    
    726000   0.54076437    -7.7213078     -6.9101727      4.4108494      50218.233      36.893836      36.893836      36.893836    
    727000   0.53849351    -7.725773      -6.9180442      4.3668766      50218.233      36.893836      36.893836      36.893836    
    728000   0.54060609    -7.723545      -6.9126474      4.3940503      50218.233      36.893836      36.893836      36.893836    
    729000   0.54149174    -7.7231595     -6.9109334      4.3953495      50218.233      36.893836      36.893836      36.893836    
    730000   0.53646824    -7.7247515     -6.9200606      4.3777385      50218.233      36.893836      36.893836      36.893836    
    731000   0.53655211    -7.7212953     -6.9164786      4.394913       50218.233      36.893836      36.893836      36.893836    
    732000   0.54264854    -7.7230824     -6.9091212      4.3936557      50218.233      36.893836      36.893836      36.893836    
    733000   0.54036013    -7.7247949     -6.9142662      4.3866224      50218.233      36.893836      36.893836      36.893836    
    734000   0.54452008    -7.7241239     -6.9073554      4.3934723      50218.233      36.893836      36.893836      36.893836    
    735000   0.53907373    -7.7187061     -6.910107       4.4262392      50218.233      36.893836      36.893836      36.893836    
    736000   0.53791289    -7.7209381     -6.9140803      4.4113339      50218.233      36.893836      36.893836      36.893836    
    737000   0.53968769    -7.7230102     -6.9134902      4.381301       50218.233      36.893836      36.893836      36.893836    
    738000   0.5388054     -7.7218347     -6.9136381      4.3951135      50218.233      36.893836      36.893836      36.893836    
    739000   0.54035825    -7.7216294     -6.9111036      4.4086765      50218.233      36.893836      36.893836      36.893836    
    740000   0.54056964    -7.7226923     -6.9118494      4.3888287      50218.233      36.893836      36.893836      36.893836    
    741000   0.54178288    -7.7239947     -6.9113319      4.3791493      50218.233      36.893836      36.893836      36.893836    
    742000   0.5397893     -7.7233179     -6.9136455      4.395071       50218.233      36.893836      36.893836      36.893836    
    743000   0.54263113    -7.7185929     -6.9046577      4.4296251      50218.233      36.893836      36.893836      36.893836    
    744000   0.5383197     -7.7218527     -6.9143846      4.3848032      50218.233      36.893836      36.893836      36.893836    
    745000   0.5444864     -7.723314      -6.906596       4.4002499      50218.233      36.893836      36.893836      36.893836    
    746000   0.54002923    -7.7245346     -6.9145023      4.3740132      50218.233      36.893836      36.893836      36.893836    
    747000   0.53662559    -7.7224066     -6.9174796      4.3977743      50218.233      36.893836      36.893836      36.893836    
    748000   0.53880539    -7.7232642     -6.9150676      4.3817743      50218.233      36.893836      36.893836      36.893836    
    749000   0.53778224    -7.7246384     -6.9179765      4.3857338      50218.233      36.893836      36.893836      36.893836    
    750000   0.53809416    -7.7234747     -6.9163449      4.3849944      50218.233      36.893836      36.893836      36.893836    
    751000   0.54241741    -7.7200764     -6.9064619      4.4221781      50218.233      36.893836      36.893836      36.893836    
    752000   0.54076897    -7.7176496     -6.9065077      4.4300214      50218.233      36.893836      36.893836      36.893836    
    753000   0.53687929    -7.7229836     -6.9176761      4.3760921      50218.233      36.893836      36.893836      36.893836    
    754000   0.54069322    -7.7202576     -6.9092294      4.4153741      50218.233      36.893836      36.893836      36.893836    
    755000   0.54200219    -7.7183637     -6.905372       4.4241594      50218.233      36.893836      36.893836      36.893836    
    756000   0.54124998    -7.7222487     -6.9103853      4.3934044      50218.233      36.893836      36.893836      36.893836    
    757000   0.54044679    -7.7213913     -6.9107326      4.4113851      50218.233      36.893836      36.893836      36.893836    
    758000   0.53978495    -7.7213188     -6.9116529      4.4003354      50218.233      36.893836      36.893836      36.893836    
    759000   0.54366698    -7.7198873     -6.9043984      4.4090716      50218.233      36.893836      36.893836      36.893836    
    760000   0.54104767    -7.7213552     -6.9097952      4.4080793      50218.233      36.893836      36.893836      36.893836    
    761000   0.54011571    -7.7200309     -6.9098688      4.4135399      50218.233      36.893836      36.893836      36.893836    
    762000   0.54026787    -7.7246376     -6.9142474      4.3862277      50218.233      36.893836      36.893836      36.893836    
    763000   0.5380998     -7.7229926     -6.9158544      4.38821        50218.233      36.893836      36.893836      36.893836    
    764000   0.54206708    -7.7249271     -6.9118381      4.3794465      50218.233      36.893836      36.893836      36.893836    
    765000   0.5422092     -7.7191044     -6.9058022      4.4058167      50218.233      36.893836      36.893836      36.893836    
    766000   0.53805647    -7.7200261     -6.9129528      4.3974092      50218.233      36.893836      36.893836      36.893836    
    767000   0.53655367    -7.7224036     -6.9175845      4.3780939      50218.233      36.893836      36.893836      36.893836    
    768000   0.54016324    -7.7206159     -6.9103825      4.4105804      50218.233      36.893836      36.893836      36.893836    
    769000   0.53825526    -7.7255785     -6.9182071      4.3732848      50218.233      36.893836      36.893836      36.893836    
    770000   0.54093109    -7.7201454     -6.9087603      4.416956       50218.233      36.893836      36.893836      36.893836    
    771000   0.54023887    -7.7209876     -6.9106408      4.4039129      50218.233      36.893836      36.893836      36.893836    
    772000   0.53976345    -7.7246341     -6.9150005      4.3880239      50218.233      36.893836      36.893836      36.893836    
    773000   0.53955093    -7.7240824     -6.9147675      4.3876124      50218.233      36.893836      36.893836      36.893836    
    774000   0.54064385    -7.7250755     -6.9141213      4.3723126      50218.233      36.893836      36.893836      36.893836    
    775000   0.54053508    -7.7206114     -6.9098203      4.4071179      50218.233      36.893836      36.893836      36.893836    
    776000   0.54189343    -7.7204166     -6.907588       4.4199326      50218.233      36.893836      36.893836      36.893836    
    777000   0.54202038    -7.7247974     -6.9117784      4.3883905      50218.233      36.893836      36.893836      36.893836    
    778000   0.54090546    -7.7257337     -6.914387       4.3675299      50218.233      36.893836      36.893836      36.893836    
    779000   0.54143588    -7.7229725     -6.9108302      4.3869189      50218.233      36.893836      36.893836      36.893836    
    780000   0.54038709    -7.722995      -6.9124259      4.3925754      50218.233      36.893836      36.893836      36.893836    
    781000   0.53890179    -7.7210956     -6.9127545      4.4075314      50218.233      36.893836      36.893836      36.893836    
    782000   0.53906297    -7.7199715     -6.9113885      4.4149451      50218.233      36.893836      36.893836      36.893836    
    783000   0.54122924    -7.7219372     -6.9101049      4.3995184      50218.233      36.893836      36.893836      36.893836    
    784000   0.53991312    -7.7265306     -6.9166725      4.3616342      50218.233      36.893836      36.893836      36.893836    
    785000   0.5396816     -7.7220247     -6.9125138      4.3941794      50218.233      36.893836      36.893836      36.893836    
    786000   0.53897403    -7.7233275     -6.914878       4.3878487      50218.233      36.893836      36.893836      36.893836    
    787000   0.53700537    -7.7225068     -6.9170102      4.3791787      50218.233      36.893836      36.893836      36.893836    
    788000   0.53907492    -7.7234134     -6.9148126      4.3767959      50218.233      36.893836      36.893836      36.893836    
    789000   0.54071421    -7.7265826     -6.9155228      4.3697076      50218.233      36.893836      36.893836      36.893836    
    790000   0.53954064    -7.7250397     -6.9157402      4.377623       50218.233      36.893836      36.893836      36.893836    
    791000   0.53849168    -7.7256896     -6.9179636      4.3716192      50218.233      36.893836      36.893836      36.893836    
    792000   0.53823166    -7.7277463     -6.9204103      4.3543096      50218.233      36.893836      36.893836      36.893836    
    793000   0.5368191     -7.7285924     -6.9233752      4.3376281      50218.233      36.893836      36.893836      36.893836    
    794000   0.53907593    -7.7262127     -6.9176103      4.3664714      50218.233      36.893836      36.893836      36.893836    
    795000   0.53778219    -7.7260008     -6.919339       4.3625849      50218.233      36.893836      36.893836      36.893836    
    796000   0.53718471    -7.7216274     -6.9158618      4.403287       50218.233      36.893836      36.893836      36.893836    
    797000   0.53873742    -7.7246448     -6.9165502      4.3925364      50218.233      36.893836      36.893836      36.893836    
    798000   0.53758354    -7.7248441     -6.9184803      4.3902384      50218.233      36.893836      36.893836      36.893836    
    799000   0.53935128    -7.7236612     -6.9146458      4.3889784      50218.233      36.893836      36.893836      36.893836    
    800000   0.53970735    -7.7240687     -6.9145192      4.3924364      50218.233      36.893836      36.893836      36.893836    
    801000   0.54065063    -7.7268971     -6.9159327      4.3723527      50218.233      36.893836      36.893836      36.893836    
    802000   0.54189572    -7.7215833     -6.9087513      4.404178       50218.233      36.893836      36.893836      36.893836    
    803000   0.5363636     -7.7268551     -6.9223212      4.3625767      50218.233      36.893836      36.893836      36.893836    
    804000   0.53978397    -7.7221008     -6.9124364      4.4064497      50218.233      36.893836      36.893836      36.893836    
    805000   0.5425431     -7.7252052     -6.9114022      4.378398       50218.233      36.893836      36.893836      36.893836    
    806000   0.53826717    -7.7247072     -6.9173179      4.3793095      50218.233      36.893836      36.893836      36.893836    
    807000   0.541892      -7.7210515     -6.908225       4.4152306      50218.233      36.893836      36.893836      36.893836    
    808000   0.53937502    -7.7206371     -6.911586       4.411638       50218.233      36.893836      36.893836      36.893836    
    809000   0.53911812    -7.728179      -6.9195133      4.3561682      50218.233      36.893836      36.893836      36.893836    
    810000   0.54295473    -7.7214907     -6.9070702      4.4038865      50218.233      36.893836      36.893836      36.893836    
    811000   0.54072478    -7.7233531     -6.9122775      4.3927307      50218.233      36.893836      36.893836      36.893836    
    812000   0.54124286    -7.7196977     -6.907845       4.417387       50218.233      36.893836      36.893836      36.893836    
    813000   0.54016024    -7.7247098     -6.914481       4.3876192      50218.233      36.893836      36.893836      36.893836    
    814000   0.53928069    -7.724634      -6.9157245      4.3757594      50218.233      36.893836      36.893836      36.893836    
    815000   0.5386104     -7.7232819     -6.9153778      4.4035996      50218.233      36.893836      36.893836      36.893836    
    816000   0.54157133    -7.7213122     -6.9089667      4.408708       50218.233      36.893836      36.893836      36.893836    
    817000   0.53884072    -7.7286155     -6.9203659      4.3370139      50218.233      36.893836      36.893836      36.893836    
    818000   0.53933887    -7.7248601     -6.9158633      4.3736465      50218.233      36.893836      36.893836      36.893836    
    819000   0.54122517    -7.7235023     -6.9116761      4.3984822      50218.233      36.893836      36.893836      36.893836    
    820000   0.53983485    -7.7214798     -6.911739       4.3906478      50218.233      36.893836      36.893836      36.893836    
    821000   0.54214695    -7.7210964     -6.9078876      4.4017493      50218.233      36.893836      36.893836      36.893836    
    822000   0.54047164    -7.7239845     -6.9132886      4.3977382      50218.233      36.893836      36.893836      36.893836    
    823000   0.53977275    -7.7238781     -6.9142305      4.3971017      50218.233      36.893836      36.893836      36.893836    
    824000   0.54062977    -7.7208151     -6.909882       4.4122997      50218.233      36.893836      36.893836      36.893836    
    825000   0.53910525    -7.7242345     -6.9155881      4.3842941      50218.233      36.893836      36.893836      36.893836    
    826000   0.53939024    -7.7262147     -6.9171409      4.3694413      50218.233      36.893836      36.893836      36.893836    
    827000   0.53983412    -7.7234235     -6.9136838      4.387026       50218.233      36.893836      36.893836      36.893836    
    828000   0.54331918    -7.7279601     -6.9129929      4.3682477      50218.233      36.893836      36.893836      36.893836    
    829000   0.54095117    -7.7228347     -6.9114195      4.3924357      50218.233      36.893836      36.893836      36.893836    
    830000   0.53660621    -7.7232058     -6.9183079      4.3878684      50218.233      36.893836      36.893836      36.893836    
    831000   0.54111447    -7.726863      -6.9152028      4.3674375      50218.233      36.893836      36.893836      36.893836    
    832000   0.54010214    -7.7224511     -6.9123094      4.3921662      50218.233      36.893836      36.893836      36.893836    
    833000   0.54166706    -7.7269463     -6.9144572      4.3675891      50218.233      36.893836      36.893836      36.893836    
    834000   0.54247958    -7.7253101     -6.9116023      4.3904686      50218.233      36.893836      36.893836      36.893836    
    835000   0.54031462    -7.7230043     -6.9125439      4.3966077      50218.233      36.893836      36.893836      36.893836    
    836000   0.53795895    -7.7248494     -6.9179224      4.3832503      50218.233      36.893836      36.893836      36.893836    
    837000   0.53909841    -7.7231537     -6.9145176      4.3921553      50218.233      36.893836      36.893836      36.893836    
    838000   0.54129029    -7.7237863     -6.9118624      4.3877304      50218.233      36.893836      36.893836      36.893836    
    839000   0.54098781    -7.7213296     -6.9098595      4.4022446      50218.233      36.893836      36.893836      36.893836    
    840000   0.53944692    -7.7235109     -6.914352       4.3969405      50218.233      36.893836      36.893836      36.893836    
    841000   0.53937423    -7.718439      -6.9093892      4.424          50218.233      36.893836      36.893836      36.893836    
    842000   0.54123847    -7.7206983     -6.9088521      4.4124642      50218.233      36.893836      36.893836      36.893836    
    843000   0.53902334    -7.7247402     -6.9162167      4.3789405      50218.233      36.893836      36.893836      36.893836    
    844000   0.53865706    -7.7238362     -6.9158621      4.3893425      50218.233      36.893836      36.893836      36.893836    
    845000   0.54257833    -7.7251288     -6.9112728      4.3749269      50218.233      36.893836      36.893836      36.893836    
    846000   0.54214816    -7.7229511     -6.9097404      4.3916913      50218.233      36.893836      36.893836      36.893836    
    847000   0.54099758    -7.7224524     -6.9109675      4.3916925      50218.233      36.893836      36.893836      36.893836    
    848000   0.53883848    -7.7239157     -6.9156694      4.391682       50218.233      36.893836      36.893836      36.893836    
    849000   0.53943438    -7.721399      -6.912259       4.4007721      50218.233      36.893836      36.893836      36.893836    
    850000   0.53957538    -7.7233232     -6.9139716      4.3835907      50218.233      36.893836      36.893836      36.893836    
    851000   0.54214158    -7.7249606     -6.9117598      4.3833203      50218.233      36.893836      36.893836      36.893836    
    852000   0.54144197    -7.7209297     -6.9087783      4.4088886      50218.233      36.893836      36.893836      36.893836    
    853000   0.53952739    -7.7231363     -6.9138567      4.3876167      50218.233      36.893836      36.893836      36.893836    
    854000   0.54023509    -7.7217431     -6.911402       4.4095564      50218.233      36.893836      36.893836      36.893836    
    855000   0.5379658     -7.7264037     -6.9194665      4.3752732      50218.233      36.893836      36.893836      36.893836    
    856000   0.54122374    -7.7261065     -6.9142824      4.3754053      50218.233      36.893836      36.893836      36.893836    
    857000   0.53795578    -7.7209078     -6.9139856      4.4059669      50218.233      36.893836      36.893836      36.893836    
    858000   0.54201313    -7.7245888     -6.9115806      4.3794741      50218.233      36.893836      36.893836      36.893836    
    859000   0.54027165    -7.7307301     -6.9203342      4.345285       50218.233      36.893836      36.893836      36.893836    
    860000   0.53848306    -7.7257762     -6.9180631      4.371444       50218.233      36.893836      36.893836      36.893836    
    861000   0.53967302    -7.7271342     -6.9176362      4.3661332      50218.233      36.893836      36.893836      36.893836    
    862000   0.53743581    -7.7243031     -6.9181609      4.3831784      50218.233      36.893836      36.893836      36.893836    
    863000   0.54030233    -7.7239365     -6.9134946      4.3891664      50218.233      36.893836      36.893836      36.893836    
    864000   0.53822637    -7.7214551     -6.914127       4.3978588      50218.233      36.893836      36.893836      36.893836    
    865000   0.53916332    -7.7252292     -6.9164957      4.3850757      50218.233      36.893836      36.893836      36.893836    
    866000   0.53823825    -7.7260606     -6.9187147      4.3586595      50218.233      36.893836      36.893836      36.893836    
    867000   0.5427154     -7.7313981     -6.9173366      4.3365502      50218.233      36.893836      36.893836      36.893836    
    868000   0.54179867    -7.7264267     -6.9137403      4.3747194      50218.233      36.893836      36.893836      36.893836    
    869000   0.54005225    -7.7219631     -6.9118962      4.394796       50218.233      36.893836      36.893836      36.893836    
    870000   0.5410694     -7.7216871     -6.9100946      4.4003034      50218.233      36.893836      36.893836      36.893836    
    871000   0.5416451     -7.7259271     -6.913471       4.3738815      50218.233      36.893836      36.893836      36.893836    
    872000   0.53944749    -7.721355      -6.9121953      4.4019356      50218.233      36.893836      36.893836      36.893836    
    873000   0.538236      -7.7275182     -6.9201757      4.3690757      50218.233      36.893836      36.893836      36.893836    
    874000   0.53932561    -7.7215235     -6.9125466      4.3987255      50218.233      36.893836      36.893836      36.893836    
    875000   0.53919913    -7.7242767     -6.9154895      4.3872585      50218.233      36.893836      36.893836      36.893836    
    876000   0.54184587    -7.7262192     -6.913462       4.3598876      50218.233      36.893836      36.893836      36.893836    
    877000   0.53698081    -7.7237196     -6.9182598      4.37353        50218.233      36.893836      36.893836      36.893836    
    878000   0.53916605    -7.723346      -6.9146084      4.3948599      50218.233      36.893836      36.893836      36.893836    
    879000   0.53943554    -7.7245993     -6.9154575      4.3828705      50218.233      36.893836      36.893836      36.893836    
    880000   0.54152784    -7.724998      -6.9127178      4.3781089      50218.233      36.893836      36.893836      36.893836    
    881000   0.53973195    -7.7172225     -6.9076361      4.4154528      50218.233      36.893836      36.893836      36.893836    
    882000   0.53886732    -7.7279995     -6.91971        4.350736       50218.233      36.893836      36.893836      36.893836    
    883000   0.53844454    -7.726574      -6.9189186      4.3640818      50218.233      36.893836      36.893836      36.893836    
    884000   0.54178606    -7.7246051     -6.9119375      4.3732519      50218.233      36.893836      36.893836      36.893836    
    885000   0.53923995    -7.7211548     -6.9123064      4.4012312      50218.233      36.893836      36.893836      36.893836    
    886000   0.54097965    -7.7244092     -6.9129512      4.3801331      50218.233      36.893836      36.893836      36.893836    
    887000   0.54253074    -7.7239459     -6.9101613      4.3927466      50218.233      36.893836      36.893836      36.893836    
    888000   0.54111633    -7.7260649     -6.9144019      4.3608431      50218.233      36.893836      36.893836      36.893836    
    889000   0.54152156    -7.720856      -6.9085852      4.4107664      50218.233      36.893836      36.893836      36.893836    
    890000   0.5413719     -7.7283859     -6.9163396      4.3598321      50218.233      36.893836      36.893836      36.893836    
    891000   0.53824517    -7.7262072     -6.9188509      4.3617413      50218.233      36.893836      36.893836      36.893836    
    892000   0.53936661    -7.7247503     -6.9157119      4.3736212      50218.233      36.893836      36.893836      36.893836    
    893000   0.5408079     -7.7236739     -6.9124736      4.3863844      50218.233      36.893836      36.893836      36.893836    
    894000   0.53637422    -7.7253152     -6.9207653      4.3572339      50218.233      36.893836      36.893836      36.893836    
    895000   0.53982611    -7.7221866     -6.912459       4.3995411      50218.233      36.893836      36.893836      36.893836    
    896000   0.54187701    -7.7255882     -6.9127842      4.37074        50218.233      36.893836      36.893836      36.893836    
    897000   0.54370184    -7.7197649     -6.9042237      4.4268082      50218.233      36.893836      36.893836      36.893836    
    898000   0.53911721    -7.7278654     -6.9192011      4.3520028      50218.233      36.893836      36.893836      36.893836    
    899000   0.53695628    -7.7236044     -6.9181815      4.3713973      50218.233      36.893836      36.893836      36.893836    
    900000   0.53758562    -7.7289097     -6.9225427      4.3400966      50218.233      36.893836      36.893836      36.893836    
    901000   0.54003693    -7.7221848     -6.9121409      4.3978552      50218.233      36.893836      36.893836      36.893836    
    902000   0.53972219    -7.7254305     -6.9158588      4.3648462      50218.233      36.893836      36.893836      36.893836    
    903000   0.54033233    -7.7267166     -6.9162297      4.368598       50218.233      36.893836      36.893836      36.893836    
    904000   0.53786039    -7.7236443     -6.9168652      4.3769378      50218.233      36.893836      36.893836      36.893836    
    905000   0.5398292     -7.7209729     -6.9112406      4.3972575      50218.233      36.893836      36.893836      36.893836    
    906000   0.53720265    -7.7266946     -6.920902       4.3607118      50218.233      36.893836      36.893836      36.893836    
    907000   0.54103063    -7.7257728     -6.9142384      4.370748       50218.233      36.893836      36.893836      36.893836    
    908000   0.54050636    -7.7201982     -6.9094502      4.4065549      50218.233      36.893836      36.893836      36.893836    
    909000   0.54118346    -7.7215178     -6.9097542      4.4110793      50218.233      36.893836      36.893836      36.893836    
    910000   0.54001931    -7.720678      -6.9106606      4.4085389      50218.233      36.893836      36.893836      36.893836    
    911000   0.53767207    -7.7217123     -6.9152156      4.3979563      50218.233      36.893836      36.893836      36.893836    
    912000   0.54040525    -7.7181332     -6.9075368      4.4345067      50218.233      36.893836      36.893836      36.893836    
    913000   0.54059524    -7.7250442     -6.9141629      4.3764601      50218.233      36.893836      36.893836      36.893836    
    914000   0.54195653    -7.7218973     -6.908974       4.4215409      50218.233      36.893836      36.893836      36.893836    
    915000   0.53663507    -7.7209867     -6.9160455      4.4021824      50218.233      36.893836      36.893836      36.893836    
    916000   0.54063219    -7.7205549     -6.9096182      4.414753       50218.233      36.893836      36.893836      36.893836    
    917000   0.53906784    -7.7204934     -6.9119032      4.4099822      50218.233      36.893836      36.893836      36.893836    
    918000   0.54067598    -7.7279333     -6.9169309      4.3564568      50218.233      36.893836      36.893836      36.893836    
    919000   0.53789839    -7.7276232     -6.9207871      4.3545055      50218.233      36.893836      36.893836      36.893836    
    920000   0.54148367    -7.7250402     -6.9128262      4.3736074      50218.233      36.893836      36.893836      36.893836    
    921000   0.5405924     -7.7248726     -6.9139956      4.3772596      50218.233      36.893836      36.893836      36.893836    
    922000   0.53895917    -7.7205693     -6.912142       4.408124       50218.233      36.893836      36.893836      36.893836    
    923000   0.5422805     -7.7249972     -6.911588       4.3727946      50218.233      36.893836      36.893836      36.893836    
    924000   0.54088709    -7.7221565     -6.9108374      4.4058294      50218.233      36.893836      36.893836      36.893836    
    925000   0.54092027    -7.724916      -6.9135472      4.3824664      50218.233      36.893836      36.893836      36.893836    
    926000   0.5430803     -7.7233496     -6.9087407      4.3830169      50218.233      36.893836      36.893836      36.893836    
    927000   0.53604096    -7.7228236     -6.9187736      4.3993697      50218.233      36.893836      36.893836      36.893836    
    928000   0.54210629    -7.7253699     -6.912222       4.3741668      50218.233      36.893836      36.893836      36.893836    
    929000   0.53874535    -7.7246863     -6.9165798      4.36631        50218.233      36.893836      36.893836      36.893836    
    930000   0.53921874    -7.7185342     -6.9097176      4.4231792      50218.233      36.893836      36.893836      36.893836    
    931000   0.5389468     -7.7260751     -6.9176664      4.3734062      50218.233      36.893836      36.893836      36.893836    
    932000   0.54208024    -7.723722      -6.9106132      4.3954443      50218.233      36.893836      36.893836      36.893836    
    933000   0.54165861    -7.7249737     -6.9124973      4.3776367      50218.233      36.893836      36.893836      36.893836    
    934000   0.54063908    -7.7204684     -6.9095213      4.4230901      50218.233      36.893836      36.893836      36.893836    
    935000   0.54041819    -7.72476       -6.9141442      4.3759628      50218.233      36.893836      36.893836      36.893836    
    936000   0.53810914    -7.7246619     -6.9175096      4.3675745      50218.233      36.893836      36.893836      36.893836    
    937000   0.53762448    -7.7255627     -6.9191375      4.3714265      50218.233      36.893836      36.893836      36.893836    
    938000   0.54139335    -7.7210733     -6.9089949      4.4066388      50218.233      36.893836      36.893836      36.893836    
    939000   0.54155402    -7.7184807     -6.9061613      4.4390501      50218.233      36.893836      36.893836      36.893836    
    940000   0.53901066    -7.7245409     -6.9160364      4.3777377      50218.233      36.893836      36.893836      36.893836    
    941000   0.53942499    -7.7227455     -6.9136195      4.3970552      50218.233      36.893836      36.893836      36.893836    
    942000   0.54062577    -7.7203927     -6.9094656      4.4120286      50218.233      36.893836      36.893836      36.893836    
    943000   0.54051042    -7.722302      -6.9115479      4.4015159      50218.233      36.893836      36.893836      36.893836    
    944000   0.54219577    -7.7280729     -6.9147909      4.3538584      50218.233      36.893836      36.893836      36.893836    
    945000   0.5396427     -7.7221727     -6.9127201      4.3958055      50218.233      36.893836      36.893836      36.893836    
    946000   0.53833203    -7.7286312     -6.9211447      4.3467413      50218.233      36.893836      36.893836      36.893836    
    947000   0.54081865    -7.72157       -6.9103536      4.4013764      50218.233      36.893836      36.893836      36.893836    
    948000   0.53772449    -7.7215586     -6.9149834      4.3876531      50218.233      36.893836      36.893836      36.893836    
    949000   0.54036938    -7.7203128     -6.9097703      4.4063698      50218.233      36.893836      36.893836      36.893836    
    950000   0.5417893     -7.7224128     -6.9097404      4.3928399      50218.233      36.893836      36.893836      36.893836    
    951000   0.54154916    -7.7253377     -6.9130255      4.3624696      50218.233      36.893836      36.893836      36.893836    
    952000   0.5403066     -7.7252374     -6.914789       4.3746272      50218.233      36.893836      36.893836      36.893836    
    953000   0.53971021    -7.7207064     -6.9111526      4.3991877      50218.233      36.893836      36.893836      36.893836    
    954000   0.54181031    -7.7223663     -6.9096624      4.3911128      50218.233      36.893836      36.893836      36.893836    
    955000   0.54041017    -7.7187361     -6.9081324      4.4198549      50218.233      36.893836      36.893836      36.893836    
    956000   0.53941996    -7.7258764     -6.916758       4.3715297      50218.233      36.893836      36.893836      36.893836    
    957000   0.53759736    -7.7201553     -6.9137708      4.4062691      50218.233      36.893836      36.893836      36.893836    
    958000   0.53821696    -7.7280562     -6.9207423      4.3350868      50218.233      36.893836      36.893836      36.893836    
    959000   0.54014261    -7.7263716     -6.9161692      4.3571643      50218.233      36.893836      36.893836      36.893836    
    960000   0.54000077    -7.7197509     -6.9097613      4.4128877      50218.233      36.893836      36.893836      36.893836    
    961000   0.54305961    -7.7242408     -6.909663       4.3888365      50218.233      36.893836      36.893836      36.893836    
    962000   0.53997059    -7.7251656     -6.9152212      4.3690204      50218.233      36.893836      36.893836      36.893836    
    963000   0.54023899    -7.7220406     -6.9116936      4.4084804      50218.233      36.893836      36.893836      36.893836    
    964000   0.53770516    -7.7169578     -6.9104115      4.4285536      50218.233      36.893836      36.893836      36.893836    
    965000   0.53946456    -7.7239673     -6.914782       4.3858748      50218.233      36.893836      36.893836      36.893836    
    966000   0.5387136     -7.7227218     -6.9146629      4.3946953      50218.233      36.893836      36.893836      36.893836    
    967000   0.54085775    -7.7184643     -6.9071892      4.4178628      50218.233      36.893836      36.893836      36.893836    
    968000   0.54025628    -7.72187       -6.9114971      4.392482       50218.233      36.893836      36.893836      36.893836    
    969000   0.5413469     -7.7181499     -6.9061411      4.4371591      50218.233      36.893836      36.893836      36.893836    
    970000   0.54210009    -7.7227088     -6.9095702      4.3962978      50218.233      36.893836      36.893836      36.893836    
    971000   0.53779133    -7.7205034     -6.9138279      4.4092863      50218.233      36.893836      36.893836      36.893836    
    972000   0.54192804    -7.7227788     -6.9098983      4.3941221      50218.233      36.893836      36.893836      36.893836    
    973000   0.54196024    -7.7211794     -6.9082506      4.3925677      50218.233      36.893836      36.893836      36.893836    
    974000   0.54082587    -7.7232596     -6.9120323      4.3979315      50218.233      36.893836      36.893836      36.893836    
    975000   0.53956614    -7.7225077     -6.91317        4.3896957      50218.233      36.893836      36.893836      36.893836    
    976000   0.53665556    -7.7213654     -6.9163936      4.4036402      50218.233      36.893836      36.893836      36.893836    
    977000   0.53705274    -7.7247358     -6.9191682      4.3711207      50218.233      36.893836      36.893836      36.893836    
    978000   0.53986278    -7.7267113     -6.9169286      4.3644453      50218.233      36.893836      36.893836      36.893836    
    979000   0.54072143    -7.7189766     -6.907906       4.4221553      50218.233      36.893836      36.893836      36.893836    
    980000   0.53845992    -7.7207491     -6.9130707      4.4034216      50218.233      36.893836      36.893836      36.893836    
    981000   0.54233851    -7.7224762     -6.90898        4.397651       50218.233      36.893836      36.893836      36.893836    
    982000   0.54069905    -7.7246045     -6.9135675      4.3755684      50218.233      36.893836      36.893836      36.893836    
    983000   0.54270593    -7.7202103     -6.906163       4.4110463      50218.233      36.893836      36.893836      36.893836    
    984000   0.54024362    -7.721919      -6.9115651      4.3959944      50218.233      36.893836      36.893836      36.893836    
    985000   0.54155953    -7.7248064     -6.9124786      4.3713646      50218.233      36.893836      36.893836      36.893836    
    986000   0.53756158    -7.7212148     -6.9148839      4.3918992      50218.233      36.893836      36.893836      36.893836    
    987000   0.54013067    -7.7223065     -6.912122       4.40771        50218.233      36.893836      36.893836      36.893836    
    988000   0.54424999    -7.7263607     -6.9099973      4.3628528      50218.233      36.893836      36.893836      36.893836    
    989000   0.54102082    -7.7206671     -6.9091474      4.4147489      50218.233      36.893836      36.893836      36.893836    
    990000   0.53901824    -7.7163162     -6.9078003      4.433298       50218.233      36.893836      36.893836      36.893836    
    991000   0.53982022    -7.7249021     -6.9151833      4.3700157      50218.233      36.893836      36.893836      36.893836    
    992000   0.53894722    -7.7275196     -6.9191103      4.351725       50218.233      36.893836      36.893836      36.893836    
    993000   0.54065452    -7.7220079     -6.9110376      4.3875725      50218.233      36.893836      36.893836      36.893836    
    994000   0.54249284    -7.7204038     -6.9066761      4.4115277      50218.233      36.893836      36.893836      36.893836    
    995000   0.53932143    -7.7293097     -6.9203391      4.34455        50218.233      36.893836      36.893836      36.893836    
    996000   0.54118734    -7.7224503     -6.9106808      4.3918367      50218.233      36.893836      36.893836      36.893836    
    997000   0.53847399    -7.7233141     -6.9156146      4.373831       50218.233      36.893836      36.893836      36.893836    
    998000   0.54259158    -7.7263276     -6.9124518      4.3695786      50218.233      36.893836      36.893836      36.893836    
    999000   0.53983256    -7.7215489     -6.9118116      4.4082518      50218.233      36.893836      36.893836      36.893836    
   1000000   0.53834683    -7.72147       -6.9139613      4.3906629      50218.233      36.893836      36.893836      36.893836    
Loop time of 1589.03 on 4 procs for 1000000 steps with 70304 atoms

Performance: 543726.290 tau/day, 629.313 timesteps/s, 44.243 Matom-step/s
95.8% CPU use with 4 MPI tasks x 1 OpenMP threads

MPI task timing breakdown:
Section |  min time  |  avg time  |  max time  |%varavg| %total
---------------------------------------------------------------
Pair    | 432.24     | 566.13     | 663.12     | 384.3 | 35.63
Neigh   | 6.3965     | 6.9225     | 7.281      |  13.1 |  0.44
Comm    | 240.67     | 245.81     | 250.8      |  26.9 | 15.47
Output  | 0.19964    | 0.20634    | 0.21707    |   1.5 |  0.01
Modify  | 582.49     | 680.88     | 810.38     | 344.5 | 42.85
Other   |            | 89.09      |            |       |  5.61

Nlocal:          17576 ave       17589 max       17556 min
Histogram: 1 0 0 0 0 1 0 0 1 1
Nghost:        16813.2 ave       16833 max       16778 min
Histogram: 1 0 0 0 0 0 0 1 1 1
Neighs:              0 ave           0 max           0 min
Histogram: 4 0 0 0 0 0 0 0 0 0

Total # of neighbors = 0
Ave neighs/atom = 0
Neighbor list builds = 212389
Dangerous builds = 0
clear
OMP_NUM_THREADS environment is not set. Defaulting to 1 thread. (src/comm.cpp:98)
  using 1 OpenMP thread(s) per MPI task
package gpu 0
jump dms520.lmp

variable T equal 520
# T = 1000* (temp in LJ unit)
variable f equal 1000
log log.${T}
log log.520
