variable TLJ equal (${T}/1000)
variable TLJ equal (160/1000)
variable NCyle equal 10
variable iStep equal (${f})
variable iStep equal (1000)
variable dumpStep equal (${f}*100)
variable dumpStep equal (1000*100)
variable runStep equal (${f}*100*${NCyle})
variable runStep equal (1000*100*${NCyle})
variable runStep equal (1000*100*10)

units       lj
atom_style  atomic
dimension 3
boundary     p p p
pair_style  lj/cut 2.5
read_data  ../data/T${T}.dat
read_data  ../data/T160.dat
Reading data file ...
  orthogonal box = (0.97250269 0.97250269 0.97250269) to (37.866338 37.866338 37.866338)
  1 by 2 by 2 MPI processor grid
  reading atoms ...
  70304 atoms
  reading velocities ...
  70304 velocities
  read_data CPU = 0.214 seconds
change_box all triclinic
Changing box ...
  triclinic box = (0.97250269 0.97250269 0.97250269) to (37.866338 37.866338 37.866338) with tilt (0 0 0)
mass 1 1
mass 2 1
pair_modify shift yes
pair_coeff  1 1 1 1
pair_coeff  1 2 1.5 0.8
pair_coeff  2 2 0.5 0.88


timestep 0.01
thermo ${iStep}
thermo 1000
reset_timestep 0
thermo_style custom step temp pe etotal press vol lx ly lz
fix             1 all nvt temp ${TLJ}  ${TLJ}  0.1
fix             1 all nvt temp 0.16  ${TLJ}  0.1
fix             1 all nvt temp 0.16  0.16  0.1
thermo_modify flush yes

fix dsf all deform 1 xy  wiggle 0.5  ${f}   units box
fix dsf all deform 1 xy  wiggle 0.5  1000   units box
fix ps1 all ave/time 1 1 ${iStep} c_thermo_press[1] c_thermo_press[2]  c_thermo_press[3] c_thermo_press[4]  c_thermo_press[5] c_thermo_press[6]  file  stress.${T}
fix ps1 all ave/time 1 1 1000 c_thermo_press[1] c_thermo_press[2]  c_thermo_press[3] c_thermo_press[4]  c_thermo_press[5] c_thermo_press[6]  file  stress.${T}
fix ps1 all ave/time 1 1 1000 c_thermo_press[1] c_thermo_press[2]  c_thermo_press[3] c_thermo_press[4]  c_thermo_press[5] c_thermo_press[6]  file  stress.160
dump            1 all custom ${dumpStep} dump.${T} id type x y z
dump            1 all custom 100000 dump.${T} id type x y z
dump            1 all custom 100000 dump.160 id type x y z
dump_modify 1 sort id
fix nodrift all momentum 1  linear 1 1 1
fix com_seed all recenter INIT INIT INIT shift all
run ${runStep}
run 1000000
Generated 0 of 1 mixed pair_coeff terms from geometric mixing rule
Per MPI rank memory allocation (min/avg/max) = 8.609 | 8.613 | 8.615 Mbytes
   Step          Temp          PotEng         TotEng         Press          Volume           Lx             Ly             Lz      
         0   0.16079411    -8.3436499     -8.1024621     -0.73929034     50218.233      36.893836      36.893836      36.893836    
      1000   0.1601428     -8.341945      -8.1017342     -0.72774028     50218.233      36.893836      36.893836      36.893836    
      2000   0.16043449    -8.3420635     -8.1014152     -0.72189352     50218.233      36.893836      36.893836      36.893836    
      3000   0.1593357     -8.3414354     -8.1024352     -0.72501734     50218.233      36.893836      36.893836      36.893836    
      4000   0.16045135    -8.342862      -8.1021884     -0.73128602     50218.233      36.893836      36.893836      36.893836    
      5000   0.16037113    -8.3422615     -8.1017082     -0.7312054      50218.233      36.893836      36.893836      36.893836    
      6000   0.16009034    -8.3405822     -8.1004501     -0.70779562     50218.233      36.893836      36.893836      36.893836    
      7000   0.16028095    -8.3412081     -8.1007901     -0.71870169     50218.233      36.893836      36.893836      36.893836    
      8000   0.15960966    -8.341377      -8.101966      -0.72908268     50218.233      36.893836      36.893836      36.893836    
      9000   0.15962505    -8.3402259     -8.1007917     -0.71755284     50218.233      36.893836      36.893836      36.893836    
     10000   0.16095215    -8.3414021     -8.0999773     -0.72211356     50218.233      36.893836      36.893836      36.893836    
     11000   0.16056182    -8.3398553     -8.099016      -0.70843452     50218.233      36.893836      36.893836      36.893836    
     12000   0.16080438    -8.3405701     -8.099367      -0.7205706      50218.233      36.893836      36.893836      36.893836    
     13000   0.15977077    -8.3407301     -8.1010773     -0.71280761     50218.233      36.893836      36.893836      36.893836    
     14000   0.16059702    -8.3420492     -8.1011571     -0.7290972      50218.233      36.893836      36.893836      36.893836    
     15000   0.1605993     -8.3406905     -8.0997949     -0.7143941      50218.233      36.893836      36.893836      36.893836    
     16000   0.15987249    -8.3404203     -8.1006149     -0.71169912     50218.233      36.893836      36.893836      36.893836    
     17000   0.16001973    -8.3411424     -8.1011162     -0.71957498     50218.233      36.893836      36.893836      36.893836    
     18000   0.15999549    -8.3403273     -8.1003375     -0.71295073     50218.233      36.893836      36.893836      36.893836    
     19000   0.15937315    -8.3397573     -8.100701      -0.71376305     50218.233      36.893836      36.893836      36.893836    
     20000   0.16054175    -8.3398124     -8.0990032     -0.71231334     50218.233      36.893836      36.893836      36.893836    
     21000   0.1595836     -8.3387417     -8.0993697     -0.7020389      50218.233      36.893836      36.893836      36.893836    
     22000   0.15953009    -8.339991      -8.1006993     -0.70834009     50218.233      36.893836      36.893836      36.893836    
     23000   0.1599441     -8.3398427     -8.09993       -0.71832276     50218.233      36.893836      36.893836      36.893836    
     24000   0.16011992    -8.3405411     -8.1003646     -0.71080642     50218.233      36.893836      36.893836      36.893836    
     25000   0.15982328    -8.3381343     -8.0984028     -0.69940025     50218.233      36.893836      36.893836      36.893836    
     26000   0.15997588    -8.3396707     -8.0997103     -0.71272557     50218.233      36.893836      36.893836      36.893836    
     27000   0.16040807    -8.3408798     -8.1002711     -0.72155967     50218.233      36.893836      36.893836      36.893836    
     28000   0.15978784    -8.3402525     -8.1005741     -0.71139266     50218.233      36.893836      36.893836      36.893836    
     29000   0.16028899    -8.3387906     -8.0983606     -0.70518766     50218.233      36.893836      36.893836      36.893836    
     30000   0.16043742    -8.3404634     -8.0998107     -0.71457878     50218.233      36.893836      36.893836      36.893836    
     31000   0.16076204    -8.340003      -8.0988633     -0.70644041     50218.233      36.893836      36.893836      36.893836    
     32000   0.16018859    -8.3400528     -8.0997734     -0.71794546     50218.233      36.893836      36.893836      36.893836    
     33000   0.16000573    -8.3405279     -8.1005227     -0.70880014     50218.233      36.893836      36.893836      36.893836    
     34000   0.16000837    -8.3403745     -8.1003654     -0.71011469     50218.233      36.893836      36.893836      36.893836    
     35000   0.1602585     -8.3406854     -8.1003011     -0.71274849     50218.233      36.893836      36.893836      36.893836    
     36000   0.16050769    -8.3406003     -8.0998422     -0.7149606      50218.233      36.893836      36.893836      36.893836    
     37000   0.16161017    -8.3413682     -8.0989564     -0.7178675      50218.233      36.893836      36.893836      36.893836    
     38000   0.15995241    -8.3404871     -8.1005619     -0.7117521      50218.233      36.893836      36.893836      36.893836    
     39000   0.16006671    -8.3406062     -8.1005095     -0.72005479     50218.233      36.893836      36.893836      36.893836    
     40000   0.15941289    -8.3392272     -8.1001113     -0.70256447     50218.233      36.893836      36.893836      36.893836    
     41000   0.16041607    -8.3416467     -8.101026      -0.72149155     50218.233      36.893836      36.893836      36.893836    
     42000   0.16059601    -8.3414293     -8.1005387     -0.71907175     50218.233      36.893836      36.893836      36.893836    
     43000   0.1606098     -8.3422294     -8.1013181     -0.7291449      50218.233      36.893836      36.893836      36.893836    
     44000   0.15917321    -8.3411975     -8.1024411     -0.72204959     50218.233      36.893836      36.893836      36.893836    
     45000   0.16059159    -8.3407622     -8.0998782     -0.709718       50218.233      36.893836      36.893836      36.893836    
     46000   0.16056213    -8.3414503     -8.1006106     -0.72746533     50218.233      36.893836      36.893836      36.893836    
     47000   0.15981889    -8.3411987     -8.1014737     -0.71912175     50218.233      36.893836      36.893836      36.893836    
     48000   0.16070768    -8.3421412     -8.1010831     -0.72607239     50218.233      36.893836      36.893836      36.893836    
     49000   0.15986736    -8.3408474     -8.1010498     -0.71697698     50218.233      36.893836      36.893836      36.893836    
     50000   0.15950352    -8.3410133     -8.1017615     -0.71713484     50218.233      36.893836      36.893836      36.893836    
     51000   0.16127859    -8.3407411     -8.0988266     -0.71780793     50218.233      36.893836      36.893836      36.893836    
     52000   0.1601875     -8.3403736     -8.1000958     -0.71734095     50218.233      36.893836      36.893836      36.893836    
     53000   0.16052215    -8.3405492     -8.0997694     -0.71053884     50218.233      36.893836      36.893836      36.893836    
     54000   0.15922122    -8.3406788     -8.1018504     -0.71308716     50218.233      36.893836      36.893836      36.893836    
     55000   0.15969555    -8.3421751     -8.1026352     -0.72697118     50218.233      36.893836      36.893836      36.893836    
     56000   0.16038709    -8.341139      -8.1005618     -0.71636304     50218.233      36.893836      36.893836      36.893836    
     57000   0.16005601    -8.3405653     -8.1004847     -0.7138814      50218.233      36.893836      36.893836      36.893836    
     58000   0.15890881    -8.3402547     -8.1018949     -0.71334245     50218.233      36.893836      36.893836      36.893836    
     59000   0.16081535    -8.3417405     -8.1005209     -0.72598375     50218.233      36.893836      36.893836      36.893836    
     60000   0.16014241    -8.3424852     -8.102275      -0.73194774     50218.233      36.893836      36.893836      36.893836    
     61000   0.16028966    -8.3405359     -8.1001048     -0.71407022     50218.233      36.893836      36.893836      36.893836    
     62000   0.16076541    -8.3407585     -8.0996138     -0.70894407     50218.233      36.893836      36.893836      36.893836    
     63000   0.15912303    -8.3402464     -8.1015653     -0.71889609     50218.233      36.893836      36.893836      36.893836    
     64000   0.1603521     -8.3424697     -8.1019449     -0.72842164     50218.233      36.893836      36.893836      36.893836    
     65000   0.16030474    -8.3400344     -8.0995807     -0.71450336     50218.233      36.893836      36.893836      36.893836    
     66000   0.15940752    -8.3390707     -8.0999629     -0.70658038     50218.233      36.893836      36.893836      36.893836    
     67000   0.16026749    -8.3393019     -8.0989041     -0.71245477     50218.233      36.893836      36.893836      36.893836    
     68000   0.16104856    -8.3405442     -8.0989748     -0.71783685     50218.233      36.893836      36.893836      36.893836    
     69000   0.1593771     -8.3398162     -8.100754      -0.71866014     50218.233      36.893836      36.893836      36.893836    
     70000   0.16054828    -8.3406672     -8.0998482     -0.71904098     50218.233      36.893836      36.893836      36.893836    
     71000   0.16023631    -8.3401896     -8.0998386     -0.71560086     50218.233      36.893836      36.893836      36.893836    
     72000   0.15949098    -8.3392393     -8.1000062     -0.70381749     50218.233      36.893836      36.893836      36.893836    
     73000   0.15906741    -8.3401363     -8.1015386     -0.71139441     50218.233      36.893836      36.893836      36.893836    
     74000   0.15981363    -8.3390841     -8.099367      -0.70216131     50218.233      36.893836      36.893836      36.893836    
     75000   0.1603055     -8.337918      -8.0974632     -0.70324417     50218.233      36.893836      36.893836      36.893836    
     76000   0.15979109    -8.3409933     -8.1013101     -0.7177656      50218.233      36.893836      36.893836      36.893836    
     77000   0.15989313    -8.3407096     -8.1008733     -0.71239822     50218.233      36.893836      36.893836      36.893836    
     78000   0.16010959    -8.3398568     -8.0996959     -0.70665894     50218.233      36.893836      36.893836      36.893836    
     79000   0.15946332    -8.3410729     -8.1018813     -0.72666105     50218.233      36.893836      36.893836      36.893836    
     80000   0.15947731    -8.3401816     -8.1009691     -0.71686299     50218.233      36.893836      36.893836      36.893836    
     81000   0.15935351    -8.3399294     -8.1009026     -0.71446278     50218.233      36.893836      36.893836      36.893836    
     82000   0.15876965    -8.3401248     -8.1019737     -0.72108242     50218.233      36.893836      36.893836      36.893836    
     83000   0.16021512    -8.3389497     -8.0986304     -0.70462084     50218.233      36.893836      36.893836      36.893836    
     84000   0.16013954    -8.3409906     -8.1007847     -0.71889913     50218.233      36.893836      36.893836      36.893836    
     85000   0.15894461    -8.3402698     -8.1018563     -0.71588065     50218.233      36.893836      36.893836      36.893836    
     86000   0.15975019    -8.3397542     -8.1001323     -0.70911187     50218.233      36.893836      36.893836      36.893836    
     87000   0.15977951    -8.341238      -8.1015721     -0.71856037     50218.233      36.893836      36.893836      36.893836    
     88000   0.1587272     -8.3406768     -8.1025894     -0.71301096     50218.233      36.893836      36.893836      36.893836    
     89000   0.16052137    -8.3399393     -8.0991607     -0.70731856     50218.233      36.893836      36.893836      36.893836    
     90000   0.16129265    -8.3419695     -8.100034      -0.72390295     50218.233      36.893836      36.893836      36.893836    
     91000   0.16017383    -8.3409281     -8.1006708     -0.72249066     50218.233      36.893836      36.893836      36.893836    
     92000   0.16002725    -8.3408948     -8.1008574     -0.71623011     50218.233      36.893836      36.893836      36.893836    
     93000   0.16009378    -8.3400758     -8.0999386     -0.70928319     50218.233      36.893836      36.893836      36.893836    
     94000   0.16036356    -8.341886      -8.1013441     -0.73100197     50218.233      36.893836      36.893836      36.893836    
     95000   0.15898762    -8.3408192     -8.1023412     -0.71562838     50218.233      36.893836      36.893836      36.893836    
     96000   0.15998334    -8.3415345     -8.1015629     -0.72466908     50218.233      36.893836      36.893836      36.893836    
     97000   0.1600405     -8.3415601     -8.1015028     -0.71689571     50218.233      36.893836      36.893836      36.893836    
     98000   0.16029147    -8.3404616     -8.1000278     -0.71457074     50218.233      36.893836      36.893836      36.893836    
     99000   0.15925183    -8.3410583     -8.1021839     -0.72501108     50218.233      36.893836      36.893836      36.893836    
    100000   0.15958998    -8.3399802     -8.1005987     -0.71026723     50218.233      36.893836      36.893836      36.893836    
    101000   0.16037907    -8.3408345     -8.1002694     -0.72757307     50218.233      36.893836      36.893836      36.893836    
    102000   0.16006493    -8.3405959     -8.1005019     -0.71415024     50218.233      36.893836      36.893836      36.893836    
    103000   0.16011507    -8.3404464     -8.1002773     -0.71940084     50218.233      36.893836      36.893836      36.893836    
    104000   0.16056914    -8.3410987     -8.1002484     -0.72409329     50218.233      36.893836      36.893836      36.893836    
    105000   0.1598965     -8.3407199     -8.1008785     -0.71718033     50218.233      36.893836      36.893836      36.893836    
    106000   0.15928009    -8.3411772     -8.1022605     -0.72439656     50218.233      36.893836      36.893836      36.893836    
    107000   0.16025524    -8.341835      -8.1014555     -0.72442053     50218.233      36.893836      36.893836      36.893836    
    108000   0.15969895    -8.341431      -8.101886      -0.72664903     50218.233      36.893836      36.893836      36.893836    
    109000   0.15996985    -8.3402946     -8.1003432     -0.71791879     50218.233      36.893836      36.893836      36.893836    
    110000   0.16086115    -8.3416366     -8.1003484     -0.72551673     50218.233      36.893836      36.893836      36.893836    
    111000   0.15896372    -8.340288      -8.1018458     -0.71614001     50218.233      36.893836      36.893836      36.893836    
    112000   0.15991161    -8.3408436     -8.1009796     -0.71794907     50218.233      36.893836      36.893836      36.893836    
    113000   0.16010229    -8.3418579     -8.1017079     -0.72634383     50218.233      36.893836      36.893836      36.893836    
    114000   0.15943761    -8.3407837     -8.1016307     -0.72418765     50218.233      36.893836      36.893836      36.893836    
    115000   0.16040168    -8.3409788     -8.1003797     -0.71791982     50218.233      36.893836      36.893836      36.893836    
    116000   0.16026195    -8.3398035     -8.099414      -0.71092989     50218.233      36.893836      36.893836      36.893836    
    117000   0.16090147    -8.3387431     -8.0973943     -0.70458007     50218.233      36.893836      36.893836      36.893836    
    118000   0.15934001    -8.3404499     -8.1014433     -0.71507586     50218.233      36.893836      36.893836      36.893836    
    119000   0.16031494    -8.3399229     -8.0994539     -0.70735898     50218.233      36.893836      36.893836      36.893836    
    120000   0.15997638    -8.3398573     -8.0998961     -0.71104959     50218.233      36.893836      36.893836      36.893836    
    121000   0.15983526    -8.3410336     -8.1012841     -0.71869555     50218.233      36.893836      36.893836      36.893836    
    122000   0.16025561    -8.3393955     -8.0990155     -0.71048562     50218.233      36.893836      36.893836      36.893836    
    123000   0.15990433    -8.3392603     -8.0994072     -0.70302426     50218.233      36.893836      36.893836      36.893836    
    124000   0.16071285    -8.3389207     -8.0978549     -0.70621708     50218.233      36.893836      36.893836      36.893836    
    125000   0.16091041    -8.3386937     -8.0973315     -0.70566078     50218.233      36.893836      36.893836      36.893836    
    126000   0.15975635    -8.338597      -8.0989659     -0.69977564     50218.233      36.893836      36.893836      36.893836    
    127000   0.1586605     -8.3392544     -8.1012671     -0.70680338     50218.233      36.893836      36.893836      36.893836    
    128000   0.15993178    -8.3395066     -8.0996124     -0.71378405     50218.233      36.893836      36.893836      36.893836    
    129000   0.16043177    -8.3404525     -8.0998083     -0.71528291     50218.233      36.893836      36.893836      36.893836    
    130000   0.15917757    -8.339386      -8.1006231     -0.70459112     50218.233      36.893836      36.893836      36.893836    
    131000   0.16054001    -8.3413553     -8.1005487     -0.7255016      50218.233      36.893836      36.893836      36.893836    
    132000   0.16036669    -8.339699      -8.0991524     -0.70830741     50218.233      36.893836      36.893836      36.893836    
    133000   0.15999546    -8.3406951     -8.1007053     -0.7094855      50218.233      36.893836      36.893836      36.893836    
    134000   0.16041182    -8.3397205     -8.0991062     -0.70340984     50218.233      36.893836      36.893836      36.893836    
    135000   0.16042589    -8.3391975     -8.098562      -0.70128439     50218.233      36.893836      36.893836      36.893836    
    136000   0.15968461    -8.3401773     -8.1006537     -0.71305988     50218.233      36.893836      36.893836      36.893836    
    137000   0.1601754     -8.3406679     -8.1004082     -0.71787101     50218.233      36.893836      36.893836      36.893836    
    138000   0.15991419    -8.3409524     -8.1010845     -0.7191138      50218.233      36.893836      36.893836      36.893836    
    139000   0.15936963    -8.3398533     -8.1008023     -0.70797027     50218.233      36.893836      36.893836      36.893836    
    140000   0.16035418    -8.3394856     -8.0989578     -0.70540613     50218.233      36.893836      36.893836      36.893836    
    141000   0.15941067    -8.3405267     -8.1014141     -0.71208141     50218.233      36.893836      36.893836      36.893836    
    142000   0.15967108    -8.3413683     -8.1018651     -0.71969087     50218.233      36.893836      36.893836      36.893836    
    143000   0.16048772    -8.3405823     -8.0998542     -0.71337077     50218.233      36.893836      36.893836      36.893836    
    144000   0.15922369    -8.34132       -8.1024879     -0.72091952     50218.233      36.893836      36.893836      36.893836    
    145000   0.16019414    -8.341875      -8.1015872     -0.72840308     50218.233      36.893836      36.893836      36.893836    
    146000   0.15993041    -8.3414241     -8.1015319     -0.72334559     50218.233      36.893836      36.893836      36.893836    
    147000   0.15910013    -8.341656      -8.1030092     -0.72830653     50218.233      36.893836      36.893836      36.893836    
    148000   0.15906138    -8.3416556     -8.1030669     -0.72291985     50218.233      36.893836      36.893836      36.893836    
    149000   0.15995472    -8.3418376     -8.1019089     -0.73279141     50218.233      36.893836      36.893836      36.893836    
    150000   0.16012246    -8.3416724     -8.1014921     -0.72461687     50218.233      36.893836      36.893836      36.893836    
    151000   0.16007609    -8.3395313     -8.0994206     -0.71280734     50218.233      36.893836      36.893836      36.893836    
    152000   0.16040341    -8.3412452     -8.1006435     -0.71535392     50218.233      36.893836      36.893836      36.893836    
    153000   0.15967125    -8.3408889     -8.1013854     -0.72344043     50218.233      36.893836      36.893836      36.893836    
    154000   0.15989292    -8.3396524     -8.0998164     -0.70642491     50218.233      36.893836      36.893836      36.893836    
    155000   0.15981517    -8.3402755     -8.1005561     -0.71236143     50218.233      36.893836      36.893836      36.893836    
    156000   0.15952987    -8.3406865     -8.1013951     -0.71972861     50218.233      36.893836      36.893836      36.893836    
    157000   0.15959736    -8.3419921     -8.1025995     -0.72419865     50218.233      36.893836      36.893836      36.893836    
    158000   0.16038337    -8.3404862     -8.0999146     -0.71814203     50218.233      36.893836      36.893836      36.893836    
    159000   0.16047667    -8.3417787     -8.1010671     -0.72455331     50218.233      36.893836      36.893836      36.893836    
    160000   0.1596887     -8.3414016     -8.101872      -0.72519451     50218.233      36.893836      36.893836      36.893836    
    161000   0.1598128     -8.3403776     -8.1006618     -0.71667306     50218.233      36.893836      36.893836      36.893836    
    162000   0.16074232    -8.3396675     -8.0985574     -0.70901128     50218.233      36.893836      36.893836      36.893836    
    163000   0.15955019    -8.3394775     -8.1001556     -0.71252322     50218.233      36.893836      36.893836      36.893836    
    164000   0.15884622    -8.3401721     -8.1019061     -0.71157212     50218.233      36.893836      36.893836      36.893836    
    165000   0.15927403    -8.338838      -8.0999304     -0.70513072     50218.233      36.893836      36.893836      36.893836    
    166000   0.15985871    -8.3406598     -8.1008752     -0.71943988     50218.233      36.893836      36.893836      36.893836    
    167000   0.16021082    -8.3390543     -8.0987415     -0.7037115      50218.233      36.893836      36.893836      36.893836    
    168000   0.15927007    -8.3399366     -8.1010348     -0.70789852     50218.233      36.893836      36.893836      36.893836    
    169000   0.15987744    -8.3397592     -8.0999464     -0.70803363     50218.233      36.893836      36.893836      36.893836    
    170000   0.15999952    -8.3402467     -8.1002508     -0.7162032      50218.233      36.893836      36.893836      36.893836    
    171000   0.15971428    -8.3403369     -8.1007689     -0.71668223     50218.233      36.893836      36.893836      36.893836    
    172000   0.1608099     -8.339735      -8.0985236     -0.70912518     50218.233      36.893836      36.893836      36.893836    
    173000   0.16051052    -8.3405399     -8.0997775     -0.71725855     50218.233      36.893836      36.893836      36.893836    
    174000   0.15943339    -8.3388528     -8.0997061     -0.70441327     50218.233      36.893836      36.893836      36.893836    
    175000   0.15909373    -8.3408667     -8.1022295     -0.71901648     50218.233      36.893836      36.893836      36.893836    
    176000   0.16051482    -8.3393024     -8.0985335     -0.70784692     50218.233      36.893836      36.893836      36.893836    
    177000   0.15981856    -8.3407279     -8.1010035     -0.71808357     50218.233      36.893836      36.893836      36.893836    
    178000   0.15981915    -8.3388559     -8.0991306     -0.70386796     50218.233      36.893836      36.893836      36.893836    
    179000   0.16013239    -8.3400987     -8.0999035     -0.71420547     50218.233      36.893836      36.893836      36.893836    
    180000   0.16103035    -8.3402586     -8.0987165     -0.71035849     50218.233      36.893836      36.893836      36.893836    
    181000   0.16006355    -8.3391443     -8.0990524     -0.70387704     50218.233      36.893836      36.893836      36.893836    
    182000   0.16015258    -8.3396625     -8.099437      -0.7087458      50218.233      36.893836      36.893836      36.893836    
    183000   0.15994366    -8.3412427     -8.1013306     -0.72029309     50218.233      36.893836      36.893836      36.893836    
    184000   0.15998518    -8.340378      -8.1004036     -0.71104091     50218.233      36.893836      36.893836      36.893836    
    185000   0.1604032     -8.3403632     -8.0997618     -0.71146124     50218.233      36.893836      36.893836      36.893836    
    186000   0.15983114    -8.3400289     -8.1002856     -0.71274564     50218.233      36.893836      36.893836      36.893836    
    187000   0.16047943    -8.339681      -8.0989653     -0.70722377     50218.233      36.893836      36.893836      36.893836    
    188000   0.16021785    -8.3407732     -8.1004498     -0.72006791     50218.233      36.893836      36.893836      36.893836    
    189000   0.16050971    -8.340666      -8.0999048     -0.71830731     50218.233      36.893836      36.893836      36.893836    
    190000   0.15991071    -8.3408431     -8.1009805     -0.71545539     50218.233      36.893836      36.893836      36.893836    
    191000   0.16005732    -8.3417264     -8.1016439     -0.72778622     50218.233      36.893836      36.893836      36.893836    
    192000   0.16026802    -8.3409644     -8.1005658     -0.72258137     50218.233      36.893836      36.893836      36.893836    
    193000   0.15950664    -8.3422542     -8.1029976     -0.7301667      50218.233      36.893836      36.893836      36.893836    
    194000   0.1599027     -8.3410151     -8.1011645     -0.71524378     50218.233      36.893836      36.893836      36.893836    
    195000   0.15984349    -8.3404807     -8.1007188     -0.72565813     50218.233      36.893836      36.893836      36.893836    
    196000   0.16085162    -8.3420922     -8.1008182     -0.72861194     50218.233      36.893836      36.893836      36.893836    
    197000   0.15962264    -8.3406204     -8.1011899     -0.71594184     50218.233      36.893836      36.893836      36.893836    
    198000   0.16068022    -8.3428955     -8.1018786     -0.73520884     50218.233      36.893836      36.893836      36.893836    
    199000   0.15995636    -8.3413438     -8.1014127     -0.7295984      50218.233      36.893836      36.893836      36.893836    
    200000   0.16056642    -8.3413774     -8.1005312     -0.71889361     50218.233      36.893836      36.893836      36.893836    
    201000   0.16045847    -8.3410389     -8.1003546     -0.72261871     50218.233      36.893836      36.893836      36.893836    
    202000   0.15983785    -8.340017      -8.1002637     -0.71565661     50218.233      36.893836      36.893836      36.893836    
    203000   0.15906594    -8.3405252     -8.1019297     -0.72602115     50218.233      36.893836      36.893836      36.893836    
    204000   0.16013706    -8.3407819     -8.1005797     -0.72139302     50218.233      36.893836      36.893836      36.893836    
    205000   0.16022384    -8.3418395     -8.1015071     -0.72257706     50218.233      36.893836      36.893836      36.893836    
    206000   0.16014897    -8.3411786     -8.1009585     -0.71448217     50218.233      36.893836      36.893836      36.893836    
    207000   0.16063413    -8.3398085     -8.0988607     -0.71243932     50218.233      36.893836      36.893836      36.893836    
    208000   0.16058612    -8.3413115     -8.1004357     -0.72151968     50218.233      36.893836      36.893836      36.893836    
    209000   0.15930378    -8.3404362     -8.1014839     -0.71489113     50218.233      36.893836      36.893836      36.893836    
    210000   0.16096151    -8.3400608     -8.098622      -0.71224341     50218.233      36.893836      36.893836      36.893836    
    211000   0.15964915    -8.3413392     -8.1018689     -0.72525778     50218.233      36.893836      36.893836      36.893836    
    212000   0.16044429    -8.3419037     -8.1012407     -0.72971185     50218.233      36.893836      36.893836      36.893836    
    213000   0.16025863    -8.3410051     -8.1006205     -0.71629872     50218.233      36.893836      36.893836      36.893836    
    214000   0.1600519     -8.3406994     -8.1006249     -0.71525002     50218.233      36.893836      36.893836      36.893836    
    215000   0.16004749    -8.3391847     -8.0991169     -0.70523261     50218.233      36.893836      36.893836      36.893836    
    216000   0.16028903    -8.3410071     -8.100577      -0.72054769     50218.233      36.893836      36.893836      36.893836    
    217000   0.16025177    -8.3400867     -8.0997124     -0.71789556     50218.233      36.893836      36.893836      36.893836    
    218000   0.16072958    -8.3397793     -8.0986884     -0.71450876     50218.233      36.893836      36.893836      36.893836    
    219000   0.16000687    -8.3401383     -8.1001314     -0.70580307     50218.233      36.893836      36.893836      36.893836    
    220000   0.16103121    -8.3403478     -8.0988044     -0.71384205     50218.233      36.893836      36.893836      36.893836    
    221000   0.16006712    -8.3409469     -8.1008497     -0.72238708     50218.233      36.893836      36.893836      36.893836    
    222000   0.1599996     -8.3409071     -8.1009111     -0.72239709     50218.233      36.893836      36.893836      36.893836    
    223000   0.16014679    -8.3398555     -8.0996387     -0.71353317     50218.233      36.893836      36.893836      36.893836    
    224000   0.16076396    -8.3408292     -8.0996867     -0.71406988     50218.233      36.893836      36.893836      36.893836    
    225000   0.16023397    -8.3392296     -8.098882      -0.70395944     50218.233      36.893836      36.893836      36.893836    
    226000   0.16111731    -8.3384727     -8.0968001     -0.69804454     50218.233      36.893836      36.893836      36.893836    
    227000   0.15969762    -8.3395636     -8.1000206     -0.70833647     50218.233      36.893836      36.893836      36.893836    
    228000   0.15981749    -8.3399508     -8.100228      -0.71391532     50218.233      36.893836      36.893836      36.893836    
    229000   0.15985688    -8.3400574     -8.1002755     -0.71405725     50218.233      36.893836      36.893836      36.893836    
    230000   0.15905589    -8.3398166     -8.1012361     -0.703895       50218.233      36.893836      36.893836      36.893836    
    231000   0.15959906    -8.3398428     -8.1004476     -0.702976       50218.233      36.893836      36.893836      36.893836    
    232000   0.16074847    -8.3387167     -8.0975975     -0.70454164     50218.233      36.893836      36.893836      36.893836    
    233000   0.15982272    -8.339277      -8.0995463     -0.70128517     50218.233      36.893836      36.893836      36.893836    
    234000   0.15930536    -8.3392947     -8.1003401     -0.6999723      50218.233      36.893836      36.893836      36.893836    
    235000   0.16015575    -8.3406332     -8.100403      -0.71568        50218.233      36.893836      36.893836      36.893836    
    236000   0.16067658    -8.3398686     -8.0988571     -0.70548374     50218.233      36.893836      36.893836      36.893836    
    237000   0.16015732    -8.3408403     -8.1006077     -0.718403       50218.233      36.893836      36.893836      36.893836    
    238000   0.15941624    -8.3406324     -8.1015114     -0.72184204     50218.233      36.893836      36.893836      36.893836    
    239000   0.15961801    -8.3413862     -8.1019626     -0.71936724     50218.233      36.893836      36.893836      36.893836    
    240000   0.15937476    -8.3417627     -8.102704      -0.72599753     50218.233      36.893836      36.893836      36.893836    
    241000   0.15968746    -8.3412458     -8.101718      -0.71937603     50218.233      36.893836      36.893836      36.893836    
    242000   0.16002271    -8.3401314     -8.1001007     -0.71221848     50218.233      36.893836      36.893836      36.893836    
    243000   0.15996589    -8.3411964     -8.101251      -0.72407298     50218.233      36.893836      36.893836      36.893836    
    244000   0.16103965    -8.3410791     -8.099523      -0.72451643     50218.233      36.893836      36.893836      36.893836    
    245000   0.15950798    -8.3410926     -8.101834      -0.7177127      50218.233      36.893836      36.893836      36.893836    
    246000   0.15999061    -8.3412133     -8.1012307     -0.72703106     50218.233      36.893836      36.893836      36.893836    
    247000   0.16030729    -8.3424792     -8.1020217     -0.72242383     50218.233      36.893836      36.893836      36.893836    
    248000   0.15906715    -8.341677      -8.1030796     -0.72498416     50218.233      36.893836      36.893836      36.893836    
    249000   0.15950558    -8.3420847     -8.1028297     -0.72672708     50218.233      36.893836      36.893836      36.893836    
    250000   0.15941938    -8.341798      -8.1026724     -0.7279635      50218.233      36.893836      36.893836      36.893836    
    251000   0.15937907    -8.3416415     -8.1025763     -0.72691017     50218.233      36.893836      36.893836      36.893836    
    252000   0.1605417     -8.3416758     -8.1008667     -0.7286959      50218.233      36.893836      36.893836      36.893836    
    253000   0.15996387    -8.3414337     -8.1014913     -0.72324116     50218.233      36.893836      36.893836      36.893836    
    254000   0.15956761    -8.3405819     -8.1012339     -0.71417423     50218.233      36.893836      36.893836      36.893836    
    255000   0.1598353     -8.3411579     -8.1014084     -0.7224628      50218.233      36.893836      36.893836      36.893836    
    256000   0.16042134    -8.3413012     -8.1006726     -0.71817497     50218.233      36.893836      36.893836      36.893836    
    257000   0.16012107    -8.3406663     -8.1004881     -0.72020154     50218.233      36.893836      36.893836      36.893836    
    258000   0.15944202    -8.3402678     -8.1011081     -0.71779145     50218.233      36.893836      36.893836      36.893836    
    259000   0.16135675    -8.3412937     -8.099262      -0.71775464     50218.233      36.893836      36.893836      36.893836    
    260000   0.159562      -8.3413969     -8.1020573     -0.72680545     50218.233      36.893836      36.893836      36.893836    
    261000   0.1601314     -8.3408747     -8.1006811     -0.72648383     50218.233      36.893836      36.893836      36.893836    
    262000   0.15965903    -8.3418079     -8.1023227     -0.72092622     50218.233      36.893836      36.893836      36.893836    
    263000   0.15971458    -8.3411974     -8.1016289     -0.7258725      50218.233      36.893836      36.893836      36.893836    
    264000   0.16037325    -8.3400608     -8.0995043     -0.72471184     50218.233      36.893836      36.893836      36.893836    
    265000   0.160328      -8.3403953     -8.0999067     -0.71203923     50218.233      36.893836      36.893836      36.893836    
    266000   0.1599911     -8.3400719     -8.1000887     -0.70936119     50218.233      36.893836      36.893836      36.893836    
    267000   0.16057176    -8.3395362     -8.098682      -0.70937668     50218.233      36.893836      36.893836      36.893836    
    268000   0.15990404    -8.3391954     -8.0993428     -0.70414584     50218.233      36.893836      36.893836      36.893836    
    269000   0.16003112    -8.3394915     -8.0994483     -0.71378855     50218.233      36.893836      36.893836      36.893836    
    270000   0.16003352    -8.3388272     -8.0987804     -0.69871018     50218.233      36.893836      36.893836      36.893836    
    271000   0.1600844     -8.3399795     -8.0998563     -0.71358696     50218.233      36.893836      36.893836      36.893836    
    272000   0.15908556    -8.3402707     -8.1016458     -0.7131114      50218.233      36.893836      36.893836      36.893836    
    273000   0.16014549    -8.3399397     -8.0997249     -0.71346409     50218.233      36.893836      36.893836      36.893836    
    274000   0.16043784    -8.3388935     -8.0982402     -0.70323892     50218.233      36.893836      36.893836      36.893836    
    275000   0.15927703    -8.3411882     -8.1022761     -0.71766164     50218.233      36.893836      36.893836      36.893836    
    276000   0.16014704    -8.3390914     -8.0988742     -0.70188607     50218.233      36.893836      36.893836      36.893836    
    277000   0.15983369    -8.3400794     -8.1003323     -0.71099862     50218.233      36.893836      36.893836      36.893836    
    278000   0.15953567    -8.3397562     -8.1004561     -0.71297203     50218.233      36.893836      36.893836      36.893836    
    279000   0.16023222    -8.3393483     -8.0990034     -0.70644865     50218.233      36.893836      36.893836      36.893836    
    280000   0.15999257    -8.3409764     -8.1009909     -0.71551671     50218.233      36.893836      36.893836      36.893836    
    281000   0.16071291    -8.3409541     -8.0998882     -0.72377669     50218.233      36.893836      36.893836      36.893836    
    282000   0.15982729    -8.3390474     -8.0993099     -0.70410138     50218.233      36.893836      36.893836      36.893836    
    283000   0.15892978    -8.3402612     -8.1018699     -0.71501363     50218.233      36.893836      36.893836      36.893836    
    284000   0.16016393    -8.3393227     -8.0990802     -0.7099018      50218.233      36.893836      36.893836      36.893836    
    285000   0.16034213    -8.3410236     -8.1005138     -0.72408387     50218.233      36.893836      36.893836      36.893836    
    286000   0.15958429    -8.3408914     -8.1015184     -0.72108958     50218.233      36.893836      36.893836      36.893836    
    287000   0.15980976    -8.3398784     -8.1001671     -0.70855134     50218.233      36.893836      36.893836      36.893836    
    288000   0.16061126    -8.3406534     -8.0997399     -0.7098068      50218.233      36.893836      36.893836      36.893836    
    289000   0.16052001    -8.339896      -8.0991194     -0.70771799     50218.233      36.893836      36.893836      36.893836    
    290000   0.16038982    -8.341505      -8.1009237     -0.71458872     50218.233      36.893836      36.893836      36.893836    
    291000   0.16041979    -8.34111       -8.1004837     -0.71679347     50218.233      36.893836      36.893836      36.893836    
    292000   0.15961578    -8.3404321     -8.1010119     -0.71589818     50218.233      36.893836      36.893836      36.893836    
    293000   0.16082825    -8.3418285     -8.1005896     -0.71895041     50218.233      36.893836      36.893836      36.893836    
    294000   0.15961052    -8.341145      -8.1017326     -0.7274172      50218.233      36.893836      36.893836      36.893836    
    295000   0.15999589    -8.3421122     -8.1021218     -0.73228736     50218.233      36.893836      36.893836      36.893836    
    296000   0.15960999    -8.3412581     -8.1018465     -0.72571078     50218.233      36.893836      36.893836      36.893836    
    297000   0.16023278    -8.3406398     -8.100294      -0.71221682     50218.233      36.893836      36.893836      36.893836    
    298000   0.16018963    -8.3419762     -8.1016952     -0.72930096     50218.233      36.893836      36.893836      36.893836    
    299000   0.15966698    -8.3413219     -8.1018249     -0.72453684     50218.233      36.893836      36.893836      36.893836    
    300000   0.16045513    -8.3397055     -8.0990263     -0.70974453     50218.233      36.893836      36.893836      36.893836    
    301000   0.15941491    -8.3413972     -8.1022782     -0.72538225     50218.233      36.893836      36.893836      36.893836    
    302000   0.16135349    -8.3419371     -8.0999103     -0.72182192     50218.233      36.893836      36.893836      36.893836    
    303000   0.15927102    -8.3399442     -8.1010411     -0.71613932     50218.233      36.893836      36.893836      36.893836    
    304000   0.15968306    -8.3413024     -8.1017812     -0.72222706     50218.233      36.893836      36.893836      36.893836    
    305000   0.15968056    -8.3424017     -8.1028843     -0.72827966     50218.233      36.893836      36.893836      36.893836    
    306000   0.16081712    -8.3408451     -8.0996228     -0.71208715     50218.233      36.893836      36.893836      36.893836    
    307000   0.16010906    -8.3424023     -8.1022422     -0.72710277     50218.233      36.893836      36.893836      36.893836    
    308000   0.16048279    -8.3426335     -8.1019127     -0.7228679      50218.233      36.893836      36.893836      36.893836    
    309000   0.15848518    -8.3411883     -8.1034639     -0.72220655     50218.233      36.893836      36.893836      36.893836    
    310000   0.16108784    -8.3402411     -8.0986128     -0.7093252      50218.233      36.893836      36.893836      36.893836    
    311000   0.15973088    -8.3405957     -8.1010028     -0.71744499     50218.233      36.893836      36.893836      36.893836    
    312000   0.15951753    -8.3415166     -8.1022437     -0.72532757     50218.233      36.893836      36.893836      36.893836    
    313000   0.160093      -8.339511      -8.0993749     -0.70708236     50218.233      36.893836      36.893836      36.893836    
    314000   0.15978967    -8.3400809     -8.1003998     -0.70949444     50218.233      36.893836      36.893836      36.893836    
    315000   0.15979651    -8.3414365     -8.1017451     -0.72381985     50218.233      36.893836      36.893836      36.893836    
    316000   0.15993653    -8.341127      -8.1012256     -0.72119347     50218.233      36.893836      36.893836      36.893836    
    317000   0.15939045    -8.3396239     -8.1005416     -0.71048013     50218.233      36.893836      36.893836      36.893836    
    318000   0.16053774    -8.3403508     -8.0995476     -0.71000939     50218.233      36.893836      36.893836      36.893836    
    319000   0.15994655    -8.3390037     -8.0990873     -0.70596376     50218.233      36.893836      36.893836      36.893836    
    320000   0.15901206    -8.3413269     -8.1028122     -0.72243808     50218.233      36.893836      36.893836      36.893836    
    321000   0.15885168    -8.3392425     -8.1009684     -0.70856271     50218.233      36.893836      36.893836      36.893836    
    322000   0.15995106    -8.3389648     -8.0990416     -0.70103988     50218.233      36.893836      36.893836      36.893836    
    323000   0.16040799    -8.3386383     -8.0980297     -0.70004427     50218.233      36.893836      36.893836      36.893836    
    324000   0.1599098     -8.3400193     -8.100158      -0.7088264      50218.233      36.893836      36.893836      36.893836    
    325000   0.15971943    -8.3394717     -8.099896      -0.70231852     50218.233      36.893836      36.893836      36.893836    
    326000   0.16090553    -8.3385321     -8.0971772     -0.69578372     50218.233      36.893836      36.893836      36.893836    
    327000   0.16039157    -8.340372      -8.0997881     -0.71306517     50218.233      36.893836      36.893836      36.893836    
    328000   0.15949136    -8.3402553     -8.1010217     -0.71280094     50218.233      36.893836      36.893836      36.893836    
    329000   0.15995705    -8.3402578     -8.1003256     -0.71290218     50218.233      36.893836      36.893836      36.893836    
    330000   0.16000169    -8.3408294     -8.1008303     -0.72252629     50218.233      36.893836      36.893836      36.893836    
    331000   0.16031998    -8.3402923     -8.0998157     -0.71742624     50218.233      36.893836      36.893836      36.893836    
    332000   0.15961773    -8.3394694     -8.1000462     -0.71098215     50218.233      36.893836      36.893836      36.893836    
    333000   0.16091322    -8.3388701     -8.0975037     -0.69800827     50218.233      36.893836      36.893836      36.893836    
    334000   0.16054185    -8.3388868     -8.0980775     -0.70117964     50218.233      36.893836      36.893836      36.893836    
    335000   0.1598248     -8.3399419     -8.1002082     -0.71169286     50218.233      36.893836      36.893836      36.893836    
    336000   0.15926822    -8.340972      -8.102073      -0.72070963     50218.233      36.893836      36.893836      36.893836    
    337000   0.16048236    -8.3406799     -8.0999598     -0.71599196     50218.233      36.893836      36.893836      36.893836    
    338000   0.15871453    -8.3405833     -8.1025149     -0.71958455     50218.233      36.893836      36.893836      36.893836    
    339000   0.16052706    -8.3404524     -8.0996653     -0.71724138     50218.233      36.893836      36.893836      36.893836    
    340000   0.16045331    -8.3400275     -8.099351      -0.70799267     50218.233      36.893836      36.893836      36.893836    
    341000   0.159689      -8.3405988     -8.1010687     -0.71503333     50218.233      36.893836      36.893836      36.893836    
    342000   0.16066413    -8.3417344     -8.1007416     -0.72011111     50218.233      36.893836      36.893836      36.893836    
    343000   0.15949507    -8.3411697     -8.1019305     -0.72133663     50218.233      36.893836      36.893836      36.893836    
    344000   0.15960107    -8.3404683     -8.1010701     -0.71439351     50218.233      36.893836      36.893836      36.893836    
    345000   0.159297      -8.3415928     -8.1026507     -0.72937184     50218.233      36.893836      36.893836      36.893836    
    346000   0.15953565    -8.3406864     -8.1013863     -0.72333962     50218.233      36.893836      36.893836      36.893836    
    347000   0.1602402     -8.340646      -8.1002891     -0.71923594     50218.233      36.893836      36.893836      36.893836    
    348000   0.16125981    -8.3414684     -8.0995821     -0.7227408      50218.233      36.893836      36.893836      36.893836    
    349000   0.16061508    -8.3409443     -8.1000251     -0.72008525     50218.233      36.893836      36.893836      36.893836    
    350000   0.16050858    -8.341733      -8.1009735     -0.72596603     50218.233      36.893836      36.893836      36.893836    
    351000   0.15961329    -8.3410661     -8.1016496     -0.72733459     50218.233      36.893836      36.893836      36.893836    
    352000   0.15980285    -8.3400234     -8.1003225     -0.71089269     50218.233      36.893836      36.893836      36.893836    
    353000   0.15997165    -8.3418636     -8.1019095     -0.72259395     50218.233      36.893836      36.893836      36.893836    
    354000   0.15984481    -8.3411273     -8.1013635     -0.72250666     50218.233      36.893836      36.893836      36.893836    
    355000   0.16001798    -8.3419037     -8.1018801     -0.73311939     50218.233      36.893836      36.893836      36.893836    
    356000   0.15897074    -8.3417664     -8.1033137     -0.72517418     50218.233      36.893836      36.893836      36.893836    
    357000   0.15999679    -8.3412169     -8.1012251     -0.71772169     50218.233      36.893836      36.893836      36.893836    
    358000   0.15970675    -8.3415915     -8.1020348     -0.72482975     50218.233      36.893836      36.893836      36.893836    
    359000   0.16047196    -8.3414545     -8.10075       -0.72274322     50218.233      36.893836      36.893836      36.893836    
    360000   0.16036223    -8.3413273     -8.1007874     -0.72071621     50218.233      36.893836      36.893836      36.893836    
    361000   0.1604854     -8.3411586     -8.1004339     -0.72247038     50218.233      36.893836      36.893836      36.893836    
    362000   0.15941529    -8.3393646     -8.1002451     -0.71352658     50218.233      36.893836      36.893836      36.893836    
    363000   0.16019625    -8.3401805     -8.0998895     -0.71359662     50218.233      36.893836      36.893836      36.893836    
    364000   0.16042494    -8.3402314     -8.0995974     -0.71498358     50218.233      36.893836      36.893836      36.893836    
    365000   0.15970887    -8.3382983     -8.0987384     -0.70364922     50218.233      36.893836      36.893836      36.893836    
    366000   0.16008921    -8.3395868     -8.0994564     -0.71061717     50218.233      36.893836      36.893836      36.893836    
    367000   0.15903815    -8.3400616     -8.1015078     -0.70956169     50218.233      36.893836      36.893836      36.893836    
    368000   0.15985936    -8.3390728     -8.0992872     -0.7011593      50218.233      36.893836      36.893836      36.893836    
    369000   0.16017919    -8.3402513     -8.0999859     -0.71279153     50218.233      36.893836      36.893836      36.893836    
    370000   0.16056524    -8.3391429     -8.0982985     -0.70741221     50218.233      36.893836      36.893836      36.893836    
    371000   0.16018272    -8.3394255     -8.0991549     -0.70952701     50218.233      36.893836      36.893836      36.893836    
    372000   0.15987975    -8.340034      -8.1002178     -0.71168581     50218.233      36.893836      36.893836      36.893836    
    373000   0.16160018    -8.3400255     -8.0976287     -0.70218985     50218.233      36.893836      36.893836      36.893836    
    374000   0.15890984    -8.3395219     -8.1011605     -0.70835228     50218.233      36.893836      36.893836      36.893836    
    375000   0.16018305    -8.3398926     -8.0996215     -0.71213028     50218.233      36.893836      36.893836      36.893836    
    376000   0.16076545    -8.3404143     -8.0992696     -0.71072178     50218.233      36.893836      36.893836      36.893836    
    377000   0.16058746    -8.3402482     -8.0993704     -0.71264895     50218.233      36.893836      36.893836      36.893836    
    378000   0.16022824    -8.3397184     -8.0993795     -0.70140508     50218.233      36.893836      36.893836      36.893836    
    379000   0.15952611    -8.339928      -8.1006422     -0.7163033      50218.233      36.893836      36.893836      36.893836    
    380000   0.15987107    -8.3401519     -8.1003487     -0.71028221     50218.233      36.893836      36.893836      36.893836    
    381000   0.16002252    -8.3394134     -8.099383      -0.71111141     50218.233      36.893836      36.893836      36.893836    
    382000   0.15995082    -8.3397026     -8.0997798     -0.7150227      50218.233      36.893836      36.893836      36.893836    
    383000   0.16088808    -8.3397427     -8.098414      -0.70750532     50218.233      36.893836      36.893836      36.893836    
    384000   0.16033339    -8.3391665     -8.0986698     -0.70383907     50218.233      36.893836      36.893836      36.893836    
    385000   0.15998977    -8.3416332     -8.1016519     -0.72453053     50218.233      36.893836      36.893836      36.893836    
    386000   0.16054215    -8.3407393     -8.0999295     -0.71506265     50218.233      36.893836      36.893836      36.893836    
    387000   0.16047663    -8.3405263     -8.0998147     -0.71297651     50218.233      36.893836      36.893836      36.893836    
    388000   0.1600329     -8.3406291     -8.1005832     -0.71607856     50218.233      36.893836      36.893836      36.893836    
    389000   0.16105424    -8.3404246     -8.0988467     -0.70835342     50218.233      36.893836      36.893836      36.893836    
    390000   0.16032391    -8.3407491     -8.1002666     -0.72097162     50218.233      36.893836      36.893836      36.893836    
    391000   0.15974923    -8.3407274     -8.101107      -0.71787275     50218.233      36.893836      36.893836      36.893836    
    392000   0.1600125     -8.3411604     -8.1011451     -0.72293449     50218.233      36.893836      36.893836      36.893836    
    393000   0.15921155    -8.3411675     -8.1023536     -0.72067756     50218.233      36.893836      36.893836      36.893836    
    394000   0.16007532    -8.3412775     -8.101168      -0.71853918     50218.233      36.893836      36.893836      36.893836    
    395000   0.15966311    -8.3415145     -8.1020233     -0.72608456     50218.233      36.893836      36.893836      36.893836    
    396000   0.1605464     -8.3406134     -8.0997972     -0.71133387     50218.233      36.893836      36.893836      36.893836    
    397000   0.16022204    -8.3418576     -8.101528      -0.72842011     50218.233      36.893836      36.893836      36.893836    
    398000   0.16012153    -8.3421825     -8.1020036     -0.72728897     50218.233      36.893836      36.893836      36.893836    
    399000   0.15987216    -8.3406738     -8.1008689     -0.71629005     50218.233      36.893836      36.893836      36.893836    
    400000   0.16010477    -8.3420883     -8.1019346     -0.72825123     50218.233      36.893836      36.893836      36.893836    
    401000   0.16057586    -8.3408913     -8.1000309     -0.71194677     50218.233      36.893836      36.893836      36.893836    
    402000   0.15969531    -8.3399498     -8.1004102     -0.71357969     50218.233      36.893836      36.893836      36.893836    
    403000   0.16008228    -8.3417478     -8.1016278     -0.72580482     50218.233      36.893836      36.893836      36.893836    
    404000   0.15997054    -8.3409174     -8.100965      -0.71507555     50218.233      36.893836      36.893836      36.893836    
    405000   0.15965922    -8.3421681     -8.1026827     -0.73251014     50218.233      36.893836      36.893836      36.893836    
    406000   0.15967829    -8.3410056     -8.1014916     -0.71603552     50218.233      36.893836      36.893836      36.893836    
    407000   0.15994146    -8.3421298     -8.1022211     -0.72338048     50218.233      36.893836      36.893836      36.893836    
    408000   0.16030019    -8.3400168     -8.09957       -0.70282512     50218.233      36.893836      36.893836      36.893836    
    409000   0.159852      -8.3417435     -8.1019689     -0.72791576     50218.233      36.893836      36.893836      36.893836    
    410000   0.16047725    -8.3418203     -8.1011079     -0.72087855     50218.233      36.893836      36.893836      36.893836    
    411000   0.15976157    -8.3412568     -8.1016179     -0.71877137     50218.233      36.893836      36.893836      36.893836    
    412000   0.16059497    -8.3405412     -8.0996522     -0.70902948     50218.233      36.893836      36.893836      36.893836    
    413000   0.15995782    -8.3410048     -8.1010715     -0.71656127     50218.233      36.893836      36.893836      36.893836    
    414000   0.16014526    -8.3406862     -8.1004717     -0.71656747     50218.233      36.893836      36.893836      36.893836    
    415000   0.16010469    -8.3392785     -8.0991249     -0.7082919      50218.233      36.893836      36.893836      36.893836    
    416000   0.15963454    -8.3400807     -8.1006323     -0.71541695     50218.233      36.893836      36.893836      36.893836    
    417000   0.16071278    -8.3396816     -8.0986158     -0.70561616     50218.233      36.893836      36.893836      36.893836    
    418000   0.15925173    -8.3388418     -8.0999676     -0.71021133     50218.233      36.893836      36.893836      36.893836    
    419000   0.160246      -8.3398808     -8.0995152     -0.70682322     50218.233      36.893836      36.893836      36.893836    
    420000   0.15997114    -8.340352      -8.1003987     -0.70689375     50218.233      36.893836      36.893836      36.893836    
    421000   0.15984993    -8.3389985     -8.099227      -0.70253081     50218.233      36.893836      36.893836      36.893836    
    422000   0.15963219    -8.3404038     -8.1009589     -0.70997493     50218.233      36.893836      36.893836      36.893836    
    423000   0.16023836    -8.3391521     -8.098798      -0.7074661      50218.233      36.893836      36.893836      36.893836    
    424000   0.1592757     -8.3406556     -8.1017454     -0.71667402     50218.233      36.893836      36.893836      36.893836    
    425000   0.15990483    -8.3391238     -8.09927       -0.70439449     50218.233      36.893836      36.893836      36.893836    
    426000   0.15942492    -8.3403062     -8.1011722     -0.713051       50218.233      36.893836      36.893836      36.893836    
    427000   0.16053509    -8.3392091     -8.0984099     -0.70321123     50218.233      36.893836      36.893836      36.893836    
    428000   0.15996118    -8.3381754     -8.0982371     -0.70012358     50218.233      36.893836      36.893836      36.893836    
    429000   0.16047389    -8.3403728     -8.0996654     -0.71498606     50218.233      36.893836      36.893836      36.893836    
    430000   0.15993007    -8.3402009     -8.1003092     -0.70905597     50218.233      36.893836      36.893836      36.893836    
    431000   0.15934448    -8.341403      -8.1023896     -0.72278886     50218.233      36.893836      36.893836      36.893836    
    432000   0.1605252     -8.34067       -8.0998856     -0.71606128     50218.233      36.893836      36.893836      36.893836    
    433000   0.1591449     -8.3406727     -8.1019587     -0.71883461     50218.233      36.893836      36.893836      36.893836    
    434000   0.15989197    -8.3404757     -8.1006411     -0.71233293     50218.233      36.893836      36.893836      36.893836    
    435000   0.15978428    -8.3402317     -8.1005587     -0.70911158     50218.233      36.893836      36.893836      36.893836    
    436000   0.15969687    -8.341243      -8.1017011     -0.71818886     50218.233      36.893836      36.893836      36.893836    
    437000   0.16049018    -8.3414101     -8.1006782     -0.72032508     50218.233      36.893836      36.893836      36.893836    
    438000   0.16019017    -8.3406424     -8.1003606     -0.71250253     50218.233      36.893836      36.893836      36.893836    
    439000   0.16018964    -8.339412      -8.0991309     -0.70360475     50218.233      36.893836      36.893836      36.893836    
    440000   0.15964507    -8.3412013     -8.1017371     -0.72015049     50218.233      36.893836      36.893836      36.893836    
    441000   0.16153579    -8.3414646     -8.0991643     -0.71800114     50218.233      36.893836      36.893836      36.893836    
    442000   0.16048684    -8.3403245     -8.0995977     -0.71698175     50218.233      36.893836      36.893836      36.893836    
    443000   0.16020048    -8.3409671     -8.1006698     -0.71937412     50218.233      36.893836      36.893836      36.893836    
    444000   0.16026891    -8.3401829     -8.0997829     -0.70937623     50218.233      36.893836      36.893836      36.893836    
    445000   0.16003874    -8.3412405     -8.1011859     -0.71432774     50218.233      36.893836      36.893836      36.893836    
    446000   0.15988505    -8.340529      -8.1007049     -0.71412956     50218.233      36.893836      36.893836      36.893836    
    447000   0.16008667    -8.3410716     -8.100945      -0.71671183     50218.233      36.893836      36.893836      36.893836    
    448000   0.16018328    -8.3409492     -8.1006777     -0.72197382     50218.233      36.893836      36.893836      36.893836    
    449000   0.16047291    -8.3417495     -8.1010435     -0.7258716      50218.233      36.893836      36.893836      36.893836    
    450000   0.15948517    -8.3410826     -8.1018583     -0.71901553     50218.233      36.893836      36.893836      36.893836    
    451000   0.15961518    -8.3407857     -8.1013664     -0.7196338      50218.233      36.893836      36.893836      36.893836    
    452000   0.15960723    -8.3411253     -8.1017179     -0.719812       50218.233      36.893836      36.893836      36.893836    
    453000   0.15946127    -8.3411596     -8.1019711     -0.71804525     50218.233      36.893836      36.893836      36.893836    
    454000   0.1595285     -8.3405563     -8.1012669     -0.71695035     50218.233      36.893836      36.893836      36.893836    
    455000   0.1602736     -8.3411903     -8.1007833     -0.71781669     50218.233      36.893836      36.893836      36.893836    
    456000   0.15936424    -8.340716      -8.1016731     -0.72149396     50218.233      36.893836      36.893836      36.893836    
    457000   0.16028432    -8.3413276     -8.1009046     -0.72532403     50218.233      36.893836      36.893836      36.893836    
    458000   0.15940353    -8.3406686     -8.1015667     -0.71419349     50218.233      36.893836      36.893836      36.893836    
    459000   0.15998704    -8.3405911     -8.100614      -0.72101995     50218.233      36.893836      36.893836      36.893836    
    460000   0.15890914    -8.3412286     -8.1028683     -0.73087996     50218.233      36.893836      36.893836      36.893836    
    461000   0.16056381    -8.3410466     -8.1002043     -0.71661927     50218.233      36.893836      36.893836      36.893836    
    462000   0.1607732     -8.3398708     -8.0987144     -0.70503961     50218.233      36.893836      36.893836      36.893836    
    463000   0.15974754    -8.3414637     -8.1018458     -0.72507214     50218.233      36.893836      36.893836      36.893836    
    464000   0.15922072    -8.3389985     -8.1001708     -0.70865371     50218.233      36.893836      36.893836      36.893836    
    465000   0.15974645    -8.3392094     -8.0995931     -0.70644587     50218.233      36.893836      36.893836      36.893836    
    466000   0.16018224    -8.3403287     -8.1000587     -0.71538163     50218.233      36.893836      36.893836      36.893836    
    467000   0.16053436    -8.3404653     -8.0996672     -0.7121029      50218.233      36.893836      36.893836      36.893836    
    468000   0.15968797    -8.3381755     -8.0986469     -0.69560247     50218.233      36.893836      36.893836      36.893836    
    469000   0.15949029    -8.3402539     -8.1010218     -0.71344601     50218.233      36.893836      36.893836      36.893836    
    470000   0.15980671    -8.3394702     -8.0997635     -0.70286891     50218.233      36.893836      36.893836      36.893836    
    471000   0.16034625    -8.3397574     -8.0992415     -0.71289092     50218.233      36.893836      36.893836      36.893836    
    472000   0.15942951    -8.3393685     -8.1002276     -0.70515933     50218.233      36.893836      36.893836      36.893836    
    473000   0.15919535    -8.3405554     -8.1017657     -0.71467577     50218.233      36.893836      36.893836      36.893836    
    474000   0.16041236    -8.3394282     -8.0988131     -0.7119529      50218.233      36.893836      36.893836      36.893836    
    475000   0.16011378    -8.3400251     -8.0998579     -0.71021268     50218.233      36.893836      36.893836      36.893836    
    476000   0.159727      -8.3400582     -8.1004712     -0.71116179     50218.233      36.893836      36.893836      36.893836    
    477000   0.16017391    -8.3387317     -8.0984743     -0.70451906     50218.233      36.893836      36.893836      36.893836    
    478000   0.16041621    -8.3404806     -8.0998597     -0.70884137     50218.233      36.893836      36.893836      36.893836    
    479000   0.15937661    -8.340591      -8.1015295     -0.72318315     50218.233      36.893836      36.893836      36.893836    
    480000   0.16057744    -8.3382439     -8.0973812     -0.70038591     50218.233      36.893836      36.893836      36.893836    
    481000   0.15967906    -8.3397498     -8.1002346     -0.70561567     50218.233      36.893836      36.893836      36.893836    
    482000   0.15989738    -8.3396656     -8.0998229     -0.71274307     50218.233      36.893836      36.893836      36.893836    
    483000   0.16008121    -8.3417288     -8.1016104     -0.72211355     50218.233      36.893836      36.893836      36.893836    
    484000   0.15980919    -8.3409893     -8.1012789     -0.72372893     50218.233      36.893836      36.893836      36.893836    
    485000   0.16070449    -8.3418856     -8.1008323     -0.72742772     50218.233      36.893836      36.893836      36.893836    
    486000   0.16043038    -8.3407425     -8.1001003     -0.71118858     50218.233      36.893836      36.893836      36.893836    
    487000   0.15946085    -8.3404948     -8.1013069     -0.71430124     50218.233      36.893836      36.893836      36.893836    
    488000   0.15981612    -8.341721      -8.1020002     -0.72152195     50218.233      36.893836      36.893836      36.893836    
    489000   0.16067456    -8.3398625     -8.0988541     -0.70660289     50218.233      36.893836      36.893836      36.893836    
    490000   0.1598705     -8.3412749     -8.1014725     -0.72686834     50218.233      36.893836      36.893836      36.893836    
    491000   0.15928874    -8.3413041     -8.1023744     -0.72383725     50218.233      36.893836      36.893836      36.893836    
    492000   0.16007399    -8.3405282     -8.1004207     -0.71210538     50218.233      36.893836      36.893836      36.893836    
    493000   0.16022254    -8.3407665     -8.1004361     -0.71693715     50218.233      36.893836      36.893836      36.893836    
    494000   0.16047823    -8.3407657     -8.1000517     -0.71214616     50218.233      36.893836      36.893836      36.893836    
    495000   0.1602712     -8.3414882     -8.1010849     -0.72405895     50218.233      36.893836      36.893836      36.893836    
    496000   0.15897691    -8.3414352     -8.1029732     -0.720525       50218.233      36.893836      36.893836      36.893836    
    497000   0.15979174    -8.3395665     -8.0998823     -0.71100846     50218.233      36.893836      36.893836      36.893836    
    498000   0.16016024    -8.3413402     -8.1011033     -0.72731744     50218.233      36.893836      36.893836      36.893836    
    499000   0.15955248    -8.3418428     -8.1025175     -0.7227979      50218.233      36.893836      36.893836      36.893836    
    500000   0.16008657    -8.3410379     -8.1009114     -0.71944657     50218.233      36.893836      36.893836      36.893836    
    501000   0.16018312    -8.3414315     -8.1011603     -0.72992514     50218.233      36.893836      36.893836      36.893836    
    502000   0.16093289    -8.3397285     -8.0983326     -0.70675573     50218.233      36.893836      36.893836      36.893836    
    503000   0.16003267    -8.3420988     -8.1020532     -0.72184391     50218.233      36.893836      36.893836      36.893836    
    504000   0.15981029    -8.341132      -8.10142       -0.72143015     50218.233      36.893836      36.893836      36.893836    
    505000   0.15946908    -8.3413968     -8.1021966     -0.72231374     50218.233      36.893836      36.893836      36.893836    
    506000   0.1599612     -8.3408522     -8.1009138     -0.71484648     50218.233      36.893836      36.893836      36.893836    
    507000   0.15962347    -8.3409489     -8.1015171     -0.71839002     50218.233      36.893836      36.893836      36.893836    
    508000   0.16050742    -8.3406276     -8.0998699     -0.72135589     50218.233      36.893836      36.893836      36.893836    
    509000   0.16040379    -8.3407393     -8.100137      -0.71215124     50218.233      36.893836      36.893836      36.893836    
    510000   0.15965422    -8.3405596     -8.1010817     -0.71564504     50218.233      36.893836      36.893836      36.893836    
    511000   0.16072775    -8.3410823     -8.0999941     -0.72071094     50218.233      36.893836      36.893836      36.893836    
    512000   0.15933251    -8.3392961     -8.1003007     -0.70535623     50218.233      36.893836      36.893836      36.893836    
    513000   0.15966805    -8.3392946     -8.0997959     -0.70360616     50218.233      36.893836      36.893836      36.893836    
    514000   0.15986457    -8.3402966     -8.1005031     -0.71197448     50218.233      36.893836      36.893836      36.893836    
    515000   0.1596466     -8.3397305     -8.1002641     -0.70431198     50218.233      36.893836      36.893836      36.893836    
    516000   0.15984552    -8.338887      -8.0991221     -0.69614204     50218.233      36.893836      36.893836      36.893836    
    517000   0.16038384    -8.3405342     -8.0999618     -0.7142852      50218.233      36.893836      36.893836      36.893836    
    518000   0.16090425    -8.3388019     -8.097449      -0.69777722     50218.233      36.893836      36.893836      36.893836    
    519000   0.15987423    -8.3386483     -8.0988404     -0.7044005      50218.233      36.893836      36.893836      36.893836    
    520000   0.15994287    -8.3417672     -8.1018563     -0.72647173     50218.233      36.893836      36.893836      36.893836    
    521000   0.15977659    -8.340314      -8.1006525     -0.71090047     50218.233      36.893836      36.893836      36.893836    
    522000   0.16125521    -8.3408688     -8.0989894     -0.71644083     50218.233      36.893836      36.893836      36.893836    
    523000   0.15969012    -8.3402954     -8.1007637     -0.71259355     50218.233      36.893836      36.893836      36.893836    
    524000   0.16019564    -8.3401165     -8.0998264     -0.71543705     50218.233      36.893836      36.893836      36.893836    
    525000   0.15927877    -8.3415416     -8.1026268     -0.72250855     50218.233      36.893836      36.893836      36.893836    
    526000   0.15940936    -8.3395282     -8.1004175     -0.70884079     50218.233      36.893836      36.893836      36.893836    
    527000   0.15930533    -8.3398543     -8.1008997     -0.70664793     50218.233      36.893836      36.893836      36.893836    
    528000   0.16067178    -8.3387664     -8.0977622     -0.69808278     50218.233      36.893836      36.893836      36.893836    
    529000   0.15897124    -8.338989      -8.1005355     -0.70655553     50218.233      36.893836      36.893836      36.893836    
    530000   0.16081973    -8.3394853     -8.0982592     -0.7077904      50218.233      36.893836      36.893836      36.893836    
    531000   0.16083839    -8.3410022     -8.099748      -0.71289607     50218.233      36.893836      36.893836      36.893836    
    532000   0.15914405    -8.3405249     -8.1018122     -0.71435442     50218.233      36.893836      36.893836      36.893836    
    533000   0.16028904    -8.3408153     -8.1003851     -0.71506674     50218.233      36.893836      36.893836      36.893836    
    534000   0.16044619    -8.3409155     -8.1002496     -0.71360543     50218.233      36.893836      36.893836      36.893836    
    535000   0.16024645    -8.3404062     -8.10004       -0.71470826     50218.233      36.893836      36.893836      36.893836    
    536000   0.16094265    -8.3407359     -8.0993254     -0.71722221     50218.233      36.893836      36.893836      36.893836    
    537000   0.16027088    -8.3416403     -8.1012374     -0.720665       50218.233      36.893836      36.893836      36.893836    
    538000   0.15997301    -8.3390155     -8.0990594     -0.70341334     50218.233      36.893836      36.893836      36.893836    
    539000   0.15934927    -8.3400291     -8.1010086     -0.70792968     50218.233      36.893836      36.893836      36.893836    
    540000   0.16060783    -8.3399956     -8.0990873     -0.71063126     50218.233      36.893836      36.893836      36.893836    
    541000   0.16021772    -8.3404775     -8.1001543     -0.71499244     50218.233      36.893836      36.893836      36.893836    
    542000   0.15969249    -8.3408741     -8.1013387     -0.71708939     50218.233      36.893836      36.893836      36.893836    
    543000   0.16033706    -8.3416829     -8.1011807     -0.72199277     50218.233      36.893836      36.893836      36.893836    
    544000   0.16053511    -8.340795      -8.0999958     -0.71617976     50218.233      36.893836      36.893836      36.893836    
    545000   0.15978454    -8.3417961     -8.1021227     -0.72002499     50218.233      36.893836      36.893836      36.893836    
    546000   0.16024222    -8.3422462     -8.1018863     -0.72947722     50218.233      36.893836      36.893836      36.893836    
    547000   0.15935797    -8.3413098     -8.1022762     -0.71957161     50218.233      36.893836      36.893836      36.893836    
    548000   0.16059237    -8.3409425     -8.1000574     -0.72089069     50218.233      36.893836      36.893836      36.893836    
    549000   0.16002199    -8.3423749     -8.1023454     -0.72779889     50218.233      36.893836      36.893836      36.893836    
    550000   0.15886887    -8.3414268     -8.1031269     -0.72476233     50218.233      36.893836      36.893836      36.893836    
    551000   0.16057434    -8.3419364     -8.1010783     -0.72859974     50218.233      36.893836      36.893836      36.893836    
    552000   0.15977148    -8.341234      -8.1015802     -0.71845707     50218.233      36.893836      36.893836      36.893836    
    553000   0.15962207    -8.3424967     -8.103067      -0.73738905     50218.233      36.893836      36.893836      36.893836    
    554000   0.15969692    -8.3400431     -8.1005011     -0.70566864     50218.233      36.893836      36.893836      36.893836    
    555000   0.15998772    -8.3401658     -8.1001876     -0.71132138     50218.233      36.893836      36.893836      36.893836    
    556000   0.16073647    -8.3408626     -8.0997613     -0.71832386     50218.233      36.893836      36.893836      36.893836    
    557000   0.16011214    -8.341488      -8.1013232     -0.72508133     50218.233      36.893836      36.893836      36.893836    
    558000   0.15945674    -8.3423542     -8.1031725     -0.72829436     50218.233      36.893836      36.893836      36.893836    
    559000   0.16054921    -8.3407573     -8.099937      -0.71395826     50218.233      36.893836      36.893836      36.893836    
    560000   0.15973368    -8.3420296     -8.1024325     -0.72737432     50218.233      36.893836      36.893836      36.893836    
    561000   0.16084402    -8.3418245     -8.1005619     -0.72142434     50218.233      36.893836      36.893836      36.893836    
    562000   0.16004395    -8.3405504     -8.1004879     -0.7208919      50218.233      36.893836      36.893836      36.893836    
    563000   0.16052803    -8.3406678     -8.0998792     -0.72105202     50218.233      36.893836      36.893836      36.893836    
    564000   0.16036433    -8.3408184     -8.1002753     -0.72130666     50218.233      36.893836      36.893836      36.893836    
    565000   0.16031211    -8.3401603     -8.0996956     -0.7147673      50218.233      36.893836      36.893836      36.893836    
    566000   0.15921194    -8.3405278     -8.1017133     -0.71924118     50218.233      36.893836      36.893836      36.893836    
    567000   0.16019478    -8.3412309     -8.1009421     -0.7188047      50218.233      36.893836      36.893836      36.893836    
    568000   0.16025969    -8.3406776     -8.1002915     -0.71629293     50218.233      36.893836      36.893836      36.893836    
    569000   0.15993461    -8.3379958     -8.0980973     -0.70291145     50218.233      36.893836      36.893836      36.893836    
    570000   0.16012242    -8.3399425     -8.0997622     -0.71469392     50218.233      36.893836      36.893836      36.893836    
    571000   0.15953172    -8.3393162     -8.100022      -0.71175904     50218.233      36.893836      36.893836      36.893836    
    572000   0.16027313    -8.3409938     -8.1005875     -0.71300449     50218.233      36.893836      36.893836      36.893836    
    573000   0.1600409     -8.3395905     -8.0995325     -0.71193847     50218.233      36.893836      36.893836      36.893836    
    574000   0.1605093     -8.3400079     -8.0992473     -0.71224806     50218.233      36.893836      36.893836      36.893836    
    575000   0.15896295    -8.3393571     -8.1009161     -0.70634243     50218.233      36.893836      36.893836      36.893836    
    576000   0.15995458    -8.3399839     -8.1000554     -0.70864492     50218.233      36.893836      36.893836      36.893836    
    577000   0.15979727    -8.3384864     -8.0987939     -0.69800892     50218.233      36.893836      36.893836      36.893836    
    578000   0.16080033    -8.3411886     -8.0999915     -0.72442559     50218.233      36.893836      36.893836      36.893836    
    579000   0.16034469    -8.3399325     -8.0994189     -0.7081802      50218.233      36.893836      36.893836      36.893836    
    580000   0.16034349    -8.3412917     -8.1007799     -0.71781256     50218.233      36.893836      36.893836      36.893836    
    581000   0.16076194    -8.3405712     -8.0994317     -0.71968958     50218.233      36.893836      36.893836      36.893836    
    582000   0.15992517    -8.3409206     -8.1010363     -0.71929234     50218.233      36.893836      36.893836      36.893836    
    583000   0.16071893    -8.3401688     -8.0990938     -0.7094151      50218.233      36.893836      36.893836      36.893836    
    584000   0.16031064    -8.3396831     -8.0992206     -0.70974515     50218.233      36.893836      36.893836      36.893836    
    585000   0.16054074    -8.3398398     -8.0990322     -0.70926272     50218.233      36.893836      36.893836      36.893836    
    586000   0.16039283    -8.3401395     -8.0995537     -0.70890941     50218.233      36.893836      36.893836      36.893836    
    587000   0.1595325     -8.3415798     -8.1022845     -0.72625302     50218.233      36.893836      36.893836      36.893836    
    588000   0.16024561    -8.3403962     -8.1000312     -0.71124091     50218.233      36.893836      36.893836      36.893836    
    589000   0.16019351    -8.3408341     -8.1005473     -0.71594435     50218.233      36.893836      36.893836      36.893836    
    590000   0.15946022    -8.3420906     -8.1029037     -0.72330722     50218.233      36.893836      36.893836      36.893836    
    591000   0.16014708    -8.340287      -8.1000698     -0.71031793     50218.233      36.893836      36.893836      36.893836    
    592000   0.15953571    -8.3409769     -8.1016767     -0.71743417     50218.233      36.893836      36.893836      36.893836    
    593000   0.15903449    -8.3406213     -8.102073      -0.71687819     50218.233      36.893836      36.893836      36.893836    
    594000   0.16042739    -8.3410034     -8.1003657     -0.71832673     50218.233      36.893836      36.893836      36.893836    
    595000   0.15954864    -8.3414202     -8.1021006     -0.72784707     50218.233      36.893836      36.893836      36.893836    
    596000   0.15987888    -8.3409846     -8.1011697     -0.71960244     50218.233      36.893836      36.893836      36.893836    
    597000   0.16003981    -8.3405652     -8.1005089     -0.71241608     50218.233      36.893836      36.893836      36.893836    
    598000   0.15994976    -8.342463      -8.1025417     -0.73165245     50218.233      36.893836      36.893836      36.893836    
    599000   0.16043819    -8.3410819     -8.100428      -0.71325335     50218.233      36.893836      36.893836      36.893836    
    600000   0.15910434    -8.341539      -8.1028859     -0.72193823     50218.233      36.893836      36.893836      36.893836    
    601000   0.16050971    -8.3416987     -8.1009376     -0.72469075     50218.233      36.893836      36.893836      36.893836    
    602000   0.15993426    -8.3416322     -8.1017342     -0.72804129     50218.233      36.893836      36.893836      36.893836    
    603000   0.16020307    -8.3414523     -8.1011511     -0.71613161     50218.233      36.893836      36.893836      36.893836    
    604000   0.15937902    -8.3408642     -8.1017991     -0.71922549     50218.233      36.893836      36.893836      36.893836    
    605000   0.15988326    -8.3409048     -8.1010833     -0.7224088      50218.233      36.893836      36.893836      36.893836    
    606000   0.15967625    -8.3400707     -8.1005597     -0.72150465     50218.233      36.893836      36.893836      36.893836    
    607000   0.15933639    -8.340115      -8.1011138     -0.71135284     50218.233      36.893836      36.893836      36.893836    
    608000   0.16033231    -8.3416424     -8.1011474     -0.7219379      50218.233      36.893836      36.893836      36.893836    
    609000   0.16000229    -8.340332      -8.1003319     -0.71693225     50218.233      36.893836      36.893836      36.893836    
    610000   0.16062086    -8.3401687     -8.0992408     -0.71211395     50218.233      36.893836      36.893836      36.893836    
    611000   0.15981135    -8.3414994     -8.1017858     -0.7202848      50218.233      36.893836      36.893836      36.893836    
    612000   0.16075162    -8.3401024     -8.0989785     -0.71089555     50218.233      36.893836      36.893836      36.893836    
    613000   0.1602249     -8.341525      -8.1011911     -0.71852644     50218.233      36.893836      36.893836      36.893836    
    614000   0.16003176    -8.3401935     -8.1001493     -0.71109474     50218.233      36.893836      36.893836      36.893836    
    615000   0.1599294     -8.3405801     -8.1006894     -0.70896957     50218.233      36.893836      36.893836      36.893836    
    616000   0.15998885    -8.3395297     -8.0995498     -0.70999812     50218.233      36.893836      36.893836      36.893836    
    617000   0.16168135    -8.3395918     -8.0970732     -0.70353275     50218.233      36.893836      36.893836      36.893836    
    618000   0.16059561    -8.3402758     -8.0993858     -0.71528899     50218.233      36.893836      36.893836      36.893836    
    619000   0.15947277    -8.3403158     -8.1011101     -0.71696929     50218.233      36.893836      36.893836      36.893836    
    620000   0.16022436    -8.338575      -8.0982419     -0.69480711     50218.233      36.893836      36.893836      36.893836    
    621000   0.15984023    -8.3399397     -8.1001827     -0.71472269     50218.233      36.893836      36.893836      36.893836    
    622000   0.15989874    -8.3381327     -8.098288      -0.69648533     50218.233      36.893836      36.893836      36.893836    
    623000   0.16027       -8.3389778     -8.0985763     -0.69905144     50218.233      36.893836      36.893836      36.893836    
    624000   0.16038315    -8.3393261     -8.0987548     -0.70527024     50218.233      36.893836      36.893836      36.893836    
    625000   0.15970006    -8.3400354     -8.1004887     -0.70673383     50218.233      36.893836      36.893836      36.893836    
    626000   0.16048241    -8.3398506     -8.0991304     -0.70479815     50218.233      36.893836      36.893836      36.893836    
    627000   0.1596908     -8.3399328     -8.1004        -0.70719602     50218.233      36.893836      36.893836      36.893836    
    628000   0.15947304    -8.3390984     -8.0998922     -0.70584263     50218.233      36.893836      36.893836      36.893836    
    629000   0.16008974    -8.3398589     -8.0997278     -0.70722281     50218.233      36.893836      36.893836      36.893836    
    630000   0.15988516    -8.3399209     -8.1000966     -0.70682104     50218.233      36.893836      36.893836      36.893836    
    631000   0.16059071    -8.339942      -8.0990594     -0.70518012     50218.233      36.893836      36.893836      36.893836    
    632000   0.16017267    -8.3397913     -8.0995357     -0.71568489     50218.233      36.893836      36.893836      36.893836    
    633000   0.1594877     -8.3401311     -8.1009029     -0.71055358     50218.233      36.893836      36.893836      36.893836    
    634000   0.16041716    -8.339872      -8.0992496     -0.70206947     50218.233      36.893836      36.893836      36.893836    
    635000   0.1604588     -8.340467      -8.0997822     -0.71543177     50218.233      36.893836      36.893836      36.893836    
    636000   0.15910656    -8.3397166     -8.1010601     -0.71165429     50218.233      36.893836      36.893836      36.893836    
    637000   0.15981112    -8.3401604     -8.1004472     -0.71310204     50218.233      36.893836      36.893836      36.893836    
    638000   0.16014167    -8.3405961     -8.100387      -0.70983471     50218.233      36.893836      36.893836      36.893836    
    639000   0.16074025    -8.3417254     -8.1006185     -0.72130161     50218.233      36.893836      36.893836      36.893836    
    640000   0.15939805    -8.3406726     -8.101579      -0.71398349     50218.233      36.893836      36.893836      36.893836    
    641000   0.15964332    -8.3409165     -8.1014549     -0.72013093     50218.233      36.893836      36.893836      36.893836    
    642000   0.16040075    -8.340992      -8.1003943     -0.71993321     50218.233      36.893836      36.893836      36.893836    
    643000   0.16077299    -8.3409866     -8.0998306     -0.71451045     50218.233      36.893836      36.893836      36.893836    
    644000   0.15965053    -8.3428742     -8.1034018     -0.73183131     50218.233      36.893836      36.893836      36.893836    
    645000   0.1610987     -8.3400116     -8.098367      -0.70307471     50218.233      36.893836      36.893836      36.893836    
    646000   0.16071031    -8.3415223     -8.1004603     -0.72069398     50218.233      36.893836      36.893836      36.893836    
    647000   0.16015932    -8.3424363     -8.1022007     -0.73270095     50218.233      36.893836      36.893836      36.893836    
    648000   0.15931683    -8.3424838     -8.1035119     -0.72929034     50218.233      36.893836      36.893836      36.893836    
    649000   0.16017519    -8.3410084     -8.100749      -0.72050375     50218.233      36.893836      36.893836      36.893836    
    650000   0.16073398    -8.3411977     -8.1001001     -0.7162786      50218.233      36.893836      36.893836      36.893836    
    651000   0.15967304    -8.340155      -8.1006489     -0.70607135     50218.233      36.893836      36.893836      36.893836    
    652000   0.15978048    -8.3419642     -8.1022969     -0.72761661     50218.233      36.893836      36.893836      36.893836    
    653000   0.16029591    -8.340674      -8.1002336     -0.71118338     50218.233      36.893836      36.893836      36.893836    
    654000   0.16022355    -8.3409418     -8.1006099     -0.71948566     50218.233      36.893836      36.893836      36.893836    
    655000   0.15921415    -8.3403376     -8.1015198     -0.71228074     50218.233      36.893836      36.893836      36.893836    
    656000   0.16014282    -8.3415014     -8.1012906     -0.72215773     50218.233      36.893836      36.893836      36.893836    
    657000   0.16000913    -8.3414197     -8.1014094     -0.72035485     50218.233      36.893836      36.893836      36.893836    
    658000   0.16034117    -8.3404651     -8.0999568     -0.71876719     50218.233      36.893836      36.893836      36.893836    
    659000   0.16023998    -8.3408222     -8.1004656     -0.72069694     50218.233      36.893836      36.893836      36.893836    
    660000   0.15905787    -8.3414076     -8.1028242     -0.72257094     50218.233      36.893836      36.893836      36.893836    
    661000   0.16029862    -8.3407936     -8.1003491     -0.71685169     50218.233      36.893836      36.893836      36.893836    
    662000   0.16036786    -8.3412512     -8.1007028     -0.71909344     50218.233      36.893836      36.893836      36.893836    
    663000   0.1597637     -8.3414609     -8.1018187     -0.72205554     50218.233      36.893836      36.893836      36.893836    
    664000   0.16079297    -8.3405797     -8.0993937     -0.7132567      50218.233      36.893836      36.893836      36.893836    
    665000   0.15947166    -8.3408816     -8.1016775     -0.72157905     50218.233      36.893836      36.893836      36.893836    
    666000   0.16022026    -8.3403767     -8.1000497     -0.71322531     50218.233      36.893836      36.893836      36.893836    
    667000   0.15931481    -8.340973      -8.1020042     -0.72036086     50218.233      36.893836      36.893836      36.893836    
    668000   0.15981347    -8.3396851     -8.0999683     -0.70724646     50218.233      36.893836      36.893836      36.893836    
    669000   0.15990699    -8.3394029     -8.0995458     -0.71092715     50218.233      36.893836      36.893836      36.893836    
    670000   0.15978071    -8.3402996     -8.100632      -0.70725075     50218.233      36.893836      36.893836      36.893836    
    671000   0.1605267     -8.3405995     -8.0998129     -0.71197237     50218.233      36.893836      36.893836      36.893836    
    672000   0.16009794    -8.3404955     -8.100352      -0.71750788     50218.233      36.893836      36.893836      36.893836    
    673000   0.16010889    -8.3398404     -8.0996805     -0.71206911     50218.233      36.893836      36.893836      36.893836    
    674000   0.15971656    -8.3394741     -8.0999027     -0.71276854     50218.233      36.893836      36.893836      36.893836    
    675000   0.15967982    -8.3388621     -8.0993458     -0.69824191     50218.233      36.893836      36.893836      36.893836    
    676000   0.16099091    -8.3390382     -8.0975553     -0.70748844     50218.233      36.893836      36.893836      36.893836    
    677000   0.16074791    -8.3405462     -8.0994277     -0.71427488     50218.233      36.893836      36.893836      36.893836    
    678000   0.16064478    -8.340429      -8.0994653     -0.71124375     50218.233      36.893836      36.893836      36.893836    
    679000   0.16109629    -8.3407813     -8.0991403     -0.71593364     50218.233      36.893836      36.893836      36.893836    
    680000   0.16024463    -8.3390846     -8.098721      -0.70091918     50218.233      36.893836      36.893836      36.893836    
    681000   0.15959562    -8.3379762     -8.0985862     -0.69654903     50218.233      36.893836      36.893836      36.893836    
    682000   0.15969979    -8.3414708     -8.1019245     -0.72194175     50218.233      36.893836      36.893836      36.893836    
    683000   0.1589737     -8.3401068     -8.1016497     -0.71426007     50218.233      36.893836      36.893836      36.893836    
    684000   0.15903571    -8.3399687     -8.1014186     -0.70801131     50218.233      36.893836      36.893836      36.893836    
    685000   0.15989963    -8.3400726     -8.1002266     -0.71000962     50218.233      36.893836      36.893836      36.893836    
    686000   0.15976042    -8.3405664     -8.1009292     -0.71440391     50218.233      36.893836      36.893836      36.893836    
    687000   0.16009623    -8.3403286     -8.1001877     -0.71413653     50218.233      36.893836      36.893836      36.893836    
    688000   0.16010216    -8.3413161     -8.1011663     -0.72251066     50218.233      36.893836      36.893836      36.893836    
    689000   0.15981646    -8.3400373     -8.1003161     -0.71605332     50218.233      36.893836      36.893836      36.893836    
    690000   0.15999867    -8.3397996     -8.099805      -0.71245061     50218.233      36.893836      36.893836      36.893836    
    691000   0.16038466    -8.3406938     -8.1001202     -0.71658523     50218.233      36.893836      36.893836      36.893836    
    692000   0.15943343    -8.3401609     -8.1010142     -0.70898891     50218.233      36.893836      36.893836      36.893836    
    693000   0.16072671    -8.3409195     -8.0998328     -0.71829187     50218.233      36.893836      36.893836      36.893836    
    694000   0.16056       -8.3409138     -8.1000772     -0.71470263     50218.233      36.893836      36.893836      36.893836    
    695000   0.16034059    -8.3417229     -8.1012154     -0.72722708     50218.233      36.893836      36.893836      36.893836    
    696000   0.16021134    -8.3417855     -8.1014719     -0.7336693      50218.233      36.893836      36.893836      36.893836    
    697000   0.1596326     -8.3416538     -8.1022083     -0.72052872     50218.233      36.893836      36.893836      36.893836    
    698000   0.16044548    -8.3407723     -8.1001075     -0.72460347     50218.233      36.893836      36.893836      36.893836    
    699000   0.15976672    -8.3420586     -8.1024119     -0.73247034     50218.233      36.893836      36.893836      36.893836    
    700000   0.1598791     -8.3420573     -8.1022421     -0.72538951     50218.233      36.893836      36.893836      36.893836    
    701000   0.15994334    -8.3393928     -8.0994812     -0.70952522     50218.233      36.893836      36.893836      36.893836    
    702000   0.15896238    -8.3421513     -8.1037112     -0.73926364     50218.233      36.893836      36.893836      36.893836    
    703000   0.16031181    -8.3415649     -8.1011006     -0.72465773     50218.233      36.893836      36.893836      36.893836    
    704000   0.1608016     -8.3412468     -8.1000478     -0.72284235     50218.233      36.893836      36.893836      36.893836    
    705000   0.15973587    -8.3418493     -8.1022489     -0.72239404     50218.233      36.893836      36.893836      36.893836    
    706000   0.15989155    -8.3397668     -8.0999329     -0.70912176     50218.233      36.893836      36.893836      36.893836    
    707000   0.16008987    -8.3410799     -8.1009485     -0.72073673     50218.233      36.893836      36.893836      36.893836    
    708000   0.16067165    -8.3416501     -8.100646      -0.71772652     50218.233      36.893836      36.893836      36.893836    
    709000   0.16022493    -8.3403303     -8.0999964     -0.71287519     50218.233      36.893836      36.893836      36.893836    
    710000   0.1594229     -8.3413248     -8.1021939     -0.72161216     50218.233      36.893836      36.893836      36.893836    
    711000   0.15989799    -8.3410794     -8.1012358     -0.7193476      50218.233      36.893836      36.893836      36.893836    
    712000   0.16034973    -8.3412831     -8.1007619     -0.72069086     50218.233      36.893836      36.893836      36.893836    
    713000   0.16011528    -8.3400766     -8.0999071     -0.71242987     50218.233      36.893836      36.893836      36.893836    
    714000   0.15973183    -8.3400534     -8.1004591     -0.70788635     50218.233      36.893836      36.893836      36.893836    
    715000   0.16031502    -8.3394069     -8.0989378     -0.7027089      50218.233      36.893836      36.893836      36.893836    
    716000   0.15965595    -8.3400607     -8.1005802     -0.71732433     50218.233      36.893836      36.893836      36.893836    
    717000   0.15905941    -8.3395004     -8.1009147     -0.70617051     50218.233      36.893836      36.893836      36.893836    
    718000   0.15919469    -8.3402383     -8.1014496     -0.71390415     50218.233      36.893836      36.893836      36.893836    
    719000   0.15952544    -8.3401689     -8.1008842     -0.71224538     50218.233      36.893836      36.893836      36.893836    
    720000   0.15945541    -8.3389074     -8.0997277     -0.70550233     50218.233      36.893836      36.893836      36.893836    
    721000   0.15943134    -8.3398152     -8.1006716     -0.70706049     50218.233      36.893836      36.893836      36.893836    
    722000   0.15987756    -8.3399685     -8.1001556     -0.70963868     50218.233      36.893836      36.893836      36.893836    
    723000   0.15994875    -8.3391948     -8.0992751     -0.70653579     50218.233      36.893836      36.893836      36.893836    
    724000   0.1596899     -8.3396197     -8.1000883     -0.70520097     50218.233      36.893836      36.893836      36.893836    
    725000   0.16085995    -8.3397907     -8.0985042     -0.70262355     50218.233      36.893836      36.893836      36.893836    
    726000   0.16016907    -8.3412535     -8.1010033     -0.71813209     50218.233      36.893836      36.893836      36.893836    
    727000   0.15923451    -8.340504      -8.1016556     -0.71976386     50218.233      36.893836      36.893836      36.893836    
    728000   0.1602216     -8.3385945     -8.0982655     -0.70074745     50218.233      36.893836      36.893836      36.893836    
    729000   0.15923608    -8.3402441     -8.1013934     -0.71798755     50218.233      36.893836      36.893836      36.893836    
    730000   0.1604696     -8.340898      -8.1001971     -0.72089783     50218.233      36.893836      36.893836      36.893836    
    731000   0.15989106    -8.339775      -8.0999418     -0.70828037     50218.233      36.893836      36.893836      36.893836    
    732000   0.15922216    -8.3403858     -8.101556      -0.7187164      50218.233      36.893836      36.893836      36.893836    
    733000   0.15951186    -8.3403442     -8.1010798     -0.71613572     50218.233      36.893836      36.893836      36.893836    
    734000   0.15919207    -8.3410091     -8.1022244     -0.7176823      50218.233      36.893836      36.893836      36.893836    
    735000   0.15978248    -8.3401976     -8.1005273     -0.71459948     50218.233      36.893836      36.893836      36.893836    
    736000   0.16054297    -8.3408048     -8.0999937     -0.71644138     50218.233      36.893836      36.893836      36.893836    
    737000   0.15912163    -8.3400563     -8.1013773     -0.71197851     50218.233      36.893836      36.893836      36.893836    
    738000   0.16045199    -8.3398022     -8.0991276     -0.70896364     50218.233      36.893836      36.893836      36.893836    
    739000   0.15949694    -8.3400993     -8.1008573     -0.71250344     50218.233      36.893836      36.893836      36.893836    
    740000   0.15978305    -8.3409768     -8.1013056     -0.71163098     50218.233      36.893836      36.893836      36.893836    
    741000   0.16066393    -8.341601      -8.1006086     -0.7219283      50218.233      36.893836      36.893836      36.893836    
    742000   0.15979908    -8.3398283     -8.1001331     -0.71165325     50218.233      36.893836      36.893836      36.893836    
    743000   0.15942804    -8.3403029     -8.1011642     -0.71726809     50218.233      36.893836      36.893836      36.893836    
    744000   0.1599218     -8.3421141     -8.1022348     -0.731171       50218.233      36.893836      36.893836      36.893836    
    745000   0.1600277     -8.3401678     -8.1001297     -0.70951906     50218.233      36.893836      36.893836      36.893836    
    746000   0.15984292    -8.3412058     -8.1014448     -0.7148305      50218.233      36.893836      36.893836      36.893836    
    747000   0.15948239    -8.3417375     -8.1025174     -0.73081907     50218.233      36.893836      36.893836      36.893836    
    748000   0.15909462    -8.3418412     -8.1032027     -0.72585495     50218.233      36.893836      36.893836      36.893836    
    749000   0.15992941    -8.3419082     -8.1020175     -0.72363922     50218.233      36.893836      36.893836      36.893836    
    750000   0.16049546    -8.3408252     -8.1000855     -0.72318358     50218.233      36.893836      36.893836      36.893836    
    751000   0.16001934    -8.3426266     -8.102601      -0.73630705     50218.233      36.893836      36.893836      36.893836    
    752000   0.16003034    -8.3412358     -8.1011937     -0.72345468     50218.233      36.893836      36.893836      36.893836    
    753000   0.15942414    -8.341158      -8.1020252     -0.71708262     50218.233      36.893836      36.893836      36.893836    
    754000   0.16004162    -8.3409801     -8.100921      -0.71870259     50218.233      36.893836      36.893836      36.893836    
    755000   0.1598304     -8.3409236     -8.1011815     -0.72052605     50218.233      36.893836      36.893836      36.893836    
    756000   0.15957925    -8.3410022     -8.1016367     -0.71787964     50218.233      36.893836      36.893836      36.893836    
    757000   0.16005497    -8.3406378     -8.1005588     -0.71779645     50218.233      36.893836      36.893836      36.893836    
    758000   0.16053104    -8.3415958     -8.1008027     -0.71901942     50218.233      36.893836      36.893836      36.893836    
    759000   0.15978745    -8.3411984     -8.1015206     -0.71861733     50218.233      36.893836      36.893836      36.893836    
    760000   0.16042755    -8.343078      -8.1024401     -0.72949655     50218.233      36.893836      36.893836      36.893836    
    761000   0.16052857    -8.3406574     -8.0998679     -0.71344386     50218.233      36.893836      36.893836      36.893836    
    762000   0.16067439    -8.3398242     -8.098816      -0.70989028     50218.233      36.893836      36.893836      36.893836    
    763000   0.15892469    -8.3393156     -8.100932      -0.70262417     50218.233      36.893836      36.893836      36.893836    
    764000   0.15962268    -8.339284      -8.0998534     -0.71052971     50218.233      36.893836      36.893836      36.893836    
    765000   0.15992666    -8.3393323     -8.0994457     -0.70848391     50218.233      36.893836      36.893836      36.893836    
    766000   0.16017193    -8.3402082     -8.0999537     -0.70769585     50218.233      36.893836      36.893836      36.893836    
    767000   0.15977557    -8.3411675     -8.1015076     -0.7233224      50218.233      36.893836      36.893836      36.893836    
    768000   0.15968927    -8.3394512     -8.0999207     -0.70679921     50218.233      36.893836      36.893836      36.893836    
    769000   0.15923953    -8.3412567     -8.1024008     -0.71814125     50218.233      36.893836      36.893836      36.893836    
    770000   0.16012661    -8.3403066     -8.1001201     -0.71035242     50218.233      36.893836      36.893836      36.893836    
    771000   0.16052607    -8.3396409     -8.0988552     -0.70361361     50218.233      36.893836      36.893836      36.893836    
    772000   0.1598647     -8.3408043     -8.1010107     -0.71330172     50218.233      36.893836      36.893836      36.893836    
    773000   0.15946686    -8.3411207     -8.1019238     -0.72789866     50218.233      36.893836      36.893836      36.893836    
    774000   0.1591116     -8.340246      -8.101582      -0.71935934     50218.233      36.893836      36.893836      36.893836    
    775000   0.16067415    -8.3387304     -8.0977226     -0.70249857     50218.233      36.893836      36.893836      36.893836    
    776000   0.15901235    -8.3403599     -8.1018447     -0.71047549     50218.233      36.893836      36.893836      36.893836    
    777000   0.15997083    -8.340224      -8.1002712     -0.71639196     50218.233      36.893836      36.893836      36.893836    
    778000   0.16058043    -8.3397305     -8.0988633     -0.71180915     50218.233      36.893836      36.893836      36.893836    
    779000   0.15995342    -8.3407137     -8.100787      -0.71761356     50218.233      36.893836      36.893836      36.893836    
    780000   0.15956857    -8.3410045     -8.101655      -0.71731384     50218.233      36.893836      36.893836      36.893836    
    781000   0.16031481    -8.339788      -8.0993193     -0.70704706     50218.233      36.893836      36.893836      36.893836    
    782000   0.15995199    -8.3393617     -8.0994371     -0.70641862     50218.233      36.893836      36.893836      36.893836    
    783000   0.15983332    -8.3399289     -8.1001823     -0.7114415      50218.233      36.893836      36.893836      36.893836    
    784000   0.16041534    -8.3400812     -8.0994616     -0.71230079     50218.233      36.893836      36.893836      36.893836    
    785000   0.16021969    -8.3405915     -8.1002654     -0.71577187     50218.233      36.893836      36.893836      36.893836    
    786000   0.16021054    -8.340603      -8.1002906     -0.71252083     50218.233      36.893836      36.893836      36.893836    
    787000   0.15946002    -8.3389606     -8.099774      -0.70484442     50218.233      36.893836      36.893836      36.893836    
    788000   0.16060759    -8.3400876     -8.0991797     -0.70901845     50218.233      36.893836      36.893836      36.893836    
    789000   0.15949928    -8.3401986     -8.1009531     -0.71091946     50218.233      36.893836      36.893836      36.893836    
    790000   0.15965059    -8.3410769     -8.1016044     -0.72242789     50218.233      36.893836      36.893836      36.893836    
    791000   0.1594109     -8.3430365     -8.1039235     -0.73949481     50218.233      36.893836      36.893836      36.893836    
    792000   0.15979124    -8.3412191     -8.1015357     -0.7223005      50218.233      36.893836      36.893836      36.893836    
    793000   0.15975467    -8.3402643     -8.1006357     -0.71635948     50218.233      36.893836      36.893836      36.893836    
    794000   0.1609566     -8.3422598     -8.1008283     -0.73249152     50218.233      36.893836      36.893836      36.893836    
    795000   0.16054977    -8.3413414     -8.1005202     -0.72277831     50218.233      36.893836      36.893836      36.893836    
    796000   0.1592138     -8.340171      -8.1013537     -0.71941903     50218.233      36.893836      36.893836      36.893836    
    797000   0.15989487    -8.3403991     -8.1005602     -0.71677078     50218.233      36.893836      36.893836      36.893836    
    798000   0.16072411    -8.3389884     -8.0979057     -0.70581916     50218.233      36.893836      36.893836      36.893836    
    799000   0.16037044    -8.3413744     -8.1008222     -0.71807694     50218.233      36.893836      36.893836      36.893836    
    800000   0.15910633    -8.3406806     -8.1020245     -0.71608481     50218.233      36.893836      36.893836      36.893836    
    801000   0.15954399    -8.3415962     -8.1022837     -0.72280373     50218.233      36.893836      36.893836      36.893836    
    802000   0.16079321    -8.3410701     -8.0998837     -0.71707037     50218.233      36.893836      36.893836      36.893836    
    803000   0.16029489    -8.3423143     -8.1018753     -0.72337114     50218.233      36.893836      36.893836      36.893836    
    804000   0.16018836    -8.3422004     -8.1019213     -0.72426867     50218.233      36.893836      36.893836      36.893836    
    805000   0.16039915    -8.3418385     -8.1012432     -0.72627764     50218.233      36.893836      36.893836      36.893836    
    806000   0.16024146    -8.3411585     -8.1007997     -0.7165845      50218.233      36.893836      36.893836      36.893836    
    807000   0.16004451    -8.3412051     -8.1011417     -0.72078084     50218.233      36.893836      36.893836      36.893836    
    808000   0.15989022    -8.341659      -8.1018271     -0.72605539     50218.233      36.893836      36.893836      36.893836    
    809000   0.16043593    -8.3418137     -8.1011632     -0.72002164     50218.233      36.893836      36.893836      36.893836    
    810000   0.15991499    -8.3405098     -8.1006407     -0.72256324     50218.233      36.893836      36.893836      36.893836    
    811000   0.16052862    -8.3415703     -8.1007808     -0.72350031     50218.233      36.893836      36.893836      36.893836    
    812000   0.16033779    -8.3399254     -8.0994221     -0.71103602     50218.233      36.893836      36.893836      36.893836    
    813000   0.15991338    -8.3413841     -8.1015175     -0.72080941     50218.233      36.893836      36.893836      36.893836    
    814000   0.16002074    -8.3392698     -8.0992421     -0.70526945     50218.233      36.893836      36.893836      36.893836    
    815000   0.15979055    -8.3404148     -8.1007323     -0.71364116     50218.233      36.893836      36.893836      36.893836    
    816000   0.15818039    -8.3398689     -8.1026017     -0.71142167     50218.233      36.893836      36.893836      36.893836    
    817000   0.1593729     -8.3400503     -8.1009943     -0.71546889     50218.233      36.893836      36.893836      36.893836    
    818000   0.16036965    -8.3399531     -8.099402      -0.71576061     50218.233      36.893836      36.893836      36.893836    
    819000   0.15902338    -8.3389637     -8.100432      -0.70602611     50218.233      36.893836      36.893836      36.893836    
    820000   0.16025775    -8.3392193     -8.0988361     -0.70579871     50218.233      36.893836      36.893836      36.893836    
    821000   0.15957645    -8.33949       -8.1001287     -0.70650488     50218.233      36.893836      36.893836      36.893836    
    822000   0.16082939    -8.3406093     -8.0993687     -0.70513287     50218.233      36.893836      36.893836      36.893836    
    823000   0.16010256    -8.3400183     -8.0998679     -0.70899265     50218.233      36.893836      36.893836      36.893836    
    824000   0.15986645    -8.3391921     -8.0993959     -0.70592359     50218.233      36.893836      36.893836      36.893836    
    825000   0.15994687    -8.3391613     -8.0992444     -0.70259089     50218.233      36.893836      36.893836      36.893836    
    826000   0.16014346    -8.3387784     -8.0985666     -0.70397243     50218.233      36.893836      36.893836      36.893836    
    827000   0.16036154    -8.3405689     -8.10003       -0.71870662     50218.233      36.893836      36.893836      36.893836    
    828000   0.15952578    -8.3394661     -8.1001808     -0.70876861     50218.233      36.893836      36.893836      36.893836    
    829000   0.15992564    -8.3389072     -8.0990222     -0.70027396     50218.233      36.893836      36.893836      36.893836    
    830000   0.15987638    -8.3402547     -8.1004436     -0.7114907      50218.233      36.893836      36.893836      36.893836    
    831000   0.15974243    -8.3399414     -8.1003312     -0.70895016     50218.233      36.893836      36.893836      36.893836    
    832000   0.15927141    -8.3398594     -8.1009557     -0.71858881     50218.233      36.893836      36.893836      36.893836    
    833000   0.16021253    -8.3387096     -8.0983943     -0.70063876     50218.233      36.893836      36.893836      36.893836    
    834000   0.15974179    -8.3407237     -8.1011145     -0.71224694     50218.233      36.893836      36.893836      36.893836    
    835000   0.16077885    -8.3403329     -8.0991681     -0.70896066     50218.233      36.893836      36.893836      36.893836    
    836000   0.16011557    -8.3402912     -8.1001212     -0.71147404     50218.233      36.893836      36.893836      36.893836    
    837000   0.16055735    -8.339451      -8.0986184     -0.710259       50218.233      36.893836      36.893836      36.893836    
    838000   0.16039398    -8.3403777     -8.0997901     -0.71383088     50218.233      36.893836      36.893836      36.893836    
    839000   0.16039685    -8.3402732     -8.0996813     -0.70660175     50218.233      36.893836      36.893836      36.893836    
    840000   0.15926159    -8.3420819     -8.1031929     -0.72757941     50218.233      36.893836      36.893836      36.893836    
    841000   0.15958369    -8.3415803     -8.1022081     -0.729539       50218.233      36.893836      36.893836      36.893836    
    842000   0.15955764    -8.3407416     -8.1014085     -0.72115735     50218.233      36.893836      36.893836      36.893836    
    843000   0.16084828    -8.3415698     -8.1003008     -0.72072204     50218.233      36.893836      36.893836      36.893836    
    844000   0.16078533    -8.3414917     -8.1003171     -0.72659451     50218.233      36.893836      36.893836      36.893836    
    845000   0.16018125    -8.3408084     -8.1005399     -0.71572926     50218.233      36.893836      36.893836      36.893836    
    846000   0.16012163    -8.3417407     -8.1015616     -0.72471029     50218.233      36.893836      36.893836      36.893836    
    847000   0.15927933    -8.3415986     -8.102683      -0.71876192     50218.233      36.893836      36.893836      36.893836    
    848000   0.16027101    -8.3425778     -8.1021747     -0.74002184     50218.233      36.893836      36.893836      36.893836    
    849000   0.1596375     -8.3410997     -8.1016468     -0.72253306     50218.233      36.893836      36.893836      36.893836    
    850000   0.15932659    -8.3422435     -8.103257      -0.72661402     50218.233      36.893836      36.893836      36.893836    
    851000   0.16033359    -8.3411665     -8.1006695     -0.71660888     50218.233      36.893836      36.893836      36.893836    
    852000   0.1604657     -8.3416051     -8.1009099     -0.724518       50218.233      36.893836      36.893836      36.893836    
    853000   0.1603025     -8.3412008     -8.1007504     -0.72507479     50218.233      36.893836      36.893836      36.893836    
    854000   0.16029832    -8.3416827     -8.1012386     -0.7245005      50218.233      36.893836      36.893836      36.893836    
    855000   0.15998399    -8.3406085     -8.100636      -0.71425421     50218.233      36.893836      36.893836      36.893836    
    856000   0.15878847    -8.3409607     -8.1027813     -0.72332746     50218.233      36.893836      36.893836      36.893836    
    857000   0.15986428    -8.3405504     -8.1007574     -0.7143571      50218.233      36.893836      36.893836      36.893836    
    858000   0.15987018    -8.3421261     -8.1023243     -0.72729774     50218.233      36.893836      36.893836      36.893836    
    859000   0.15922633    -8.3416258     -8.1027897     -0.72615823     50218.233      36.893836      36.893836      36.893836    
    860000   0.16000945    -8.3393701     -8.0993593     -0.70647697     50218.233      36.893836      36.893836      36.893836    
    861000   0.16002482    -8.340706      -8.1006722     -0.71222414     50218.233      36.893836      36.893836      36.893836    
    862000   0.16001532    -8.3405588     -8.1005392     -0.715961       50218.233      36.893836      36.893836      36.893836    
    863000   0.16105559    -8.3395634     -8.0979835     -0.71029029     50218.233      36.893836      36.893836      36.893836    
    864000   0.1597645     -8.3399291     -8.1002858     -0.70885409     50218.233      36.893836      36.893836      36.893836    
    865000   0.160262      -8.3409249     -8.1005353     -0.72417168     50218.233      36.893836      36.893836      36.893836    
    866000   0.16048349    -8.339527      -8.0988052     -0.70324167     50218.233      36.893836      36.893836      36.893836    
    867000   0.15910087    -8.340504      -8.1018561     -0.71851035     50218.233      36.893836      36.893836      36.893836    
    868000   0.16035326    -8.3388686     -8.0983421     -0.71147646     50218.233      36.893836      36.893836      36.893836    
    869000   0.16009524    -8.3404288     -8.1002894     -0.71711807     50218.233      36.893836      36.893836      36.893836    
    870000   0.16002092    -8.3407248     -8.1006968     -0.71665782     50218.233      36.893836      36.893836      36.893836    
    871000   0.15960313    -8.3398316     -8.1004303     -0.70970875     50218.233      36.893836      36.893836      36.893836    
    872000   0.16009365    -8.3391202     -8.0989831     -0.70490874     50218.233      36.893836      36.893836      36.893836    
    873000   0.15925753    -8.3388724     -8.0999895     -0.70911758     50218.233      36.893836      36.893836      36.893836    
    874000   0.16046489    -8.3390836     -8.0983896     -0.70910641     50218.233      36.893836      36.893836      36.893836    
    875000   0.16026036    -8.3392459     -8.0988588     -0.70730109     50218.233      36.893836      36.893836      36.893836    
    876000   0.16036133    -8.3401583     -8.0996197     -0.7119738      50218.233      36.893836      36.893836      36.893836    
    877000   0.15965789    -8.339109      -8.0996255     -0.69899339     50218.233      36.893836      36.893836      36.893836    
    878000   0.15975714    -8.3398655     -8.1002332     -0.71547887     50218.233      36.893836      36.893836      36.893836    
    879000   0.16017247    -8.3388972     -8.0986419     -0.70502579     50218.233      36.893836      36.893836      36.893836    
    880000   0.16125653    -8.3401907     -8.0983094     -0.7050384      50218.233      36.893836      36.893836      36.893836    
    881000   0.16040687    -8.3408416     -8.1002347     -0.71347399     50218.233      36.893836      36.893836      36.893836    
    882000   0.16030179    -8.3383636     -8.0979144     -0.69864733     50218.233      36.893836      36.893836      36.893836    
    883000   0.16073803    -8.3408225     -8.0997189     -0.71437377     50218.233      36.893836      36.893836      36.893836    
    884000   0.1601486     -8.3412809     -8.1010614     -0.71880705     50218.233      36.893836      36.893836      36.893836    
    885000   0.15969983    -8.3418284     -8.102282      -0.72455412     50218.233      36.893836      36.893836      36.893836    
    886000   0.16065977    -8.3406923     -8.099706      -0.71181053     50218.233      36.893836      36.893836      36.893836    
    887000   0.16059788    -8.3408653     -8.0999719     -0.72237381     50218.233      36.893836      36.893836      36.893836    
    888000   0.15951128    -8.3410741     -8.1018106     -0.71696363     50218.233      36.893836      36.893836      36.893836    
    889000   0.15896911    -8.3394043     -8.100954      -0.71092881     50218.233      36.893836      36.893836      36.893836    
    890000   0.16058687    -8.3406969     -8.09982       -0.71756328     50218.233      36.893836      36.893836      36.893836    
    891000   0.16007898    -8.3417499     -8.1016348     -0.72133107     50218.233      36.893836      36.893836      36.893836    
    892000   0.15922075    -8.3413515     -8.1025238     -0.72875925     50218.233      36.893836      36.893836      36.893836    
    893000   0.1606285     -8.3407015     -8.0997622     -0.71986261     50218.233      36.893836      36.893836      36.893836    
    894000   0.15981138    -8.341063      -8.1013493     -0.72255394     50218.233      36.893836      36.893836      36.893836    
    895000   0.16046689    -8.340756      -8.100059      -0.71819363     50218.233      36.893836      36.893836      36.893836    
    896000   0.15944314    -8.3422946     -8.1031332     -0.73501215     50218.233      36.893836      36.893836      36.893836    
    897000   0.16030921    -8.3417967     -8.1013363     -0.72751557     50218.233      36.893836      36.893836      36.893836    
    898000   0.15951877    -8.3413573     -8.1020826     -0.72848333     50218.233      36.893836      36.893836      36.893836    
    899000   0.16104104    -8.341688      -8.1001299     -0.72292923     50218.233      36.893836      36.893836      36.893836    
    900000   0.15985846    -8.3412191     -8.1014349     -0.72250971     50218.233      36.893836      36.893836      36.893836    
    901000   0.15964858    -8.340422      -8.1009525     -0.71538156     50218.233      36.893836      36.893836      36.893836    
    902000   0.15951629    -8.342654      -8.103383      -0.73758055     50218.233      36.893836      36.893836      36.893836    
    903000   0.15941113    -8.3407645     -8.1016513     -0.7130118      50218.233      36.893836      36.893836      36.893836    
    904000   0.15958438    -8.3420215     -8.1026483     -0.72146939     50218.233      36.893836      36.893836      36.893836    
    905000   0.16100964    -8.342488      -8.100977      -0.72792749     50218.233      36.893836      36.893836      36.893836    
    906000   0.15984506    -8.3394408     -8.0996766     -0.70996118     50218.233      36.893836      36.893836      36.893836    
    907000   0.16081974    -8.3414351     -8.1002089     -0.71786497     50218.233      36.893836      36.893836      36.893836    
    908000   0.1604524     -8.3401699     -8.0994947     -0.71949765     50218.233      36.893836      36.893836      36.893836    
    909000   0.16017574    -8.340179      -8.0999188     -0.7136689      50218.233      36.893836      36.893836      36.893836    
    910000   0.1600668     -8.33936       -8.0992632     -0.70357203     50218.233      36.893836      36.893836      36.893836    
    911000   0.15947651    -8.3401013     -8.1008899     -0.70778315     50218.233      36.893836      36.893836      36.893836    
    912000   0.16003523    -8.3400141     -8.0999647     -0.71286271     50218.233      36.893836      36.893836      36.893836    
    913000   0.15986344    -8.3404136     -8.1006219     -0.70974473     50218.233      36.893836      36.893836      36.893836    
    914000   0.15999562    -8.3401272     -8.1001372     -0.71634127     50218.233      36.893836      36.893836      36.893836    
    915000   0.15948964    -8.3401123     -8.1008813     -0.71139244     50218.233      36.893836      36.893836      36.893836    
    916000   0.15989824    -8.3408984     -8.1010545     -0.71639301     50218.233      36.893836      36.893836      36.893836    
    917000   0.15965411    -8.3411783     -8.1017005     -0.71970247     50218.233      36.893836      36.893836      36.893836    
    918000   0.15907396    -8.3403982     -8.1017907     -0.71586768     50218.233      36.893836      36.893836      36.893836    
    919000   0.15942146    -8.3404027     -8.1012739     -0.71277144     50218.233      36.893836      36.893836      36.893836    
    920000   0.16031752    -8.3391023     -8.0986294     -0.69995977     50218.233      36.893836      36.893836      36.893836    
    921000   0.15920524    -8.3408344     -8.1020299     -0.71935307     50218.233      36.893836      36.893836      36.893836    
    922000   0.16034728    -8.3400305     -8.099513      -0.71307973     50218.233      36.893836      36.893836      36.893836    
    923000   0.1599967     -8.339755      -8.0997634     -0.7066777      50218.233      36.893836      36.893836      36.893836    
    924000   0.15913853    -8.3404257     -8.1017213     -0.71595142     50218.233      36.893836      36.893836      36.893836    
    925000   0.16046573    -8.3397567     -8.0990616     -0.71411505     50218.233      36.893836      36.893836      36.893836    
    926000   0.15978486    -8.3395152     -8.0998413     -0.71095555     50218.233      36.893836      36.893836      36.893836    
    927000   0.15957292    -8.340385      -8.1010291     -0.71446349     50218.233      36.893836      36.893836      36.893836    
    928000   0.16051218    -8.3403878     -8.0996229     -0.7091644      50218.233      36.893836      36.893836      36.893836    
    929000   0.15910466    -8.3398113     -8.1011577     -0.71105416     50218.233      36.893836      36.893836      36.893836    
    930000   0.15921482    -8.3402792     -8.1014603     -0.71419575     50218.233      36.893836      36.893836      36.893836    
    931000   0.1605001     -8.3398541     -8.0991073     -0.71016897     50218.233      36.893836      36.893836      36.893836    
    932000   0.1603453     -8.3399104     -8.0993959     -0.71054665     50218.233      36.893836      36.893836      36.893836    
    933000   0.15983785    -8.3396284     -8.0998751     -0.70892316     50218.233      36.893836      36.893836      36.893836    
    934000   0.16007896    -8.3409543     -8.1008393     -0.71854206     50218.233      36.893836      36.893836      36.893836    
    935000   0.15964571    -8.3415967     -8.1021316     -0.72691106     50218.233      36.893836      36.893836      36.893836    
    936000   0.15962511    -8.3399422     -8.1005079     -0.71125123     50218.233      36.893836      36.893836      36.893836    
    937000   0.15995554    -8.3397967     -8.0998668     -0.71417835     50218.233      36.893836      36.893836      36.893836    
    938000   0.15987641    -8.3404114     -8.1006002     -0.70941238     50218.233      36.893836      36.893836      36.893836    
    939000   0.15962302    -8.3401758     -8.1007447     -0.71388427     50218.233      36.893836      36.893836      36.893836    
    940000   0.1593539     -8.3408749     -8.1018475     -0.72581609     50218.233      36.893836      36.893836      36.893836    
    941000   0.15977891    -8.3407385     -8.1010736     -0.71829204     50218.233      36.893836      36.893836      36.893836    
    942000   0.15982736    -8.3400126     -8.1002749     -0.70881476     50218.233      36.893836      36.893836      36.893836    
    943000   0.16108997    -8.341009      -8.0993775     -0.72007235     50218.233      36.893836      36.893836      36.893836    
    944000   0.15972756    -8.3410493     -8.1014614     -0.72382617     50218.233      36.893836      36.893836      36.893836    
    945000   0.16009779    -8.339925      -8.0997818     -0.71055625     50218.233      36.893836      36.893836      36.893836    
    946000   0.16003521    -8.3413455     -8.1012961     -0.72011012     50218.233      36.893836      36.893836      36.893836    
    947000   0.15923057    -8.3425706     -8.1037281     -0.73572124     50218.233      36.893836      36.893836      36.893836    
    948000   0.15902325    -8.341058      -8.1025266     -0.72467663     50218.233      36.893836      36.893836      36.893836    
    949000   0.16017273    -8.341777      -8.1015214     -0.72476802     50218.233      36.893836      36.893836      36.893836    
    950000   0.15965296    -8.3406716     -8.1011955     -0.7203421      50218.233      36.893836      36.893836      36.893836    
    951000   0.15940778    -8.3414287     -8.1023204     -0.72558452     50218.233      36.893836      36.893836      36.893836    
    952000   0.15879409    -8.3408239     -8.1026362     -0.71508777     50218.233      36.893836      36.893836      36.893836    
    953000   0.15963587    -8.3422236     -8.1027732     -0.72782035     50218.233      36.893836      36.893836      36.893836    
    954000   0.16016636    -8.3419241     -8.1016779     -0.72483573     50218.233      36.893836      36.893836      36.893836    
    955000   0.16008681    -8.3406528     -8.100526      -0.72281596     50218.233      36.893836      36.893836      36.893836    
    956000   0.16108231    -8.342049      -8.100429      -0.72828191     50218.233      36.893836      36.893836      36.893836    
    957000   0.15917707    -8.3415072     -8.102745      -0.7235036      50218.233      36.893836      36.893836      36.893836    
    958000   0.16064543    -8.3407091     -8.0997444     -0.71901256     50218.233      36.893836      36.893836      36.893836    
    959000   0.15969029    -8.3421577     -8.1026257     -0.73173919     50218.233      36.893836      36.893836      36.893836    
    960000   0.16041088    -8.3416544     -8.1010415     -0.72531731     50218.233      36.893836      36.893836      36.893836    
    961000   0.16036292    -8.3405302     -8.0999892     -0.72345642     50218.233      36.893836      36.893836      36.893836    
    962000   0.1602709     -8.3409541     -8.1005511     -0.72172802     50218.233      36.893836      36.893836      36.893836    
    963000   0.16003061    -8.3402189     -8.1001764     -0.71207531     50218.233      36.893836      36.893836      36.893836    
    964000   0.1592485     -8.3388971     -8.1000278     -0.70614322     50218.233      36.893836      36.893836      36.893836    
    965000   0.15984172    -8.3406916     -8.1009324     -0.7169592      50218.233      36.893836      36.893836      36.893836    
    966000   0.16023461    -8.3404197     -8.1000712     -0.70869577     50218.233      36.893836      36.893836      36.893836    
    967000   0.1601302     -8.340023      -8.0998311     -0.7112308      50218.233      36.893836      36.893836      36.893836    
    968000   0.16088506    -8.339643      -8.0983189     -0.70559058     50218.233      36.893836      36.893836      36.893836    
    969000   0.16002262    -8.3408503     -8.1008197     -0.72282463     50218.233      36.893836      36.893836      36.893836    
    970000   0.15978701    -8.3410696     -8.1013924     -0.72235469     50218.233      36.893836      36.893836      36.893836    
    971000   0.15935883    -8.3389761     -8.0999412     -0.71018774     50218.233      36.893836      36.893836      36.893836    
    972000   0.1597213     -8.3400177     -8.1004392     -0.71325476     50218.233      36.893836      36.893836      36.893836    
    973000   0.1598647     -8.3413964     -8.1016028     -0.7219114      50218.233      36.893836      36.893836      36.893836    
    974000   0.15934067    -8.3390229     -8.1000152     -0.70537047     50218.233      36.893836      36.893836      36.893836    
    975000   0.16035851    -8.3386636     -8.0981292     -0.69856257     50218.233      36.893836      36.893836      36.893836    
    976000   0.16031342    -8.3409682     -8.1005014     -0.71458033     50218.233      36.893836      36.893836      36.893836    
    977000   0.1604454     -8.3394917     -8.0988271     -0.71131782     50218.233      36.893836      36.893836      36.893836    
    978000   0.16011831    -8.3408334     -8.1006593     -0.72003458     50218.233      36.893836      36.893836      36.893836    
    979000   0.1598449     -8.3401552     -8.1003913     -0.70867906     50218.233      36.893836      36.893836      36.893836    
    980000   0.16033069    -8.3407795     -8.1002868     -0.71331498     50218.233      36.893836      36.893836      36.893836    
    981000   0.15974653    -8.339752      -8.1001356     -0.70674729     50218.233      36.893836      36.893836      36.893836    
    982000   0.1601896     -8.3398992     -8.0996182     -0.71285589     50218.233      36.893836      36.893836      36.893836    
    983000   0.15944471    -8.3402849     -8.1011212     -0.71760243     50218.233      36.893836      36.893836      36.893836    
    984000   0.16024522    -8.3405515     -8.1001871     -0.71810115     50218.233      36.893836      36.893836      36.893836    
    985000   0.15984334    -8.341236      -8.1014744     -0.72288669     50218.233      36.893836      36.893836      36.893836    
    986000   0.16079653    -8.3407411     -8.0995497     -0.72016547     50218.233      36.893836      36.893836      36.893836    
    987000   0.16008073    -8.3408729     -8.1007552     -0.71780338     50218.233      36.893836      36.893836      36.893836    
    988000   0.16020795    -8.3396763     -8.0993678     -0.71192421     50218.233      36.893836      36.893836      36.893836    
    989000   0.16057833    -8.3420035     -8.1011394     -0.73489542     50218.233      36.893836      36.893836      36.893836    
    990000   0.160683      -8.3399446     -8.0989235     -0.70936393     50218.233      36.893836      36.893836      36.893836    
    991000   0.15998488    -8.3391786     -8.0992046     -0.70787376     50218.233      36.893836      36.893836      36.893836    
    992000   0.15960846    -8.3410421     -8.1016328     -0.72295045     50218.233      36.893836      36.893836      36.893836    
    993000   0.15976628    -8.3402432     -8.1005972     -0.71219973     50218.233      36.893836      36.893836      36.893836    
    994000   0.15975883    -8.3402734     -8.1006385     -0.71349659     50218.233      36.893836      36.893836      36.893836    
    995000   0.15886896    -8.3415804     -8.1032803     -0.73001175     50218.233      36.893836      36.893836      36.893836    
    996000   0.16008675    -8.3409067     -8.10078       -0.71740182     50218.233      36.893836      36.893836      36.893836    
    997000   0.15884345    -8.3399303     -8.1016686     -0.7159729      50218.233      36.893836      36.893836      36.893836    
    998000   0.16035573    -8.3408005     -8.1002703     -0.71920492     50218.233      36.893836      36.893836      36.893836    
    999000   0.15986885    -8.3397762     -8.0999763     -0.70892742     50218.233      36.893836      36.893836      36.893836    
   1000000   0.15960528    -8.3394583     -8.1000538     -0.7096111      50218.233      36.893836      36.893836      36.893836    
Loop time of 1457.3 on 4 procs for 1000000 steps with 70304 atoms

Performance: 592875.694 tau/day, 686.199 timesteps/s, 48.243 Matom-step/s
95.1% CPU use with 4 MPI tasks x 1 OpenMP threads

MPI task timing breakdown:
Section |  min time  |  avg time  |  max time  |%varavg| %total
---------------------------------------------------------------
Pair    | 426.76     | 486.16     | 569.45     | 235.2 | 33.36
Neigh   | 3.6532     | 3.8199     | 3.9974     |   6.5 |  0.26
Comm    | 196.12     | 199.37     | 201.8      |  15.1 | 13.68
Output  | 0.19921    | 0.21016    | 0.23464    |   3.1 |  0.01
Modify  | 609.44     | 690.77     | 749.35     | 193.1 | 47.40
Other   |            | 76.99      |            |       |  5.28

Nlocal:          17576 ave       17632 max       17543 min
Histogram: 1 1 0 1 0 0 0 0 0 1
Nghost:        16819.5 ave       16831 max       16806 min
Histogram: 1 0 1 0 0 0 0 0 0 2
Neighs:              0 ave           0 max           0 min
Histogram: 4 0 0 0 0 0 0 0 0 0

Total # of neighbors = 0
Ave neighs/atom = 0
Neighbor list builds = 116623
Dangerous builds = 0
clear
OMP_NUM_THREADS environment is not set. Defaulting to 1 thread. (src/comm.cpp:98)
  using 1 OpenMP thread(s) per MPI task
package gpu 0
jump dms140.lmp

variable T equal 140
# T = 1000* (temp in LJ unit)
variable f equal 1000
log log.${T}
log log.140
