variable TLJ equal (${T}/1000)
variable TLJ equal (100/1000)
variable NCyle equal 10
variable iStep equal (${f})
variable iStep equal (1000)
variable dumpStep equal (${f}*100)
variable dumpStep equal (1000*100)
variable runStep equal (${f}*100*${NCyle})
variable runStep equal (1000*100*${NCyle})
variable runStep equal (1000*100*10)

units       lj
atom_style  atomic
dimension 3
boundary     p p p
pair_style  lj/cut 2.5
read_data  ../data/T${T}.dat
read_data  ../data/T100.dat
Reading data file ...
  orthogonal box = (0.97250269 0.97250269 0.97250269) to (37.866338 37.866338 37.866338)
  1 by 2 by 2 MPI processor grid
  reading atoms ...
  70304 atoms
  reading velocities ...
  70304 velocities
  read_data CPU = 0.189 seconds
change_box all triclinic
Changing box ...
  triclinic box = (0.97250269 0.97250269 0.97250269) to (37.866338 37.866338 37.866338) with tilt (0 0 0)
mass 1 1
mass 2 1
pair_modify shift yes
pair_coeff  1 1 1 1
pair_coeff  1 2 1.5 0.8
pair_coeff  2 2 0.5 0.88


timestep 0.01
thermo ${iStep}
thermo 1000
reset_timestep 0
thermo_style custom step temp pe etotal press vol lx ly lz
fix             1 all nvt temp ${TLJ}  ${TLJ}  0.1
fix             1 all nvt temp 0.1  ${TLJ}  0.1
fix             1 all nvt temp 0.1  0.1  0.1
thermo_modify flush yes

fix dsf all deform 1 xy  wiggle 0.5  ${f}   units box
fix dsf all deform 1 xy  wiggle 0.5  1000   units box
fix ps1 all ave/time 1 1 ${iStep} c_thermo_press[1] c_thermo_press[2]  c_thermo_press[3] c_thermo_press[4]  c_thermo_press[5] c_thermo_press[6]  file  stress.${T}
fix ps1 all ave/time 1 1 1000 c_thermo_press[1] c_thermo_press[2]  c_thermo_press[3] c_thermo_press[4]  c_thermo_press[5] c_thermo_press[6]  file  stress.${T}
fix ps1 all ave/time 1 1 1000 c_thermo_press[1] c_thermo_press[2]  c_thermo_press[3] c_thermo_press[4]  c_thermo_press[5] c_thermo_press[6]  file  stress.100
dump            1 all custom ${dumpStep} dump.${T} id type x y z
dump            1 all custom 100000 dump.${T} id type x y z
dump            1 all custom 100000 dump.100 id type x y z
dump_modify 1 sort id
fix nodrift all momentum 1  linear 1 1 1
fix com_seed all recenter INIT INIT INIT shift all
run ${runStep}
run 1000000
Generated 0 of 1 mixed pair_coeff terms from geometric mixing rule
Per MPI rank memory allocation (min/avg/max) = 8.611 | 8.613 | 8.614 Mbytes
   Step          Temp          PotEng         TotEng         Press          Volume           Lx             Ly             Lz      
         0   0.10006736    -8.4319874     -8.2818885     -1.4817012      50218.233      36.893836      36.893836      36.893836    
      1000   0.099884246   -8.4307346     -8.2809104     -1.4700482      50218.233      36.893836      36.893836      36.893836    
      2000   0.099916706   -8.4307476     -8.2808746     -1.4752369      50218.233      36.893836      36.893836      36.893836    
      3000   0.099705548   -8.4301637     -8.2806075     -1.4679589      50218.233      36.893836      36.893836      36.893836    
      4000   0.0999799     -8.4306839     -8.2807162     -1.4728965      50218.233      36.893836      36.893836      36.893836    
      5000   0.099861964   -8.4311289     -8.2813381     -1.4700723      50218.233      36.893836      36.893836      36.893836    
      6000   0.099721147   -8.4309506     -8.281371      -1.4760516      50218.233      36.893836      36.893836      36.893836    
      7000   0.099472022   -8.4300594     -8.2808535     -1.4671256      50218.233      36.893836      36.893836      36.893836    
      8000   0.10021974    -8.4299803     -8.2796529     -1.4611419      50218.233      36.893836      36.893836      36.893836    
      9000   0.10032917    -8.4297909     -8.2792993     -1.4672511      50218.233      36.893836      36.893836      36.893836    
     10000   0.10032514    -8.4298022     -8.2793166     -1.4642195      50218.233      36.893836      36.893836      36.893836    
     11000   0.099907642   -8.4294385     -8.2795791     -1.4639456      50218.233      36.893836      36.893836      36.893836    
     12000   0.10040908    -8.4289175     -8.278306      -1.4569971      50218.233      36.893836      36.893836      36.893836    
     13000   0.099357386   -8.4287321     -8.2796982     -1.4532582      50218.233      36.893836      36.893836      36.893836    
     14000   0.098999189   -8.4298968     -8.2814001     -1.4648342      50218.233      36.893836      36.893836      36.893836    
     15000   0.099632846   -8.4299899     -8.2805428     -1.4686148      50218.233      36.893836      36.893836      36.893836    
     16000   0.10025675    -8.4285635     -8.2781806     -1.4547363      50218.233      36.893836      36.893836      36.893836    
     17000   0.099538337   -8.4291356     -8.2798302     -1.4628223      50218.233      36.893836      36.893836      36.893836    
     18000   0.10014431    -8.4286697     -8.2784554     -1.4524625      50218.233      36.893836      36.893836      36.893836    
     19000   0.09956755    -8.4287418     -8.2793926     -1.4569369      50218.233      36.893836      36.893836      36.893836    
     20000   0.099871689   -8.4278291     -8.2780237     -1.4442885      50218.233      36.893836      36.893836      36.893836    
     21000   0.099651572   -8.4291696     -8.2796943     -1.4577369      50218.233      36.893836      36.893836      36.893836    
     22000   0.10002247    -8.4296968     -8.2796652     -1.4640214      50218.233      36.893836      36.893836      36.893836    
     23000   0.10010174    -8.4291154     -8.2789649     -1.4572413      50218.233      36.893836      36.893836      36.893836    
     24000   0.10004285    -8.4284265     -8.2783644     -1.4504903      50218.233      36.893836      36.893836      36.893836    
     25000   0.099508476   -8.4282856     -8.279025      -1.4530739      50218.233      36.893836      36.893836      36.893836    
     26000   0.10043868    -8.4291435     -8.2784876     -1.4572585      50218.233      36.893836      36.893836      36.893836    
     27000   0.099893256   -8.4286314     -8.2787936     -1.448964       50218.233      36.893836      36.893836      36.893836    
     28000   0.099798733   -8.4292741     -8.2795781     -1.4584324      50218.233      36.893836      36.893836      36.893836    
     29000   0.10030972    -8.4289121     -8.2784496     -1.4587987      50218.233      36.893836      36.893836      36.893836    
     30000   0.099663686   -8.4295192     -8.2800258     -1.462602       50218.233      36.893836      36.893836      36.893836    
     31000   0.1004553     -8.4294462     -8.2787654     -1.457778       50218.233      36.893836      36.893836      36.893836    
     32000   0.10044534    -8.4288962     -8.2782303     -1.4586085      50218.233      36.893836      36.893836      36.893836    
     33000   0.099985686   -8.4290636     -8.2790872     -1.457283       50218.233      36.893836      36.893836      36.893836    
     34000   0.10016277    -8.4293062     -8.2790642     -1.457434       50218.233      36.893836      36.893836      36.893836    
     35000   0.09923706    -8.4294179     -8.2805645     -1.463638       50218.233      36.893836      36.893836      36.893836    
     36000   0.099822372   -8.4292121     -8.2794807     -1.4578751      50218.233      36.893836      36.893836      36.893836    
     37000   0.10058748    -8.4297201     -8.278841      -1.4634977      50218.233      36.893836      36.893836      36.893836    
     38000   0.099803095   -8.4296594     -8.2799569     -1.4548578      50218.233      36.893836      36.893836      36.893836    
     39000   0.099915897   -8.4292706     -8.2793989     -1.4604941      50218.233      36.893836      36.893836      36.893836    
     40000   0.10017338    -8.4293474     -8.2790894     -1.4588065      50218.233      36.893836      36.893836      36.893836    
     41000   0.10013762    -8.429822      -8.2796177     -1.463819       50218.233      36.893836      36.893836      36.893836    
     42000   0.100098      -8.4304088     -8.2802639     -1.4678659      50218.233      36.893836      36.893836      36.893836    
     43000   0.10003233    -8.4301375     -8.2800911     -1.4626677      50218.233      36.893836      36.893836      36.893836    
     44000   0.099941922   -8.42968       -8.2797693     -1.4638966      50218.233      36.893836      36.893836      36.893836    
     45000   0.099849132   -8.4295893     -8.2798177     -1.4645763      50218.233      36.893836      36.893836      36.893836    
     46000   0.10027717    -8.4307466     -8.280333      -1.4665683      50218.233      36.893836      36.893836      36.893836    
     47000   0.10016512    -8.4307942     -8.2805486     -1.4682909      50218.233      36.893836      36.893836      36.893836    
     48000   0.099933781   -8.4304409     -8.2805423     -1.4662538      50218.233      36.893836      36.893836      36.893836    
     49000   0.10003105    -8.4295225     -8.2794781     -1.4644701      50218.233      36.893836      36.893836      36.893836    
     50000   0.099630165   -8.4297688     -8.2803257     -1.4643914      50218.233      36.893836      36.893836      36.893836    
     51000   0.10049247    -8.4291276     -8.278391      -1.4637204      50218.233      36.893836      36.893836      36.893836    
     52000   0.10035751    -8.429569      -8.2790349     -1.4635135      50218.233      36.893836      36.893836      36.893836    
     53000   0.10024124    -8.4305993     -8.2802396     -1.4697402      50218.233      36.893836      36.893836      36.893836    
     54000   0.099766009   -8.4298974     -8.2802505     -1.4632011      50218.233      36.893836      36.893836      36.893836    
     55000   0.10016236    -8.4303176     -8.2800761     -1.4689807      50218.233      36.893836      36.893836      36.893836    
     56000   0.10009028    -8.4298693     -8.279736      -1.4619503      50218.233      36.893836      36.893836      36.893836    
     57000   0.099577606   -8.4297313     -8.280367      -1.4592941      50218.233      36.893836      36.893836      36.893836    
     58000   0.1002064     -8.4298584     -8.2795509     -1.4642627      50218.233      36.893836      36.893836      36.893836    
     59000   0.099440055   -8.4291221     -8.2799641     -1.4607808      50218.233      36.893836      36.893836      36.893836    
     60000   0.099500152   -8.4293028     -8.2800547     -1.4595402      50218.233      36.893836      36.893836      36.893836    
     61000   0.099964545   -8.4293945     -8.2794498     -1.4558516      50218.233      36.893836      36.893836      36.893836    
     62000   0.099649888   -8.4294985     -8.2800258     -1.4636714      50218.233      36.893836      36.893836      36.893836    
     63000   0.099837942   -8.429152      -8.2793972     -1.4607681      50218.233      36.893836      36.893836      36.893836    
     64000   0.099626568   -8.4293104     -8.2798726     -1.4592289      50218.233      36.893836      36.893836      36.893836    
     65000   0.10027032    -8.428616      -8.2782127     -1.4538037      50218.233      36.893836      36.893836      36.893836    
     66000   0.10011575    -8.4295047     -8.2793332     -1.4589942      50218.233      36.893836      36.893836      36.893836    
     67000   0.10069957    -8.4291721     -8.2781248     -1.4546236      50218.233      36.893836      36.893836      36.893836    
     68000   0.099952227   -8.4293684     -8.2794422     -1.458957       50218.233      36.893836      36.893836      36.893836    
     69000   0.099402979   -8.4286706     -8.2795682     -1.4601224      50218.233      36.893836      36.893836      36.893836    
     70000   0.099803178   -8.4285192     -8.2788166     -1.4519605      50218.233      36.893836      36.893836      36.893836    
     71000   0.099813738   -8.429589      -8.2798705     -1.4561219      50218.233      36.893836      36.893836      36.893836    
     72000   0.10007116    -8.4286039     -8.2784993     -1.4528226      50218.233      36.893836      36.893836      36.893836    
     73000   0.099238548   -8.4290052     -8.2801495     -1.4577632      50218.233      36.893836      36.893836      36.893836    
     74000   0.099675772   -8.4286828     -8.2791712     -1.4540173      50218.233      36.893836      36.893836      36.893836    
     75000   0.099978513   -8.4291186     -8.279153      -1.4562202      50218.233      36.893836      36.893836      36.893836    
     76000   0.099852867   -8.4277457     -8.2779686     -1.4443041      50218.233      36.893836      36.893836      36.893836    
     77000   0.10063308    -8.4284476     -8.2775001     -1.4484597      50218.233      36.893836      36.893836      36.893836    
     78000   0.10045929    -8.428604      -8.2779172     -1.4540094      50218.233      36.893836      36.893836      36.893836    
     79000   0.10056433    -8.4283217     -8.2774773     -1.4525702      50218.233      36.893836      36.893836      36.893836    
     80000   0.099723581   -8.4288119     -8.2792287     -1.4539845      50218.233      36.893836      36.893836      36.893836    
     81000   0.10055301    -8.428958      -8.2781306     -1.4548582      50218.233      36.893836      36.893836      36.893836    
     82000   0.10005194    -8.429026      -8.2789502     -1.4586033      50218.233      36.893836      36.893836      36.893836    
     83000   0.10022733    -8.4294767     -8.2791378     -1.4645004      50218.233      36.893836      36.893836      36.893836    
     84000   0.10019576    -8.429584      -8.2792925     -1.4598581      50218.233      36.893836      36.893836      36.893836    
     85000   0.10017733    -8.4292779     -8.2790141     -1.4620031      50218.233      36.893836      36.893836      36.893836    
     86000   0.099755251   -8.4293129     -8.2796821     -1.4601607      50218.233      36.893836      36.893836      36.893836    
     87000   0.099953035   -8.4291018     -8.2791744     -1.4547603      50218.233      36.893836      36.893836      36.893836    
     88000   0.099920482   -8.4290407     -8.2791621     -1.4605543      50218.233      36.893836      36.893836      36.893836    
     89000   0.099969683   -8.4300253     -8.2800729     -1.4665936      50218.233      36.893836      36.893836      36.893836    
     90000   0.10031801    -8.4295548     -8.27908       -1.4645118      50218.233      36.893836      36.893836      36.893836    
     91000   0.10028254    -8.4306161     -8.2801944     -1.465616       50218.233      36.893836      36.893836      36.893836    
     92000   0.099498299   -8.4300505     -8.2808052     -1.4642099      50218.233      36.893836      36.893836      36.893836    
     93000   0.10023432    -8.4305145     -8.2801652     -1.4681385      50218.233      36.893836      36.893836      36.893836    
     94000   0.099777792   -8.4302024     -8.2805378     -1.4631313      50218.233      36.893836      36.893836      36.893836    
     95000   0.1002474     -8.4293998     -8.2790308     -1.4609894      50218.233      36.893836      36.893836      36.893836    
     96000   0.10023024    -8.4298891     -8.2795459     -1.4665326      50218.233      36.893836      36.893836      36.893836    
     97000   0.10036255    -8.4304748     -8.2799331     -1.4710688      50218.233      36.893836      36.893836      36.893836    
     98000   0.099954238   -8.4301612     -8.280232      -1.4659085      50218.233      36.893836      36.893836      36.893836    
     99000   0.10027405    -8.4304731     -8.2800642     -1.4663221      50218.233      36.893836      36.893836      36.893836    
    100000   0.10002848    -8.4306122     -8.2805716     -1.4679225      50218.233      36.893836      36.893836      36.893836    
    101000   0.10093057    -8.4306724     -8.2792787     -1.465943       50218.233      36.893836      36.893836      36.893836    
    102000   0.099827032   -8.4298524     -8.280114      -1.4668052      50218.233      36.893836      36.893836      36.893836    
    103000   0.099863398   -8.4298366     -8.2800437     -1.4652641      50218.233      36.893836      36.893836      36.893836    
    104000   0.099504056   -8.429525      -8.2802711     -1.4615938      50218.233      36.893836      36.893836      36.893836    
    105000   0.10010286    -8.4299401     -8.279788      -1.463718       50218.233      36.893836      36.893836      36.893836    
    106000   0.09950384    -8.4300684     -8.2808147     -1.4633344      50218.233      36.893836      36.893836      36.893836    
    107000   0.10021913    -8.4305331     -8.2802065     -1.4686684      50218.233      36.893836      36.893836      36.893836    
    108000   0.099815731   -8.4296187     -8.2798972     -1.4601588      50218.233      36.893836      36.893836      36.893836    
    109000   0.1001964     -8.4293911     -8.2790987     -1.4581898      50218.233      36.893836      36.893836      36.893836    
    110000   0.099953457   -8.4296957     -8.2797676     -1.4602215      50218.233      36.893836      36.893836      36.893836    
    111000   0.1004249     -8.4291414     -8.2785062     -1.4617872      50218.233      36.893836      36.893836      36.893836    
    112000   0.10037788    -8.4292181     -8.2786535     -1.4589292      50218.233      36.893836      36.893836      36.893836    
    113000   0.10029539    -8.4288735     -8.2784325     -1.4578872      50218.233      36.893836      36.893836      36.893836    
    114000   0.099557661   -8.4289713     -8.279637      -1.4560397      50218.233      36.893836      36.893836      36.893836    
    115000   0.10018474    -8.4293348     -8.2790598     -1.4565131      50218.233      36.893836      36.893836      36.893836    
    116000   0.10028159    -8.4286517     -8.2782314     -1.4504846      50218.233      36.893836      36.893836      36.893836    
    117000   0.10025979    -8.4282753     -8.2778878     -1.4514885      50218.233      36.893836      36.893836      36.893836    
    118000   0.099298428   -8.4293144     -8.2803689     -1.4563024      50218.233      36.893836      36.893836      36.893836    
    119000   0.099921801   -8.4296544     -8.2797739     -1.4654746      50218.233      36.893836      36.893836      36.893836    
    120000   0.099253077   -8.4286169     -8.2797394     -1.4546132      50218.233      36.893836      36.893836      36.893836    
    121000   0.099877107   -8.4279825     -8.2781689     -1.4462117      50218.233      36.893836      36.893836      36.893836    
    122000   0.099983159   -8.4284932     -8.2785206     -1.4509308      50218.233      36.893836      36.893836      36.893836    
    123000   0.10021798    -8.4283662     -8.2780414     -1.4558236      50218.233      36.893836      36.893836      36.893836    
    124000   0.099997978   -8.4286486     -8.2786538     -1.4588845      50218.233      36.893836      36.893836      36.893836    
    125000   0.10013353    -8.4284065     -8.2782083     -1.4517259      50218.233      36.893836      36.893836      36.893836    
    126000   0.099649686   -8.4288133     -8.2793409     -1.4577243      50218.233      36.893836      36.893836      36.893836    
    127000   0.10071718    -8.4296104     -8.2785368     -1.4608981      50218.233      36.893836      36.893836      36.893836    
    128000   0.10004039    -8.4290698     -8.2790114     -1.4608337      50218.233      36.893836      36.893836      36.893836    
    129000   0.099649195   -8.4290079     -8.2795362     -1.454826       50218.233      36.893836      36.893836      36.893836    
    130000   0.10002238    -8.4292008     -8.2791694     -1.4621358      50218.233      36.893836      36.893836      36.893836    
    131000   0.099683916   -8.4283724     -8.2788486     -1.4522581      50218.233      36.893836      36.893836      36.893836    
    132000   0.099645018   -8.4292677     -8.2798023     -1.4577487      50218.233      36.893836      36.893836      36.893836    
    133000   0.10019566    -8.4292338     -8.2789425     -1.4595761      50218.233      36.893836      36.893836      36.893836    
    134000   0.1004127     -8.4290751     -8.2784581     -1.4600863      50218.233      36.893836      36.893836      36.893836    
    135000   0.10007921    -8.4292969     -8.2791802     -1.4603174      50218.233      36.893836      36.893836      36.893836    
    136000   0.099619557   -8.4307312     -8.281304      -1.4687071      50218.233      36.893836      36.893836      36.893836    
    137000   0.099845595   -8.429826      -8.2800597     -1.4596341      50218.233      36.893836      36.893836      36.893836    
    138000   0.10036363    -8.4294844     -8.278941      -1.459838       50218.233      36.893836      36.893836      36.893836    
    139000   0.10015809    -8.4304321     -8.2801971     -1.4680254      50218.233      36.893836      36.893836      36.893836    
    140000   0.099871639   -8.4303485     -8.2805432     -1.4695123      50218.233      36.893836      36.893836      36.893836    
    141000   0.09982075    -8.4294402     -8.2797112     -1.4632456      50218.233      36.893836      36.893836      36.893836    
    142000   0.10016515    -8.4294042     -8.2791586     -1.4600334      50218.233      36.893836      36.893836      36.893836    
    143000   0.1001362     -8.4299765     -8.2797743     -1.469638       50218.233      36.893836      36.893836      36.893836    
    144000   0.10004458    -8.4300776     -8.2800128     -1.4680537      50218.233      36.893836      36.893836      36.893836    
    145000   0.10012394    -8.4301478     -8.2799641     -1.4654871      50218.233      36.893836      36.893836      36.893836    
    146000   0.0995524     -8.4301285     -8.280802      -1.462035       50218.233      36.893836      36.893836      36.893836    
    147000   0.10016185    -8.4299947     -8.2797541     -1.4653748      50218.233      36.893836      36.893836      36.893836    
    148000   0.099820989   -8.4298017     -8.2800723     -1.4617556      50218.233      36.893836      36.893836      36.893836    
    149000   0.099907508   -8.4305794     -8.2807202     -1.4721158      50218.233      36.893836      36.893836      36.893836    
    150000   0.099996105   -8.4295394     -8.2795474     -1.4615596      50218.233      36.893836      36.893836      36.893836    
    151000   0.099595345   -8.4299536     -8.2805627     -1.4638005      50218.233      36.893836      36.893836      36.893836    
    152000   0.099985078   -8.4307431     -8.2807676     -1.4656143      50218.233      36.893836      36.893836      36.893836    
    153000   0.10041619    -8.4303587     -8.2797365     -1.4637969      50218.233      36.893836      36.893836      36.893836    
    154000   0.10029886    -8.4300557     -8.2796096     -1.4665866      50218.233      36.893836      36.893836      36.893836    
    155000   0.099688672   -8.430536      -8.2810051     -1.4647725      50218.233      36.893836      36.893836      36.893836    
    156000   0.10058736    -8.4298639     -8.278985      -1.4617362      50218.233      36.893836      36.893836      36.893836    
    157000   0.10022627    -8.4309762     -8.2806389     -1.4707915      50218.233      36.893836      36.893836      36.893836    
    158000   0.10078106    -8.4297003     -8.2785309     -1.4605789      50218.233      36.893836      36.893836      36.893836    
    159000   0.10012226    -8.4307143     -8.280533      -1.4708413      50218.233      36.893836      36.893836      36.893836    
    160000   0.10038494    -8.4299508     -8.2793755     -1.4618177      50218.233      36.893836      36.893836      36.893836    
    161000   0.099570123   -8.4289643     -8.2796112     -1.4584516      50218.233      36.893836      36.893836      36.893836    
    162000   0.10020449    -8.4294007     -8.2790961     -1.4583528      50218.233      36.893836      36.893836      36.893836    
    163000   0.099494144   -8.4299759     -8.2807368     -1.4623104      50218.233      36.893836      36.893836      36.893836    
    164000   0.099956531   -8.4290443     -8.2791117     -1.4522525      50218.233      36.893836      36.893836      36.893836    
    165000   0.099924887   -8.4295651     -8.2796799     -1.4602057      50218.233      36.893836      36.893836      36.893836    
    166000   0.099773534   -8.4295665     -8.2799083     -1.4621286      50218.233      36.893836      36.893836      36.893836    
    167000   0.099958645   -8.4291568     -8.2792209     -1.4564257      50218.233      36.893836      36.893836      36.893836    
    168000   0.09932732    -8.4286596     -8.2796707     -1.4532608      50218.233      36.893836      36.893836      36.893836    
    169000   0.10033615    -8.4285499     -8.2780479     -1.4517957      50218.233      36.893836      36.893836      36.893836    
    170000   0.099852347   -8.4290542     -8.2792778     -1.4574325      50218.233      36.893836      36.893836      36.893836    
    171000   0.10004756    -8.4290341     -8.2789649     -1.4579654      50218.233      36.893836      36.893836      36.893836    
    172000   0.099743839   -8.4282197     -8.2786061     -1.4510658      50218.233      36.893836      36.893836      36.893836    
    173000   0.09985401    -8.4286008     -8.2788219     -1.4499391      50218.233      36.893836      36.893836      36.893836    
    174000   0.10021699    -8.4295077     -8.2791843     -1.4590689      50218.233      36.893836      36.893836      36.893836    
    175000   0.10003402    -8.4285298     -8.2784809     -1.4545742      50218.233      36.893836      36.893836      36.893836    
    176000   0.10009278    -8.4285852     -8.2784481     -1.4508739      50218.233      36.893836      36.893836      36.893836    
    177000   0.10004665    -8.4278779     -8.27781       -1.4477059      50218.233      36.893836      36.893836      36.893836    
    178000   0.09941727    -8.4289107     -8.2797869     -1.4592774      50218.233      36.893836      36.893836      36.893836    
    179000   0.09996654    -8.4289079     -8.2789602     -1.4558775      50218.233      36.893836      36.893836      36.893836    
    180000   0.099584533   -8.4295943     -8.2802196     -1.4621659      50218.233      36.893836      36.893836      36.893836    
    181000   0.10033352    -8.4287245     -8.2782264     -1.457076       50218.233      36.893836      36.893836      36.893836    
    182000   0.10017528    -8.4290323     -8.2787716     -1.4581571      50218.233      36.893836      36.893836      36.893836    
    183000   0.10034273    -8.4301087     -8.2795968     -1.4633104      50218.233      36.893836      36.893836      36.893836    
    184000   0.10034327    -8.4290792     -8.2785665     -1.4587893      50218.233      36.893836      36.893836      36.893836    
    185000   0.099461742   -8.430195      -8.2810045     -1.4662729      50218.233      36.893836      36.893836      36.893836    
    186000   0.10030689    -8.4299203     -8.2794622     -1.4665169      50218.233      36.893836      36.893836      36.893836    
    187000   0.10024978    -8.4297567     -8.2793841     -1.4616942      50218.233      36.893836      36.893836      36.893836    
    188000   0.10027657    -8.4297384     -8.2793257     -1.4684561      50218.233      36.893836      36.893836      36.893836    
    189000   0.099922642   -8.4301787     -8.2802968     -1.4617332      50218.233      36.893836      36.893836      36.893836    
    190000   0.099988584   -8.4296882     -8.2797075     -1.4602621      50218.233      36.893836      36.893836      36.893836    
    191000   0.099803836   -8.4294503     -8.2797467     -1.4615763      50218.233      36.893836      36.893836      36.893836    
    192000   0.1000129     -8.4290579     -8.2790407     -1.4597559      50218.233      36.893836      36.893836      36.893836    
    193000   0.10002711    -8.4292996     -8.2792611     -1.4641056      50218.233      36.893836      36.893836      36.893836    
    194000   0.10036941    -8.4304819     -8.27993       -1.4645962      50218.233      36.893836      36.893836      36.893836    
    195000   0.10031738    -8.4303642     -8.2798903     -1.4670552      50218.233      36.893836      36.893836      36.893836    
    196000   0.10005542    -8.4297919     -8.2797109     -1.4598656      50218.233      36.893836      36.893836      36.893836    
    197000   0.10056361    -8.4298163     -8.278973      -1.4661783      50218.233      36.893836      36.893836      36.893836    
    198000   0.10052729    -8.4300278     -8.279239      -1.4646197      50218.233      36.893836      36.893836      36.893836    
    199000   0.099945431   -8.4298577     -8.2799417     -1.4643058      50218.233      36.893836      36.893836      36.893836    
    200000   0.100651      -8.430103      -8.2791287     -1.465406       50218.233      36.893836      36.893836      36.893836    
    201000   0.099791104   -8.4303388     -8.2806543     -1.4669522      50218.233      36.893836      36.893836      36.893836    
    202000   0.099818817   -8.4296432     -8.2799171     -1.4606938      50218.233      36.893836      36.893836      36.893836    
    203000   0.10002534    -8.4303289     -8.280293      -1.4624957      50218.233      36.893836      36.893836      36.893836    
    204000   0.10025425    -8.4302084     -8.2798292     -1.4664195      50218.233      36.893836      36.893836      36.893836    
    205000   0.099869339   -8.4300618     -8.2802599     -1.4640361      50218.233      36.893836      36.893836      36.893836    
    206000   0.099843621   -8.4300603     -8.280297      -1.466363       50218.233      36.893836      36.893836      36.893836    
    207000   0.099788599   -8.4301757     -8.2804949     -1.4696916      50218.233      36.893836      36.893836      36.893836    
    208000   0.10025311    -8.4302526     -8.2798751     -1.4652126      50218.233      36.893836      36.893836      36.893836    
    209000   0.099965928   -8.4294307     -8.279484      -1.4577084      50218.233      36.893836      36.893836      36.893836    
    210000   0.099680008   -8.4291957     -8.2796778     -1.4640268      50218.233      36.893836      36.893836      36.893836    
    211000   0.10027308    -8.428843      -8.2784356     -1.4550381      50218.233      36.893836      36.893836      36.893836    
    212000   0.099371826   -8.4307861     -8.2817305     -1.4715323      50218.233      36.893836      36.893836      36.893836    
    213000   0.099742146   -8.4296118     -8.2800007     -1.4582356      50218.233      36.893836      36.893836      36.893836    
    214000   0.099658326   -8.4295549     -8.2800696     -1.462961       50218.233      36.893836      36.893836      36.893836    
    215000   0.10001611    -8.4291715     -8.2791495     -1.4590316      50218.233      36.893836      36.893836      36.893836    
    216000   0.10036064    -8.4285516     -8.2780128     -1.4552422      50218.233      36.893836      36.893836      36.893836    
    217000   0.10024704    -8.429157      -8.2787885     -1.4604222      50218.233      36.893836      36.893836      36.893836    
    218000   0.099399842   -8.429064      -8.2799664     -1.4528032      50218.233      36.893836      36.893836      36.893836    
    219000   0.10029724    -8.4284878     -8.2780441     -1.4539616      50218.233      36.893836      36.893836      36.893836    
    220000   0.10039969    -8.4280224     -8.277425      -1.4523083      50218.233      36.893836      36.893836      36.893836    
    221000   0.099669208   -8.4294198     -8.2799181     -1.458893       50218.233      36.893836      36.893836      36.893836    
    222000   0.10026484    -8.4285813     -8.2781862     -1.4542528      50218.233      36.893836      36.893836      36.893836    
    223000   0.099717534   -8.4288299     -8.2792557     -1.455881       50218.233      36.893836      36.893836      36.893836    
    224000   0.099817982   -8.4282403     -8.2785155     -1.4482331      50218.233      36.893836      36.893836      36.893836    
    225000   0.099610893   -8.4281027     -8.2786885     -1.4551742      50218.233      36.893836      36.893836      36.893836    
    226000   0.099986382   -8.4292624     -8.279285      -1.458191       50218.233      36.893836      36.893836      36.893836    
    227000   0.099771405   -8.4286678     -8.2790128     -1.4538291      50218.233      36.893836      36.893836      36.893836    
    228000   0.10010093    -8.4290824     -8.2789331     -1.4608668      50218.233      36.893836      36.893836      36.893836    
    229000   0.10020429    -8.4287481     -8.2784438     -1.4505254      50218.233      36.893836      36.893836      36.893836    
    230000   0.099847471   -8.4274501     -8.2776811     -1.4453169      50218.233      36.893836      36.893836      36.893836    
    231000   0.10009558    -8.4288661     -8.2787249     -1.4557586      50218.233      36.893836      36.893836      36.893836    
    232000   0.10011664    -8.4292543     -8.2790815     -1.4626729      50218.233      36.893836      36.893836      36.893836    
    233000   0.10006675    -8.4293303     -8.2792323     -1.4577627      50218.233      36.893836      36.893836      36.893836    
    234000   0.099728832   -8.4287516     -8.2791605     -1.4514333      50218.233      36.893836      36.893836      36.893836    
    235000   0.099854787   -8.4300857     -8.2803057     -1.4651463      50218.233      36.893836      36.893836      36.893836    
    236000   0.10011722    -8.4289265     -8.2787528     -1.4582057      50218.233      36.893836      36.893836      36.893836    
    237000   0.099592134   -8.4292208     -8.2798347     -1.457416       50218.233      36.893836      36.893836      36.893836    
    238000   0.099936645   -8.4294578     -8.279555      -1.4581265      50218.233      36.893836      36.893836      36.893836    
    239000   0.099790771   -8.429093      -8.279409      -1.4652306      50218.233      36.893836      36.893836      36.893836    
    240000   0.099617141   -8.4302238     -8.2808002     -1.4646603      50218.233      36.893836      36.893836      36.893836    
    241000   0.099897795   -8.4301335     -8.2802889     -1.467928       50218.233      36.893836      36.893836      36.893836    
    242000   0.099855736   -8.4303076     -8.2805261     -1.4639642      50218.233      36.893836      36.893836      36.893836    
    243000   0.099998724   -8.4299511     -8.2799551     -1.4630939      50218.233      36.893836      36.893836      36.893836    
    244000   0.099677798   -8.4293722     -8.2798576     -1.4627994      50218.233      36.893836      36.893836      36.893836    
    245000   0.099955786   -8.429513      -8.2795815     -1.4654282      50218.233      36.893836      36.893836      36.893836    
    246000   0.099217373   -8.4297516     -8.2809276     -1.4644731      50218.233      36.893836      36.893836      36.893836    
    247000   0.10027567    -8.4299865     -8.2795752     -1.4601175      50218.233      36.893836      36.893836      36.893836    
    248000   0.10026608    -8.4298748     -8.2794778     -1.4652662      50218.233      36.893836      36.893836      36.893836    
    249000   0.099438197   -8.4303703     -8.2812151     -1.4652414      50218.233      36.893836      36.893836      36.893836    
    250000   0.099608416   -8.42966       -8.2802495     -1.4597168      50218.233      36.893836      36.893836      36.893836    
    251000   0.1002489     -8.4314375     -8.2810663     -1.4742727      50218.233      36.893836      36.893836      36.893836    
    252000   0.10028223    -8.4295614     -8.2791402     -1.4642296      50218.233      36.893836      36.893836      36.893836    
    253000   0.099657868   -8.4298455     -8.2803608     -1.4674207      50218.233      36.893836      36.893836      36.893836    
    254000   0.10021974    -8.4309762     -8.2806487     -1.4739902      50218.233      36.893836      36.893836      36.893836    
    255000   0.10036472    -8.4297391     -8.2791942     -1.4657223      50218.233      36.893836      36.893836      36.893836    
    256000   0.099994984   -8.4302362     -8.2802458     -1.4659708      50218.233      36.893836      36.893836      36.893836    
    257000   0.10030508    -8.429665      -8.2792095     -1.461022       50218.233      36.893836      36.893836      36.893836    
    258000   0.099628217   -8.4290212     -8.279581      -1.4555523      50218.233      36.893836      36.893836      36.893836    
    259000   0.099906938   -8.4299212     -8.280063      -1.464992       50218.233      36.893836      36.893836      36.893836    
    260000   0.099942434   -8.430303      -8.2803915     -1.4675874      50218.233      36.893836      36.893836      36.893836    
    261000   0.10001523    -8.4295188     -8.2794981     -1.4614143      50218.233      36.893836      36.893836      36.893836    
    262000   0.10006959    -8.4296856     -8.2795834     -1.4639507      50218.233      36.893836      36.893836      36.893836    
    263000   0.099656462   -8.4293812     -8.2798986     -1.4571757      50218.233      36.893836      36.893836      36.893836    
    264000   0.10010622    -8.4294013     -8.2792441     -1.4609055      50218.233      36.893836      36.893836      36.893836    
    265000   0.099921673   -8.429446      -8.2795656     -1.4603838      50218.233      36.893836      36.893836      36.893836    
    266000   0.10037259    -8.4291186     -8.2785619     -1.4561426      50218.233      36.893836      36.893836      36.893836    
    267000   0.1001965     -8.4292079     -8.2789153     -1.4577584      50218.233      36.893836      36.893836      36.893836    
    268000   0.10041986    -8.4293226     -8.2786949     -1.4527962      50218.233      36.893836      36.893836      36.893836    
    269000   0.099775232   -8.428957      -8.2792963     -1.4574006      50218.233      36.893836      36.893836      36.893836    
    270000   0.10001201    -8.4288413     -8.2788254     -1.457605       50218.233      36.893836      36.893836      36.893836    
    271000   0.099676383   -8.428767      -8.2792546     -1.4568794      50218.233      36.893836      36.893836      36.893836    
    272000   0.10027515    -8.4294804     -8.2790698     -1.4586527      50218.233      36.893836      36.893836      36.893836    
    273000   0.10000371    -8.4287672     -8.2787638     -1.4561831      50218.233      36.893836      36.893836      36.893836    
    274000   0.10033202    -8.4291576     -8.2786617     -1.4562953      50218.233      36.893836      36.893836      36.893836    
    275000   0.1002896     -8.4283071     -8.2778748     -1.4521604      50218.233      36.893836      36.893836      36.893836    
    276000   0.099833404   -8.4287404     -8.2789924     -1.4540288      50218.233      36.893836      36.893836      36.893836    
    277000   0.10028328    -8.4283505     -8.2779277     -1.4527082      50218.233      36.893836      36.893836      36.893836    
    278000   0.10017681    -8.4288608     -8.2785978     -1.4562533      50218.233      36.893836      36.893836      36.893836    
    279000   0.09998232    -8.4284065     -8.2784352     -1.4516387      50218.233      36.893836      36.893836      36.893836    
    280000   0.099737832   -8.4298312     -8.2802266     -1.4658267      50218.233      36.893836      36.893836      36.893836    
    281000   0.09996278    -8.4286295     -8.2786874     -1.4515818      50218.233      36.893836      36.893836      36.893836    
    282000   0.099754194   -8.4302633     -8.2806342     -1.4638571      50218.233      36.893836      36.893836      36.893836    
    283000   0.10036063    -8.4293046     -8.2787658     -1.4585743      50218.233      36.893836      36.893836      36.893836    
    284000   0.10032375    -8.4289128     -8.2784293     -1.4587344      50218.233      36.893836      36.893836      36.893836    
    285000   0.10004069    -8.4294949     -8.279436      -1.4581087      50218.233      36.893836      36.893836      36.893836    
    286000   0.10015031    -8.4297161     -8.2794927     -1.4646182      50218.233      36.893836      36.893836      36.893836    
    287000   0.099711339   -8.4291451     -8.2795802     -1.4554964      50218.233      36.893836      36.893836      36.893836    
    288000   0.099443045   -8.4290664     -8.279904      -1.4553704      50218.233      36.893836      36.893836      36.893836    
    289000   0.099691186   -8.4289762     -8.2794415     -1.4596268      50218.233      36.893836      36.893836      36.893836    
    290000   0.10021801    -8.4291446     -8.2788197     -1.4567386      50218.233      36.893836      36.893836      36.893836    
    291000   0.10001428    -8.4297861     -8.2797668     -1.4677774      50218.233      36.893836      36.893836      36.893836    
    292000   0.099780289   -8.429862      -8.2801937     -1.4649286      50218.233      36.893836      36.893836      36.893836    
    293000   0.10022671    -8.4294562     -8.2791183     -1.4568952      50218.233      36.893836      36.893836      36.893836    
    294000   0.10000689    -8.4306243     -8.2806161     -1.470671       50218.233      36.893836      36.893836      36.893836    
    295000   0.099949909   -8.4299601     -8.2800374     -1.4647133      50218.233      36.893836      36.893836      36.893836    
    296000   0.099615026   -8.4298954     -8.280475      -1.4702829      50218.233      36.893836      36.893836      36.893836    
    297000   0.10032808    -8.4299279     -8.2794379     -1.4636635      50218.233      36.893836      36.893836      36.893836    
    298000   0.099833547   -8.4300158     -8.2802676     -1.4622093      50218.233      36.893836      36.893836      36.893836    
    299000   0.099611803   -8.4301394     -8.2807238     -1.4683281      50218.233      36.893836      36.893836      36.893836    
    300000   0.10035649    -8.4305583     -8.2800257     -1.470766       50218.233      36.893836      36.893836      36.893836    
    301000   0.10022175    -8.430273      -8.2799425     -1.4658599      50218.233      36.893836      36.893836      36.893836    
    302000   0.10002541    -8.4307268     -8.2806908     -1.4675444      50218.233      36.893836      36.893836      36.893836    
    303000   0.10009832    -8.4300681     -8.2799228     -1.463906       50218.233      36.893836      36.893836      36.893836    
    304000   0.099570574   -8.4303984     -8.2810447     -1.4653162      50218.233      36.893836      36.893836      36.893836    
    305000   0.10053483    -8.4295493     -8.2787492     -1.4599381      50218.233      36.893836      36.893836      36.893836    
    306000   0.099767655   -8.4299708     -8.2803215     -1.4618059      50218.233      36.893836      36.893836      36.893836    
    307000   0.10013249    -8.4308762     -8.2806797     -1.4728032      50218.233      36.893836      36.893836      36.893836    
    308000   0.099311679   -8.4304393     -8.2814739     -1.4645782      50218.233      36.893836      36.893836      36.893836    
    309000   0.10027274    -8.430259      -8.279852      -1.4636551      50218.233      36.893836      36.893836      36.893836    
    310000   0.10062373    -8.429931      -8.2789976     -1.4607142      50218.233      36.893836      36.893836      36.893836    
    311000   0.099319817   -8.4297592     -8.2807816     -1.4634083      50218.233      36.893836      36.893836      36.893836    
    312000   0.099961142   -8.4295048     -8.2795652     -1.458522       50218.233      36.893836      36.893836      36.893836    
    313000   0.10026582    -8.4293654     -8.2789688     -1.4624323      50218.233      36.893836      36.893836      36.893836    
    314000   0.10053822    -8.4288523     -8.2780471     -1.4570639      50218.233      36.893836      36.893836      36.893836    
    315000   0.1000487     -8.42927       -8.2791991     -1.4616595      50218.233      36.893836      36.893836      36.893836    
    316000   0.10047354    -8.429088      -8.2783799     -1.4555527      50218.233      36.893836      36.893836      36.893836    
    317000   0.099838322   -8.428938      -8.2791827     -1.4571051      50218.233      36.893836      36.893836      36.893836    
    318000   0.099899606   -8.4295435     -8.2796962     -1.45658        50218.233      36.893836      36.893836      36.893836    
    319000   0.10037135    -8.4284467     -8.2778918     -1.4498082      50218.233      36.893836      36.893836      36.893836    
    320000   0.1003992     -8.4289996     -8.278403      -1.4524448      50218.233      36.893836      36.893836      36.893836    
    321000   0.10058121    -8.4289103     -8.2780406     -1.4550153      50218.233      36.893836      36.893836      36.893836    
    322000   0.099936383   -8.4295122     -8.2796097     -1.4588769      50218.233      36.893836      36.893836      36.893836    
    323000   0.1003511     -8.4285118     -8.2779873     -1.4473232      50218.233      36.893836      36.893836      36.893836    
    324000   0.10013323    -8.4279572     -8.2777595     -1.4501903      50218.233      36.893836      36.893836      36.893836    
    325000   0.099603754   -8.4286313     -8.2792278     -1.4531519      50218.233      36.893836      36.893836      36.893836    
    326000   0.10012863    -8.4282261     -8.2780353     -1.4502489      50218.233      36.893836      36.893836      36.893836    
    327000   0.099656819   -8.429547      -8.2800639     -1.4612776      50218.233      36.893836      36.893836      36.893836    
    328000   0.099561041   -8.4277105     -8.278371      -1.4507581      50218.233      36.893836      36.893836      36.893836    
    329000   0.099868461   -8.4284132     -8.2786127     -1.4551731      50218.233      36.893836      36.893836      36.893836    
    330000   0.099817279   -8.4286912     -8.2789674     -1.4545328      50218.233      36.893836      36.893836      36.893836    
    331000   0.099856528   -8.4284293     -8.2786466     -1.453324       50218.233      36.893836      36.893836      36.893836    
    332000   0.099748146   -8.4284308     -8.2788107     -1.4541713      50218.233      36.893836      36.893836      36.893836    
    333000   0.10018199    -8.4285401     -8.2782693     -1.454035       50218.233      36.893836      36.893836      36.893836    
    334000   0.10018428    -8.4290959     -8.2788216     -1.4592436      50218.233      36.893836      36.893836      36.893836    
    335000   0.099809705   -8.4284381     -8.2787256     -1.4528219      50218.233      36.893836      36.893836      36.893836    
    336000   0.099994385   -8.4290512     -8.2790617     -1.4576347      50218.233      36.893836      36.893836      36.893836    
    337000   0.10024561    -8.4297147     -8.2793485     -1.462131       50218.233      36.893836      36.893836      36.893836    
    338000   0.10011451    -8.4288038     -8.2786342     -1.4559431      50218.233      36.893836      36.893836      36.893836    
    339000   0.10011232    -8.4295455     -8.2793792     -1.462782       50218.233      36.893836      36.893836      36.893836    
    340000   0.099818759   -8.4296923     -8.2799663     -1.4572323      50218.233      36.893836      36.893836      36.893836    
    341000   0.099803214   -8.4292124     -8.2795097     -1.4581005      50218.233      36.893836      36.893836      36.893836    
    342000   0.099905808   -8.4302791     -8.2804225     -1.4664296      50218.233      36.893836      36.893836      36.893836    
    343000   0.099395048   -8.4304834     -8.281393      -1.4682106      50218.233      36.893836      36.893836      36.893836    
    344000   0.10069144    -8.4296133     -8.2785783     -1.4595507      50218.233      36.893836      36.893836      36.893836    
    345000   0.099821219   -8.4303266     -8.2805969     -1.4671241      50218.233      36.893836      36.893836      36.893836    
    346000   0.099354393   -8.4301824     -8.281153      -1.4722182      50218.233      36.893836      36.893836      36.893836    
    347000   0.099931626   -8.4300795     -8.2801842     -1.4643078      50218.233      36.893836      36.893836      36.893836    
    348000   0.10032547    -8.4302445     -8.2797585     -1.4625939      50218.233      36.893836      36.893836      36.893836    
    349000   0.099777212   -8.4296551     -8.2799914     -1.4630747      50218.233      36.893836      36.893836      36.893836    
    350000   0.099834774   -8.430595      -8.280845      -1.4678671      50218.233      36.893836      36.893836      36.893836    
    351000   0.099960769   -8.4311766     -8.2812376     -1.4734253      50218.233      36.893836      36.893836      36.893836    
    352000   0.10044831    -8.4296313     -8.278961      -1.4627846      50218.233      36.893836      36.893836      36.893836    
    353000   0.1003402     -8.4307984     -8.2802902     -1.4666561      50218.233      36.893836      36.893836      36.893836    
    354000   0.10025002    -8.4298109     -8.279438      -1.4673006      50218.233      36.893836      36.893836      36.893836    
    355000   0.10020576    -8.4305255     -8.280219      -1.4694793      50218.233      36.893836      36.893836      36.893836    
    356000   0.099570666   -8.4296908     -8.280337      -1.4647974      50218.233      36.893836      36.893836      36.893836    
    357000   0.09977153    -8.4299564     -8.2803013     -1.4640005      50218.233      36.893836      36.893836      36.893836    
    358000   0.10001655    -8.4290095     -8.2789868     -1.457344       50218.233      36.893836      36.893836      36.893836    
    359000   0.10013131    -8.4299558     -8.279761      -1.4624175      50218.233      36.893836      36.893836      36.893836    
    360000   0.09965993    -8.4295874     -8.2800996     -1.4650881      50218.233      36.893836      36.893836      36.893836    
    361000   0.099613841   -8.4287722     -8.2793536     -1.4582787      50218.233      36.893836      36.893836      36.893836    
    362000   0.10011157    -8.4302713     -8.280106      -1.4708367      50218.233      36.893836      36.893836      36.893836    
    363000   0.10005653    -8.4289789     -8.2788962     -1.4554036      50218.233      36.893836      36.893836      36.893836    
    364000   0.099709567   -8.42947       -8.2799078     -1.4604956      50218.233      36.893836      36.893836      36.893836    
    365000   0.099887815   -8.4295046     -8.2796751     -1.4617951      50218.233      36.893836      36.893836      36.893836    
    366000   0.10029444    -8.4287057     -8.2782661     -1.4561615      50218.233      36.893836      36.893836      36.893836    
    367000   0.099440634   -8.4292511     -8.2800923     -1.4562109      50218.233      36.893836      36.893836      36.893836    
    368000   0.1002529     -8.4291324     -8.2787552     -1.4567449      50218.233      36.893836      36.893836      36.893836    
    369000   0.10064883    -8.4281724     -8.2772013     -1.4473306      50218.233      36.893836      36.893836      36.893836    
    370000   0.10007655    -8.4294869     -8.2793742     -1.4608971      50218.233      36.893836      36.893836      36.893836    
    371000   0.099785196   -8.4287143     -8.2790387     -1.4603306      50218.233      36.893836      36.893836      36.893836    
    372000   0.099748099   -8.429038      -8.279418      -1.4563164      50218.233      36.893836      36.893836      36.893836    
    373000   0.10021023    -8.4282032     -8.27789       -1.4537364      50218.233      36.893836      36.893836      36.893836    
    374000   0.10014138    -8.4285239     -8.278314      -1.4520483      50218.233      36.893836      36.893836      36.893836    
    375000   0.099788417   -8.4289405     -8.27926       -1.4542231      50218.233      36.893836      36.893836      36.893836    
    376000   0.099681427   -8.4288774     -8.2793574     -1.4578223      50218.233      36.893836      36.893836      36.893836    
    377000   0.100005      -8.4284305     -8.2784251     -1.4527425      50218.233      36.893836      36.893836      36.893836    
    378000   0.099671817   -8.4286508     -8.2791452     -1.4567524      50218.233      36.893836      36.893836      36.893836    
    379000   0.099944957   -8.4284449     -8.2785296     -1.450139       50218.233      36.893836      36.893836      36.893836    
    380000   0.10042821    -8.4282881     -8.2776479     -1.4479439      50218.233      36.893836      36.893836      36.893836    
    381000   0.099914815   -8.4295889     -8.2797188     -1.4628528      50218.233      36.893836      36.893836      36.893836    
    382000   0.099648761   -8.4295601     -8.280089      -1.4569685      50218.233      36.893836      36.893836      36.893836    
    383000   0.099809568   -8.4291088     -8.2793966     -1.4530405      50218.233      36.893836      36.893836      36.893836    
    384000   0.09956903    -8.4295897     -8.2802383     -1.4611047      50218.233      36.893836      36.893836      36.893836    
    385000   0.099842371   -8.4292157     -8.2794543     -1.4610155      50218.233      36.893836      36.893836      36.893836    
    386000   0.09966781    -8.4290895     -8.2795899     -1.4570823      50218.233      36.893836      36.893836      36.893836    
    387000   0.10034416    -8.4287979     -8.2782838     -1.4563526      50218.233      36.893836      36.893836      36.893836    
    388000   0.10010257    -8.4289217     -8.2787699     -1.4489365      50218.233      36.893836      36.893836      36.893836    
    389000   0.10025151    -8.4292619     -8.2788867     -1.4604421      50218.233      36.893836      36.893836      36.893836    
    390000   0.10009912    -8.430097      -8.2799505     -1.4688019      50218.233      36.893836      36.893836      36.893836    
    391000   0.099954999   -8.4299289     -8.2799985     -1.4659721      50218.233      36.893836      36.893836      36.893836    
    392000   0.099777217   -8.4302679     -8.2806042     -1.4687162      50218.233      36.893836      36.893836      36.893836    
    393000   0.10010569    -8.4306865     -8.2805301     -1.4722176      50218.233      36.893836      36.893836      36.893836    
    394000   0.099979385   -8.4300239     -8.280057      -1.4687058      50218.233      36.893836      36.893836      36.893836    
    395000   0.10035296    -8.4295375     -8.2790102     -1.4593991      50218.233      36.893836      36.893836      36.893836    
    396000   0.099746644   -8.4304545     -8.2808367     -1.4648864      50218.233      36.893836      36.893836      36.893836    
    397000   0.099906457   -8.4308348     -8.2809772     -1.4706236      50218.233      36.893836      36.893836      36.893836    
    398000   0.099931895   -8.4304355     -8.2805398     -1.466474       50218.233      36.893836      36.893836      36.893836    
    399000   0.1002666     -8.429671      -8.2792733     -1.4606082      50218.233      36.893836      36.893836      36.893836    
    400000   0.099851485   -8.4300619     -8.2802868     -1.4640528      50218.233      36.893836      36.893836      36.893836    
    401000   0.10055127    -8.4300421     -8.2792174     -1.4626942      50218.233      36.893836      36.893836      36.893836    
    402000   0.10038365    -8.4304045     -8.2798312     -1.4678343      50218.233      36.893836      36.893836      36.893836    
    403000   0.10063565    -8.4291633     -8.278212      -1.4542819      50218.233      36.893836      36.893836      36.893836    
    404000   0.099885419   -8.4299902     -8.2801642     -1.4689947      50218.233      36.893836      36.893836      36.893836    
    405000   0.10088638    -8.4304817     -8.2791542     -1.4682013      50218.233      36.893836      36.893836      36.893836    
    406000   0.10010518    -8.4298046     -8.279649      -1.4599832      50218.233      36.893836      36.893836      36.893836    
    407000   0.10063856    -8.4304943     -8.2795386     -1.4674812      50218.233      36.893836      36.893836      36.893836    
    408000   0.099857466   -8.4292593     -8.2794752     -1.4637624      50218.233      36.893836      36.893836      36.893836    
    409000   0.099811584   -8.4305173     -8.2808021     -1.4672678      50218.233      36.893836      36.893836      36.893836    
    410000   0.10016206    -8.4302443     -8.2800033     -1.4612003      50218.233      36.893836      36.893836      36.893836    
    411000   0.099416919   -8.4297651     -8.2806418     -1.4629996      50218.233      36.893836      36.893836      36.893836    
    412000   0.099502675   -8.429003      -8.2797512     -1.4500624      50218.233      36.893836      36.893836      36.893836    
    413000   0.099502738   -8.429809      -8.280557      -1.4676462      50218.233      36.893836      36.893836      36.893836    
    414000   0.10033346    -8.4293537     -8.2788556     -1.4652301      50218.233      36.893836      36.893836      36.893836    
    415000   0.10039237    -8.4291019     -8.2785155     -1.4575169      50218.233      36.893836      36.893836      36.893836    
    416000   0.099735149   -8.4298931     -8.2802925     -1.4604184      50218.233      36.893836      36.893836      36.893836    
    417000   0.10012129    -8.4283767     -8.2781969     -1.4556498      50218.233      36.893836      36.893836      36.893836    
    418000   0.10008039    -8.4290714     -8.2789529     -1.4601615      50218.233      36.893836      36.893836      36.893836    
    419000   0.099767571   -8.428419      -8.2787698     -1.456764       50218.233      36.893836      36.893836      36.893836    
    420000   0.099879277   -8.428728      -8.2789112     -1.459387       50218.233      36.893836      36.893836      36.893836    
    421000   0.10005844    -8.4287753     -8.2786897     -1.4533769      50218.233      36.893836      36.893836      36.893836    
    422000   0.10027483    -8.429754      -8.2793439     -1.4623949      50218.233      36.893836      36.893836      36.893836    
    423000   0.099788286   -8.4286871     -8.2790068     -1.4589824      50218.233      36.893836      36.893836      36.893836    
    424000   0.099620612   -8.4291894     -8.2797607     -1.4566714      50218.233      36.893836      36.893836      36.893836    
    425000   0.09985615    -8.4288741     -8.279092      -1.4574553      50218.233      36.893836      36.893836      36.893836    
    426000   0.099687808   -8.4286806     -8.279151      -1.4545576      50218.233      36.893836      36.893836      36.893836    
    427000   0.099913646   -8.4283013     -8.278433      -1.4500489      50218.233      36.893836      36.893836      36.893836    
    428000   0.099891375   -8.4297164     -8.2798815     -1.4658719      50218.233      36.893836      36.893836      36.893836    
    429000   0.099873895   -8.4289944     -8.2791857     -1.4562079      50218.233      36.893836      36.893836      36.893836    
    430000   0.099791909   -8.4272167     -8.277531      -1.4474579      50218.233      36.893836      36.893836      36.893836    
    431000   0.099517414   -8.4288315     -8.2795575     -1.4548366      50218.233      36.893836      36.893836      36.893836    
    432000   0.1000128     -8.4293671     -8.27935       -1.4611854      50218.233      36.893836      36.893836      36.893836    
    433000   0.1001037     -8.4295878     -8.2794344     -1.4645826      50218.233      36.893836      36.893836      36.893836    
    434000   0.099478312   -8.4289891     -8.2797737     -1.4584833      50218.233      36.893836      36.893836      36.893836    
    435000   0.10014439    -8.4292596     -8.2790452     -1.4623614      50218.233      36.893836      36.893836      36.893836    
    436000   0.099729027   -8.4296204     -8.280029      -1.4630469      50218.233      36.893836      36.893836      36.893836    
    437000   0.10049311    -8.4287711     -8.2780335     -1.4496792      50218.233      36.893836      36.893836      36.893836    
    438000   0.099795135   -8.4296081     -8.2799175     -1.4616749      50218.233      36.893836      36.893836      36.893836    
    439000   0.099117802   -8.4292711     -8.2805965     -1.455145       50218.233      36.893836      36.893836      36.893836    
    440000   0.10000753    -8.4305477     -8.2805385     -1.4670927      50218.233      36.893836      36.893836      36.893836    
    441000   0.1003116     -8.4302207     -8.2797555     -1.4639671      50218.233      36.893836      36.893836      36.893836    
    442000   0.099275214   -8.4305241     -8.2816134     -1.4695409      50218.233      36.893836      36.893836      36.893836    
    443000   0.099827704   -8.4303187     -8.2805793     -1.4708694      50218.233      36.893836      36.893836      36.893836    
    444000   0.099976122   -8.4301273     -8.2801653     -1.4678799      50218.233      36.893836      36.893836      36.893836    
    445000   0.09992649    -8.4305197     -8.2806321     -1.4725366      50218.233      36.893836      36.893836      36.893836    
    446000   0.10010778    -8.4301485     -8.279989      -1.4680563      50218.233      36.893836      36.893836      36.893836    
    447000   0.099791057   -8.4304376     -8.2807531     -1.4621005      50218.233      36.893836      36.893836      36.893836    
    448000   0.099991208   -8.4299927     -8.280008      -1.4668587      50218.233      36.893836      36.893836      36.893836    
    449000   0.1000234     -8.430641      -8.2806081     -1.4673978      50218.233      36.893836      36.893836      36.893836    
    450000   0.10036233    -8.4302668     -8.2797254     -1.4720964      50218.233      36.893836      36.893836      36.893836    
    451000   0.099988335   -8.4301674     -8.280187      -1.4641962      50218.233      36.893836      36.893836      36.893836    
    452000   0.099484107   -8.4300476     -8.2808236     -1.4678153      50218.233      36.893836      36.893836      36.893836    
    453000   0.099507351   -8.4305419     -8.281283      -1.4714303      50218.233      36.893836      36.893836      36.893836    
    454000   0.1002241     -8.4297787     -8.2794447     -1.4650333      50218.233      36.893836      36.893836      36.893836    
    455000   0.09992052    -8.4297239     -8.2798452     -1.4665366      50218.233      36.893836      36.893836      36.893836    
    456000   0.10038341    -8.4304647     -8.2798918     -1.4689547      50218.233      36.893836      36.893836      36.893836    
    457000   0.099911118   -8.4305116     -8.2806471     -1.4679114      50218.233      36.893836      36.893836      36.893836    
    458000   0.099925174   -8.4301648     -8.2802792     -1.4687361      50218.233      36.893836      36.893836      36.893836    
    459000   0.099911527   -8.4302885     -8.2804234     -1.4685281      50218.233      36.893836      36.893836      36.893836    
    460000   0.09986832    -8.4305836     -8.2807832     -1.472141       50218.233      36.893836      36.893836      36.893836    
    461000   0.10045116    -8.4293533     -8.2786787     -1.456953       50218.233      36.893836      36.893836      36.893836    
    462000   0.10013956    -8.429196      -8.2789888     -1.4575494      50218.233      36.893836      36.893836      36.893836    
    463000   0.099866701   -8.428834      -8.2790361     -1.454401       50218.233      36.893836      36.893836      36.893836    
    464000   0.099729995   -8.4300117     -8.2804188     -1.4647203      50218.233      36.893836      36.893836      36.893836    
    465000   0.10043169    -8.4290658     -8.2784204     -1.4574785      50218.233      36.893836      36.893836      36.893836    
    466000   0.099413773   -8.4285947     -8.2794762     -1.4565125      50218.233      36.893836      36.893836      36.893836    
    467000   0.10022357    -8.4293409     -8.2790077     -1.4554054      50218.233      36.893836      36.893836      36.893836    
    468000   0.099906104   -8.4290289     -8.2791718     -1.454177       50218.233      36.893836      36.893836      36.893836    
    469000   0.10040197    -8.4299134     -8.2793126     -1.4667913      50218.233      36.893836      36.893836      36.893836    
    470000   0.10023184    -8.4292577     -8.2789121     -1.461384       50218.233      36.893836      36.893836      36.893836    
    471000   0.10001689    -8.4284025     -8.2783793     -1.4579132      50218.233      36.893836      36.893836      36.893836    
    472000   0.099438      -8.4282577     -8.2791029     -1.4518104      50218.233      36.893836      36.893836      36.893836    
    473000   0.10056261    -8.4285388     -8.277697      -1.4477612      50218.233      36.893836      36.893836      36.893836    
    474000   0.099784967   -8.4295532     -8.2798779     -1.4595341      50218.233      36.893836      36.893836      36.893836    
    475000   0.10019723    -8.4293107     -8.279017      -1.4625592      50218.233      36.893836      36.893836      36.893836    
    476000   0.10053312    -8.4290943     -8.2782968     -1.4543682      50218.233      36.893836      36.893836      36.893836    
    477000   0.10007362    -8.429349      -8.2792407     -1.4588662      50218.233      36.893836      36.893836      36.893836    
    478000   0.099831469   -8.4294526     -8.2797076     -1.4616348      50218.233      36.893836      36.893836      36.893836    
    479000   0.10015612    -8.4283028     -8.2780707     -1.4554683      50218.233      36.893836      36.893836      36.893836    
    480000   0.10039033    -8.4288938     -8.2783105     -1.4570794      50218.233      36.893836      36.893836      36.893836    
    481000   0.10014817    -8.4291622     -8.278942      -1.4635304      50218.233      36.893836      36.893836      36.893836    
    482000   0.099563993   -8.4287123     -8.2793684     -1.4516758      50218.233      36.893836      36.893836      36.893836    
    483000   0.099854474   -8.4288018     -8.2790222     -1.456493       50218.233      36.893836      36.893836      36.893836    
    484000   0.10003448    -8.4300641     -8.2800146     -1.4704992      50218.233      36.893836      36.893836      36.893836    
    485000   0.10022552    -8.4287839     -8.2784478     -1.4517892      50218.233      36.893836      36.893836      36.893836    
    486000   0.10002705    -8.4297184     -8.2796799     -1.460329       50218.233      36.893836      36.893836      36.893836    
    487000   0.099901264   -8.429504      -8.2796542     -1.4610528      50218.233      36.893836      36.893836      36.893836    
    488000   0.1003097     -8.4299333     -8.2794709     -1.4620899      50218.233      36.893836      36.893836      36.893836    
    489000   0.10000765    -8.4295847     -8.2795753     -1.456813       50218.233      36.893836      36.893836      36.893836    
    490000   0.10005348    -8.4303571     -8.280279      -1.4686066      50218.233      36.893836      36.893836      36.893836    
    491000   0.099552759   -8.4297238     -8.2803968     -1.458014       50218.233      36.893836      36.893836      36.893836    
    492000   0.10013424    -8.4307058     -8.2805065     -1.4739406      50218.233      36.893836      36.893836      36.893836    
    493000   0.10028649    -8.4302958     -8.2798682     -1.4678172      50218.233      36.893836      36.893836      36.893836    
    494000   0.10037181    -8.4300969     -8.2795413     -1.4609448      50218.233      36.893836      36.893836      36.893836    
    495000   0.10024718    -8.4299377     -8.279569      -1.4657462      50218.233      36.893836      36.893836      36.893836    
    496000   0.10036598    -8.4300388     -8.279492      -1.4662826      50218.233      36.893836      36.893836      36.893836    
    497000   0.099400297   -8.4302125     -8.2811142     -1.4699192      50218.233      36.893836      36.893836      36.893836    
    498000   0.10009711    -8.4302891     -8.2801456     -1.4672169      50218.233      36.893836      36.893836      36.893836    
    499000   0.099886547   -8.4306512     -8.2808235     -1.4698792      50218.233      36.893836      36.893836      36.893836    
    500000   0.099377989   -8.4302621     -8.2811973     -1.4685082      50218.233      36.893836      36.893836      36.893836    
    501000   0.10015785    -8.4306744     -8.2804398     -1.4733653      50218.233      36.893836      36.893836      36.893836    
    502000   0.10083897    -8.4300558     -8.2787995     -1.4643348      50218.233      36.893836      36.893836      36.893836    
    503000   0.099978567   -8.4308619     -8.2808962     -1.4706672      50218.233      36.893836      36.893836      36.893836    
    504000   0.10046069    -8.4293862     -8.2786973     -1.4596927      50218.233      36.893836      36.893836      36.893836    
    505000   0.10014734    -8.4300293     -8.2798104     -1.4644493      50218.233      36.893836      36.893836      36.893836    
    506000   0.099851279   -8.4296178     -8.279843      -1.4639239      50218.233      36.893836      36.893836      36.893836    
    507000   0.099847986   -8.4301233     -8.2803535     -1.4675383      50218.233      36.893836      36.893836      36.893836    
    508000   0.099552393   -8.4301048     -8.2807783     -1.4682843      50218.233      36.893836      36.893836      36.893836    
    509000   0.1003003     -8.4302583     -8.2798099     -1.4691467      50218.233      36.893836      36.893836      36.893836    
    510000   0.099879306   -8.429675      -8.2798582     -1.4608118      50218.233      36.893836      36.893836      36.893836    
    511000   0.10012228    -8.4287217     -8.2785404     -1.454417       50218.233      36.893836      36.893836      36.893836    
    512000   0.099890027   -8.4306161     -8.2807831     -1.471572       50218.233      36.893836      36.893836      36.893836    
    513000   0.099597514   -8.4294388     -8.2800447     -1.4630498      50218.233      36.893836      36.893836      36.893836    
    514000   0.10044843    -8.4292248     -8.2785543     -1.4553077      50218.233      36.893836      36.893836      36.893836    
    515000   0.10010959    -8.4293681     -8.2792059     -1.459887       50218.233      36.893836      36.893836      36.893836    
    516000   0.099652857   -8.429569      -8.2800918     -1.4631542      50218.233      36.893836      36.893836      36.893836    
    517000   0.099944426   -8.4292904     -8.2793759     -1.4610866      50218.233      36.893836      36.893836      36.893836    
    518000   0.10004373    -8.4294896     -8.2794262     -1.461136       50218.233      36.893836      36.893836      36.893836    
    519000   0.10044866    -8.4290657     -8.2783949     -1.4560515      50218.233      36.893836      36.893836      36.893836    
    520000   0.1001506     -8.4284841     -8.2782603     -1.451897       50218.233      36.893836      36.893836      36.893836    
    521000   0.099585858   -8.4291302     -8.2797536     -1.4579167      50218.233      36.893836      36.893836      36.893836    
    522000   0.10046839    -8.4296631     -8.2789627     -1.4614004      50218.233      36.893836      36.893836      36.893836    
    523000   0.099963577   -8.4287807     -8.2788375     -1.452171       50218.233      36.893836      36.893836      36.893836    
    524000   0.099709268   -8.4295912     -8.2800295     -1.4611724      50218.233      36.893836      36.893836      36.893836    
    525000   0.10040987    -8.4291975     -8.2785848     -1.4573836      50218.233      36.893836      36.893836      36.893836    
    526000   0.1001262     -8.4285982     -8.278411      -1.4468956      50218.233      36.893836      36.893836      36.893836    
    527000   0.10037563    -8.4285042     -8.2779429     -1.4596985      50218.233      36.893836      36.893836      36.893836    
    528000   0.10000648    -8.4287252     -8.2787176     -1.4515463      50218.233      36.893836      36.893836      36.893836    
    529000   0.099285026   -8.4288293     -8.2799039     -1.4596749      50218.233      36.893836      36.893836      36.893836    
    530000   0.099938608   -8.4290567     -8.2791509     -1.4579684      50218.233      36.893836      36.893836      36.893836    
    531000   0.10030923    -8.428568      -8.2781063     -1.4500056      50218.233      36.893836      36.893836      36.893836    
    532000   0.099991953   -8.4292296     -8.2792438     -1.4597471      50218.233      36.893836      36.893836      36.893836    
    533000   0.10011524    -8.4294805     -8.2793098     -1.4584728      50218.233      36.893836      36.893836      36.893836    
    534000   0.099862611   -8.4286248     -8.278833      -1.4542494      50218.233      36.893836      36.893836      36.893836    
    535000   0.09955013    -8.4299385     -8.2806154     -1.4647419      50218.233      36.893836      36.893836      36.893836    
    536000   0.099790865   -8.4294998     -8.2798157     -1.456825       50218.233      36.893836      36.893836      36.893836    
    537000   0.099666466   -8.4297518     -8.2802542     -1.4600018      50218.233      36.893836      36.893836      36.893836    
    538000   0.10074087    -8.4285741     -8.2774649     -1.4506849      50218.233      36.893836      36.893836      36.893836    
    539000   0.1005063     -8.430091      -8.2793337     -1.4597657      50218.233      36.893836      36.893836      36.893836    
    540000   0.099858455   -8.4295775     -8.2797919     -1.4642858      50218.233      36.893836      36.893836      36.893836    
    541000   0.1001895     -8.429049      -8.2787669     -1.4584079      50218.233      36.893836      36.893836      36.893836    
    542000   0.10004678    -8.4301701     -8.2801021     -1.4664798      50218.233      36.893836      36.893836      36.893836    
    543000   0.099503928   -8.43002       -8.2807663     -1.4657971      50218.233      36.893836      36.893836      36.893836    
    544000   0.10026648    -8.4298238     -8.2794263     -1.4629778      50218.233      36.893836      36.893836      36.893836    
    545000   0.10004794    -8.4296035     -8.2795337     -1.4635751      50218.233      36.893836      36.893836      36.893836    
    546000   0.099670152   -8.4300697     -8.2805666     -1.4668974      50218.233      36.893836      36.893836      36.893836    
    547000   0.10004253    -8.4304003     -8.2803387     -1.4676062      50218.233      36.893836      36.893836      36.893836    
    548000   0.10009912    -8.4303287     -8.2801822     -1.4685056      50218.233      36.893836      36.893836      36.893836    
    549000   0.10028102    -8.4302143     -8.2797949     -1.4699798      50218.233      36.893836      36.893836      36.893836    
    550000   0.09983352    -8.4307018     -8.2809536     -1.4714088      50218.233      36.893836      36.893836      36.893836    
    551000   0.1000307     -8.4293401     -8.2792962     -1.4593173      50218.233      36.893836      36.893836      36.893836    
    552000   0.099873858   -8.4305669     -8.2807582     -1.4728944      50218.233      36.893836      36.893836      36.893836    
    553000   0.10029933    -8.4302803     -8.2798335     -1.4657685      50218.233      36.893836      36.893836      36.893836    
    554000   0.10018455    -8.42986       -8.2795853     -1.4662016      50218.233      36.893836      36.893836      36.893836    
    555000   0.10012542    -8.4304945     -8.2803085     -1.4668515      50218.233      36.893836      36.893836      36.893836    
    556000   0.09996976    -8.4308962     -8.2809437     -1.4690614      50218.233      36.893836      36.893836      36.893836    
    557000   0.099838605   -8.4304618     -8.280706      -1.4672004      50218.233      36.893836      36.893836      36.893836    
    558000   0.099594482   -8.4295855     -8.2801959     -1.4638027      50218.233      36.893836      36.893836      36.893836    
    559000   0.099971086   -8.4297715     -8.279817      -1.4685594      50218.233      36.893836      36.893836      36.893836    
    560000   0.10025265    -8.4292327     -8.2788558     -1.4584122      50218.233      36.893836      36.893836      36.893836    
    561000   0.10049565    -8.4298211     -8.2790798     -1.4683118      50218.233      36.893836      36.893836      36.893836    
    562000   0.099853709   -8.4292845     -8.279506      -1.4581581      50218.233      36.893836      36.893836      36.893836    
    563000   0.10011476    -8.4302369     -8.2800669     -1.4642924      50218.233      36.893836      36.893836      36.893836    
    564000   0.1001442     -8.4299        -8.2796858     -1.464598       50218.233      36.893836      36.893836      36.893836    
    565000   0.10032773    -8.429412      -8.2789226     -1.4617451      50218.233      36.893836      36.893836      36.893836    
    566000   0.10025472    -8.4293651     -8.2789851     -1.459897       50218.233      36.893836      36.893836      36.893836    
    567000   0.099789093   -8.4292328     -8.2795513     -1.4624837      50218.233      36.893836      36.893836      36.893836    
    568000   0.10062567    -8.4281537     -8.2772173     -1.4517234      50218.233      36.893836      36.893836      36.893836    
    569000   0.099930311   -8.4287659     -8.2788726     -1.4572326      50218.233      36.893836      36.893836      36.893836    
    570000   0.10034942    -8.4282517     -8.2777297     -1.457309       50218.233      36.893836      36.893836      36.893836    
    571000   0.10000307    -8.4290384     -8.279036      -1.4620321      50218.233      36.893836      36.893836      36.893836    
    572000   0.10014182    -8.4284499     -8.2782393     -1.4491415      50218.233      36.893836      36.893836      36.893836    
    573000   0.10043957    -8.4284506     -8.2777934     -1.4500332      50218.233      36.893836      36.893836      36.893836    
    574000   0.10020752    -8.4285914     -8.2782823     -1.4570687      50218.233      36.893836      36.893836      36.893836    
    575000   0.099887233   -8.4290469     -8.2792182     -1.4567135      50218.233      36.893836      36.893836      36.893836    
    576000   0.10013781    -8.4284334     -8.2782288     -1.4517507      50218.233      36.893836      36.893836      36.893836    
    577000   0.099910261   -8.4285755     -8.2787122     -1.4548308      50218.233      36.893836      36.893836      36.893836    
    578000   0.10040314    -8.4287708     -8.2781683     -1.4510782      50218.233      36.893836      36.893836      36.893836    
    579000   0.099731241   -8.4288557     -8.2792609     -1.4552902      50218.233      36.893836      36.893836      36.893836    
    580000   0.099686702   -8.4288675     -8.2793396     -1.4555152      50218.233      36.893836      36.893836      36.893836    
    581000   0.10046748    -8.4287442     -8.2780451     -1.450609       50218.233      36.893836      36.893836      36.893836    
    582000   0.099925576   -8.4288472     -8.2789609     -1.4536939      50218.233      36.893836      36.893836      36.893836    
    583000   0.099883602   -8.4286176     -8.2787943     -1.4521168      50218.233      36.893836      36.893836      36.893836    
    584000   0.10071114    -8.429444      -8.2783794     -1.4568039      50218.233      36.893836      36.893836      36.893836    
    585000   0.099812933   -8.4291978     -8.2794806     -1.4565487      50218.233      36.893836      36.893836      36.893836    
    586000   0.099118583   -8.4288352     -8.2801594     -1.4556544      50218.233      36.893836      36.893836      36.893836    
    587000   0.099608492   -8.4284092     -8.2789985     -1.4557072      50218.233      36.893836      36.893836      36.893836    
    588000   0.09979875    -8.4293356     -8.2796396     -1.4614586      50218.233      36.893836      36.893836      36.893836    
    589000   0.10007305    -8.4285542     -8.2784468     -1.4528974      50218.233      36.893836      36.893836      36.893836    
    590000   0.10045393    -8.4302832     -8.2796044     -1.4640217      50218.233      36.893836      36.893836      36.893836    
    591000   0.10023786    -8.429805      -8.2794504     -1.4634871      50218.233      36.893836      36.893836      36.893836    
    592000   0.10026675    -8.42996       -8.279562      -1.4613128      50218.233      36.893836      36.893836      36.893836    
    593000   0.10052046    -8.4298829     -8.2791043     -1.4623672      50218.233      36.893836      36.893836      36.893836    
    594000   0.099892624   -8.4303085     -8.2804717     -1.4659862      50218.233      36.893836      36.893836      36.893836    
    595000   0.099523858   -8.4314671     -8.2821834     -1.4738593      50218.233      36.893836      36.893836      36.893836    
    596000   0.099628998   -8.4300437     -8.2806023     -1.4622926      50218.233      36.893836      36.893836      36.893836    
    597000   0.10025635    -8.4303431     -8.2799607     -1.469721       50218.233      36.893836      36.893836      36.893836    
    598000   0.10035747    -8.4304222     -8.2798881     -1.4691083      50218.233      36.893836      36.893836      36.893836    
    599000   0.10009196    -8.4297781     -8.2796423     -1.460625       50218.233      36.893836      36.893836      36.893836    
    600000   0.099664807   -8.429914      -8.2804189     -1.464228       50218.233      36.893836      36.893836      36.893836    
    601000   0.10027103    -8.4307839     -8.2803795     -1.4755221      50218.233      36.893836      36.893836      36.893836    
    602000   0.10006097    -8.4304902     -8.2804008     -1.4701853      50218.233      36.893836      36.893836      36.893836    
    603000   0.099757911   -8.4309119     -8.2812772     -1.4788719      50218.233      36.893836      36.893836      36.893836    
    604000   0.09976157    -8.4306633     -8.281023      -1.4705641      50218.233      36.893836      36.893836      36.893836    
    605000   0.10011017    -8.4299918     -8.2798286     -1.4621206      50218.233      36.893836      36.893836      36.893836    
    606000   0.099946757   -8.4302412     -8.2803232     -1.4653467      50218.233      36.893836      36.893836      36.893836    
    607000   0.099396065   -8.4301708     -8.2810789     -1.4697008      50218.233      36.893836      36.893836      36.893836    
    608000   0.10068861    -8.4297158     -8.278685      -1.4573406      50218.233      36.893836      36.893836      36.893836    
    609000   0.099459649   -8.4297379     -8.2805505     -1.4595894      50218.233      36.893836      36.893836      36.893836    
    610000   0.10017538    -8.4297861     -8.2795252     -1.4625227      50218.233      36.893836      36.893836      36.893836    
    611000   0.10043639    -8.4294492     -8.2787968     -1.4567986      50218.233      36.893836      36.893836      36.893836    
    612000   0.10052088    -8.4295882     -8.278809      -1.4601601      50218.233      36.893836      36.893836      36.893836    
    613000   0.10006638    -8.4290874     -8.27899       -1.457338       50218.233      36.893836      36.893836      36.893836    
    614000   0.099972682   -8.4300473     -8.2800904     -1.4737741      50218.233      36.893836      36.893836      36.893836    
    615000   0.099948784   -8.4292067     -8.2792856     -1.4599946      50218.233      36.893836      36.893836      36.893836    
    616000   0.10009316    -8.429187      -8.2790494     -1.4582218      50218.233      36.893836      36.893836      36.893836    
    617000   0.1003042     -8.4290153     -8.2785612     -1.4590966      50218.233      36.893836      36.893836      36.893836    
    618000   0.099771331   -8.4286784     -8.2790235     -1.4580223      50218.233      36.893836      36.893836      36.893836    
    619000   0.10003634    -8.429199      -8.2791466     -1.4618735      50218.233      36.893836      36.893836      36.893836    
    620000   0.099947272   -8.4291634     -8.2792447     -1.4587552      50218.233      36.893836      36.893836      36.893836    
    621000   0.10002626    -8.4283562     -8.278319      -1.450409       50218.233      36.893836      36.893836      36.893836    
    622000   0.10029057    -8.4291163     -8.2786825     -1.4550839      50218.233      36.893836      36.893836      36.893836    
    623000   0.09938723    -8.4286697     -8.279591      -1.4566312      50218.233      36.893836      36.893836      36.893836    
    624000   0.10008835    -8.4290921     -8.2789617     -1.4607026      50218.233      36.893836      36.893836      36.893836    
    625000   0.10044622    -8.4289648     -8.2782976     -1.4547976      50218.233      36.893836      36.893836      36.893836    
    626000   0.10000536    -8.429257      -8.2792511     -1.4594797      50218.233      36.893836      36.893836      36.893836    
    627000   0.10025279    -8.4287357     -8.2783586     -1.4505499      50218.233      36.893836      36.893836      36.893836    
    628000   0.099899404   -8.4292299     -8.2793829     -1.459282       50218.233      36.893836      36.893836      36.893836    
    629000   0.10039446    -8.429238      -8.2786485     -1.4565708      50218.233      36.893836      36.893836      36.893836    
    630000   0.099780256   -8.4283253     -8.278657      -1.448449       50218.233      36.893836      36.893836      36.893836    
    631000   0.099775771   -8.4284848     -8.2788233     -1.452957       50218.233      36.893836      36.893836      36.893836    
    632000   0.099958175   -8.4290494     -8.2791143     -1.456664       50218.233      36.893836      36.893836      36.893836    
    633000   0.099714068   -8.4282796     -8.2787106     -1.4516986      50218.233      36.893836      36.893836      36.893836    
    634000   0.10034048    -8.4292208     -8.2787122     -1.4554622      50218.233      36.893836      36.893836      36.893836    
    635000   0.099786289   -8.428369      -8.2786916     -1.4551744      50218.233      36.893836      36.893836      36.893836    
    636000   0.099672519   -8.4296315     -8.2801249     -1.4560622      50218.233      36.893836      36.893836      36.893836    
    637000   0.099930332   -8.4295909     -8.2796975     -1.4631205      50218.233      36.893836      36.893836      36.893836    
    638000   0.099677372   -8.4298809     -8.280367      -1.4649929      50218.233      36.893836      36.893836      36.893836    
    639000   0.099715161   -8.4300688     -8.2804982     -1.4603395      50218.233      36.893836      36.893836      36.893836    
    640000   0.10043151    -8.4297575     -8.2791124     -1.4635959      50218.233      36.893836      36.893836      36.893836    
    641000   0.099923812   -8.4299036     -8.28002       -1.4657839      50218.233      36.893836      36.893836      36.893836    
    642000   0.099813915   -8.4298585     -8.2801398     -1.4599703      50218.233      36.893836      36.893836      36.893836    
    643000   0.10001621    -8.4292116     -8.2791894     -1.4598643      50218.233      36.893836      36.893836      36.893836    
    644000   0.10028384    -8.4293168     -8.2788932     -1.4561154      50218.233      36.893836      36.893836      36.893836    
    645000   0.099632057   -8.4299577     -8.2805118     -1.4635347      50218.233      36.893836      36.893836      36.893836    
    646000   0.099663547   -8.4295457     -8.2800525     -1.4553868      50218.233      36.893836      36.893836      36.893836    
    647000   0.10049655    -8.4302347     -8.279492      -1.4674026      50218.233      36.893836      36.893836      36.893836    
    648000   0.10075896    -8.4300299     -8.2788936     -1.4647613      50218.233      36.893836      36.893836      36.893836    
    649000   0.10036968    -8.4300842     -8.2795318     -1.4594926      50218.233      36.893836      36.893836      36.893836    
    650000   0.099940034   -8.4303196     -8.2804117     -1.4678821      50218.233      36.893836      36.893836      36.893836    
    651000   0.099471182   -8.4306536     -8.2814489     -1.4683604      50218.233      36.893836      36.893836      36.893836    
    652000   0.099999028   -8.4299048     -8.2799084     -1.4648902      50218.233      36.893836      36.893836      36.893836    
    653000   0.099791468   -8.4299463     -8.2802612     -1.4682682      50218.233      36.893836      36.893836      36.893836    
    654000   0.10004431    -8.4308817     -8.2808174     -1.4667062      50218.233      36.893836      36.893836      36.893836    
    655000   0.099855123   -8.4303332     -8.2805527     -1.4712187      50218.233      36.893836      36.893836      36.893836    
    656000   0.099909975   -8.4304946     -8.2806318     -1.4675197      50218.233      36.893836      36.893836      36.893836    
    657000   0.10051967    -8.430051      -8.2792736     -1.4629991      50218.233      36.893836      36.893836      36.893836    
    658000   0.09977384    -8.4294578     -8.2797992     -1.4568417      50218.233      36.893836      36.893836      36.893836    
    659000   0.10029337    -8.4295377     -8.2790998     -1.4568669      50218.233      36.893836      36.893836      36.893836    
    660000   0.10062209    -8.429051      -8.27812       -1.4612141      50218.233      36.893836      36.893836      36.893836    
    661000   0.099887955   -8.4297703     -8.2799405     -1.461708       50218.233      36.893836      36.893836      36.893836    
    662000   0.099900683   -8.4294937     -8.2796448     -1.4620173      50218.233      36.893836      36.893836      36.893836    
    663000   0.099527027   -8.4300702     -8.2807818     -1.4682934      50218.233      36.893836      36.893836      36.893836    
    664000   0.10005969    -8.429728      -8.2796406     -1.4626587      50218.233      36.893836      36.893836      36.893836    
    665000   0.099772907   -8.4290951     -8.2794379     -1.4605741      50218.233      36.893836      36.893836      36.893836    
    666000   0.10013621    -8.429359      -8.2791569     -1.4575447      50218.233      36.893836      36.893836      36.893836    
    667000   0.099952409   -8.4292588     -8.2793323     -1.4590956      50218.233      36.893836      36.893836      36.893836    
    668000   0.10011234    -8.4288631     -8.2786968     -1.4546931      50218.233      36.893836      36.893836      36.893836    
    669000   0.10016581    -8.4285931     -8.2783465     -1.4533295      50218.233      36.893836      36.893836      36.893836    
    670000   0.10023964    -8.4282599     -8.2779026     -1.4504258      50218.233      36.893836      36.893836      36.893836    
    671000   0.10008356    -8.4286981     -8.2785748     -1.4542676      50218.233      36.893836      36.893836      36.893836    
    672000   0.099944024   -8.4286767     -8.2787628     -1.455999       50218.233      36.893836      36.893836      36.893836    
    673000   0.099804485   -8.4285126     -8.278808      -1.4531492      50218.233      36.893836      36.893836      36.893836    
    674000   0.099884226   -8.4288938     -8.2790696     -1.454019       50218.233      36.893836      36.893836      36.893836    
    675000   0.10046636    -8.4295241     -8.2788267     -1.4652484      50218.233      36.893836      36.893836      36.893836    
    676000   0.10066796    -8.4283878     -8.2773881     -1.4470535      50218.233      36.893836      36.893836      36.893836    
    677000   0.099811195   -8.4293267     -8.279612      -1.457722       50218.233      36.893836      36.893836      36.893836    
    678000   0.099875046   -8.4287499     -8.2789395     -1.4555068      50218.233      36.893836      36.893836      36.893836    
    679000   0.10003298    -8.4294075     -8.2793601     -1.4625302      50218.233      36.893836      36.893836      36.893836    
    680000   0.099819322   -8.4295358     -8.2798089     -1.4591057      50218.233      36.893836      36.893836      36.893836    
    681000   0.10036652    -8.428653      -8.2781054     -1.4516673      50218.233      36.893836      36.893836      36.893836    
    682000   0.099813603   -8.4288239     -8.2791056     -1.457331       50218.233      36.893836      36.893836      36.893836    
    683000   0.099714037   -8.428684      -8.2791151     -1.4573307      50218.233      36.893836      36.893836      36.893836    
    684000   0.099444268   -8.4284309     -8.2792666     -1.4506499      50218.233      36.893836      36.893836      36.893836    
    685000   0.099955622   -8.4293832     -8.2794519     -1.4630904      50218.233      36.893836      36.893836      36.893836    
    686000   0.10000199    -8.4298915     -8.2798907     -1.466859       50218.233      36.893836      36.893836      36.893836    
    687000   0.099788358   -8.4296801     -8.2799997     -1.463144       50218.233      36.893836      36.893836      36.893836    
    688000   0.10021125    -8.4293442     -8.2790294     -1.462729       50218.233      36.893836      36.893836      36.893836    
    689000   0.099639919   -8.4298132     -8.2803555     -1.46593        50218.233      36.893836      36.893836      36.893836    
    690000   0.10039425    -8.4291035     -8.2785143     -1.4573142      50218.233      36.893836      36.893836      36.893836    
    691000   0.10008725    -8.4299151     -8.2797864     -1.4697772      50218.233      36.893836      36.893836      36.893836    
    692000   0.10008358    -8.4301403     -8.2800171     -1.4653511      50218.233      36.893836      36.893836      36.893836    
    693000   0.099630247   -8.4303642     -8.2809209     -1.467723       50218.233      36.893836      36.893836      36.893836    
    694000   0.10021861    -8.4305048     -8.280179      -1.4698624      50218.233      36.893836      36.893836      36.893836    
    695000   0.099980105   -8.4299942     -8.2800261     -1.4623504      50218.233      36.893836      36.893836      36.893836    
    696000   0.099408942   -8.430755      -8.2816437     -1.4711935      50218.233      36.893836      36.893836      36.893836    
    697000   0.099847292   -8.4298499     -8.2800811     -1.4638489      50218.233      36.893836      36.893836      36.893836    
    698000   0.10069776    -8.4296264     -8.2785819     -1.4622734      50218.233      36.893836      36.893836      36.893836    
    699000   0.099963245   -8.4299957     -8.280053      -1.4646288      50218.233      36.893836      36.893836      36.893836    
    700000   0.09984931    -8.4304721     -8.2807003     -1.4732024      50218.233      36.893836      36.893836      36.893836    
    701000   0.10028848    -8.4295855     -8.2791549     -1.464995       50218.233      36.893836      36.893836      36.893836    
    702000   0.099795267   -8.4299659     -8.2802751     -1.4625807      50218.233      36.893836      36.893836      36.893836    
    703000   0.09971413    -8.429966      -8.280397      -1.4637215      50218.233      36.893836      36.893836      36.893836    
    704000   0.099651445   -8.430181      -8.280706      -1.4626292      50218.233      36.893836      36.893836      36.893836    
    705000   0.099993355   -8.429455      -8.2794671     -1.4604292      50218.233      36.893836      36.893836      36.893836    
    706000   0.099750968   -8.4299679     -8.2803436     -1.4675781      50218.233      36.893836      36.893836      36.893836    
    707000   0.099897037   -8.4301479     -8.2803045     -1.4693597      50218.233      36.893836      36.893836      36.893836    
    708000   0.099512347   -8.4299456     -8.2806792     -1.4646922      50218.233      36.893836      36.893836      36.893836    
    709000   0.10026245    -8.429929      -8.2795374     -1.4612556      50218.233      36.893836      36.893836      36.893836    
    710000   0.10073524    -8.4293188     -8.278218      -1.4560629      50218.233      36.893836      36.893836      36.893836    
    711000   0.10024825    -8.4293825     -8.2790122     -1.4613831      50218.233      36.893836      36.893836      36.893836    
    712000   0.10041225    -8.4298067     -8.2791904     -1.4691425      50218.233      36.893836      36.893836      36.893836    
    713000   0.10049031    -8.4288501     -8.2781167     -1.4554321      50218.233      36.893836      36.893836      36.893836    
    714000   0.10017236    -8.4287537     -8.2784973     -1.4538015      50218.233      36.893836      36.893836      36.893836    
    715000   0.10019207    -8.4294622     -8.2791763     -1.4591892      50218.233      36.893836      36.893836      36.893836    
    716000   0.099582581   -8.4278495     -8.2784777     -1.4497513      50218.233      36.893836      36.893836      36.893836    
    717000   0.10010632    -8.4300408     -8.2798835     -1.4633045      50218.233      36.893836      36.893836      36.893836    
    718000   0.099829291   -8.4283763     -8.2786345     -1.4508536      50218.233      36.893836      36.893836      36.893836    
    719000   0.099967187   -8.4280748     -8.2781261     -1.4475189      50218.233      36.893836      36.893836      36.893836    
    720000   0.099745078   -8.4292677     -8.2796522     -1.4576442      50218.233      36.893836      36.893836      36.893836    
    721000   0.099811079   -8.4292966     -8.2795821     -1.4597203      50218.233      36.893836      36.893836      36.893836    
    722000   0.099939914   -8.4285396     -8.2786318     -1.4518279      50218.233      36.893836      36.893836      36.893836    
    723000   0.10037915    -8.4288873     -8.2783207     -1.4515193      50218.233      36.893836      36.893836      36.893836    
    724000   0.099723681   -8.4284935     -8.2789101     -1.4526854      50218.233      36.893836      36.893836      36.893836    
    725000   0.10032589    -8.4286984     -8.2782117     -1.454731       50218.233      36.893836      36.893836      36.893836    
    726000   0.099660504   -8.4288987     -8.2794101     -1.4568158      50218.233      36.893836      36.893836      36.893836    
    727000   0.10020519    -8.4284874     -8.2781818     -1.4516477      50218.233      36.893836      36.893836      36.893836    
    728000   0.099391203   -8.4287524     -8.2796677     -1.4574379      50218.233      36.893836      36.893836      36.893836    
    729000   0.099833275   -8.4286201     -8.2788723     -1.4523678      50218.233      36.893836      36.893836      36.893836    
    730000   0.099982919   -8.4295201     -8.2795479     -1.4578084      50218.233      36.893836      36.893836      36.893836    
    731000   0.10031165    -8.4290769     -8.2786116     -1.4596595      50218.233      36.893836      36.893836      36.893836    
    732000   0.099750481   -8.4286729     -8.2790493     -1.4554226      50218.233      36.893836      36.893836      36.893836    
    733000   0.10005949    -8.428491      -8.2784039     -1.4516052      50218.233      36.893836      36.893836      36.893836    
    734000   0.10007679    -8.4299729     -8.2798598     -1.4592968      50218.233      36.893836      36.893836      36.893836    
    735000   0.099837661   -8.4287135     -8.2789592     -1.454903       50218.233      36.893836      36.893836      36.893836    
    736000   0.099785804   -8.4288165     -8.2791399     -1.4594906      50218.233      36.893836      36.893836      36.893836    
    737000   0.10014029    -8.4305292     -8.2803209     -1.4724495      50218.233      36.893836      36.893836      36.893836    
    738000   0.099707344   -8.4293448     -8.2797859     -1.4671606      50218.233      36.893836      36.893836      36.893836    
    739000   0.10003628    -8.4291053     -8.279053      -1.4591473      50218.233      36.893836      36.893836      36.893836    
    740000   0.10035577    -8.4295301     -8.2789986     -1.4606375      50218.233      36.893836      36.893836      36.893836    
    741000   0.099647453   -8.4303737     -8.2809047     -1.4654859      50218.233      36.893836      36.893836      36.893836    
    742000   0.099819008   -8.4298023     -8.2800759     -1.4610864      50218.233      36.893836      36.893836      36.893836    
    743000   0.10023703    -8.4299973     -8.2796439     -1.4626086      50218.233      36.893836      36.893836      36.893836    
    744000   0.10035508    -8.428884      -8.2783535     -1.450935       50218.233      36.893836      36.893836      36.893836    
    745000   0.10028297    -8.430609      -8.2801867     -1.467623       50218.233      36.893836      36.893836      36.893836    
    746000   0.099730506   -8.4291581     -8.2795645     -1.459272       50218.233      36.893836      36.893836      36.893836    
    747000   0.10031565    -8.4297659     -8.2792946     -1.4634962      50218.233      36.893836      36.893836      36.893836    
    748000   0.10012082    -8.4302399     -8.2800608     -1.4704043      50218.233      36.893836      36.893836      36.893836    
    749000   0.099845757   -8.4300811     -8.2803146     -1.4670229      50218.233      36.893836      36.893836      36.893836    
    750000   0.10002847    -8.4298234     -8.2797828     -1.4617676      50218.233      36.893836      36.893836      36.893836    
    751000   0.099385038   -8.4306812     -8.2816058     -1.4712694      50218.233      36.893836      36.893836      36.893836    
    752000   0.099793496   -8.4295554     -8.2798673     -1.4595926      50218.233      36.893836      36.893836      36.893836    
    753000   0.10027017    -8.4301167     -8.2797136     -1.466169       50218.233      36.893836      36.893836      36.893836    
    754000   0.10035049    -8.4305141     -8.2799905     -1.4709068      50218.233      36.893836      36.893836      36.893836    
    755000   0.099633393   -8.4304127     -8.2809647     -1.4715612      50218.233      36.893836      36.893836      36.893836    
    756000   0.10008239    -8.4299279     -8.2798064     -1.4621245      50218.233      36.893836      36.893836      36.893836    
    757000   0.10013606    -8.4295711     -8.2793692     -1.460141       50218.233      36.893836      36.893836      36.893836    
    758000   0.1000774     -8.4299508     -8.2798369     -1.4624562      50218.233      36.893836      36.893836      36.893836    
    759000   0.10033104    -8.430335      -8.2798406     -1.4579969      50218.233      36.893836      36.893836      36.893836    
    760000   0.099992123   -8.4305359     -8.2805498     -1.4640006      50218.233      36.893836      36.893836      36.893836    
    761000   0.10028569    -8.4296104     -8.279184      -1.4623572      50218.233      36.893836      36.893836      36.893836    
    762000   0.099690445   -8.4295488     -8.2800152     -1.4632746      50218.233      36.893836      36.893836      36.893836    
    763000   0.099858854   -8.4296592     -8.279873      -1.4629405      50218.233      36.893836      36.893836      36.893836    
    764000   0.099925445   -8.4295846     -8.2796986     -1.4637991      50218.233      36.893836      36.893836      36.893836    
    765000   0.09955387    -8.4294017     -8.280073      -1.4616648      50218.233      36.893836      36.893836      36.893836    
    766000   0.10057181    -8.4289102     -8.2780547     -1.4550862      50218.233      36.893836      36.893836      36.893836    
    767000   0.10007135    -8.4295755     -8.2794706     -1.4646136      50218.233      36.893836      36.893836      36.893836    
    768000   0.10004867    -8.4292948     -8.2792239     -1.4578822      50218.233      36.893836      36.893836      36.893836    
    769000   0.10035756    -8.4284542     -8.27792       -1.4519247      50218.233      36.893836      36.893836      36.893836    
    770000   0.10011628    -8.4289392     -8.278767      -1.4580911      50218.233      36.893836      36.893836      36.893836    
    771000   0.09970491    -8.4297977     -8.2802425     -1.4695978      50218.233      36.893836      36.893836      36.893836    
    772000   0.10035084    -8.4280195     -8.2774954     -1.4490043      50218.233      36.893836      36.893836      36.893836    
    773000   0.10025397    -8.4291888     -8.2788099     -1.4622764      50218.233      36.893836      36.893836      36.893836    
    774000   0.10034835    -8.4293432     -8.2788228     -1.4562821      50218.233      36.893836      36.893836      36.893836    
    775000   0.099519308   -8.429047      -8.2797701     -1.4642769      50218.233      36.893836      36.893836      36.893836    
    776000   0.10004518    -8.4282718     -8.2782061     -1.4551448      50218.233      36.893836      36.893836      36.893836    
    777000   0.099718357   -8.4284805     -8.2789051     -1.4571685      50218.233      36.893836      36.893836      36.893836    
    778000   0.099968917   -8.4289578     -8.2790066     -1.4537547      50218.233      36.893836      36.893836      36.893836    
    779000   0.10012602    -8.4290989     -8.278912      -1.4563332      50218.233      36.893836      36.893836      36.893836    
    780000   0.10050452    -8.4295238     -8.2787692     -1.4625225      50218.233      36.893836      36.893836      36.893836    
    781000   0.099647566   -8.4285487     -8.2790795     -1.4548318      50218.233      36.893836      36.893836      36.893836    
    782000   0.10021429    -8.4288654     -8.2785461     -1.4568636      50218.233      36.893836      36.893836      36.893836    
    783000   0.099643438   -8.4292652     -8.2798021     -1.462096       50218.233      36.893836      36.893836      36.893836    
    784000   0.099818874   -8.4290081     -8.2792819     -1.4577265      50218.233      36.893836      36.893836      36.893836    
    785000   0.099995536   -8.4287061     -8.2787149     -1.4587136      50218.233      36.893836      36.893836      36.893836    
    786000   0.10033177    -8.4292773     -8.2787818     -1.4545747      50218.233      36.893836      36.893836      36.893836    
    787000   0.10013168    -8.4298642     -8.2796688     -1.4609843      50218.233      36.893836      36.893836      36.893836    
    788000   0.10019778    -8.4285611     -8.2782666     -1.4486579      50218.233      36.893836      36.893836      36.893836    
    789000   0.099904789   -8.4294487     -8.2795937     -1.4614867      50218.233      36.893836      36.893836      36.893836    
    790000   0.099960349   -8.4295873     -8.2796489     -1.4585145      50218.233      36.893836      36.893836      36.893836    
    791000   0.10011773    -8.4300784     -8.2799039     -1.4638881      50218.233      36.893836      36.893836      36.893836    
    792000   0.10028736    -8.4295214     -8.2790925     -1.4579314      50218.233      36.893836      36.893836      36.893836    
    793000   0.10014188    -8.4303441     -8.2801335     -1.4700917      50218.233      36.893836      36.893836      36.893836    
    794000   0.10006026    -8.4302495     -8.2801613     -1.4665981      50218.233      36.893836      36.893836      36.893836    
    795000   0.10014253    -8.4298223     -8.2796106     -1.464339       50218.233      36.893836      36.893836      36.893836    
    796000   0.099965506   -8.4305838     -8.2806377     -1.4697972      50218.233      36.893836      36.893836      36.893836    
    797000   0.099912918   -8.4299591     -8.2800918     -1.4663806      50218.233      36.893836      36.893836      36.893836    
    798000   0.10009183    -8.4304089     -8.2802733     -1.4707832      50218.233      36.893836      36.893836      36.893836    
    799000   0.10049126    -8.4299968     -8.279262      -1.4645454      50218.233      36.893836      36.893836      36.893836    
    800000   0.0997821     -8.42993       -8.280259      -1.4640645      50218.233      36.893836      36.893836      36.893836    
    801000   0.099777858   -8.4305515     -8.2808868     -1.4726034      50218.233      36.893836      36.893836      36.893836    
    802000   0.10031978    -8.4303307     -8.2798532     -1.4646213      50218.233      36.893836      36.893836      36.893836    
    803000   0.099704559   -8.4300382     -8.2804835     -1.4685566      50218.233      36.893836      36.893836      36.893836    
    804000   0.10010754    -8.4299064     -8.2797472     -1.4651018      50218.233      36.893836      36.893836      36.893836    
    805000   0.099756241   -8.4302285     -8.2805963     -1.470368       50218.233      36.893836      36.893836      36.893836    
    806000   0.099936601   -8.4305246     -8.2806219     -1.4676748      50218.233      36.893836      36.893836      36.893836    
    807000   0.099982242   -8.4295583     -8.2795871     -1.4595834      50218.233      36.893836      36.893836      36.893836    
    808000   0.1004194     -8.4301691     -8.2795421     -1.4648737      50218.233      36.893836      36.893836      36.893836    
    809000   0.099776337   -8.4291656     -8.2795032     -1.4596733      50218.233      36.893836      36.893836      36.893836    
    810000   0.10019616    -8.4297285     -8.2794364     -1.4658147      50218.233      36.893836      36.893836      36.893836    
    811000   0.099394205   -8.4294608     -8.2803716     -1.4592128      50218.233      36.893836      36.893836      36.893836    
    812000   0.10012172    -8.4296773     -8.2794969     -1.4587136      50218.233      36.893836      36.893836      36.893836    
    813000   0.09973834    -8.4297283     -8.2801229     -1.4628414      50218.233      36.893836      36.893836      36.893836    
    814000   0.1002687     -8.4302072     -8.2798063     -1.4644933      50218.233      36.893836      36.893836      36.893836    
    815000   0.099760475   -8.4287005     -8.2790619     -1.4579453      50218.233      36.893836      36.893836      36.893836    
    816000   0.10031135    -8.4292247     -8.2787598     -1.4548891      50218.233      36.893836      36.893836      36.893836    
    817000   0.099928923   -8.429386      -8.2794948     -1.4588399      50218.233      36.893836      36.893836      36.893836    
    818000   0.10005207    -8.4295657     -8.2794897     -1.4564645      50218.233      36.893836      36.893836      36.893836    
    819000   0.099719799   -8.4285249     -8.2789473     -1.4573094      50218.233      36.893836      36.893836      36.893836    
    820000   0.10005765    -8.4288786     -8.2787943     -1.4531364      50218.233      36.893836      36.893836      36.893836    
    821000   0.10019948    -8.4280283     -8.2777312     -1.448259       50218.233      36.893836      36.893836      36.893836    
    822000   0.10011243    -8.4288658     -8.2786993     -1.4554467      50218.233      36.893836      36.893836      36.893836    
    823000   0.099957967   -8.428934      -8.2789992     -1.4532436      50218.233      36.893836      36.893836      36.893836    
    824000   0.099579881   -8.4284723     -8.2791046     -1.4548862      50218.233      36.893836      36.893836      36.893836    
    825000   0.10001802    -8.4280164     -8.2779915     -1.4462748      50218.233      36.893836      36.893836      36.893836    
    826000   0.10041636    -8.4276877     -8.2770653     -1.4446025      50218.233      36.893836      36.893836      36.893836    
    827000   0.10017376    -8.4291479     -8.2788894     -1.46056        50218.233      36.893836      36.893836      36.893836    
    828000   0.10001433    -8.4286864     -8.278667      -1.4543168      50218.233      36.893836      36.893836      36.893836    
    829000   0.099992794   -8.4271913     -8.2772043     -1.4493569      50218.233      36.893836      36.893836      36.893836    
    830000   0.099595799   -8.428402      -8.2790105     -1.4552092      50218.233      36.893836      36.893836      36.893836    
    831000   0.099576849   -8.4289962     -8.2796331     -1.4564373      50218.233      36.893836      36.893836      36.893836    
    832000   0.099447831   -8.4285286     -8.279359      -1.4528483      50218.233      36.893836      36.893836      36.893836    
    833000   0.099783282   -8.4284814     -8.2788086     -1.4506937      50218.233      36.893836      36.893836      36.893836    
    834000   0.10035049    -8.4287467     -8.2782231     -1.4514838      50218.233      36.893836      36.893836      36.893836    
    835000   0.099927204   -8.4301475     -8.2802589     -1.4601093      50218.233      36.893836      36.893836      36.893836    
    836000   0.10048586    -8.4303136     -8.2795869     -1.4655885      50218.233      36.893836      36.893836      36.893836    
    837000   0.099526116   -8.429323      -8.2800359     -1.4652553      50218.233      36.893836      36.893836      36.893836    
    838000   0.10028871    -8.4288053     -8.2783744     -1.4536992      50218.233      36.893836      36.893836      36.893836    
    839000   0.099698359   -8.4289279     -8.2793825     -1.456763       50218.233      36.893836      36.893836      36.893836    
    840000   0.10013975    -8.4294092     -8.2792017     -1.4553965      50218.233      36.893836      36.893836      36.893836    
    841000   0.098877721   -8.4295407     -8.2812262     -1.4626742      50218.233      36.893836      36.893836      36.893836    
    842000   0.099999036   -8.4294928     -8.2794964     -1.462125       50218.233      36.893836      36.893836      36.893836    
    843000   0.099582751   -8.4305256     -8.2811536     -1.4687254      50218.233      36.893836      36.893836      36.893836    
    844000   0.099754621   -8.4299166     -8.2802868     -1.4629107      50218.233      36.893836      36.893836      36.893836    
    845000   0.1005963     -8.4302259     -8.2793336     -1.462535       50218.233      36.893836      36.893836      36.893836    
    846000   0.099930333   -8.4299848     -8.2800915     -1.4613278      50218.233      36.893836      36.893836      36.893836    
    847000   0.099958137   -8.4298186     -8.2798835     -1.463194       50218.233      36.893836      36.893836      36.893836    
    848000   0.10009744    -8.4284461     -8.278302      -1.4560323      50218.233      36.893836      36.893836      36.893836    
    849000   0.099808109   -8.4300998     -8.2803898     -1.4672883      50218.233      36.893836      36.893836      36.893836    
    850000   0.10016079    -8.4300108     -8.2797717     -1.4639473      50218.233      36.893836      36.893836      36.893836    
    851000   0.099677308   -8.4307615     -8.2812477     -1.4736952      50218.233      36.893836      36.893836      36.893836    
    852000   0.10049845    -8.4300399     -8.2792944     -1.4673125      50218.233      36.893836      36.893836      36.893836    
    853000   0.099777859   -8.4292235     -8.2795588     -1.4587071      50218.233      36.893836      36.893836      36.893836    
    854000   0.099837983   -8.4296834     -8.2799286     -1.4637444      50218.233      36.893836      36.893836      36.893836    
    855000   0.09969771    -8.4303135     -8.2807691     -1.4697175      50218.233      36.893836      36.893836      36.893836    
    856000   0.099883083   -8.4297682     -8.2799458     -1.4618978      50218.233      36.893836      36.893836      36.893836    
    857000   0.099706709   -8.4302247     -8.2806668     -1.4707465      50218.233      36.893836      36.893836      36.893836    
    858000   0.099253547   -8.429812      -8.2809338     -1.4635704      50218.233      36.893836      36.893836      36.893836    
    859000   0.10021934    -8.4299927     -8.2796659     -1.4625782      50218.233      36.893836      36.893836      36.893836    
    860000   0.10045715    -8.4291507     -8.2784671     -1.4585824      50218.233      36.893836      36.893836      36.893836    
    861000   0.1001417     -8.4298622     -8.2796518     -1.4630584      50218.233      36.893836      36.893836      36.893836    
    862000   0.099893667   -8.4291312     -8.2792928     -1.4549344      50218.233      36.893836      36.893836      36.893836    
    863000   0.10032807    -8.4290641     -8.2785741     -1.4598073      50218.233      36.893836      36.893836      36.893836    
    864000   0.10045277    -8.4292131     -8.278536      -1.4586213      50218.233      36.893836      36.893836      36.893836    
    865000   0.10011921    -8.4298165     -8.2796398     -1.4640108      50218.233      36.893836      36.893836      36.893836    
    866000   0.099460475   -8.4289577     -8.2797691     -1.4579912      50218.233      36.893836      36.893836      36.893836    
    867000   0.10000745    -8.4284125     -8.2784035     -1.4585949      50218.233      36.893836      36.893836      36.893836    
    868000   0.099814542   -8.4296679     -8.2799482     -1.46323        50218.233      36.893836      36.893836      36.893836    
    869000   0.10038629    -8.4291966     -8.2786193     -1.4600614      50218.233      36.893836      36.893836      36.893836    
    870000   0.10033853    -8.428105      -8.2775993     -1.4520775      50218.233      36.893836      36.893836      36.893836    
    871000   0.099956419   -8.428448      -8.2785155     -1.4484385      50218.233      36.893836      36.893836      36.893836    
    872000   0.10032825    -8.4291952     -8.2787049     -1.4487881      50218.233      36.893836      36.893836      36.893836    
    873000   0.099912737   -8.4287154     -8.2788484     -1.4564603      50218.233      36.893836      36.893836      36.893836    
    874000   0.099946053   -8.4284977     -8.2785808     -1.4488902      50218.233      36.893836      36.893836      36.893836    
    875000   0.10068725    -8.4290256     -8.2779969     -1.4530002      50218.233      36.893836      36.893836      36.893836    
    876000   0.10026208    -8.4288011     -8.2784101     -1.4540121      50218.233      36.893836      36.893836      36.893836    
    877000   0.1000311     -8.4276623     -8.2776178     -1.4468688      50218.233      36.893836      36.893836      36.893836    
    878000   0.10039569    -8.4286948     -8.2781034     -1.4569534      50218.233      36.893836      36.893836      36.893836    
    879000   0.099755623   -8.4291518     -8.2795205     -1.459103       50218.233      36.893836      36.893836      36.893836    
    880000   0.099573559   -8.4291362     -8.279778      -1.4578031      50218.233      36.893836      36.893836      36.893836    
    881000   0.10024117    -8.4291084     -8.2787488     -1.4595424      50218.233      36.893836      36.893836      36.893836    
    882000   0.10015967    -8.4285419     -8.2783046     -1.452743       50218.233      36.893836      36.893836      36.893836    
    883000   0.10039698    -8.42933       -8.2787366     -1.4572125      50218.233      36.893836      36.893836      36.893836    
    884000   0.099826099   -8.4302272     -8.2804902     -1.4708078      50218.233      36.893836      36.893836      36.893836    
    885000   0.10010523    -8.4292135     -8.2790578     -1.4553729      50218.233      36.893836      36.893836      36.893836    
    886000   0.10052573    -8.4293194     -8.278533      -1.4570483      50218.233      36.893836      36.893836      36.893836    
    887000   0.099619156   -8.4296914     -8.2802648     -1.4637513      50218.233      36.893836      36.893836      36.893836    
    888000   0.099983418   -8.429914      -8.279941      -1.4683782      50218.233      36.893836      36.893836      36.893836    
    889000   0.099910973   -8.429683      -8.2798187     -1.4589187      50218.233      36.893836      36.893836      36.893836    
    890000   0.10002687    -8.4306873     -8.2806491     -1.4723221      50218.233      36.893836      36.893836      36.893836    
    891000   0.099876996   -8.4293196     -8.2795062     -1.4572638      50218.233      36.893836      36.893836      36.893836    
    892000   0.10051846    -8.4299474     -8.2791719     -1.4618829      50218.233      36.893836      36.893836      36.893836    
    893000   0.1004281     -8.4308408     -8.2802007     -1.4774619      50218.233      36.893836      36.893836      36.893836    
    894000   0.10032743    -8.4298093     -8.2793203     -1.4614887      50218.233      36.893836      36.893836      36.893836    
    895000   0.10030996    -8.4299144     -8.2794516     -1.4618515      50218.233      36.893836      36.893836      36.893836    
    896000   0.099936014   -8.4299937     -8.2800918     -1.4648029      50218.233      36.893836      36.893836      36.893836    
    897000   0.099888174   -8.4304553     -8.2806252     -1.4663606      50218.233      36.893836      36.893836      36.893836    
    898000   0.10031857    -8.4302437     -8.2797679     -1.4705467      50218.233      36.893836      36.893836      36.893836    
    899000   0.09994358    -8.4314241     -8.2815109     -1.4782607      50218.233      36.893836      36.893836      36.893836    
    900000   0.099627559   -8.4314948     -8.2820556     -1.4727733      50218.233      36.893836      36.893836      36.893836    
    901000   0.10057126    -8.4300859     -8.2792312     -1.4654279      50218.233      36.893836      36.893836      36.893836    
    902000   0.099397966   -8.4308698     -8.281775      -1.465769       50218.233      36.893836      36.893836      36.893836    
    903000   0.09999991    -8.4299083     -8.2799106     -1.4650801      50218.233      36.893836      36.893836      36.893836    
    904000   0.099736222   -8.4302184     -8.2806162     -1.4660766      50218.233      36.893836      36.893836      36.893836    
    905000   0.10012684    -8.429508      -8.2793199     -1.4588532      50218.233      36.893836      36.893836      36.893836    
    906000   0.10020836    -8.430534      -8.2802236     -1.464265       50218.233      36.893836      36.893836      36.893836    
    907000   0.10014069    -8.4296349     -8.279426      -1.4629984      50218.233      36.893836      36.893836      36.893836    
    908000   0.10010413    -8.4303153     -8.2801612     -1.4671597      50218.233      36.893836      36.893836      36.893836    
    909000   0.10034726    -8.4295243     -8.2790056     -1.4602909      50218.233      36.893836      36.893836      36.893836    
    910000   0.1000509     -8.4306579     -8.2805837     -1.4703179      50218.233      36.893836      36.893836      36.893836    
    911000   0.099766047   -8.4287976     -8.2791506     -1.4561906      50218.233      36.893836      36.893836      36.893836    
    912000   0.10004627    -8.4292942     -8.2792269     -1.4569587      50218.233      36.893836      36.893836      36.893836    
    913000   0.099818426   -8.4294984     -8.2797729     -1.4597103      50218.233      36.893836      36.893836      36.893836    
    914000   0.10019121    -8.4288678     -8.2785831     -1.4561057      50218.233      36.893836      36.893836      36.893836    
    915000   0.099648876   -8.429209      -8.2797378     -1.4554537      50218.233      36.893836      36.893836      36.893836    
    916000   0.10018182    -8.4286867     -8.2784161     -1.4578908      50218.233      36.893836      36.893836      36.893836    
    917000   0.09940878    -8.429107      -8.279996      -1.4563072      50218.233      36.893836      36.893836      36.893836    
    918000   0.10058097    -8.428815      -8.2779457     -1.4543161      50218.233      36.893836      36.893836      36.893836    
    919000   0.099935919   -8.4282848     -8.278383      -1.4487325      50218.233      36.893836      36.893836      36.893836    
    920000   0.10015849    -8.4288317     -8.2785961     -1.458633       50218.233      36.893836      36.893836      36.893836    
    921000   0.10036274    -8.4292313     -8.2786893     -1.4589232      50218.233      36.893836      36.893836      36.893836    
    922000   0.099670717   -8.4282492     -8.2787453     -1.4483383      50218.233      36.893836      36.893836      36.893836    
    923000   0.099974668   -8.4280646     -8.2781047     -1.4492713      50218.233      36.893836      36.893836      36.893836    
    924000   0.10056763    -8.4289424     -8.2780931     -1.4572725      50218.233      36.893836      36.893836      36.893836    
    925000   0.099109874   -8.4289536     -8.2802909     -1.4597123      50218.233      36.893836      36.893836      36.893836    
    926000   0.099923993   -8.4285164     -8.2786325     -1.4520338      50218.233      36.893836      36.893836      36.893836    
    927000   0.099878905   -8.4292965     -8.2794802     -1.4617484      50218.233      36.893836      36.893836      36.893836    
    928000   0.099537048   -8.4290964     -8.279793      -1.4574249      50218.233      36.893836      36.893836      36.893836    
    929000   0.09970525    -8.4283994     -8.2788436     -1.4454139      50218.233      36.893836      36.893836      36.893836    
    930000   0.099923243   -8.4288458     -8.2789631     -1.4590769      50218.233      36.893836      36.893836      36.893836    
    931000   0.10003021    -8.4280289     -8.2779857     -1.451665       50218.233      36.893836      36.893836      36.893836    
    932000   0.099932953   -8.4289058     -8.2790085     -1.4555224      50218.233      36.893836      36.893836      36.893836    
    933000   0.1002119     -8.4289969     -8.2786812     -1.4557729      50218.233      36.893836      36.893836      36.893836    
    934000   0.10029371    -8.4288037     -8.2783653     -1.4586412      50218.233      36.893836      36.893836      36.893836    
    935000   0.10025804    -8.4291339     -8.2787489     -1.4539379      50218.233      36.893836      36.893836      36.893836    
    936000   0.099735571   -8.4291193     -8.2795181     -1.4600223      50218.233      36.893836      36.893836      36.893836    
    937000   0.099496123   -8.4296986     -8.2804565     -1.4628003      50218.233      36.893836      36.893836      36.893836    
    938000   0.099772389   -8.4297025     -8.280046      -1.4611154      50218.233      36.893836      36.893836      36.893836    
    939000   0.099799279   -8.4299317     -8.2802349     -1.4601973      50218.233      36.893836      36.893836      36.893836    
    940000   0.10038914    -8.4294374     -8.2788558     -1.4575188      50218.233      36.893836      36.893836      36.893836    
    941000   0.10042268    -8.4299477     -8.2793158     -1.4661561      50218.233      36.893836      36.893836      36.893836    
    942000   0.099775551   -8.429502      -8.2798408     -1.4611399      50218.233      36.893836      36.893836      36.893836    
    943000   0.10024809    -8.4299413     -8.2795713     -1.4637732      50218.233      36.893836      36.893836      36.893836    
    944000   0.099946913   -8.429991      -8.2800728     -1.4636856      50218.233      36.893836      36.893836      36.893836    
    945000   0.10019798    -8.4303097     -8.2800148     -1.4622321      50218.233      36.893836      36.893836      36.893836    
    946000   0.099890381   -8.4296181     -8.2797847     -1.4652439      50218.233      36.893836      36.893836      36.893836    
    947000   0.10017133    -8.4305156     -8.2802608     -1.4672467      50218.233      36.893836      36.893836      36.893836    
    948000   0.10021732    -8.4301733     -8.2798495     -1.4677428      50218.233      36.893836      36.893836      36.893836    
    949000   0.10013882    -8.4302879     -8.2800818     -1.4686277      50218.233      36.893836      36.893836      36.893836    
    950000   0.099831348   -8.4309628     -8.2812179     -1.476678       50218.233      36.893836      36.893836      36.893836    
    951000   0.10004358    -8.4301836     -8.2801204     -1.4652218      50218.233      36.893836      36.893836      36.893836    
    952000   0.099864798   -8.4305351     -8.2807401     -1.4735882      50218.233      36.893836      36.893836      36.893836    
    953000   0.10011963    -8.4303046     -8.2801273     -1.4707262      50218.233      36.893836      36.893836      36.893836    
    954000   0.100169      -8.4295362     -8.2792849     -1.4571658      50218.233      36.893836      36.893836      36.893836    
    955000   0.099927555   -8.4300223     -8.2801331     -1.4664933      50218.233      36.893836      36.893836      36.893836    
    956000   0.099950848   -8.4296154     -8.2796913     -1.4636517      50218.233      36.893836      36.893836      36.893836    
    957000   0.10006372    -8.4296149     -8.2795215     -1.4660873      50218.233      36.893836      36.893836      36.893836    
    958000   0.099803133   -8.4303752     -8.2806726     -1.4670725      50218.233      36.893836      36.893836      36.893836    
    959000   0.10029311    -8.4299194     -8.2794819     -1.4590478      50218.233      36.893836      36.893836      36.893836    
    960000   0.099977368   -8.4301616     -8.2801977     -1.4615909      50218.233      36.893836      36.893836      36.893836    
    961000   0.099948524   -8.4294821     -8.2795615     -1.4635408      50218.233      36.893836      36.893836      36.893836    
    962000   0.10002169    -8.4292972     -8.2792668     -1.462045       50218.233      36.893836      36.893836      36.893836    
    963000   0.10008363    -8.4289615     -8.2788382     -1.4554735      50218.233      36.893836      36.893836      36.893836    
    964000   0.099780803   -8.4290498     -8.2793807     -1.4606674      50218.233      36.893836      36.893836      36.893836    
    965000   0.0999907     -8.4301099     -8.280126      -1.4674835      50218.233      36.893836      36.893836      36.893836    
    966000   0.10030489    -8.4290937     -8.2786385     -1.4604812      50218.233      36.893836      36.893836      36.893836    
    967000   0.10001042    -8.4293616     -8.2793481     -1.4554933      50218.233      36.893836      36.893836      36.893836    
    968000   0.1000705     -8.4285904     -8.2784868     -1.4536908      50218.233      36.893836      36.893836      36.893836    
    969000   0.099473637   -8.4296901     -8.2804817     -1.4644333      50218.233      36.893836      36.893836      36.893836    
    970000   0.10058865    -8.4291589     -8.2782781     -1.4614111      50218.233      36.893836      36.893836      36.893836    
    971000   0.10034489    -8.4290423     -8.2785271     -1.4605163      50218.233      36.893836      36.893836      36.893836    
    972000   0.099252012   -8.4291075     -8.2802316     -1.4582191      50218.233      36.893836      36.893836      36.893836    
    973000   0.099933238   -8.4284499     -8.2785522     -1.4551601      50218.233      36.893836      36.893836      36.893836    
    974000   0.099985181   -8.4280265     -8.2780508     -1.4528747      50218.233      36.893836      36.893836      36.893836    
    975000   0.1006917     -8.4280441     -8.2770087     -1.4471614      50218.233      36.893836      36.893836      36.893836    
    976000   0.10004669    -8.4286944     -8.2786265     -1.4628463      50218.233      36.893836      36.893836      36.893836    
    977000   0.099830725   -8.4287412     -8.2789972     -1.4601423      50218.233      36.893836      36.893836      36.893836    
    978000   0.099367411   -8.4276637     -8.2786147     -1.4506891      50218.233      36.893836      36.893836      36.893836    
    979000   0.10048951    -8.4286553     -8.2779231     -1.4573664      50218.233      36.893836      36.893836      36.893836    
    980000   0.099430124   -8.4283037     -8.2791607     -1.4542145      50218.233      36.893836      36.893836      36.893836    
    981000   0.10050286    -8.4281388     -8.2773867     -1.4479164      50218.233      36.893836      36.893836      36.893836    
    982000   0.099611897   -8.4289624     -8.2795466     -1.458863       50218.233      36.893836      36.893836      36.893836    
    983000   0.099991179   -8.4281611     -8.2781764     -1.4506904      50218.233      36.893836      36.893836      36.893836    
    984000   0.10039482    -8.4291444     -8.2785543     -1.4620407      50218.233      36.893836      36.893836      36.893836    
    985000   0.099638827   -8.4295246     -8.2800684     -1.460079       50218.233      36.893836      36.893836      36.893836    
    986000   0.099824592   -8.4301772     -8.2804424     -1.4713757      50218.233      36.893836      36.893836      36.893836    
    987000   0.099880175   -8.4290514     -8.2792333     -1.4610695      50218.233      36.893836      36.893836      36.893836    
    988000   0.099711033   -8.4303067     -8.2807423     -1.4675395      50218.233      36.893836      36.893836      36.893836    
    989000   0.10000023    -8.4290426     -8.2790444     -1.4589182      50218.233      36.893836      36.893836      36.893836    
    990000   0.10001367    -8.4289352     -8.2789168     -1.4584501      50218.233      36.893836      36.893836      36.893836    
    991000   0.099839817   -8.4293983     -8.2796407     -1.4623707      50218.233      36.893836      36.893836      36.893836    
    992000   0.10021075    -8.4301874     -8.2798734     -1.4658163      50218.233      36.893836      36.893836      36.893836    
    993000   0.1001378     -8.429456      -8.2792514     -1.4562315      50218.233      36.893836      36.893836      36.893836    
    994000   0.10039045    -8.4294946     -8.2789111     -1.4598877      50218.233      36.893836      36.893836      36.893836    
    995000   0.099657619   -8.4307852     -8.2813009     -1.4733325      50218.233      36.893836      36.893836      36.893836    
    996000   0.09973274    -8.4306236     -8.2810266     -1.4722688      50218.233      36.893836      36.893836      36.893836    
    997000   0.099745785   -8.4300926     -8.280476      -1.4663311      50218.233      36.893836      36.893836      36.893836    
    998000   0.10047255    -8.4305625     -8.2798558     -1.4670872      50218.233      36.893836      36.893836      36.893836    
    999000   0.10014053    -8.4301721     -8.2799634     -1.461021       50218.233      36.893836      36.893836      36.893836    
   1000000   0.10038469    -8.4308036     -8.2802288     -1.4773527      50218.233      36.893836      36.893836      36.893836    
Loop time of 1415.49 on 4 procs for 1000000 steps with 70304 atoms

Performance: 610390.977 tau/day, 706.471 timesteps/s, 49.668 Matom-step/s
95.1% CPU use with 4 MPI tasks x 1 OpenMP threads

MPI task timing breakdown:
Section |  min time  |  avg time  |  max time  |%varavg| %total
---------------------------------------------------------------
Pair    | 406.06     | 457.84     | 508.43     | 208.7 | 32.35
Neigh   | 2.7713     | 2.9631     | 3.1912     |   8.9 |  0.21
Comm    | 185.94     | 189.28     | 192.09     |  16.2 | 13.37
Output  | 0.19893    | 0.21298    | 0.24687    |   4.3 |  0.02
Modify  | 637.09     | 688.79     | 740.62     | 168.9 | 48.66
Other   |            | 76.39      |            |       |  5.40

Nlocal:          17576 ave       17642 max       17537 min
Histogram: 1 1 1 0 0 0 0 0 0 1
Nghost:        16808.5 ave       16852 max       16782 min
Histogram: 2 0 0 0 0 1 0 0 0 1
Neighs:              0 ave           0 max           0 min
Histogram: 4 0 0 0 0 0 0 0 0 0

Total # of neighbors = 0
Ave neighs/atom = 0
Neighbor list builds = 88556
Dangerous builds = 0
Total wall time: 11:12:01
