variable TLJ equal (${T}/1000)
variable TLJ equal (360/1000)
variable NCyle equal 10
variable iStep equal (${f})
variable iStep equal (1000)
variable dumpStep equal (${f}*100)
variable dumpStep equal (1000*100)
variable runStep equal (${f}*100*${NCyle})
variable runStep equal (1000*100*${NCyle})
variable runStep equal (1000*100*10)

units       lj
atom_style  atomic
dimension 3
boundary     p p p
pair_style  lj/cut 2.5
read_data  ../data/T${T}.dat
read_data  ../data/T360.dat
Reading data file ...
  orthogonal box = (0.97250269 0.97250269 0.97250269) to (37.866338 37.866338 37.866338)
  1 by 2 by 2 MPI processor grid
  reading atoms ...
  70304 atoms
  reading velocities ...
  70304 velocities
  read_data CPU = 0.190 seconds
change_box all triclinic
Changing box ...
  triclinic box = (0.97250269 0.97250269 0.97250269) to (37.866338 37.866338 37.866338) with tilt (0 0 0)
mass 1 1
mass 2 1
pair_modify shift yes
pair_coeff  1 1 1 1
pair_coeff  1 2 1.5 0.8
pair_coeff  2 2 0.5 0.88


timestep 0.01
thermo ${iStep}
thermo 1000
reset_timestep 0
thermo_style custom step temp pe etotal press vol lx ly lz
fix             1 all nvt temp ${TLJ}  ${TLJ}  0.1
fix             1 all nvt temp 0.36  ${TLJ}  0.1
fix             1 all nvt temp 0.36  0.36  0.1
thermo_modify flush yes

fix dsf all deform 1 xy  wiggle 0.5  ${f}   units box
fix dsf all deform 1 xy  wiggle 0.5  1000   units box
fix ps1 all ave/time 1 1 ${iStep} c_thermo_press[1] c_thermo_press[2]  c_thermo_press[3] c_thermo_press[4]  c_thermo_press[5] c_thermo_press[6]  file  stress.${T}
fix ps1 all ave/time 1 1 1000 c_thermo_press[1] c_thermo_press[2]  c_thermo_press[3] c_thermo_press[4]  c_thermo_press[5] c_thermo_press[6]  file  stress.${T}
fix ps1 all ave/time 1 1 1000 c_thermo_press[1] c_thermo_press[2]  c_thermo_press[3] c_thermo_press[4]  c_thermo_press[5] c_thermo_press[6]  file  stress.360
dump            1 all custom ${dumpStep} dump.${T} id type x y z
dump            1 all custom 100000 dump.${T} id type x y z
dump            1 all custom 100000 dump.360 id type x y z
dump_modify 1 sort id
fix nodrift all momentum 1  linear 1 1 1
fix com_seed all recenter INIT INIT INIT shift all
run ${runStep}
run 1000000
Generated 0 of 1 mixed pair_coeff terms from geometric mixing rule
Per MPI rank memory allocation (min/avg/max) = 8.611 | 8.613 | 8.616 Mbytes
   Step          Temp          PotEng         TotEng         Press          Volume           Lx             Ly             Lz      
         0   0.35912937    -8.0525643     -7.5138779      1.7071269      50218.233      36.893836      36.893836      36.893836    
      1000   0.36071149    -8.0500377     -7.5089782      1.7241573      50218.233      36.893836      36.893836      36.893836    
      2000   0.36044749    -8.0502216     -7.5095581      1.7288745      50218.233      36.893836      36.893836      36.893836    
      3000   0.36143798    -8.0475197     -7.5053704      1.7468565      50218.233      36.893836      36.893836      36.893836    
      4000   0.36012474    -8.0490643     -7.5088849      1.7299299      50218.233      36.893836      36.893836      36.893836    
      5000   0.36060634    -8.0476403     -7.5067385      1.7385571      50218.233      36.893836      36.893836      36.893836    
      6000   0.36126547    -8.048219      -7.5063285      1.744045       50218.233      36.893836      36.893836      36.893836    
      7000   0.35876811    -8.0459882     -7.5078437      1.7585344      50218.233      36.893836      36.893836      36.893836    
      8000   0.35881438    -8.0517157     -7.5135018      1.7106068      50218.233      36.893836      36.893836      36.893836    
      9000   0.36075524    -8.0482651     -7.5071399      1.7372412      50218.233      36.893836      36.893836      36.893836    
     10000   0.35932178    -8.0487859     -7.5098109      1.731492       50218.233      36.893836      36.893836      36.893836    
     11000   0.35994788    -8.0490647     -7.5091505      1.7241711      50218.233      36.893836      36.893836      36.893836    
     12000   0.36066928    -8.0484746     -7.5074784      1.7304145      50218.233      36.893836      36.893836      36.893836    
     13000   0.35964806    -8.0483792     -7.5089147      1.7291676      50218.233      36.893836      36.893836      36.893836    
     14000   0.36111086    -8.0447484     -7.5030898      1.765044       50218.233      36.893836      36.893836      36.893836    
     15000   0.35987135    -8.0466127     -7.5068133      1.7501232      50218.233      36.893836      36.893836      36.893836    
     16000   0.3611656     -8.046574      -7.5048333      1.7562194      50218.233      36.893836      36.893836      36.893836    
     17000   0.36030913    -8.0461618     -7.5057058      1.7551485      50218.233      36.893836      36.893836      36.893836    
     18000   0.36127078    -8.0462672     -7.5043687      1.7500462      50218.233      36.893836      36.893836      36.893836    
     19000   0.35908686    -8.0493181     -7.5106955      1.7283038      50218.233      36.893836      36.893836      36.893836    
     20000   0.35829535    -8.0461396     -7.5087042      1.7491506      50218.233      36.893836      36.893836      36.893836    
     21000   0.36203229    -8.0445692     -7.5015285      1.7662         50218.233      36.893836      36.893836      36.893836    
     22000   0.36031024    -8.0453194     -7.5048617      1.7536281      50218.233      36.893836      36.893836      36.893836    
     23000   0.35905521    -8.0506228     -7.5120476      1.7183894      50218.233      36.893836      36.893836      36.893836    
     24000   0.35794239    -8.046011      -7.5091051      1.7437348      50218.233      36.893836      36.893836      36.893836    
     25000   0.36058765    -8.0474322     -7.5065585      1.7440974      50218.233      36.893836      36.893836      36.893836    
     26000   0.35984742    -8.0447027     -7.5049393      1.7625955      50218.233      36.893836      36.893836      36.893836    
     27000   0.35802719    -8.0480162     -7.5109831      1.7363529      50218.233      36.893836      36.893836      36.893836    
     28000   0.35970612    -8.0465812     -7.5070297      1.7572896      50218.233      36.893836      36.893836      36.893836    
     29000   0.36090797    -8.0443637     -7.5030094      1.771153       50218.233      36.893836      36.893836      36.893836    
     30000   0.35820037    -8.0443126     -7.5070196      1.7668173      50218.233      36.893836      36.893836      36.893836    
     31000   0.36098921    -8.0474819     -7.5060058      1.745935       50218.233      36.893836      36.893836      36.893836    
     32000   0.3610345     -8.0455967     -7.5040526      1.7569857      50218.233      36.893836      36.893836      36.893836    
     33000   0.36066821    -8.0489774     -7.5079827      1.7438115      50218.233      36.893836      36.893836      36.893836    
     34000   0.35880098    -8.0452559     -7.5070621      1.7586634      50218.233      36.893836      36.893836      36.893836    
     35000   0.36051083    -8.0468328     -7.5060742      1.7549733      50218.233      36.893836      36.893836      36.893836    
     36000   0.35834966    -8.0465178     -7.509001       1.7434605      50218.233      36.893836      36.893836      36.893836    
     37000   0.35961291    -8.0487842     -7.5093725      1.729428       50218.233      36.893836      36.893836      36.893836    
     38000   0.35994724    -8.0473028     -7.5073896      1.7454053      50218.233      36.893836      36.893836      36.893836    
     39000   0.35893616    -8.0459065     -7.5075099      1.7475807      50218.233      36.893836      36.893836      36.893836    
     40000   0.35940938    -8.0478861     -7.5087797      1.7381557      50218.233      36.893836      36.893836      36.893836    
     41000   0.3590492     -8.0472432     -7.508677       1.7495068      50218.233      36.893836      36.893836      36.893836    
     42000   0.36156301    -8.0498775     -7.5075407      1.7284634      50218.233      36.893836      36.893836      36.893836    
     43000   0.35948244    -8.0486331     -7.5094171      1.7327998      50218.233      36.893836      36.893836      36.893836    
     44000   0.35796627    -8.0495632     -7.5126215      1.7264617      50218.233      36.893836      36.893836      36.893836    
     45000   0.35843063    -8.0472593     -7.509621       1.7381865      50218.233      36.893836      36.893836      36.893836    
     46000   0.36367026    -8.0455868     -7.5000891      1.7510331      50218.233      36.893836      36.893836      36.893836    
     47000   0.35800925    -8.0482527     -7.5112465      1.7340149      50218.233      36.893836      36.893836      36.893836    
     48000   0.36005872    -8.0485635     -7.5084831      1.7355969      50218.233      36.893836      36.893836      36.893836    
     49000   0.36032428    -8.0502271     -7.5097484      1.7218864      50218.233      36.893836      36.893836      36.893836    
     50000   0.35948885    -8.0492883     -7.5100627      1.7249979      50218.233      36.893836      36.893836      36.893836    
     51000   0.3605338     -8.0485434     -7.5077504      1.7379747      50218.233      36.893836      36.893836      36.893836    
     52000   0.3609277     -8.0479423     -7.5065585      1.7341147      50218.233      36.893836      36.893836      36.893836    
     53000   0.3594155     -8.0476298     -7.5085142      1.7418059      50218.233      36.893836      36.893836      36.893836    
     54000   0.35993666    -8.0504626     -7.5105653      1.7245541      50218.233      36.893836      36.893836      36.893836    
     55000   0.36044282    -8.0491592     -7.5085026      1.7281067      50218.233      36.893836      36.893836      36.893836    
     56000   0.35990928    -8.0480558     -7.5081996      1.7428937      50218.233      36.893836      36.893836      36.893836    
     57000   0.36046248    -8.0474578     -7.5067718      1.7399708      50218.233      36.893836      36.893836      36.893836    
     58000   0.36151937    -8.049097      -7.5068256      1.7333544      50218.233      36.893836      36.893836      36.893836    
     59000   0.35967176    -8.0455655     -7.5060655      1.7595828      50218.233      36.893836      36.893836      36.893836    
     60000   0.36031149    -8.0475729     -7.5071133      1.7301799      50218.233      36.893836      36.893836      36.893836    
     61000   0.36050796    -8.0484435     -7.5076892      1.7230437      50218.233      36.893836      36.893836      36.893836    
     62000   0.3602672     -8.0467534     -7.5063603      1.7388988      50218.233      36.893836      36.893836      36.893836    
     63000   0.35775129    -8.0470904     -7.5104711      1.7384519      50218.233      36.893836      36.893836      36.893836    
     64000   0.35863557    -8.0502497     -7.5123039      1.7163291      50218.233      36.893836      36.893836      36.893836    
     65000   0.36046228    -8.0472809     -7.5065951      1.7486234      50218.233      36.893836      36.893836      36.893836    
     66000   0.35992295    -8.0438115     -7.5039348      1.7677438      50218.233      36.893836      36.893836      36.893836    
     67000   0.36110549    -8.0498224     -7.5081718      1.7307382      50218.233      36.893836      36.893836      36.893836    
     68000   0.3617934     -8.0496433     -7.5069609      1.7283776      50218.233      36.893836      36.893836      36.893836    
     69000   0.36166787    -8.0482831     -7.505789       1.7358697      50218.233      36.893836      36.893836      36.893836    
     70000   0.3586641     -8.0495829     -7.5115944      1.719998       50218.233      36.893836      36.893836      36.893836    
     71000   0.36009512    -8.0474656     -7.5073306      1.741024       50218.233      36.893836      36.893836      36.893836    
     72000   0.35926869    -8.0453196     -7.5064242      1.7606937      50218.233      36.893836      36.893836      36.893836    
     73000   0.36073481    -8.0468894     -7.5057949      1.7445053      50218.233      36.893836      36.893836      36.893836    
     74000   0.36065791    -8.046833      -7.5058538      1.7421235      50218.233      36.893836      36.893836      36.893836    
     75000   0.36128793    -8.046337      -7.5044128      1.7466467      50218.233      36.893836      36.893836      36.893836    
     76000   0.36097665    -8.0493436     -7.5078864      1.7239586      50218.233      36.893836      36.893836      36.893836    
     77000   0.35932503    -8.0468078     -7.5078279      1.7433553      50218.233      36.893836      36.893836      36.893836    
     78000   0.36149437    -8.0480043     -7.5057705      1.733403       50218.233      36.893836      36.893836      36.893836    
     79000   0.36084506    -8.0483111     -7.5070512      1.7302845      50218.233      36.893836      36.893836      36.893836    
     80000   0.35868657    -8.0523405     -7.5143183      1.7012723      50218.233      36.893836      36.893836      36.893836    
     81000   0.36071928    -8.0474258     -7.5063545      1.736223       50218.233      36.893836      36.893836      36.893836    
     82000   0.36192396    -8.0486127     -7.5057345      1.737771       50218.233      36.893836      36.893836      36.893836    
     83000   0.36020418    -8.046852      -7.5065534      1.7540769      50218.233      36.893836      36.893836      36.893836    
     84000   0.36043873    -8.0473671     -7.5067167      1.7447271      50218.233      36.893836      36.893836      36.893836    
     85000   0.36043672    -8.0494866     -7.5088392      1.7270513      50218.233      36.893836      36.893836      36.893836    
     86000   0.36065881    -8.0493326     -7.5083521      1.7234836      50218.233      36.893836      36.893836      36.893836    
     87000   0.36006368    -8.0462835     -7.5061956      1.7552009      50218.233      36.893836      36.893836      36.893836    
     88000   0.35926588    -8.0477323     -7.5088412      1.7378771      50218.233      36.893836      36.893836      36.893836    
     89000   0.36025009    -8.0523126     -7.5119452      1.7054955      50218.233      36.893836      36.893836      36.893836    
     90000   0.36040977    -8.0479135     -7.5073065      1.73975        50218.233      36.893836      36.893836      36.893836    
     91000   0.36078207    -8.0475412     -7.5063758      1.7377551      50218.233      36.893836      36.893836      36.893836    
     92000   0.36184306    -8.0495114     -7.5067545      1.7265004      50218.233      36.893836      36.893836      36.893836    
     93000   0.3593832     -8.0470295     -7.5079623      1.7489346      50218.233      36.893836      36.893836      36.893836    
     94000   0.36045884    -8.0514684     -7.5107879      1.7129601      50218.233      36.893836      36.893836      36.893836    
     95000   0.35934951    -8.0510614     -7.5120448      1.7175344      50218.233      36.893836      36.893836      36.893836    
     96000   0.36058079    -8.0483179     -7.5074544      1.7479529      50218.233      36.893836      36.893836      36.893836    
     97000   0.36113312    -8.050626      -7.508934       1.7226991      50218.233      36.893836      36.893836      36.893836    
     98000   0.35865052    -8.0477504     -7.5097823      1.7330924      50218.233      36.893836      36.893836      36.893836    
     99000   0.3602868     -8.0510305     -7.510608       1.705466       50218.233      36.893836      36.893836      36.893836    
    100000   0.35972867    -8.047225      -7.5076396      1.742928       50218.233      36.893836      36.893836      36.893836    
    101000   0.36162797    -8.0455926     -7.5031584      1.7584448      50218.233      36.893836      36.893836      36.893836    
    102000   0.36111063    -8.0466374     -7.5049792      1.7451114      50218.233      36.893836      36.893836      36.893836    
    103000   0.36042737    -8.0482025     -7.5075691      1.7393935      50218.233      36.893836      36.893836      36.893836    
    104000   0.35916995    -8.0463739     -7.5076266      1.7409669      50218.233      36.893836      36.893836      36.893836    
    105000   0.35952446    -8.0484651     -7.5091861      1.740218       50218.233      36.893836      36.893836      36.893836    
    106000   0.36078408    -8.0507134     -7.509545       1.7244542      50218.233      36.893836      36.893836      36.893836    
    107000   0.35917361    -8.047331      -7.5085782      1.7434758      50218.233      36.893836      36.893836      36.893836    
    108000   0.35855064    -8.0485844     -7.5107661      1.7348038      50218.233      36.893836      36.893836      36.893836    
    109000   0.35967155    -8.0497733     -7.5102736      1.7213619      50218.233      36.893836      36.893836      36.893836    
    110000   0.35794831    -8.0460034     -7.5090886      1.7454221      50218.233      36.893836      36.893836      36.893836    
    111000   0.36031045    -8.0449425     -7.5044845      1.7682787      50218.233      36.893836      36.893836      36.893836    
    112000   0.36141259    -8.0496574     -7.5075462      1.7370353      50218.233      36.893836      36.893836      36.893836    
    113000   0.36036896    -8.0475618     -7.507016       1.7346808      50218.233      36.893836      36.893836      36.893836    
    114000   0.3610557     -8.0485806     -7.5070047      1.7359432      50218.233      36.893836      36.893836      36.893836    
    115000   0.3601176     -8.0436498     -7.5034811      1.7642374      50218.233      36.893836      36.893836      36.893836    
    116000   0.35907571    -8.0470017     -7.5083958      1.743535       50218.233      36.893836      36.893836      36.893836    
    117000   0.3594346     -8.0467697     -7.5076255      1.7384087      50218.233      36.893836      36.893836      36.893836    
    118000   0.36104471    -8.0481727     -7.5066133      1.7362156      50218.233      36.893836      36.893836      36.893836    
    119000   0.3595532     -8.0478371     -7.508515       1.7338096      50218.233      36.893836      36.893836      36.893836    
    120000   0.36003644    -8.0509361     -7.5108891      1.709548       50218.233      36.893836      36.893836      36.893836    
    121000   0.35978393    -8.0490693     -7.5094011      1.7283638      50218.233      36.893836      36.893836      36.893836    
    122000   0.36276607    -8.0504542     -7.5063129      1.7271907      50218.233      36.893836      36.893836      36.893836    
    123000   0.36000022    -8.0455759     -7.5055832      1.755402       50218.233      36.893836      36.893836      36.893836    
    124000   0.35854902    -8.0486229     -7.510807       1.7300426      50218.233      36.893836      36.893836      36.893836    
    125000   0.36109471    -8.0474244     -7.50579        1.7400365      50218.233      36.893836      36.893836      36.893836    
    126000   0.35887849    -8.0474385     -7.5091284      1.7455472      50218.233      36.893836      36.893836      36.893836    
    127000   0.35956436    -8.0487178     -7.5093789      1.7341051      50218.233      36.893836      36.893836      36.893836    
    128000   0.36126881    -8.0461722     -7.5042767      1.7516801      50218.233      36.893836      36.893836      36.893836    
    129000   0.36126422    -8.0493448     -7.5074561      1.7327153      50218.233      36.893836      36.893836      36.893836    
    130000   0.36012802    -8.0488343     -7.5086499      1.7311621      50218.233      36.893836      36.893836      36.893836    
    131000   0.36063115    -8.0481803     -7.5072413      1.7285894      50218.233      36.893836      36.893836      36.893836    
    132000   0.35883688    -8.0446896     -7.5064419      1.7653872      50218.233      36.893836      36.893836      36.893836    
    133000   0.35942549    -8.0463803     -7.5072497      1.7486061      50218.233      36.893836      36.893836      36.893836    
    134000   0.35902095    -8.0469762     -7.5084524      1.7462607      50218.233      36.893836      36.893836      36.893836    
    135000   0.36083858    -8.0493643     -7.5081141      1.722652       50218.233      36.893836      36.893836      36.893836    
    136000   0.36065342    -8.0448025     -7.5038301      1.7595752      50218.233      36.893836      36.893836      36.893836    
    137000   0.35870929    -8.0474629     -7.5094066      1.732395       50218.233      36.893836      36.893836      36.893836    
    138000   0.3614711     -8.045682      -7.503483       1.7539327      50218.233      36.893836      36.893836      36.893836    
    139000   0.36226279    -8.046524      -7.5031375      1.7463549      50218.233      36.893836      36.893836      36.893836    
    140000   0.35740683    -8.0498739     -7.5137713      1.7149222      50218.233      36.893836      36.893836      36.893836    
    141000   0.35922283    -8.0479884     -7.5091618      1.7306658      50218.233      36.893836      36.893836      36.893836    
    142000   0.35974538    -8.0489002     -7.5092898      1.7269475      50218.233      36.893836      36.893836      36.893836    
    143000   0.35798077    -8.0503021     -7.5133386      1.7181655      50218.233      36.893836      36.893836      36.893836    
    144000   0.35958712    -8.0508431     -7.5114701      1.7105792      50218.233      36.893836      36.893836      36.893836    
    145000   0.35982582    -8.0494888     -7.5097577      1.728546       50218.233      36.893836      36.893836      36.893836    
    146000   0.36002721    -8.0486394     -7.5086063      1.7389724      50218.233      36.893836      36.893836      36.893836    
    147000   0.36094363    -8.0504136     -7.5090058      1.7230436      50218.233      36.893836      36.893836      36.893836    
    148000   0.35855074    -8.0504284     -7.5126099      1.7166743      50218.233      36.893836      36.893836      36.893836    
    149000   0.35912174    -8.0499496     -7.5112747      1.7208762      50218.233      36.893836      36.893836      36.893836    
    150000   0.35935431    -8.0503465     -7.5113227      1.7142608      50218.233      36.893836      36.893836      36.893836    
    151000   0.35956685    -8.0491789     -7.5098362      1.7312768      50218.233      36.893836      36.893836      36.893836    
    152000   0.36138983    -8.0488504     -7.5067734      1.7439315      50218.233      36.893836      36.893836      36.893836    
    153000   0.36026971    -8.0492831     -7.5088862      1.7342068      50218.233      36.893836      36.893836      36.893836    
    154000   0.36055008    -8.0451622     -7.5043447      1.7518483      50218.233      36.893836      36.893836      36.893836    
    155000   0.36143125    -8.0459027     -7.5037635      1.7501641      50218.233      36.893836      36.893836      36.893836    
    156000   0.36099519    -8.0486392     -7.5071542      1.7382489      50218.233      36.893836      36.893836      36.893836    
    157000   0.35929656    -8.0478826     -7.5089454      1.7410456      50218.233      36.893836      36.893836      36.893836    
    158000   0.36113175    -8.0491603     -7.5074703      1.732648       50218.233      36.893836      36.893836      36.893836    
    159000   0.35917097    -8.047948      -7.5091992      1.7386266      50218.233      36.893836      36.893836      36.893836    
    160000   0.35994878    -8.0485406     -7.5086251      1.7323317      50218.233      36.893836      36.893836      36.893836    
    161000   0.35806303    -8.0494137     -7.5123268      1.7196453      50218.233      36.893836      36.893836      36.893836    
    162000   0.35785787    -8.0467204     -7.5099412      1.746749       50218.233      36.893836      36.893836      36.893836    
    163000   0.36261123    -8.049028      -7.5051189      1.7375847      50218.233      36.893836      36.893836      36.893836    
    164000   0.3595427     -8.0487748     -7.5094684      1.729775       50218.233      36.893836      36.893836      36.893836    
    165000   0.35815301    -8.0493053     -7.5120834      1.7195175      50218.233      36.893836      36.893836      36.893836    
    166000   0.36057898    -8.0490624     -7.5082016      1.7363947      50218.233      36.893836      36.893836      36.893836    
    167000   0.36100392    -8.0459477     -7.5044495      1.7560583      50218.233      36.893836      36.893836      36.893836    
    168000   0.35995926    -8.0476279     -7.5076967      1.7443371      50218.233      36.893836      36.893836      36.893836    
    169000   0.36060007    -8.0518431     -7.5109506      1.7146885      50218.233      36.893836      36.893836      36.893836    
    170000   0.36070098    -8.0464993     -7.5054555      1.7491848      50218.233      36.893836      36.893836      36.893836    
    171000   0.35863311    -8.0465745     -7.5086325      1.7517102      50218.233      36.893836      36.893836      36.893836    
    172000   0.35968272    -8.0464902     -7.5069738      1.7544323      50218.233      36.893836      36.893836      36.893836    
    173000   0.36008219    -8.0449172     -7.5048016      1.7584626      50218.233      36.893836      36.893836      36.893836    
    174000   0.36144632    -8.0443951     -7.5022333      1.7637699      50218.233      36.893836      36.893836      36.893836    
    175000   0.3587916     -8.0478828     -7.5097031      1.7382527      50218.233      36.893836      36.893836      36.893836    
    176000   0.36055994    -8.0464278     -7.5055956      1.7554549      50218.233      36.893836      36.893836      36.893836    
    177000   0.35919436    -8.0473546     -7.5085707      1.7408858      50218.233      36.893836      36.893836      36.893836    
    178000   0.36013633    -8.0451418     -7.504945       1.7589496      50218.233      36.893836      36.893836      36.893836    
    179000   0.35925349    -8.0472225     -7.5083499      1.7412173      50218.233      36.893836      36.893836      36.893836    
    180000   0.35945173    -8.0459344     -7.5067645      1.7599835      50218.233      36.893836      36.893836      36.893836    
    181000   0.3600643     -8.0474708     -7.507382       1.7424074      50218.233      36.893836      36.893836      36.893836    
    182000   0.35964409    -8.0483886     -7.5089301      1.7319805      50218.233      36.893836      36.893836      36.893836    
    183000   0.35973506    -8.0502069     -7.510612       1.7226627      50218.233      36.893836      36.893836      36.893836    
    184000   0.35939113    -8.0509118     -7.5118328      1.7154719      50218.233      36.893836      36.893836      36.893836    
    185000   0.36099985    -8.0490752     -7.5075831      1.7319653      50218.233      36.893836      36.893836      36.893836    
    186000   0.36008539    -8.0487294     -7.508609       1.7326246      50218.233      36.893836      36.893836      36.893836    
    187000   0.35992492    -8.0492869     -7.5094072      1.7237442      50218.233      36.893836      36.893836      36.893836    
    188000   0.35915016    -8.0482246     -7.509507       1.7366776      50218.233      36.893836      36.893836      36.893836    
    189000   0.36031644    -8.0474401     -7.5069731      1.7391837      50218.233      36.893836      36.893836      36.893836    
    190000   0.36115751    -8.0499261     -7.5081975      1.7222834      50218.233      36.893836      36.893836      36.893836    
    191000   0.36021923    -8.0478731     -7.507552       1.7321646      50218.233      36.893836      36.893836      36.893836    
    192000   0.35854398    -8.0462042     -7.5083959      1.7497145      50218.233      36.893836      36.893836      36.893836    
    193000   0.36048291    -8.0489368     -7.5082201      1.7295019      50218.233      36.893836      36.893836      36.893836    
    194000   0.36186101    -8.0492412     -7.5064574      1.7237909      50218.233      36.893836      36.893836      36.893836    
    195000   0.36209187    -8.049343      -7.5062129      1.730043       50218.233      36.893836      36.893836      36.893836    
    196000   0.35957386    -8.0481924     -7.5088392      1.7411014      50218.233      36.893836      36.893836      36.893836    
    197000   0.36024581    -8.048807      -7.508446       1.7368043      50218.233      36.893836      36.893836      36.893836    
    198000   0.36147695    -8.0484057     -7.506198       1.7371497      50218.233      36.893836      36.893836      36.893836    
    199000   0.35958458    -8.0466044     -7.5072352      1.7514498      50218.233      36.893836      36.893836      36.893836    
    200000   0.35936113    -8.0472963     -7.5082623      1.7453457      50218.233      36.893836      36.893836      36.893836    
    201000   0.36059568    -8.0493002     -7.5084143      1.724081       50218.233      36.893836      36.893836      36.893836    
    202000   0.3585639     -8.0510686     -7.5132304      1.7081138      50218.233      36.893836      36.893836      36.893836    
    203000   0.36130734    -8.0484194     -7.5064661      1.7290943      50218.233      36.893836      36.893836      36.893836    
    204000   0.36148813    -8.047638      -7.5054135      1.7386751      50218.233      36.893836      36.893836      36.893836    
    205000   0.35959894    -8.0482289     -7.5088382      1.7386128      50218.233      36.893836      36.893836      36.893836    
    206000   0.35987307    -8.0468487     -7.5070468      1.7462193      50218.233      36.893836      36.893836      36.893836    
    207000   0.36048991    -8.0497442     -7.509017       1.726206       50218.233      36.893836      36.893836      36.893836    
    208000   0.3604795     -8.0488377     -7.5081261      1.7294962      50218.233      36.893836      36.893836      36.893836    
    209000   0.35972807    -8.0466001     -7.5070157      1.7473775      50218.233      36.893836      36.893836      36.893836    
    210000   0.3601387     -8.0470722     -7.5068718      1.7525163      50218.233      36.893836      36.893836      36.893836    
    211000   0.35950037    -8.0493639     -7.510121       1.7294619      50218.233      36.893836      36.893836      36.893836    
    212000   0.35827119    -8.0500701     -7.512671       1.714002       50218.233      36.893836      36.893836      36.893836    
    213000   0.35663225    -8.0482009     -7.5132601      1.7352015      50218.233      36.893836      36.893836      36.893836    
    214000   0.36113621    -8.0496779     -7.5079813      1.7287981      50218.233      36.893836      36.893836      36.893836    
    215000   0.35906006    -8.0477055     -7.509123       1.7423232      50218.233      36.893836      36.893836      36.893836    
    216000   0.35944546    -8.0469596     -7.5077991      1.744672       50218.233      36.893836      36.893836      36.893836    
    217000   0.35947194    -8.0457841     -7.5065839      1.755427       50218.233      36.893836      36.893836      36.893836    
    218000   0.36038668    -8.0486731     -7.5081007      1.7382925      50218.233      36.893836      36.893836      36.893836    
    219000   0.36025769    -8.0494396     -7.5090607      1.7238294      50218.233      36.893836      36.893836      36.893836    
    220000   0.35903035    -8.0470359     -7.5084981      1.7459486      50218.233      36.893836      36.893836      36.893836    
    221000   0.35909034    -8.0477079     -7.5090801      1.7348193      50218.233      36.893836      36.893836      36.893836    
    222000   0.35944145    -8.0485946     -7.5094401      1.7445776      50218.233      36.893836      36.893836      36.893836    
    223000   0.36135876    -8.0464115     -7.5043811      1.7577364      50218.233      36.893836      36.893836      36.893836    
    224000   0.3598047     -8.0474744     -7.507775       1.7331115      50218.233      36.893836      36.893836      36.893836    
    225000   0.36190406    -8.0458403     -7.5029919      1.7546232      50218.233      36.893836      36.893836      36.893836    
    226000   0.35914505    -8.0521995     -7.5134896      1.7106991      50218.233      36.893836      36.893836      36.893836    
    227000   0.35963126    -8.0470734     -7.5076342      1.7385186      50218.233      36.893836      36.893836      36.893836    
    228000   0.35888312    -8.0487977     -7.5104807      1.7337618      50218.233      36.893836      36.893836      36.893836    
    229000   0.35999959    -8.0450292     -7.5050375      1.763705       50218.233      36.893836      36.893836      36.893836    
    230000   0.35943173    -8.0479732     -7.5088333      1.7426628      50218.233      36.893836      36.893836      36.893836    
    231000   0.36110271    -8.0466577     -7.5050114      1.7464745      50218.233      36.893836      36.893836      36.893836    
    232000   0.35693291    -8.049594      -7.5142023      1.7191329      50218.233      36.893836      36.893836      36.893836    
    233000   0.35936898    -8.0483413     -7.5092956      1.7359393      50218.233      36.893836      36.893836      36.893836    
    234000   0.35909367    -8.0459614     -7.5073286      1.7497457      50218.233      36.893836      36.893836      36.893836    
    235000   0.3616348     -8.0505504     -7.5081059      1.7149571      50218.233      36.893836      36.893836      36.893836    
    236000   0.36011249    -8.0462853     -7.5061242      1.7407573      50218.233      36.893836      36.893836      36.893836    
    237000   0.35908856    -8.0454595     -7.5068343      1.7591442      50218.233      36.893836      36.893836      36.893836    
    238000   0.36048513    -8.0495417     -7.5088217      1.7286782      50218.233      36.893836      36.893836      36.893836    
    239000   0.35988351    -8.0468768     -7.5070592      1.7490524      50218.233      36.893836      36.893836      36.893836    
    240000   0.36171201    -8.0469112     -7.5043509      1.7523599      50218.233      36.893836      36.893836      36.893836    
    241000   0.35963058    -8.0474533     -7.5080151      1.7369759      50218.233      36.893836      36.893836      36.893836    
    242000   0.35973053    -8.0494359     -7.5098477      1.7277057      50218.233      36.893836      36.893836      36.893836    
    243000   0.35815643    -8.0490671     -7.51184        1.7297847      50218.233      36.893836      36.893836      36.893836    
    244000   0.3607193     -8.0499702     -7.5088989      1.733172       50218.233      36.893836      36.893836      36.893836    
    245000   0.35964403    -8.050465      -7.5110066      1.7229115      50218.233      36.893836      36.893836      36.893836    
    246000   0.35896987    -8.0501784     -7.5117312      1.7161031      50218.233      36.893836      36.893836      36.893836    
    247000   0.36053954    -8.0477617     -7.5069601      1.7438565      50218.233      36.893836      36.893836      36.893836    
    248000   0.35973979    -8.0486498     -7.5090478      1.7360559      50218.233      36.893836      36.893836      36.893836    
    249000   0.35964134    -8.0473672     -7.5079129      1.7456326      50218.233      36.893836      36.893836      36.893836    
    250000   0.36071817    -8.0484675     -7.507398       1.7407826      50218.233      36.893836      36.893836      36.893836    
    251000   0.36121186    -8.0505138     -7.5087037      1.7233002      50218.233      36.893836      36.893836      36.893836    
    252000   0.35947464    -8.0454146     -7.5062103      1.7516118      50218.233      36.893836      36.893836      36.893836    
    253000   0.35894004    -8.0493112     -7.5109088      1.7316892      50218.233      36.893836      36.893836      36.893836    
    254000   0.35923903    -8.0506373     -7.5117864      1.7107451      50218.233      36.893836      36.893836      36.893836    
    255000   0.36043576    -8.0498084     -7.5091624      1.7267731      50218.233      36.893836      36.893836      36.893836    
    256000   0.35884759    -8.046502      -7.5082383      1.7481858      50218.233      36.893836      36.893836      36.893836    
    257000   0.35913664    -8.050876      -7.5121787      1.7105538      50218.233      36.893836      36.893836      36.893836    
    258000   0.36055351    -8.0496577     -7.5088352      1.7285658      50218.233      36.893836      36.893836      36.893836    
    259000   0.36157239    -8.0476365     -7.5052856      1.7453106      50218.233      36.893836      36.893836      36.893836    
    260000   0.36111008    -8.0487409     -7.5070835      1.7360218      50218.233      36.893836      36.893836      36.893836    
    261000   0.3603122     -8.0465046     -7.506044       1.7421791      50218.233      36.893836      36.893836      36.893836    
    262000   0.35979976    -8.0489142     -7.5092222      1.7189631      50218.233      36.893836      36.893836      36.893836    
    263000   0.35941082    -8.0490896     -7.5099811      1.7224329      50218.233      36.893836      36.893836      36.893836    
    264000   0.35802179    -8.0490299     -7.5120048      1.725122       50218.233      36.893836      36.893836      36.893836    
    265000   0.36024424    -8.0455641     -7.5052054      1.7543045      50218.233      36.893836      36.893836      36.893836    
    266000   0.35868357    -8.049187      -7.5111693      1.7362303      50218.233      36.893836      36.893836      36.893836    
    267000   0.35709987    -8.0494571     -7.5138149      1.7224437      50218.233      36.893836      36.893836      36.893836    
    268000   0.35936125    -8.0462987     -7.5072644      1.7480833      50218.233      36.893836      36.893836      36.893836    
    269000   0.35829938    -8.0495676     -7.5121262      1.7206271      50218.233      36.893836      36.893836      36.893836    
    270000   0.36082306    -8.0489335     -7.5077066      1.7356435      50218.233      36.893836      36.893836      36.893836    
    271000   0.35977654    -8.0499343     -7.5102772      1.7142237      50218.233      36.893836      36.893836      36.893836    
    272000   0.36035612    -8.044         -7.5034735      1.7690353      50218.233      36.893836      36.893836      36.893836    
    273000   0.36085664    -8.0496176     -7.5083403      1.7313708      50218.233      36.893836      36.893836      36.893836    
    274000   0.36040267    -8.0483882     -7.5077918      1.7400352      50218.233      36.893836      36.893836      36.893836    
    275000   0.36047091    -8.0472106     -7.5065119      1.7424012      50218.233      36.893836      36.893836      36.893836    
    276000   0.35933165    -8.0486719     -7.5096821      1.7296189      50218.233      36.893836      36.893836      36.893836    
    277000   0.36073832    -8.0441929     -7.5030931      1.7629299      50218.233      36.893836      36.893836      36.893836    
    278000   0.36161508    -8.0474779     -7.505063       1.7472175      50218.233      36.893836      36.893836      36.893836    
    279000   0.36062807    -8.0486991     -7.5077647      1.7423912      50218.233      36.893836      36.893836      36.893836    
    280000   0.36116853    -8.0491643     -7.5074192      1.7310682      50218.233      36.893836      36.893836      36.893836    
    281000   0.36161828    -8.0470872     -7.5046675      1.7453162      50218.233      36.893836      36.893836      36.893836    
    282000   0.35928084    -8.0487625     -7.5098489      1.7353123      50218.233      36.893836      36.893836      36.893836    
    283000   0.360239      -8.0472992     -7.5069484      1.7472711      50218.233      36.893836      36.893836      36.893836    
    284000   0.36101862    -8.0491727     -7.5076525      1.7292192      50218.233      36.893836      36.893836      36.893836    
    285000   0.36016744    -8.0479145     -7.5076711      1.738343       50218.233      36.893836      36.893836      36.893836    
    286000   0.35828182    -8.0502054     -7.5127903      1.7176048      50218.233      36.893836      36.893836      36.893836    
    287000   0.35931251    -8.0454269     -7.5064658      1.7466639      50218.233      36.893836      36.893836      36.893836    
    288000   0.35835835    -8.0486857     -7.5111558      1.7348478      50218.233      36.893836      36.893836      36.893836    
    289000   0.35880642    -8.0506387     -7.5124367      1.7216007      50218.233      36.893836      36.893836      36.893836    
    290000   0.35941689    -8.0506407     -7.5115231      1.7172306      50218.233      36.893836      36.893836      36.893836    
    291000   0.35990062    -8.0481759     -7.5083327      1.7338439      50218.233      36.893836      36.893836      36.893836    
    292000   0.35953526    -8.0486985     -7.5094033      1.7295033      50218.233      36.893836      36.893836      36.893836    
    293000   0.35853848    -8.0487319     -7.5109319      1.7290389      50218.233      36.893836      36.893836      36.893836    
    294000   0.36038899    -8.0507342     -7.5101584      1.7210744      50218.233      36.893836      36.893836      36.893836    
    295000   0.35976698    -8.0478861     -7.5082433      1.7462728      50218.233      36.893836      36.893836      36.893836    
    296000   0.36035549    -8.0506467     -7.5101211      1.7195923      50218.233      36.893836      36.893836      36.893836    
    297000   0.36083729    -8.0496197     -7.5083714      1.7282257      50218.233      36.893836      36.893836      36.893836    
    298000   0.35912859    -8.0469632     -7.508278       1.7444232      50218.233      36.893836      36.893836      36.893836    
    299000   0.3619886     -8.0498253     -7.5068501      1.7237536      50218.233      36.893836      36.893836      36.893836    
    300000   0.36189317    -8.0489487     -7.5061166      1.7321278      50218.233      36.893836      36.893836      36.893836    
    301000   0.35736662    -8.0472304     -7.5111881      1.7387929      50218.233      36.893836      36.893836      36.893836    
    302000   0.35882394    -8.0476553     -7.5094271      1.7394301      50218.233      36.893836      36.893836      36.893836    
    303000   0.35954881    -8.0495216     -7.510206       1.7177819      50218.233      36.893836      36.893836      36.893836    
    304000   0.35904492    -8.0476018     -7.5090421      1.7403011      50218.233      36.893836      36.893836      36.893836    
    305000   0.35999828    -8.0488965     -7.5089068      1.7311626      50218.233      36.893836      36.893836      36.893836    
    306000   0.36106058    -8.0495264     -7.5079432      1.7288717      50218.233      36.893836      36.893836      36.893836    
    307000   0.36119138    -8.04875       -7.5069706      1.7349415      50218.233      36.893836      36.893836      36.893836    
    308000   0.35958694    -8.0476033     -7.5082305      1.7433288      50218.233      36.893836      36.893836      36.893836    
    309000   0.36130327    -8.0482861     -7.5063389      1.7434582      50218.233      36.893836      36.893836      36.893836    
    310000   0.36120974    -8.0483999     -7.506593       1.7403139      50218.233      36.893836      36.893836      36.893836    
    311000   0.35997437    -8.0486973     -7.5087434      1.73118        50218.233      36.893836      36.893836      36.893836    
    312000   0.3614794     -8.0466687     -7.5044573      1.7534799      50218.233      36.893836      36.893836      36.893836    
    313000   0.36052495    -8.048368      -7.5075883      1.7311751      50218.233      36.893836      36.893836      36.893836    
    314000   0.36033552    -8.0481789     -7.5076833      1.7315637      50218.233      36.893836      36.893836      36.893836    
    315000   0.35968128    -8.0446116     -7.5050974      1.764982       50218.233      36.893836      36.893836      36.893836    
    316000   0.3618288     -8.0480985     -7.505363       1.7422361      50218.233      36.893836      36.893836      36.893836    
    317000   0.35982355    -8.0463336     -7.506606       1.7582243      50218.233      36.893836      36.893836      36.893836    
    318000   0.35968424    -8.0486557     -7.509137       1.7388177      50218.233      36.893836      36.893836      36.893836    
    319000   0.36061078    -8.0496137     -7.5087052      1.7220667      50218.233      36.893836      36.893836      36.893836    
    320000   0.36059552    -8.050271      -7.5093855      1.7140853      50218.233      36.893836      36.893836      36.893836    
    321000   0.35971611    -8.0467543     -7.5071878      1.7543251      50218.233      36.893836      36.893836      36.893836    
    322000   0.35832893    -8.0468919     -7.5094061      1.7499909      50218.233      36.893836      36.893836      36.893836    
    323000   0.35890047    -8.0463072     -7.5079642      1.752059       50218.233      36.893836      36.893836      36.893836    
    324000   0.36039305    -8.0502454     -7.5096635      1.7128343      50218.233      36.893836      36.893836      36.893836    
    325000   0.35740825    -8.0471415     -7.5110368      1.7416332      50218.233      36.893836      36.893836      36.893836    
    326000   0.36076201    -8.0450808     -7.5039454      1.7538939      50218.233      36.893836      36.893836      36.893836    
    327000   0.36077001    -8.04789       -7.5067427      1.7369729      50218.233      36.893836      36.893836      36.893836    
    328000   0.35885461    -8.047903      -7.5096287      1.7398665      50218.233      36.893836      36.893836      36.893836    
    329000   0.35822465    -8.0461732     -7.5088439      1.7543389      50218.233      36.893836      36.893836      36.893836    
    330000   0.35938398    -8.0490956     -7.5100273      1.7299918      50218.233      36.893836      36.893836      36.893836    
    331000   0.36104156    -8.0476292     -7.5060746      1.7415307      50218.233      36.893836      36.893836      36.893836    
    332000   0.36035932    -8.0445144     -7.5039831      1.7573429      50218.233      36.893836      36.893836      36.893836    
    333000   0.35939117    -8.0464261     -7.5073471      1.7535619      50218.233      36.893836      36.893836      36.893836    
    334000   0.36194424    -8.0494557     -7.5065471      1.7241466      50218.233      36.893836      36.893836      36.893836    
    335000   0.36091838    -8.0486661     -7.5072962      1.7393457      50218.233      36.893836      36.893836      36.893836    
    336000   0.36107612    -8.0497813     -7.5081748      1.7350692      50218.233      36.893836      36.893836      36.893836    
    337000   0.36067529    -8.0492512     -7.5082459      1.7312729      50218.233      36.893836      36.893836      36.893836    
    338000   0.35842652    -8.0502406     -7.5126085      1.7172226      50218.233      36.893836      36.893836      36.893836    
    339000   0.36039669    -8.0501627     -7.5095753      1.7292014      50218.233      36.893836      36.893836      36.893836    
    340000   0.35891018    -8.0498967     -7.5115391      1.7198534      50218.233      36.893836      36.893836      36.893836    
    341000   0.36069678    -8.0488724     -7.5078349      1.7365375      50218.233      36.893836      36.893836      36.893836    
    342000   0.35959268    -8.0480894     -7.5087081      1.7350545      50218.233      36.893836      36.893836      36.893836    
    343000   0.36169356    -8.0486998     -7.5061672      1.7387594      50218.233      36.893836      36.893836      36.893836    
    344000   0.36127583    -8.0503513     -7.5084453      1.7292051      50218.233      36.893836      36.893836      36.893836    
    345000   0.36128673    -8.0514955     -7.5095731      1.7188984      50218.233      36.893836      36.893836      36.893836    
    346000   0.3599344     -8.0474679     -7.5075739      1.745049       50218.233      36.893836      36.893836      36.893836    
    347000   0.35996283    -8.0471901     -7.5072535      1.7390454      50218.233      36.893836      36.893836      36.893836    
    348000   0.3596217     -8.0497894     -7.5103645      1.7209852      50218.233      36.893836      36.893836      36.893836    
    349000   0.35947652    -8.0496713     -7.5104642      1.7223145      50218.233      36.893836      36.893836      36.893836    
    350000   0.3582098     -8.0511018     -7.5137947      1.7117384      50218.233      36.893836      36.893836      36.893836    
    351000   0.35858491    -8.050112      -7.5122423      1.720701       50218.233      36.893836      36.893836      36.893836    
    352000   0.35942104    -8.0480263     -7.5089024      1.7378888      50218.233      36.893836      36.893836      36.893836    
    353000   0.36066737    -8.0490042     -7.5080108      1.7389404      50218.233      36.893836      36.893836      36.893836    
    354000   0.35983929    -8.0490764     -7.5093252      1.737617       50218.233      36.893836      36.893836      36.893836    
    355000   0.36011655    -8.0480369     -7.5078698      1.7391802      50218.233      36.893836      36.893836      36.893836    
    356000   0.36092202    -8.0503208     -7.5089455      1.7245228      50218.233      36.893836      36.893836      36.893836    
    357000   0.35890954    -8.0494884     -7.5111318      1.7266867      50218.233      36.893836      36.893836      36.893836    
    358000   0.35923192    -8.0493379     -7.5104977      1.7309299      50218.233      36.893836      36.893836      36.893836    
    359000   0.36185295    -8.04625       -7.5034783      1.7617695      50218.233      36.893836      36.893836      36.893836    
    360000   0.36025028    -8.049172      -7.5088043      1.7314726      50218.233      36.893836      36.893836      36.893836    
    361000   0.35718925    -8.0503023     -7.5145261      1.7212883      50218.233      36.893836      36.893836      36.893836    
    362000   0.35903731    -8.0460088     -7.5074605      1.7526092      50218.233      36.893836      36.893836      36.893836    
    363000   0.36357989    -8.0469089     -7.5015468      1.7572749      50218.233      36.893836      36.893836      36.893836    
    364000   0.3590033     -8.049015      -7.5105177      1.7263699      50218.233      36.893836      36.893836      36.893836    
    365000   0.35987244    -8.0457627     -7.5059618      1.7578996      50218.233      36.893836      36.893836      36.893836    
    366000   0.36080189    -8.047973      -7.5067779      1.7416268      50218.233      36.893836      36.893836      36.893836    
    367000   0.35846935    -8.0457848     -7.5080884      1.7606487      50218.233      36.893836      36.893836      36.893836    
    368000   0.35918912    -8.0500261     -7.5112501      1.7114994      50218.233      36.893836      36.893836      36.893836    
    369000   0.36119089    -8.050143      -7.5083644      1.726597       50218.233      36.893836      36.893836      36.893836    
    370000   0.35908551    -8.0505083     -7.5118877      1.7124951      50218.233      36.893836      36.893836      36.893836    
    371000   0.36031701    -8.0495665     -7.5090987      1.7274346      50218.233      36.893836      36.893836      36.893836    
    372000   0.36013791    -8.0482119     -7.5080127      1.734583       50218.233      36.893836      36.893836      36.893836    
    373000   0.35868325    -8.0470453     -7.5090281      1.7452271      50218.233      36.893836      36.893836      36.893836    
    374000   0.36006794    -8.0471048     -7.5070106      1.7446938      50218.233      36.893836      36.893836      36.893836    
    375000   0.35956151    -8.0482403     -7.5089057      1.7426701      50218.233      36.893836      36.893836      36.893836    
    376000   0.36164758    -8.0490815     -7.5066179      1.7295483      50218.233      36.893836      36.893836      36.893836    
    377000   0.35867939    -8.0447711     -7.5067596      1.7584969      50218.233      36.893836      36.893836      36.893836    
    378000   0.3590036     -8.0464097     -7.5079119      1.7539401      50218.233      36.893836      36.893836      36.893836    
    379000   0.35897591    -8.0478796     -7.5094234      1.7395194      50218.233      36.893836      36.893836      36.893836    
    380000   0.35871376    -8.0481119     -7.5100489      1.739646       50218.233      36.893836      36.893836      36.893836    
    381000   0.3621634     -8.0462938     -7.5030564      1.7400236      50218.233      36.893836      36.893836      36.893836    
    382000   0.36138517    -8.0445037     -7.5024337      1.7638528      50218.233      36.893836      36.893836      36.893836    
    383000   0.35925654    -8.0484129     -7.5095357      1.7331843      50218.233      36.893836      36.893836      36.893836    
    384000   0.35902255    -8.0496379     -7.5111117      1.7139096      50218.233      36.893836      36.893836      36.893836    
    385000   0.36164826    -8.0453076     -7.5028429      1.7665888      50218.233      36.893836      36.893836      36.893836    
    386000   0.35871774    -8.0494702     -7.5114013      1.728942       50218.233      36.893836      36.893836      36.893836    
    387000   0.36082918    -8.0476501     -7.5064141      1.7398581      50218.233      36.893836      36.893836      36.893836    
    388000   0.35985312    -8.0485191     -7.5087471      1.7370589      50218.233      36.893836      36.893836      36.893836    
    389000   0.35958872    -8.0508984     -7.511523       1.7204568      50218.233      36.893836      36.893836      36.893836    
    390000   0.35963307    -8.0501383     -7.5106964      1.7263001      50218.233      36.893836      36.893836      36.893836    
    391000   0.3606098     -8.0457789     -7.5048719      1.7532052      50218.233      36.893836      36.893836      36.893836    
    392000   0.35757195    -8.0510397     -7.5146894      1.7145341      50218.233      36.893836      36.893836      36.893836    
    393000   0.35948354    -8.046721      -7.5075033      1.7438138      50218.233      36.893836      36.893836      36.893836    
    394000   0.36236418    -8.0525818     -7.5090432      1.7056757      50218.233      36.893836      36.893836      36.893836    
    395000   0.36102701    -8.0487532     -7.5072204      1.7311381      50218.233      36.893836      36.893836      36.893836    
    396000   0.36181579    -8.0477756     -7.5050596      1.7434015      50218.233      36.893836      36.893836      36.893836    
    397000   0.3611148     -8.0457972     -7.5041327      1.7506313      50218.233      36.893836      36.893836      36.893836    
    398000   0.35838751    -8.0476192     -7.5100456      1.7367807      50218.233      36.893836      36.893836      36.893836    
    399000   0.36147437    -8.048352      -7.5061481      1.7503546      50218.233      36.893836      36.893836      36.893836    
    400000   0.36151591    -8.0473628     -7.5050966      1.755783       50218.233      36.893836      36.893836      36.893836    
    401000   0.35969125    -8.0488825     -7.5093533      1.7306854      50218.233      36.893836      36.893836      36.893836    
    402000   0.35974316    -8.0489097     -7.5093026      1.7327887      50218.233      36.893836      36.893836      36.893836    
    403000   0.3596189     -8.0500482     -7.5106275      1.7244312      50218.233      36.893836      36.893836      36.893836    
    404000   0.35898571    -8.0486932     -7.5102223      1.7353989      50218.233      36.893836      36.893836      36.893836    
    405000   0.35893526    -8.0476656     -7.5092704      1.7351143      50218.233      36.893836      36.893836      36.893836    
    406000   0.35936656    -8.0495793     -7.5105371      1.7323866      50218.233      36.893836      36.893836      36.893836    
    407000   0.36014866    -8.0519625     -7.5117472      1.6991329      50218.233      36.893836      36.893836      36.893836    
    408000   0.36118082    -8.0538435     -7.5120799      1.6901731      50218.233      36.893836      36.893836      36.893836    
    409000   0.36030594    -8.0498771     -7.5094259      1.726075       50218.233      36.893836      36.893836      36.893836    
    410000   0.35936412    -8.0487785     -7.5097399      1.7232246      50218.233      36.893836      36.893836      36.893836    
    411000   0.36114148    -8.0483941     -7.5066896      1.7390144      50218.233      36.893836      36.893836      36.893836    
    412000   0.36127453    -8.0494832     -7.5075791      1.7304451      50218.233      36.893836      36.893836      36.893836    
    413000   0.35938049    -8.0466471     -7.507584       1.7488712      50218.233      36.893836      36.893836      36.893836    
    414000   0.3597527     -8.0456038     -7.5059824      1.7596376      50218.233      36.893836      36.893836      36.893836    
    415000   0.36073754    -8.0495521     -7.5084534      1.7367554      50218.233      36.893836      36.893836      36.893836    
    416000   0.35988145    -8.0491116     -7.5092971      1.7323433      50218.233      36.893836      36.893836      36.893836    
    417000   0.3602926     -8.0439671     -7.5035359      1.7712042      50218.233      36.893836      36.893836      36.893836    
    418000   0.35971332    -8.0495897     -7.5100274      1.7224019      50218.233      36.893836      36.893836      36.893836    
    419000   0.35943204    -8.0462326     -7.5070922      1.756286       50218.233      36.893836      36.893836      36.893836    
    420000   0.35881438    -8.0483897     -7.5101758      1.7396095      50218.233      36.893836      36.893836      36.893836    
    421000   0.36044247    -8.046964      -7.506308       1.7457299      50218.233      36.893836      36.893836      36.893836    
    422000   0.36112364    -8.0467976     -7.5051198      1.7528356      50218.233      36.893836      36.893836      36.893836    
    423000   0.35920814    -8.0439312     -7.5051267      1.7741564      50218.233      36.893836      36.893836      36.893836    
    424000   0.35885484    -8.0479105     -7.5096359      1.7384361      50218.233      36.893836      36.893836      36.893836    
    425000   0.35828072    -8.0452609     -7.5078475      1.7536444      50218.233      36.893836      36.893836      36.893836    
    426000   0.35974992    -8.0490274     -7.5094102      1.732035       50218.233      36.893836      36.893836      36.893836    
    427000   0.3612913     -8.047119      -7.5051897      1.7516979      50218.233      36.893836      36.893836      36.893836    
    428000   0.359762      -8.046497      -7.5068617      1.7481344      50218.233      36.893836      36.893836      36.893836    
    429000   0.36127212    -8.045712      -7.5038115      1.7573362      50218.233      36.893836      36.893836      36.893836    
    430000   0.35888884    -8.047163      -7.5088374      1.7432958      50218.233      36.893836      36.893836      36.893836    
    431000   0.36103201    -8.0468701     -7.5053298      1.7548875      50218.233      36.893836      36.893836      36.893836    
    432000   0.36072762    -8.0478744     -7.5067906      1.740468       50218.233      36.893836      36.893836      36.893836    
    433000   0.36208832    -8.0496251     -7.5065003      1.7311842      50218.233      36.893836      36.893836      36.893836    
    434000   0.36053145    -8.0489701     -7.5081806      1.7357818      50218.233      36.893836      36.893836      36.893836    
    435000   0.35809328    -8.0481317     -7.5109994      1.7400006      50218.233      36.893836      36.893836      36.893836    
    436000   0.35803321    -8.0456167     -7.5085746      1.7572055      50218.233      36.893836      36.893836      36.893836    
    437000   0.36086408    -8.0509518     -7.5096634      1.7137297      50218.233      36.893836      36.893836      36.893836    
    438000   0.35988556    -8.0479708     -7.5081502      1.7367469      50218.233      36.893836      36.893836      36.893836    
    439000   0.35913074    -8.0497239     -7.5110355      1.7258236      50218.233      36.893836      36.893836      36.893836    
    440000   0.35950728    -8.0497385     -7.5104852      1.7176166      50218.233      36.893836      36.893836      36.893836    
    441000   0.3602713     -8.0473366     -7.5069374      1.7444976      50218.233      36.893836      36.893836      36.893836    
    442000   0.36031894    -8.0468643     -7.5063936      1.7481073      50218.233      36.893836      36.893836      36.893836    
    443000   0.35955505    -8.0475649     -7.50824        1.754363       50218.233      36.893836      36.893836      36.893836    
    444000   0.36095247    -8.0468808     -7.5054598      1.7474756      50218.233      36.893836      36.893836      36.893836    
    445000   0.35907234    -8.0493254     -7.5107245      1.730125       50218.233      36.893836      36.893836      36.893836    
    446000   0.35835796    -8.0515175     -7.5139882      1.7123402      50218.233      36.893836      36.893836      36.893836    
    447000   0.36005588    -8.050914      -7.5108379      1.7150778      50218.233      36.893836      36.893836      36.893836    
    448000   0.3589926     -8.0493182     -7.510837       1.727605       50218.233      36.893836      36.893836      36.893836    
    449000   0.3584        -8.0500917     -7.5124993      1.7223977      50218.233      36.893836      36.893836      36.893836    
    450000   0.36069376    -8.0489016     -7.5078687      1.7356501      50218.233      36.893836      36.893836      36.893836    
    451000   0.35952145    -8.0500433     -7.5107688      1.7110002      50218.233      36.893836      36.893836      36.893836    
    452000   0.36028696    -8.0496193     -7.5091965      1.7219352      50218.233      36.893836      36.893836      36.893836    
    453000   0.36134589    -8.045787      -7.5037759      1.7612903      50218.233      36.893836      36.893836      36.893836    
    454000   0.35918848    -8.0513794     -7.5126044      1.7136798      50218.233      36.893836      36.893836      36.893836    
    455000   0.36197503    -8.0507843     -7.5078295      1.7216326      50218.233      36.893836      36.893836      36.893836    
    456000   0.35856232    -8.0459448     -7.508109       1.7543908      50218.233      36.893836      36.893836      36.893836    
    457000   0.3589986     -8.0475891     -7.5090988      1.7472267      50218.233      36.893836      36.893836      36.893836    
    458000   0.36043399    -8.0485636     -7.5079203      1.7411954      50218.233      36.893836      36.893836      36.893836    
    459000   0.35959399    -8.0491105     -7.5097272      1.7322684      50218.233      36.893836      36.893836      36.893836    
    460000   0.36025789    -8.0481918     -7.5078127      1.7401928      50218.233      36.893836      36.893836      36.893836    
    461000   0.35975385    -8.0465805     -7.5069574      1.7512296      50218.233      36.893836      36.893836      36.893836    
    462000   0.35830301    -8.0482337     -7.5107868      1.7344394      50218.233      36.893836      36.893836      36.893836    
    463000   0.36030018    -8.0481223     -7.5076797      1.7373876      50218.233      36.893836      36.893836      36.893836    
    464000   0.3595226     -8.0455401     -7.5062639      1.7550639      50218.233      36.893836      36.893836      36.893836    
    465000   0.35875723    -8.0448037     -7.5066755      1.7557458      50218.233      36.893836      36.893836      36.893836    
    466000   0.36041564    -8.0463741     -7.5057583      1.7562724      50218.233      36.893836      36.893836      36.893836    
    467000   0.36131562    -8.0479739     -7.5060082      1.7372876      50218.233      36.893836      36.893836      36.893836    
    468000   0.35991996    -8.0475706     -7.5076984      1.7445556      50218.233      36.893836      36.893836      36.893836    
    469000   0.35994038    -8.0501344     -7.5102315      1.7277966      50218.233      36.893836      36.893836      36.893836    
    470000   0.36025516    -8.0464659     -7.5060908      1.745123       50218.233      36.893836      36.893836      36.893836    
    471000   0.36024843    -8.0478376     -7.5074726      1.7399954      50218.233      36.893836      36.893836      36.893836    
    472000   0.36034658    -8.0471978     -7.5066856      1.7507821      50218.233      36.893836      36.893836      36.893836    
    473000   0.36170616    -8.0463071     -7.5037556      1.7534751      50218.233      36.893836      36.893836      36.893836    
    474000   0.35939719    -8.0497696     -7.5106815      1.7209723      50218.233      36.893836      36.893836      36.893836    
    475000   0.36018864    -8.0459659     -7.5056906      1.7494206      50218.233      36.893836      36.893836      36.893836    
    476000   0.35986854    -8.0486059     -7.5088108      1.7394581      50218.233      36.893836      36.893836      36.893836    
    477000   0.36072385    -8.0499879     -7.5089098      1.7234039      50218.233      36.893836      36.893836      36.893836    
    478000   0.36010339    -8.0458977     -7.5057503      1.7504749      50218.233      36.893836      36.893836      36.893836    
    479000   0.35844315    -8.0481189     -7.5104619      1.7395402      50218.233      36.893836      36.893836      36.893836    
    480000   0.36033341    -8.0474333     -7.5069409      1.7519739      50218.233      36.893836      36.893836      36.893836    
    481000   0.3618686     -8.0466245     -7.5038293      1.7493443      50218.233      36.893836      36.893836      36.893836    
    482000   0.35823747    -8.0492796     -7.511931       1.7201612      50218.233      36.893836      36.893836      36.893836    
    483000   0.36041075    -8.0467382     -7.5061297      1.7519939      50218.233      36.893836      36.893836      36.893836    
    484000   0.3603724     -8.0475164     -7.5069655      1.7400058      50218.233      36.893836      36.893836      36.893836    
    485000   0.35926911    -8.050341      -7.511445       1.7228405      50218.233      36.893836      36.893836      36.893836    
    486000   0.36013084    -8.0479837     -7.5077951      1.7330421      50218.233      36.893836      36.893836      36.893836    
    487000   0.36169099    -8.0497675     -7.5072387      1.7290622      50218.233      36.893836      36.893836      36.893836    
    488000   0.36135121    -8.0493561     -7.507337       1.7357228      50218.233      36.893836      36.893836      36.893836    
    489000   0.36011201    -8.0500164     -7.5098561      1.7243408      50218.233      36.893836      36.893836      36.893836    
    490000   0.36008933    -8.0484652     -7.5083388      1.7427567      50218.233      36.893836      36.893836      36.893836    
    491000   0.36187804    -8.0480605     -7.5052512      1.7437706      50218.233      36.893836      36.893836      36.893836    
    492000   0.36083761    -8.0500271     -7.5087784      1.729381       50218.233      36.893836      36.893836      36.893836    
    493000   0.35898855    -8.0476565     -7.5091814      1.7288358      50218.233      36.893836      36.893836      36.893836    
    494000   0.36001067    -8.0507209     -7.5107126      1.72919        50218.233      36.893836      36.893836      36.893836    
    495000   0.359316      -8.0496283     -7.510662       1.7330278      50218.233      36.893836      36.893836      36.893836    
    496000   0.35860998    -8.045696      -7.5077887      1.7535947      50218.233      36.893836      36.893836      36.893836    
    497000   0.36099986    -8.0489886     -7.5074965      1.7320878      50218.233      36.893836      36.893836      36.893836    
    498000   0.36036316    -8.0488701     -7.5083331      1.7245053      50218.233      36.893836      36.893836      36.893836    
    499000   0.3588284     -8.0500881     -7.5118532      1.7166545      50218.233      36.893836      36.893836      36.893836    
    500000   0.35897704    -8.0478103     -7.5093524      1.7412978      50218.233      36.893836      36.893836      36.893836    
    501000   0.36178989    -8.0494513     -7.5067742      1.7302679      50218.233      36.893836      36.893836      36.893836    
    502000   0.36083005    -8.0500474     -7.50881        1.7189153      50218.233      36.893836      36.893836      36.893836    
    503000   0.35787012    -8.0507636     -7.5139661      1.7177476      50218.233      36.893836      36.893836      36.893836    
    504000   0.35925645    -8.0502851     -7.5114081      1.7219763      50218.233      36.893836      36.893836      36.893836    
    505000   0.36068747    -8.0484351     -7.5074116      1.7384977      50218.233      36.893836      36.893836      36.893836    
    506000   0.36068665    -8.0503983     -7.5093761      1.7341639      50218.233      36.893836      36.893836      36.893836    
    507000   0.36048658    -8.0465086     -7.5057864      1.7492909      50218.233      36.893836      36.893836      36.893836    
    508000   0.36191174    -8.0482935     -7.5054336      1.7496183      50218.233      36.893836      36.893836      36.893836    
    509000   0.35809775    -8.0475853     -7.5104464      1.7403793      50218.233      36.893836      36.893836      36.893836    
    510000   0.35955377    -8.0501729     -7.5108499      1.7164355      50218.233      36.893836      36.893836      36.893836    
    511000   0.36026288    -8.0487017     -7.5083151      1.7284503      50218.233      36.893836      36.893836      36.893836    
    512000   0.36069613    -8.0466497     -7.5056132      1.7462734      50218.233      36.893836      36.893836      36.893836    
    513000   0.36019478    -8.0483978     -7.5081133      1.7377461      50218.233      36.893836      36.893836      36.893836    
    514000   0.36132305    -8.0476813     -7.5057044      1.7341909      50218.233      36.893836      36.893836      36.893836    
    515000   0.36044031    -8.0504434     -7.5097906      1.72282        50218.233      36.893836      36.893836      36.893836    
    516000   0.36040133    -8.0475321     -7.5069378      1.7491774      50218.233      36.893836      36.893836      36.893836    
    517000   0.36112032    -8.050041      -7.5083682      1.7267652      50218.233      36.893836      36.893836      36.893836    
    518000   0.35829143    -8.0477275     -7.510298       1.7416776      50218.233      36.893836      36.893836      36.893836    
    519000   0.35998395    -8.0487113     -7.508743       1.7403393      50218.233      36.893836      36.893836      36.893836    
    520000   0.35951831    -8.0462404     -7.5069706      1.7576084      50218.233      36.893836      36.893836      36.893836    
    521000   0.35770716    -8.0459141     -7.509361       1.74738        50218.233      36.893836      36.893836      36.893836    
    522000   0.36020236    -8.0459657     -7.5056698      1.7522631      50218.233      36.893836      36.893836      36.893836    
    523000   0.36179983    -8.0473723     -7.5046803      1.7430165      50218.233      36.893836      36.893836      36.893836    
    524000   0.36141821    -8.0470331     -7.5049135      1.7422957      50218.233      36.893836      36.893836      36.893836    
    525000   0.35925212    -8.046002      -7.5071315      1.7507499      50218.233      36.893836      36.893836      36.893836    
    526000   0.35982347    -8.045669      -7.5059414      1.754959       50218.233      36.893836      36.893836      36.893836    
    527000   0.35951385    -8.0474751     -7.508212       1.736832       50218.233      36.893836      36.893836      36.893836    
    528000   0.3592122     -8.0461932     -7.5073825      1.7559092      50218.233      36.893836      36.893836      36.893836    
    529000   0.36203691    -8.0473825     -7.5043349      1.7557784      50218.233      36.893836      36.893836      36.893836    
    530000   0.35877077    -8.0467518     -7.5086033      1.7437998      50218.233      36.893836      36.893836      36.893836    
    531000   0.35956332    -8.0495808     -7.5102435      1.7251692      50218.233      36.893836      36.893836      36.893836    
    532000   0.3600012     -8.047005      -7.5070109      1.74715        50218.233      36.893836      36.893836      36.893836    
    533000   0.35995088    -8.0471193     -7.5072007      1.7450795      50218.233      36.893836      36.893836      36.893836    
    534000   0.35957571    -8.0506566     -7.5113008      1.7209262      50218.233      36.893836      36.893836      36.893836    
    535000   0.36067018    -8.0470059     -7.5060084      1.7498189      50218.233      36.893836      36.893836      36.893836    
    536000   0.35887496    -8.0466116     -7.5083069      1.747705       50218.233      36.893836      36.893836      36.893836    
    537000   0.36035764    -8.046809      -7.5062802      1.7489431      50218.233      36.893836      36.893836      36.893836    
    538000   0.3602171     -8.048018      -7.5077         1.7282491      50218.233      36.893836      36.893836      36.893836    
    539000   0.36105549    -8.0474663     -7.5058908      1.7388383      50218.233      36.893836      36.893836      36.893836    
    540000   0.36032486    -8.0455078     -7.5050282      1.7528467      50218.233      36.893836      36.893836      36.893836    
    541000   0.36060634    -8.0499394     -7.5090376      1.7351368      50218.233      36.893836      36.893836      36.893836    
    542000   0.35979369    -8.0486603     -7.5089774      1.7368632      50218.233      36.893836      36.893836      36.893836    
    543000   0.36120684    -8.0496343     -7.5078317      1.7214946      50218.233      36.893836      36.893836      36.893836    
    544000   0.36100804    -8.0493425     -7.5078382      1.7337693      50218.233      36.893836      36.893836      36.893836    
    545000   0.36122639    -8.0523974     -7.5105655      1.7085359      50218.233      36.893836      36.893836      36.893836    
    546000   0.35979974    -8.0472496     -7.5075576      1.7498283      50218.233      36.893836      36.893836      36.893836    
    547000   0.35909117    -8.0508959     -7.5122668      1.7188344      50218.233      36.893836      36.893836      36.893836    
    548000   0.3601374     -8.0511155     -7.510917       1.7226547      50218.233      36.893836      36.893836      36.893836    
    549000   0.35885279    -8.0494244     -7.5111529      1.7220419      50218.233      36.893836      36.893836      36.893836    
    550000   0.35983127    -8.0517448     -7.5120056      1.7166425      50218.233      36.893836      36.893836      36.893836    
    551000   0.35955271    -8.0485786     -7.5092572      1.7335918      50218.233      36.893836      36.893836      36.893836    
    552000   0.35900016    -8.0484382     -7.5099456      1.728383       50218.233      36.893836      36.893836      36.893836    
    553000   0.35790486    -8.0469476     -7.5100979      1.7383353      50218.233      36.893836      36.893836      36.893836    
    554000   0.36129844    -8.0484427     -7.5065027      1.73516        50218.233      36.893836      36.893836      36.893836    
    555000   0.35901577    -8.0438688     -7.5053528      1.770376       50218.233      36.893836      36.893836      36.893836    
    556000   0.35821528    -8.0506693     -7.513354       1.7094497      50218.233      36.893836      36.893836      36.893836    
    557000   0.35999306    -8.0505942     -7.5106123      1.7192007      50218.233      36.893836      36.893836      36.893836    
    558000   0.36089172    -8.0463338     -7.5050039      1.7469298      50218.233      36.893836      36.893836      36.893836    
    559000   0.3569151     -8.0524544     -7.5170894      1.6971051      50218.233      36.893836      36.893836      36.893836    
    560000   0.35906172    -8.0505311     -7.5119462      1.7192729      50218.233      36.893836      36.893836      36.893836    
    561000   0.35952566    -8.0470701     -7.5077893      1.7504957      50218.233      36.893836      36.893836      36.893836    
    562000   0.35905839    -8.0469867     -7.5084068      1.742529       50218.233      36.893836      36.893836      36.893836    
    563000   0.35866668    -8.0501903     -7.5121979      1.7128885      50218.233      36.893836      36.893836      36.893836    
    564000   0.35923971    -8.0462801     -7.5074282      1.7486533      50218.233      36.893836      36.893836      36.893836    
    565000   0.35933582    -8.0486003     -7.5096042      1.7361113      50218.233      36.893836      36.893836      36.893836    
    566000   0.35915154    -8.0510861     -7.5123664      1.7133647      50218.233      36.893836      36.893836      36.893836    
    567000   0.35867683    -8.0481139     -7.5101063      1.7335572      50218.233      36.893836      36.893836      36.893836    
    568000   0.35886123    -8.0496143     -7.5113301      1.7236589      50218.233      36.893836      36.893836      36.893836    
    569000   0.35939925    -8.0481262     -7.509035       1.7398842      50218.233      36.893836      36.893836      36.893836    
    570000   0.36032719    -8.0467404     -7.5062573      1.7506955      50218.233      36.893836      36.893836      36.893836    
    571000   0.36070477    -8.0489164     -7.507867       1.7401151      50218.233      36.893836      36.893836      36.893836    
    572000   0.36144233    -8.0492169     -7.5070611      1.7321425      50218.233      36.893836      36.893836      36.893836    
    573000   0.3595043     -8.048303      -7.5090542      1.7344864      50218.233      36.893836      36.893836      36.893836    
    574000   0.35901887    -8.0484286     -7.509908       1.73283        50218.233      36.893836      36.893836      36.893836    
    575000   0.35910054    -8.0504886     -7.5118455      1.7149634      50218.233      36.893836      36.893836      36.893836    
    576000   0.36011977    -8.04662       -7.506448       1.7488641      50218.233      36.893836      36.893836      36.893836    
    577000   0.3603799     -8.0490217     -7.5084596      1.7270783      50218.233      36.893836      36.893836      36.893836    
    578000   0.35848998    -8.0481087     -7.5103813      1.7302798      50218.233      36.893836      36.893836      36.893836    
    579000   0.36110599    -8.0500704     -7.5084192      1.7274891      50218.233      36.893836      36.893836      36.893836    
    580000   0.36115536    -8.0502684     -7.5085431      1.7285776      50218.233      36.893836      36.893836      36.893836    
    581000   0.3594985     -8.0463653     -7.5071252      1.7454176      50218.233      36.893836      36.893836      36.893836    
    582000   0.35999881    -8.0510305     -7.5110399      1.7156276      50218.233      36.893836      36.893836      36.893836    
    583000   0.35956575    -8.0493275     -7.5099866      1.7224083      50218.233      36.893836      36.893836      36.893836    
    584000   0.35909222    -8.0482766     -7.509646       1.7299548      50218.233      36.893836      36.893836      36.893836    
    585000   0.36110668    -8.0496264     -7.5079741      1.732679       50218.233      36.893836      36.893836      36.893836    
    586000   0.35953221    -8.0486043     -7.5093136      1.730103       50218.233      36.893836      36.893836      36.893836    
    587000   0.36045035    -8.0477283     -7.5070605      1.7430448      50218.233      36.893836      36.893836      36.893836    
    588000   0.35886773    -8.0487805     -7.5104865      1.7353049      50218.233      36.893836      36.893836      36.893836    
    589000   0.36150821    -8.0501181     -7.5078635      1.7271628      50218.233      36.893836      36.893836      36.893836    
    590000   0.36083455    -8.0509989     -7.5097547      1.7172281      50218.233      36.893836      36.893836      36.893836    
    591000   0.35745276    -8.0504375     -7.514266       1.7198668      50218.233      36.893836      36.893836      36.893836    
    592000   0.36129632    -8.0471823     -7.5052456      1.7487677      50218.233      36.893836      36.893836      36.893836    
    593000   0.36222604    -8.0496706     -7.5063393      1.7280253      50218.233      36.893836      36.893836      36.893836    
    594000   0.36140794    -8.0450856     -7.5029814      1.7665818      50218.233      36.893836      36.893836      36.893836    
    595000   0.35878584    -8.0484075     -7.5102364      1.7335651      50218.233      36.893836      36.893836      36.893836    
    596000   0.36037693    -8.0475357     -7.506978       1.7328684      50218.233      36.893836      36.893836      36.893836    
    597000   0.36023518    -8.0491346     -7.5087895      1.7377583      50218.233      36.893836      36.893836      36.893836    
    598000   0.35934208    -8.0486458     -7.5096403      1.7267021      50218.233      36.893836      36.893836      36.893836    
    599000   0.3595449     -8.046834      -7.5075244      1.7472675      50218.233      36.893836      36.893836      36.893836    
    600000   0.35988683    -8.047956      -7.5081335      1.7339968      50218.233      36.893836      36.893836      36.893836    
    601000   0.35926635    -8.0489444     -7.5100525      1.7324784      50218.233      36.893836      36.893836      36.893836    
    602000   0.35944323    -8.0518345     -7.5126773      1.7092199      50218.233      36.893836      36.893836      36.893836    
    603000   0.3607454     -8.0501915     -7.5090811      1.7192512      50218.233      36.893836      36.893836      36.893836    
    604000   0.35966385    -8.0511947     -7.5117066      1.7259583      50218.233      36.893836      36.893836      36.893836    
    605000   0.35895473    -8.0520663     -7.5136418      1.7061004      50218.233      36.893836      36.893836      36.893836    
    606000   0.36098023    -8.0518107     -7.5103481      1.716051       50218.233      36.893836      36.893836      36.893836    
    607000   0.36063287    -8.049428      -7.5084864      1.7324259      50218.233      36.893836      36.893836      36.893836    
    608000   0.36129076    -8.0489386     -7.5070102      1.7311592      50218.233      36.893836      36.893836      36.893836    
    609000   0.36111148    -8.0472837     -7.5056242      1.7509084      50218.233      36.893836      36.893836      36.893836    
    610000   0.35899732    -8.0471907     -7.5087024      1.7284051      50218.233      36.893836      36.893836      36.893836    
    611000   0.35898655    -8.0492677     -7.5107955      1.7286902      50218.233      36.893836      36.893836      36.893836    
    612000   0.36045934    -8.0482428     -7.5075614      1.7321951      50218.233      36.893836      36.893836      36.893836    
    613000   0.36032324    -8.0479696     -7.5074924      1.7387387      50218.233      36.893836      36.893836      36.893836    
    614000   0.35913699    -8.0506605     -7.5119626      1.7190863      50218.233      36.893836      36.893836      36.893836    
    615000   0.36053723    -8.049681      -7.5088828      1.7327709      50218.233      36.893836      36.893836      36.893836    
    616000   0.36076061    -8.050117      -7.5089837      1.7232381      50218.233      36.893836      36.893836      36.893836    
    617000   0.3604415     -8.0478866     -7.507232       1.744123       50218.233      36.893836      36.893836      36.893836    
    618000   0.36027546    -8.0468244     -7.5064189      1.7484304      50218.233      36.893836      36.893836      36.893836    
    619000   0.35885278    -8.0479781     -7.5097066      1.7407996      50218.233      36.893836      36.893836      36.893836    
    620000   0.35848854    -8.0465406     -7.5088154      1.7545129      50218.233      36.893836      36.893836      36.893836    
    621000   0.36039987    -8.04896       -7.5083679      1.734147       50218.233      36.893836      36.893836      36.893836    
    622000   0.35958673    -8.0458805     -7.506508       1.7616897      50218.233      36.893836      36.893836      36.893836    
    623000   0.35994073    -8.0508274     -7.510924       1.7114515      50218.233      36.893836      36.893836      36.893836    
    624000   0.35918776    -8.0478065     -7.5090325      1.7426402      50218.233      36.893836      36.893836      36.893836    
    625000   0.3597252     -8.0469878     -7.5074076      1.7508682      50218.233      36.893836      36.893836      36.893836    
    626000   0.36094816    -8.04962       -7.5082054      1.7370428      50218.233      36.893836      36.893836      36.893836    
    627000   0.35815368    -8.0470476     -7.5098247      1.7336993      50218.233      36.893836      36.893836      36.893836    
    628000   0.3581847     -8.0482427     -7.5109733      1.7416353      50218.233      36.893836      36.893836      36.893836    
    629000   0.3600467     -8.0517432     -7.5116809      1.7095223      50218.233      36.893836      36.893836      36.893836    
    630000   0.35898701    -8.0481753     -7.5097025      1.7396883      50218.233      36.893836      36.893836      36.893836    
    631000   0.36006839    -8.0501093     -7.5100144      1.7232871      50218.233      36.893836      36.893836      36.893836    
    632000   0.36070243    -8.0464545     -7.5054085      1.7520758      50218.233      36.893836      36.893836      36.893836    
    633000   0.36289258    -8.0469357     -7.5026046      1.7432325      50218.233      36.893836      36.893836      36.893836    
    634000   0.36100427    -8.0489473     -7.5074486      1.7316098      50218.233      36.893836      36.893836      36.893836    
    635000   0.36182994    -8.0521859     -7.5094487      1.7087823      50218.233      36.893836      36.893836      36.893836    
    636000   0.3607655     -8.0478812     -7.5067406      1.7396163      50218.233      36.893836      36.893836      36.893836    
    637000   0.36075189    -8.0485359     -7.5074158      1.7358557      50218.233      36.893836      36.893836      36.893836    
    638000   0.36010477    -8.0503803     -7.5102308      1.7180476      50218.233      36.893836      36.893836      36.893836    
    639000   0.36025083    -8.0507927     -7.5104241      1.7235968      50218.233      36.893836      36.893836      36.893836    
    640000   0.36001184    -8.0502274     -7.5102173      1.7248765      50218.233      36.893836      36.893836      36.893836    
    641000   0.36022128    -8.047629      -7.5073048      1.7390776      50218.233      36.893836      36.893836      36.893836    
    642000   0.36021743    -8.0484161     -7.5080976      1.7307063      50218.233      36.893836      36.893836      36.893836    
    643000   0.36070063    -8.0505356     -7.5094923      1.7209092      50218.233      36.893836      36.893836      36.893836    
    644000   0.35867937    -8.0482034     -7.510192       1.7381172      50218.233      36.893836      36.893836      36.893836    
    645000   0.35885965    -8.0480817     -7.5097999      1.7279779      50218.233      36.893836      36.893836      36.893836    
    646000   0.36113684    -8.0495524     -7.5078549      1.7346634      50218.233      36.893836      36.893836      36.893836    
    647000   0.36070406    -8.0487468     -7.5076984      1.7327121      50218.233      36.893836      36.893836      36.893836    
    648000   0.35855077    -8.0469335     -7.509115       1.7469449      50218.233      36.893836      36.893836      36.893836    
    649000   0.35949263    -8.0469675     -7.5077363      1.7454276      50218.233      36.893836      36.893836      36.893836    
    650000   0.3597869     -8.0503332     -7.5106605      1.7156149      50218.233      36.893836      36.893836      36.893836    
    651000   0.36154762    -8.050197      -7.5078833      1.7222903      50218.233      36.893836      36.893836      36.893836    
    652000   0.36061664    -8.0492375     -7.5083203      1.7339515      50218.233      36.893836      36.893836      36.893836    
    653000   0.3614209     -8.0501551     -7.5080314      1.7294591      50218.233      36.893836      36.893836      36.893836    
    654000   0.36075977    -8.0477892     -7.5066573      1.7399435      50218.233      36.893836      36.893836      36.893836    
    655000   0.3604979     -8.045877      -7.5051379      1.7495579      50218.233      36.893836      36.893836      36.893836    
    656000   0.36114586    -8.0474406     -7.5057295      1.7408488      50218.233      36.893836      36.893836      36.893836    
    657000   0.36154854    -8.0498597     -7.5075446      1.719873       50218.233      36.893836      36.893836      36.893836    
    658000   0.36043803    -8.0454977     -7.5048483      1.7602216      50218.233      36.893836      36.893836      36.893836    
    659000   0.36052609    -8.0490366     -7.5082551      1.7390346      50218.233      36.893836      36.893836      36.893836    
    660000   0.36019473    -8.0497978     -7.5095134      1.7292628      50218.233      36.893836      36.893836      36.893836    
    661000   0.36026734    -8.0474856     -7.5070923      1.7389598      50218.233      36.893836      36.893836      36.893836    
    662000   0.36108743    -8.0481721     -7.5065487      1.7445455      50218.233      36.893836      36.893836      36.893836    
    663000   0.35956432    -8.0473935     -7.5080547      1.7378236      50218.233      36.893836      36.893836      36.893836    
    664000   0.35893799    -8.0485984     -7.5101991      1.7342067      50218.233      36.893836      36.893836      36.893836    
    665000   0.3591207     -8.0471352     -7.5084618      1.7461842      50218.233      36.893836      36.893836      36.893836    
    666000   0.36089958    -8.0496607     -7.5083191      1.7293506      50218.233      36.893836      36.893836      36.893836    
    667000   0.36038167    -8.0460425     -7.5054777      1.7555084      50218.233      36.893836      36.893836      36.893836    
    668000   0.36113803    -8.0473559     -7.5056566      1.7472813      50218.233      36.893836      36.893836      36.893836    
    669000   0.36083554    -8.0476587     -7.5064131      1.7420342      50218.233      36.893836      36.893836      36.893836    
    670000   0.35969002    -8.0462545     -7.5067271      1.7463489      50218.233      36.893836      36.893836      36.893836    
    671000   0.35898171    -8.04543       -7.5069651      1.7548519      50218.233      36.893836      36.893836      36.893836    
    672000   0.36087423    -8.0488975     -7.5075938      1.7364651      50218.233      36.893836      36.893836      36.893836    
    673000   0.36115105    -8.0486991     -7.5069802      1.7344613      50218.233      36.893836      36.893836      36.893836    
    674000   0.36149375    -8.0487615     -7.5065286      1.7291559      50218.233      36.893836      36.893836      36.893836    
    675000   0.36069494    -8.0484397     -7.507405       1.7363305      50218.233      36.893836      36.893836      36.893836    
    676000   0.35947703    -8.0461235     -7.5069157      1.7515506      50218.233      36.893836      36.893836      36.893836    
    677000   0.36033658    -8.0468237     -7.5063265      1.7538862      50218.233      36.893836      36.893836      36.893836    
    678000   0.36231942    -8.0470029     -7.5035315      1.7581539      50218.233      36.893836      36.893836      36.893836    
    679000   0.35743679    -8.0459889     -7.5098413      1.7456805      50218.233      36.893836      36.893836      36.893836    
    680000   0.36003293    -8.0473504     -7.5073087      1.7519894      50218.233      36.893836      36.893836      36.893836    
    681000   0.36189483    -8.0485205     -7.505686       1.7353355      50218.233      36.893836      36.893836      36.893836    
    682000   0.36044591    -8.0469567     -7.5062956      1.7487903      50218.233      36.893836      36.893836      36.893836    
    683000   0.35915541    -8.0485653     -7.5098399      1.725674       50218.233      36.893836      36.893836      36.893836    
    684000   0.3625166     -8.048201      -7.5044338      1.7385908      50218.233      36.893836      36.893836      36.893836    
    685000   0.35875493    -8.0458173     -7.5076925      1.7504763      50218.233      36.893836      36.893836      36.893836    
    686000   0.36021238    -8.0501076     -7.5097967      1.7252222      50218.233      36.893836      36.893836      36.893836    
    687000   0.36144434    -8.0487498     -7.5065911      1.7296323      50218.233      36.893836      36.893836      36.893836    
    688000   0.36088023    -8.0485498     -7.5072372      1.7366299      50218.233      36.893836      36.893836      36.893836    
    689000   0.3604033     -8.0507613     -7.510164       1.7210066      50218.233      36.893836      36.893836      36.893836    
    690000   0.36015242    -8.0493108     -7.5090898      1.7250956      50218.233      36.893836      36.893836      36.893836    
    691000   0.35830513    -8.0465719     -7.5091219      1.744608       50218.233      36.893836      36.893836      36.893836    
    692000   0.35946746    -8.0490517     -7.5098582      1.732144       50218.233      36.893836      36.893836      36.893836    
    693000   0.35974448    -8.0490368     -7.5094278      1.7364763      50218.233      36.893836      36.893836      36.893836    
    694000   0.3584995     -8.0491214     -7.5113798      1.7299379      50218.233      36.893836      36.893836      36.893836    
    695000   0.36120568    -8.0482485     -7.5064477      1.7384142      50218.233      36.893836      36.893836      36.893836    
    696000   0.35960276    -8.0515624     -7.5121659      1.7186242      50218.233      36.893836      36.893836      36.893836    
    697000   0.35857733    -8.0485105     -7.5106522      1.7318051      50218.233      36.893836      36.893836      36.893836    
    698000   0.36192176    -8.0498349     -7.5069599      1.7229435      50218.233      36.893836      36.893836      36.893836    
    699000   0.36121224    -8.0507641     -7.5089534      1.7147586      50218.233      36.893836      36.893836      36.893836    
    700000   0.35973953    -8.0489186     -7.509317       1.7334359      50218.233      36.893836      36.893836      36.893836    
    701000   0.36200776    -8.0492987     -7.5062948      1.72736        50218.233      36.893836      36.893836      36.893836    
    702000   0.35903654    -8.0504274     -7.5118802      1.7239847      50218.233      36.893836      36.893836      36.893836    
    703000   0.36008421    -8.0504248     -7.5103062      1.7250316      50218.233      36.893836      36.893836      36.893836    
    704000   0.36126188    -8.0514441     -7.509559       1.7192659      50218.233      36.893836      36.893836      36.893836    
    705000   0.36048739    -8.0522126     -7.5114892      1.7075753      50218.233      36.893836      36.893836      36.893836    
    706000   0.36066898    -8.0472494     -7.5062536      1.7518975      50218.233      36.893836      36.893836      36.893836    
    707000   0.3598027     -8.045955      -7.5062586      1.7564914      50218.233      36.893836      36.893836      36.893836    
    708000   0.35922012    -8.0482589     -7.5094364      1.7380342      50218.233      36.893836      36.893836      36.893836    
    709000   0.35980456    -8.0440761     -7.504377       1.7589607      50218.233      36.893836      36.893836      36.893836    
    710000   0.35933768    -8.0483663     -7.5093674      1.7305861      50218.233      36.893836      36.893836      36.893836    
    711000   0.36105944    -8.0461974     -7.5046159      1.755523       50218.233      36.893836      36.893836      36.893836    
    712000   0.35960021    -8.0482731     -7.5088804      1.7336013      50218.233      36.893836      36.893836      36.893836    
    713000   0.36013085    -8.0507833     -7.5105947      1.7168532      50218.233      36.893836      36.893836      36.893836    
    714000   0.35862869    -8.045359      -7.5074236      1.7605973      50218.233      36.893836      36.893836      36.893836    
    715000   0.36084135    -8.049757      -7.5085026      1.7309531      50218.233      36.893836      36.893836      36.893836    
    716000   0.35738811    -8.047755      -7.5116805      1.7315139      50218.233      36.893836      36.893836      36.893836    
    717000   0.35830467    -8.0462717     -7.5088223      1.748923       50218.233      36.893836      36.893836      36.893836    
    718000   0.36206495    -8.0480627     -7.504973       1.7468376      50218.233      36.893836      36.893836      36.893836    
    719000   0.3615465     -8.0458977     -7.5035856      1.7615763      50218.233      36.893836      36.893836      36.893836    
    720000   0.35994036    -8.0457816     -7.5058787      1.7637666      50218.233      36.893836      36.893836      36.893836    
    721000   0.35952144    -8.0479526     -7.5086782      1.7340454      50218.233      36.893836      36.893836      36.893836    
    722000   0.36112019    -8.0434701     -7.5017976      1.7761886      50218.233      36.893836      36.893836      36.893836    
    723000   0.35998983    -8.0478808     -7.5079038      1.7384576      50218.233      36.893836      36.893836      36.893836    
    724000   0.35936379    -8.0463128     -7.5072748      1.7585242      50218.233      36.893836      36.893836      36.893836    
    725000   0.36124898    -8.049634      -7.5077683      1.7297509      50218.233      36.893836      36.893836      36.893836    
    726000   0.35982528    -8.0456033     -7.505873       1.7597511      50218.233      36.893836      36.893836      36.893836    
    727000   0.36225835    -8.0469222     -7.5035424      1.7562223      50218.233      36.893836      36.893836      36.893836    
    728000   0.35955649    -8.0483267     -7.5089996      1.7364666      50218.233      36.893836      36.893836      36.893836    
    729000   0.36127635    -8.0496867     -7.5077799      1.7262343      50218.233      36.893836      36.893836      36.893836    
    730000   0.35964381    -8.0469462     -7.5074881      1.7420154      50218.233      36.893836      36.893836      36.893836    
    731000   0.36080062    -8.0487663     -7.5075731      1.7342415      50218.233      36.893836      36.893836      36.893836    
    732000   0.36079748    -8.0478586     -7.5066701      1.7374103      50218.233      36.893836      36.893836      36.893836    
    733000   0.35782589    -8.0472831     -7.5105519      1.7391033      50218.233      36.893836      36.893836      36.893836    
    734000   0.3590301     -8.0492802     -7.5107427      1.7251797      50218.233      36.893836      36.893836      36.893836    
    735000   0.36110323    -8.0490604     -7.5074132      1.7351742      50218.233      36.893836      36.893836      36.893836    
    736000   0.36064045    -8.0452634     -7.5043104      1.7602385      50218.233      36.893836      36.893836      36.893836    
    737000   0.35888508    -8.0480563     -7.5097364      1.730923       50218.233      36.893836      36.893836      36.893836    
    738000   0.35909083    -8.0481765     -7.5095479      1.7333671      50218.233      36.893836      36.893836      36.893836    
    739000   0.35988346    -8.0480067     -7.5081892      1.7439777      50218.233      36.893836      36.893836      36.893836    
    740000   0.35936855    -8.044613      -7.5055679      1.7587168      50218.233      36.893836      36.893836      36.893836    
    741000   0.36038503    -8.0509782     -7.5104084      1.7086059      50218.233      36.893836      36.893836      36.893836    
    742000   0.35975153    -8.049843      -7.5102234      1.7296214      50218.233      36.893836      36.893836      36.893836    
    743000   0.36019473    -8.0496473     -7.5093629      1.7282314      50218.233      36.893836      36.893836      36.893836    
    744000   0.35947921    -8.0505943     -7.5113832      1.7131879      50218.233      36.893836      36.893836      36.893836    
    745000   0.35912109    -8.0471844     -7.5085104      1.741719       50218.233      36.893836      36.893836      36.893836    
    746000   0.35934473    -8.0477674     -7.508758       1.7440735      50218.233      36.893836      36.893836      36.893836    
    747000   0.35884259    -8.0514464     -7.5131902      1.7142513      50218.233      36.893836      36.893836      36.893836    
    748000   0.36041257    -8.0488147     -7.5082035      1.7292741      50218.233      36.893836      36.893836      36.893836    
    749000   0.35914614    -8.050606      -7.5118945      1.7259684      50218.233      36.893836      36.893836      36.893836    
    750000   0.35955035    -8.0502464     -7.5109285      1.71944        50218.233      36.893836      36.893836      36.893836    
    751000   0.35841266    -8.0497296     -7.5121182      1.7117915      50218.233      36.893836      36.893836      36.893836    
    752000   0.36036989    -8.0475593     -7.5070122      1.7417236      50218.233      36.893836      36.893836      36.893836    
    753000   0.35754497    -8.0470508     -7.510741       1.745585       50218.233      36.893836      36.893836      36.893836    
    754000   0.36052678    -8.0509847     -7.5102022      1.7183971      50218.233      36.893836      36.893836      36.893836    
    755000   0.36093677    -8.0546776     -7.5132802      1.6833235      50218.233      36.893836      36.893836      36.893836    
    756000   0.36098371    -8.0495428     -7.508075       1.7277004      50218.233      36.893836      36.893836      36.893836    
    757000   0.3595077     -8.048253      -7.5089991      1.7445896      50218.233      36.893836      36.893836      36.893836    
    758000   0.35940689    -8.050548      -7.5114453      1.720944       50218.233      36.893836      36.893836      36.893836    
    759000   0.35834122    -8.0464177     -7.5089135      1.7525132      50218.233      36.893836      36.893836      36.893836    
    760000   0.35905839    -8.0506457     -7.5120657      1.7154302      50218.233      36.893836      36.893836      36.893836    
    761000   0.36051891    -8.0476995     -7.5069288      1.7456588      50218.233      36.893836      36.893836      36.893836    
    762000   0.36082043    -8.0497001     -7.5084772      1.7289268      50218.233      36.893836      36.893836      36.893836    
    763000   0.35998045    -8.0434418     -7.5034788      1.7768023      50218.233      36.893836      36.893836      36.893836    
    764000   0.36063624    -8.0487777     -7.5078311      1.7396351      50218.233      36.893836      36.893836      36.893836    
    765000   0.35858615    -8.0485435     -7.5106719      1.7371025      50218.233      36.893836      36.893836      36.893836    
    766000   0.35814593    -8.0471844     -7.5099732      1.7443131      50218.233      36.893836      36.893836      36.893836    
    767000   0.35997879    -8.0469631     -7.5070026      1.748133       50218.233      36.893836      36.893836      36.893836    
    768000   0.3594607     -8.0483513     -7.5091679      1.7308308      50218.233      36.893836      36.893836      36.893836    
    769000   0.36080624    -8.0491349     -7.5079332      1.7282193      50218.233      36.893836      36.893836      36.893836    
    770000   0.36057519    -8.0479346     -7.5070795      1.7366471      50218.233      36.893836      36.893836      36.893836    
    771000   0.35890421    -8.0479181     -7.5095694      1.7346988      50218.233      36.893836      36.893836      36.893836    
    772000   0.35966822    -8.0477669     -7.5082722      1.7405671      50218.233      36.893836      36.893836      36.893836    
    773000   0.35991726    -8.0481943     -7.5083261      1.7358898      50218.233      36.893836      36.893836      36.893836    
    774000   0.35974734    -8.0474895     -7.5078762      1.737849       50218.233      36.893836      36.893836      36.893836    
    775000   0.36129774    -8.0453684     -7.5034295      1.7569022      50218.233      36.893836      36.893836      36.893836    
    776000   0.35760461    -8.0478685     -7.5114692      1.7333094      50218.233      36.893836      36.893836      36.893836    
    777000   0.36034896    -8.0442945     -7.5037787      1.7640433      50218.233      36.893836      36.893836      36.893836    
    778000   0.35998049    -8.0501602     -7.5101972      1.7215139      50218.233      36.893836      36.893836      36.893836    
    779000   0.35931007    -8.0472378     -7.5082804      1.7463903      50218.233      36.893836      36.893836      36.893836    
    780000   0.36219104    -8.045666      -7.5023871      1.7595503      50218.233      36.893836      36.893836      36.893836    
    781000   0.35852556    -8.0488622     -7.5110815      1.7395289      50218.233      36.893836      36.893836      36.893836    
    782000   0.35912177    -8.045021      -7.506346       1.7582439      50218.233      36.893836      36.893836      36.893836    
    783000   0.35873249    -8.0433706     -7.5052795      1.7772467      50218.233      36.893836      36.893836      36.893836    
    784000   0.35814911    -8.0490829     -7.5118669      1.7303296      50218.233      36.893836      36.893836      36.893836    
    785000   0.35889727    -8.0465953     -7.5082571      1.7501454      50218.233      36.893836      36.893836      36.893836    
    786000   0.36032998    -8.0495778     -7.5090905      1.7306445      50218.233      36.893836      36.893836      36.893836    
    787000   0.36110644    -8.0493323     -7.5076804      1.730471       50218.233      36.893836      36.893836      36.893836    
    788000   0.35993776    -8.0495909     -7.5096919      1.7280188      50218.233      36.893836      36.893836      36.893836    
    789000   0.36095874    -8.051259      -7.5098286      1.7202589      50218.233      36.893836      36.893836      36.893836    
    790000   0.3583698     -8.0446988     -7.5071517      1.7594649      50218.233      36.893836      36.893836      36.893836    
    791000   0.3586244     -8.0505502     -7.5126213      1.7158004      50218.233      36.893836      36.893836      36.893836    
    792000   0.35901269    -8.0479411     -7.5094297      1.738831       50218.233      36.893836      36.893836      36.893836    
    793000   0.35841659    -8.047377      -7.5097597      1.7449213      50218.233      36.893836      36.893836      36.893836    
    794000   0.3611763     -8.0484541     -7.5066973      1.733999       50218.233      36.893836      36.893836      36.893836    
    795000   0.35840328    -8.0483563     -7.5107591      1.7361012      50218.233      36.893836      36.893836      36.893836    
    796000   0.35959418    -8.0475582     -7.5081747      1.7434172      50218.233      36.893836      36.893836      36.893836    
    797000   0.3592544     -8.0500225     -7.5111486      1.7216659      50218.233      36.893836      36.893836      36.893836    
    798000   0.36157962    -8.0477347     -7.505373       1.7446775      50218.233      36.893836      36.893836      36.893836    
    799000   0.3603768     -8.0483783     -7.5078208      1.7416311      50218.233      36.893836      36.893836      36.893836    
    800000   0.3604759     -8.050133      -7.5094268      1.7187036      50218.233      36.893836      36.893836      36.893836    
    801000   0.36046291    -8.0491459     -7.5084592      1.7291202      50218.233      36.893836      36.893836      36.893836    
    802000   0.36198211    -8.0478242     -7.5048588      1.7362694      50218.233      36.893836      36.893836      36.893836    
    803000   0.35952178    -8.0508869     -7.5116119      1.714212       50218.233      36.893836      36.893836      36.893836    
    804000   0.35945588    -8.0488447     -7.5096686      1.7460019      50218.233      36.893836      36.893836      36.893836    
    805000   0.35831975    -8.0486561     -7.5111842      1.7375733      50218.233      36.893836      36.893836      36.893836    
    806000   0.3599599     -8.0492639     -7.5093317      1.7330285      50218.233      36.893836      36.893836      36.893836    
    807000   0.35917169    -8.0483713     -7.5096214      1.7384157      50218.233      36.893836      36.893836      36.893836    
    808000   0.35890088    -8.0501761     -7.5118324      1.7199196      50218.233      36.893836      36.893836      36.893836    
    809000   0.3594352     -8.047308      -7.5081628      1.744024       50218.233      36.893836      36.893836      36.893836    
    810000   0.36008163    -8.045178      -7.5050633      1.7589911      50218.233      36.893836      36.893836      36.893836    
    811000   0.35864553    -8.046028      -7.5080673      1.7548836      50218.233      36.893836      36.893836      36.893836    
    812000   0.36041541    -8.0516146     -7.5109992      1.7070176      50218.233      36.893836      36.893836      36.893836    
    813000   0.3613238     -8.0491492     -7.5071712      1.737205       50218.233      36.893836      36.893836      36.893836    
    814000   0.36094312    -8.0471623     -7.5057553      1.7448115      50218.233      36.893836      36.893836      36.893836    
    815000   0.3593565     -8.0480565     -7.5090294      1.7325905      50218.233      36.893836      36.893836      36.893836    
    816000   0.3591736     -8.0474035     -7.5086508      1.7391134      50218.233      36.893836      36.893836      36.893836    
    817000   0.36117564    -8.0451582     -7.5034025      1.7654033      50218.233      36.893836      36.893836      36.893836    
    818000   0.36001316    -8.0475688     -7.5075567      1.7412746      50218.233      36.893836      36.893836      36.893836    
    819000   0.35920639    -8.0495238     -7.5107219      1.7220117      50218.233      36.893836      36.893836      36.893836    
    820000   0.36146737    -8.0482928     -7.5060994      1.7377485      50218.233      36.893836      36.893836      36.893836    
    821000   0.35936747    -8.0484253     -7.5093818      1.7237954      50218.233      36.893836      36.893836      36.893836    
    822000   0.3597805     -8.0489666     -7.5093035      1.7325466      50218.233      36.893836      36.893836      36.893836    
    823000   0.3590523     -8.0459816     -7.5074109      1.7587355      50218.233      36.893836      36.893836      36.893836    
    824000   0.36062415    -8.0471277     -7.5061992      1.7440259      50218.233      36.893836      36.893836      36.893836    
    825000   0.35879275    -8.0462348     -7.5080533      1.7489796      50218.233      36.893836      36.893836      36.893836    
    826000   0.35917502    -8.0485727     -7.5098178      1.7304223      50218.233      36.893836      36.893836      36.893836    
    827000   0.36102373    -8.0477896     -7.5062617      1.7340167      50218.233      36.893836      36.893836      36.893836    
    828000   0.36175126    -8.0489626     -7.5063434      1.7357974      50218.233      36.893836      36.893836      36.893836    
    829000   0.35816255    -8.045746      -7.5085098      1.7568347      50218.233      36.893836      36.893836      36.893836    
    830000   0.3601589     -8.0480915     -7.5078608      1.7411674      50218.233      36.893836      36.893836      36.893836    
    831000   0.36027975    -8.0500424     -7.5096305      1.7180765      50218.233      36.893836      36.893836      36.893836    
    832000   0.36145079    -8.0486395     -7.506471       1.7405478      50218.233      36.893836      36.893836      36.893836    
    833000   0.36037578    -8.0455138     -7.5049578      1.7578038      50218.233      36.893836      36.893836      36.893836    
    834000   0.36069204    -8.0483395     -7.5073091      1.7373342      50218.233      36.893836      36.893836      36.893836    
    835000   0.35774434    -8.0477173     -7.5111084      1.7346396      50218.233      36.893836      36.893836      36.893836    
    836000   0.35833936    -8.0497377     -7.5122363      1.7282247      50218.233      36.893836      36.893836      36.893836    
    837000   0.35972015    -8.0473291     -7.5077566      1.7406181      50218.233      36.893836      36.893836      36.893836    
    838000   0.36243677    -8.0480809     -7.5044335      1.7453034      50218.233      36.893836      36.893836      36.893836    
    839000   0.359158      -8.0460043     -7.507275       1.7577418      50218.233      36.893836      36.893836      36.893836    
    840000   0.35933219    -8.0492477     -7.5102571      1.7231226      50218.233      36.893836      36.893836      36.893836    
    841000   0.36131314    -8.0510826     -7.5091206      1.7119936      50218.233      36.893836      36.893836      36.893836    
    842000   0.35947028    -8.048276      -7.5090782      1.7384533      50218.233      36.893836      36.893836      36.893836    
    843000   0.35990539    -8.0485977     -7.5087473      1.7296385      50218.233      36.893836      36.893836      36.893836    
    844000   0.35864855    -8.0469307     -7.5089656      1.7535935      50218.233      36.893836      36.893836      36.893836    
    845000   0.36042593    -8.0470747     -7.5064435      1.7439349      50218.233      36.893836      36.893836      36.893836    
    846000   0.36056528    -8.0502043     -7.5093641      1.7174575      50218.233      36.893836      36.893836      36.893836    
    847000   0.36119       -8.0471038     -7.5053265      1.7527801      50218.233      36.893836      36.893836      36.893836    
    848000   0.35998652    -8.0465675     -7.5065955      1.7526631      50218.233      36.893836      36.893836      36.893836    
    849000   0.36092625    -8.0485171     -7.5071355      1.7401773      50218.233      36.893836      36.893836      36.893836    
    850000   0.35981549    -8.0478198     -7.5081042      1.7453865      50218.233      36.893836      36.893836      36.893836    
    851000   0.36130472    -8.0481034     -7.506154       1.7365883      50218.233      36.893836      36.893836      36.893836    
    852000   0.36021412    -8.0469885     -7.506675       1.754024       50218.233      36.893836      36.893836      36.893836    
    853000   0.36276728    -8.0475237     -7.5033805      1.7578686      50218.233      36.893836      36.893836      36.893836    
    854000   0.36084577    -8.0494381     -7.5081771      1.7263641      50218.233      36.893836      36.893836      36.893836    
    855000   0.35834591    -8.0502301     -7.5127189      1.7275075      50218.233      36.893836      36.893836      36.893836    
    856000   0.36084552    -8.0496329     -7.5083723      1.7330859      50218.233      36.893836      36.893836      36.893836    
    857000   0.36004285    -8.0459031     -7.5058465      1.7526991      50218.233      36.893836      36.893836      36.893836    
    858000   0.36145581    -8.0507925     -7.5086165      1.7187636      50218.233      36.893836      36.893836      36.893836    
    859000   0.35953735    -8.0495357     -7.5102373      1.7249725      50218.233      36.893836      36.893836      36.893836    
    860000   0.36091057    -8.0478289     -7.5064708      1.741966       50218.233      36.893836      36.893836      36.893836    
    861000   0.35969867    -8.0425253     -7.5029849      1.7812141      50218.233      36.893836      36.893836      36.893836    
    862000   0.35827208    -8.0490017     -7.5116012      1.7284402      50218.233      36.893836      36.893836      36.893836    
    863000   0.36177586    -8.0492221     -7.506566       1.732021       50218.233      36.893836      36.893836      36.893836    
    864000   0.35944148    -8.0475992     -7.5084446      1.7428022      50218.233      36.893836      36.893836      36.893836    
    865000   0.3589782     -8.048744      -7.5102844      1.7240866      50218.233      36.893836      36.893836      36.893836    
    866000   0.36091225    -8.0479427     -7.5065821      1.7471746      50218.233      36.893836      36.893836      36.893836    
    867000   0.36056572    -8.0475799     -7.506739       1.749207       50218.233      36.893836      36.893836      36.893836    
    868000   0.36222918    -8.0476584     -7.5043224      1.739587       50218.233      36.893836      36.893836      36.893836    
    869000   0.35855619    -8.0499925     -7.5121659      1.7243816      50218.233      36.893836      36.893836      36.893836    
    870000   0.36021509    -8.048096      -7.5077811      1.7281671      50218.233      36.893836      36.893836      36.893836    
    871000   0.36009577    -8.0467226     -7.5065867      1.7463724      50218.233      36.893836      36.893836      36.893836    
    872000   0.3592784     -8.0480196     -7.5091097      1.7284855      50218.233      36.893836      36.893836      36.893836    
    873000   0.36122586    -8.046638      -7.5048069      1.7491276      50218.233      36.893836      36.893836      36.893836    
    874000   0.36188756    -8.0488208     -7.5059972      1.7376923      50218.233      36.893836      36.893836      36.893836    
    875000   0.3619247     -8.0480723     -7.5051929      1.7491442      50218.233      36.893836      36.893836      36.893836    
    876000   0.35922458    -8.0483708     -7.5095416      1.7423349      50218.233      36.893836      36.893836      36.893836    
    877000   0.35736845    -8.0482181     -7.512173       1.726088       50218.233      36.893836      36.893836      36.893836    
    878000   0.36077412    -8.0471445     -7.505991       1.7458415      50218.233      36.893836      36.893836      36.893836    
    879000   0.35943685    -8.0495326     -7.510385       1.7242227      50218.233      36.893836      36.893836      36.893836    
    880000   0.35680341    -8.045202      -7.5100045      1.762389       50218.233      36.893836      36.893836      36.893836    
    881000   0.35910098    -8.0471238     -7.50848        1.7476602      50218.233      36.893836      36.893836      36.893836    
    882000   0.3606247     -8.0477226     -7.5067933      1.743067       50218.233      36.893836      36.893836      36.893836    
    883000   0.35955197    -8.0470885     -7.5077682      1.7482388      50218.233      36.893836      36.893836      36.893836    
    884000   0.35830535    -8.0499088     -7.5124584      1.7236407      50218.233      36.893836      36.893836      36.893836    
    885000   0.3599689     -8.0491359     -7.5091902      1.7278837      50218.233      36.893836      36.893836      36.893836    
    886000   0.36163284    -8.0472287     -7.5047871      1.7438922      50218.233      36.893836      36.893836      36.893836    
    887000   0.35990121    -8.0498893     -7.5100452      1.7285411      50218.233      36.893836      36.893836      36.893836    
    888000   0.36099299    -8.0489905     -7.5075087      1.7285866      50218.233      36.893836      36.893836      36.893836    
    889000   0.36048563    -8.0503609     -7.5096402      1.7247966      50218.233      36.893836      36.893836      36.893836    
    890000   0.36025683    -8.0496968     -7.5093193      1.7223579      50218.233      36.893836      36.893836      36.893836    
    891000   0.35865486    -8.0503449     -7.5123703      1.7193507      50218.233      36.893836      36.893836      36.893836    
    892000   0.36009556    -8.0527375     -7.5126018      1.7019792      50218.233      36.893836      36.893836      36.893836    
    893000   0.36005544    -8.0492532     -7.5091777      1.7350871      50218.233      36.893836      36.893836      36.893836    
    894000   0.35932136    -8.0497245     -7.5107501      1.7242575      50218.233      36.893836      36.893836      36.893836    
    895000   0.35951565    -8.050109      -7.5108432      1.7205161      50218.233      36.893836      36.893836      36.893836    
    896000   0.35894693    -8.0517229     -7.5133101      1.7085709      50218.233      36.893836      36.893836      36.893836    
    897000   0.35995764    -8.0469473     -7.5070186      1.7486026      50218.233      36.893836      36.893836      36.893836    
    898000   0.36222143    -8.051451      -7.5081266      1.7124605      50218.233      36.893836      36.893836      36.893836    
    899000   0.35962377    -8.0479424     -7.5085144      1.7352328      50218.233      36.893836      36.893836      36.893836    
    900000   0.36157194    -8.0452269     -7.5028767      1.751606       50218.233      36.893836      36.893836      36.893836    
    901000   0.35964026    -8.0471128     -7.5076601      1.7449343      50218.233      36.893836      36.893836      36.893836    
    902000   0.36246195    -8.0485545     -7.5048693      1.7286264      50218.233      36.893836      36.893836      36.893836    
    903000   0.35921955    -8.0477113     -7.5088896      1.7491219      50218.233      36.893836      36.893836      36.893836    
    904000   0.35910386    -8.0516046     -7.5129564      1.7099765      50218.233      36.893836      36.893836      36.893836    
    905000   0.36108169    -8.0474904     -7.5058756      1.733632       50218.233      36.893836      36.893836      36.893836    
    906000   0.36047503    -8.0487027     -7.5079978      1.7376553      50218.233      36.893836      36.893836      36.893836    
    907000   0.36023344    -8.0467322     -7.5063897      1.7480307      50218.233      36.893836      36.893836      36.893836    
    908000   0.35915721    -8.0512352     -7.512507       1.7180502      50218.233      36.893836      36.893836      36.893836    
    909000   0.3601614     -8.0488112     -7.5085768      1.7322563      50218.233      36.893836      36.893836      36.893836    
    910000   0.35748605    -8.0485415     -7.5123201      1.7403414      50218.233      36.893836      36.893836      36.893836    
    911000   0.35901396    -8.0477758     -7.5092625      1.7402732      50218.233      36.893836      36.893836      36.893836    
    912000   0.36067477    -8.0492145     -7.5082101      1.7273725      50218.233      36.893836      36.893836      36.893836    
    913000   0.35968515    -8.0495943     -7.5100742      1.7182824      50218.233      36.893836      36.893836      36.893836    
    914000   0.35734983    -8.0449621     -7.5089449      1.7591922      50218.233      36.893836      36.893836      36.893836    
    915000   0.35845423    -8.0493464     -7.5116727      1.7324018      50218.233      36.893836      36.893836      36.893836    
    916000   0.35963141    -8.0510332     -7.5115938      1.7129876      50218.233      36.893836      36.893836      36.893836    
    917000   0.36033652    -8.0444367     -7.5039396      1.7642192      50218.233      36.893836      36.893836      36.893836    
    918000   0.36181191    -8.0486607     -7.5059506      1.7427789      50218.233      36.893836      36.893836      36.893836    
    919000   0.36028138    -8.0460364     -7.505622       1.7572954      50218.233      36.893836      36.893836      36.893836    
    920000   0.36116469    -8.0479076     -7.5061682      1.7416979      50218.233      36.893836      36.893836      36.893836    
    921000   0.35953036    -8.0496979     -7.51041        1.7195664      50218.233      36.893836      36.893836      36.893836    
    922000   0.3612855     -8.0471363     -7.5052158      1.7470955      50218.233      36.893836      36.893836      36.893836    
    923000   0.3599758     -8.0467956     -7.5068396      1.7531981      50218.233      36.893836      36.893836      36.893836    
    924000   0.3598679     -8.0472095     -7.5074153      1.7358781      50218.233      36.893836      36.893836      36.893836    
    925000   0.36042318    -8.0455469     -7.5049198      1.7536588      50218.233      36.893836      36.893836      36.893836    
    926000   0.35796009    -8.0472144     -7.5102819      1.7456642      50218.233      36.893836      36.893836      36.893836    
    927000   0.36029499    -8.0480633     -7.5076285      1.736904       50218.233      36.893836      36.893836      36.893836    
    928000   0.36101276    -8.0500682     -7.5085567      1.7228457      50218.233      36.893836      36.893836      36.893836    
    929000   0.36014406    -8.0485844     -7.508376       1.7313179      50218.233      36.893836      36.893836      36.893836    
    930000   0.36052035    -8.0489724     -7.5081996      1.7255512      50218.233      36.893836      36.893836      36.893836    
    931000   0.35918226    -8.0490723     -7.5103066      1.7448156      50218.233      36.893836      36.893836      36.893836    
    932000   0.36030809    -8.0461762     -7.5057217      1.7602101      50218.233      36.893836      36.893836      36.893836    
    933000   0.36075567    -8.0486056     -7.5074798      1.7343499      50218.233      36.893836      36.893836      36.893836    
    934000   0.36065261    -8.0479915     -7.5070203      1.7364332      50218.233      36.893836      36.893836      36.893836    
    935000   0.36108387    -8.0492852     -7.507667       1.7372093      50218.233      36.893836      36.893836      36.893836    
    936000   0.36095794    -8.0475633     -7.5061341      1.7389728      50218.233      36.893836      36.893836      36.893836    
    937000   0.36005508    -8.0468171     -7.5067421      1.7499682      50218.233      36.893836      36.893836      36.893836    
    938000   0.36075124    -8.049314      -7.5081948      1.7226538      50218.233      36.893836      36.893836      36.893836    
    939000   0.35816014    -8.0500669     -7.5128343      1.7187663      50218.233      36.893836      36.893836      36.893836    
    940000   0.35984095    -8.0480808     -7.508327       1.746221       50218.233      36.893836      36.893836      36.893836    
    941000   0.35999129    -8.0489722     -7.5089929      1.7334963      50218.233      36.893836      36.893836      36.893836    
    942000   0.35964006    -8.0486418     -7.5091893      1.7322229      50218.233      36.893836      36.893836      36.893836    
    943000   0.36019302    -8.048579      -7.5082972      1.7371882      50218.233      36.893836      36.893836      36.893836    
    944000   0.35972263    -8.050622      -7.5110457      1.7133568      50218.233      36.893836      36.893836      36.893836    
    945000   0.3590756     -8.0497287     -7.511123       1.7235567      50218.233      36.893836      36.893836      36.893836    
    946000   0.36076314    -8.0483891     -7.5072521      1.7279601      50218.233      36.893836      36.893836      36.893836    
    947000   0.36230287    -8.0455186     -7.502072       1.7562886      50218.233      36.893836      36.893836      36.893836    
    948000   0.36116855    -8.0519166     -7.5101714      1.7097682      50218.233      36.893836      36.893836      36.893836    
    949000   0.36091123    -8.0495707     -7.5082116      1.7330611      50218.233      36.893836      36.893836      36.893836    
    950000   0.35934396    -8.0483576     -7.5093493      1.7350811      50218.233      36.893836      36.893836      36.893836    
    951000   0.35942309    -8.050383      -7.511256       1.722679       50218.233      36.893836      36.893836      36.893836    
    952000   0.36066339    -8.0514186     -7.5104312      1.7148497      50218.233      36.893836      36.893836      36.893836    
    953000   0.35980546    -8.0483188     -7.5086183      1.7411711      50218.233      36.893836      36.893836      36.893836    
    954000   0.36025916    -8.0476642     -7.5072831      1.7371819      50218.233      36.893836      36.893836      36.893836    
    955000   0.3603979     -8.0504218     -7.5098327      1.7179962      50218.233      36.893836      36.893836      36.893836    
    956000   0.35915835    -8.0498017     -7.5110718      1.7235611      50218.233      36.893836      36.893836      36.893836    
    957000   0.35922364    -8.0513595     -7.5125317      1.7147992      50218.233      36.893836      36.893836      36.893836    
    958000   0.35900847    -8.0517323     -7.5132273      1.7136402      50218.233      36.893836      36.893836      36.893836    
    959000   0.3591283     -8.0491659     -7.5104811      1.725868       50218.233      36.893836      36.893836      36.893836    
    960000   0.35832905    -8.0494315     -7.5119456      1.7281619      50218.233      36.893836      36.893836      36.893836    
    961000   0.36025967    -8.0487911     -7.5084093      1.7323787      50218.233      36.893836      36.893836      36.893836    
    962000   0.35793937    -8.0461764     -7.509275       1.7410162      50218.233      36.893836      36.893836      36.893836    
    963000   0.36009182    -8.047879      -7.5077489      1.7375025      50218.233      36.893836      36.893836      36.893836    
    964000   0.36023686    -8.0452765     -7.5049289      1.7683995      50218.233      36.893836      36.893836      36.893836    
    965000   0.36128442    -8.0448643     -7.5029454      1.7604268      50218.233      36.893836      36.893836      36.893836    
    966000   0.35900658    -8.0489893     -7.5104871      1.7341939      50218.233      36.893836      36.893836      36.893836    
    967000   0.36254452    -8.0462967     -7.5024876      1.7452005      50218.233      36.893836      36.893836      36.893836    
    968000   0.35914126    -8.0496956     -7.5109913      1.7217416      50218.233      36.893836      36.893836      36.893836    
    969000   0.3609355     -8.0466415     -7.5052459      1.7488063      50218.233      36.893836      36.893836      36.893836    
    970000   0.36051966    -8.0451452     -7.5043734      1.7605335      50218.233      36.893836      36.893836      36.893836    
    971000   0.35967775    -8.04937       -7.509861       1.7337224      50218.233      36.893836      36.893836      36.893836    
    972000   0.36095715    -8.0462574     -7.5048294      1.7513677      50218.233      36.893836      36.893836      36.893836    
    973000   0.36062663    -8.0483947     -7.5074624      1.7330136      50218.233      36.893836      36.893836      36.893836    
    974000   0.36084724    -8.0493467     -7.5080836      1.72749        50218.233      36.893836      36.893836      36.893836    
    975000   0.35896865    -8.0456694     -7.507224       1.7545328      50218.233      36.893836      36.893836      36.893836    
    976000   0.36028394    -8.0473849     -7.5069667      1.7434079      50218.233      36.893836      36.893836      36.893836    
    977000   0.3597338     -8.047178      -7.5075849      1.7494568      50218.233      36.893836      36.893836      36.893836    
    978000   0.36120804    -8.0449989     -7.5031945      1.7667918      50218.233      36.893836      36.893836      36.893836    
    979000   0.36160345    -8.0486805     -7.506283       1.7441359      50218.233      36.893836      36.893836      36.893836    
    980000   0.35892       -8.0504136     -7.5120412      1.7094836      50218.233      36.893836      36.893836      36.893836    
    981000   0.36081984    -8.0498115     -7.5085894      1.7303155      50218.233      36.893836      36.893836      36.893836    
    982000   0.36032305    -8.0460889     -7.505612       1.7577252      50218.233      36.893836      36.893836      36.893836    
    983000   0.35979726    -8.0496385     -7.5099503      1.7322073      50218.233      36.893836      36.893836      36.893836    
    984000   0.36117443    -8.0455441     -7.5037902      1.7622762      50218.233      36.893836      36.893836      36.893836    
    985000   0.35806756    -8.0492779     -7.5121842      1.7195201      50218.233      36.893836      36.893836      36.893836    
    986000   0.36000145    -8.047838      -7.5078435      1.7415443      50218.233      36.893836      36.893836      36.893836    
    987000   0.36252237    -8.0502655     -7.5064897      1.7284629      50218.233      36.893836      36.893836      36.893836    
    988000   0.36142736    -8.0465885     -7.5044552      1.7531548      50218.233      36.893836      36.893836      36.893836    
    989000   0.35905215    -8.0471016     -7.508531       1.7366576      50218.233      36.893836      36.893836      36.893836    
    990000   0.35971228    -8.04656       -7.5069992      1.7565382      50218.233      36.893836      36.893836      36.893836    
    991000   0.36005272    -8.0478945     -7.5078231      1.7451692      50218.233      36.893836      36.893836      36.893836    
    992000   0.35815228    -8.046578      -7.5093572      1.7535378      50218.233      36.893836      36.893836      36.893836    
    993000   0.360094      -8.0479588     -7.5078255      1.7482833      50218.233      36.893836      36.893836      36.893836    
    994000   0.35968558    -8.0499769     -7.5104562      1.7222947      50218.233      36.893836      36.893836      36.893836    
    995000   0.36009623    -8.0492115     -7.5090748      1.729584       50218.233      36.893836      36.893836      36.893836    
    996000   0.35922958    -8.0480729     -7.5092362      1.7416101      50218.233      36.893836      36.893836      36.893836    
    997000   0.35936785    -8.0474264     -7.5083823      1.7406127      50218.233      36.893836      36.893836      36.893836    
    998000   0.3589925     -8.048671      -7.5101899      1.7397817      50218.233      36.893836      36.893836      36.893836    
    999000   0.36019925    -8.0492132     -7.508922       1.730419       50218.233      36.893836      36.893836      36.893836    
   1000000   0.35974929    -8.0510227     -7.5114064      1.7187258      50218.233      36.893836      36.893836      36.893836    
Loop time of 1580.47 on 4 procs for 1000000 steps with 70304 atoms

Performance: 546673.002 tau/day, 632.723 timesteps/s, 44.483 Matom-step/s
95.2% CPU use with 4 MPI tasks x 1 OpenMP threads

MPI task timing breakdown:
Section |  min time  |  avg time  |  max time  |%varavg| %total
---------------------------------------------------------------
Pair    | 504.33     | 556.8      | 599.03     | 146.5 | 35.23
Neigh   | 5.6294     | 5.7825     | 6.1379     |   8.6 |  0.37
Comm    | 224.49     | 226.69     | 228.55     |   9.7 | 14.34
Output  | 0.2006     | 0.2065     | 0.21665    |   1.4 |  0.01
Modify  | 662.97     | 704.61     | 758.07     | 131.6 | 44.58
Other   |            | 86.38      |            |       |  5.47

Nlocal:          17576 ave       17653 max       17525 min
Histogram: 1 0 1 1 0 0 0 0 0 1
Nghost:        16812.8 ave       16842 max       16790 min
Histogram: 2 0 0 0 0 0 1 0 0 1
Neighs:              0 ave           0 max           0 min
Histogram: 4 0 0 0 0 0 0 0 0 0

Total # of neighbors = 0
Ave neighs/atom = 0
Neighbor list builds = 176435
Dangerous builds = 0
clear
OMP_NUM_THREADS environment is not set. Defaulting to 1 thread. (src/comm.cpp:98)
  using 1 OpenMP thread(s) per MPI task
package gpu 0
jump dms340.lmp

variable T equal 340
# T = 1000* (temp in LJ unit)
variable f equal 1000
log log.${T}
log log.340
