variable TLJ equal (${T}/1000)
variable TLJ equal (500/1000)
variable NCyle equal 10
variable iStep equal (${f})
variable iStep equal (1000)
variable dumpStep equal (${f}*100)
variable dumpStep equal (1000*100)
variable runStep equal (${f}*100*${NCyle})
variable runStep equal (1000*100*${NCyle})
variable runStep equal (1000*100*10)

units       lj
atom_style  atomic
dimension 3
boundary     p p p
pair_style  lj/cut 2.5
read_data  ../data/T${T}.dat
read_data  ../data/T500.dat
Reading data file ...
  orthogonal box = (0.97250269 0.97250269 0.97250269) to (37.866338 37.866338 37.866338)
  1 by 2 by 2 MPI processor grid
  reading atoms ...
  70304 atoms
  reading velocities ...
  70304 velocities
  read_data CPU = 0.189 seconds
change_box all triclinic
Changing box ...
  triclinic box = (0.97250269 0.97250269 0.97250269) to (37.866338 37.866338 37.866338) with tilt (0 0 0)
mass 1 1
mass 2 1
pair_modify shift yes
pair_coeff  1 1 1 1
pair_coeff  1 2 1.5 0.8
pair_coeff  2 2 0.5 0.88


timestep 0.01
thermo ${iStep}
thermo 1000
reset_timestep 0
thermo_style custom step temp pe etotal press vol lx ly lz
fix             1 all nvt temp ${TLJ}  ${TLJ}  0.1
fix             1 all nvt temp 0.5  ${TLJ}  0.1
fix             1 all nvt temp 0.5  0.5  0.1
thermo_modify flush yes

fix dsf all deform 1 xy  wiggle 0.5  ${f}   units box
fix dsf all deform 1 xy  wiggle 0.5  1000   units box
fix ps1 all ave/time 1 1 ${iStep} c_thermo_press[1] c_thermo_press[2]  c_thermo_press[3] c_thermo_press[4]  c_thermo_press[5] c_thermo_press[6]  file  stress.${T}
fix ps1 all ave/time 1 1 1000 c_thermo_press[1] c_thermo_press[2]  c_thermo_press[3] c_thermo_press[4]  c_thermo_press[5] c_thermo_press[6]  file  stress.${T}
fix ps1 all ave/time 1 1 1000 c_thermo_press[1] c_thermo_press[2]  c_thermo_press[3] c_thermo_press[4]  c_thermo_press[5] c_thermo_press[6]  file  stress.500
dump            1 all custom ${dumpStep} dump.${T} id type x y z
dump            1 all custom 100000 dump.${T} id type x y z
dump            1 all custom 100000 dump.500 id type x y z
dump_modify 1 sort id
fix nodrift all momentum 1  linear 1 1 1
fix com_seed all recenter INIT INIT INIT shift all
run ${runStep}
run 1000000
Generated 0 of 1 mixed pair_coeff terms from geometric mixing rule
Per MPI rank memory allocation (min/avg/max) = 8.611 | 8.614 | 8.616 Mbytes
   Step          Temp          PotEng         TotEng         Press          Volume           Lx             Ly             Lz      
         0   0.50192821    -7.8229874     -7.0701058      3.605369       50218.233      36.893836      36.893836      36.893836    
      1000   0.49992245    -7.8145164     -7.0646434      3.6497613      50218.233      36.893836      36.893836      36.893836    
      2000   0.49920864    -7.8125196     -7.0637173      3.6718673      50218.233      36.893836      36.893836      36.893836    
      3000   0.5011209     -7.8118451     -7.0601744      3.6691523      50218.233      36.893836      36.893836      36.893836    
      4000   0.50133061    -7.813824      -7.0618387      3.6631406      50218.233      36.893836      36.893836      36.893836    
      5000   0.49939186    -7.815514      -7.0664368      3.6401775      50218.233      36.893836      36.893836      36.893836    
      6000   0.49967456    -7.8143773     -7.0648761      3.6469411      50218.233      36.893836      36.893836      36.893836    
      7000   0.50226246    -7.8122785     -7.0588955      3.6776418      50218.233      36.893836      36.893836      36.893836    
      8000   0.49926137    -7.8133118     -7.0644304      3.6575124      50218.233      36.893836      36.893836      36.893836    
      9000   0.50058986    -7.8150333     -7.0641592      3.6510459      50218.233      36.893836      36.893836      36.893836    
     10000   0.50146788    -7.8129834     -7.0607923      3.6733471      50218.233      36.893836      36.893836      36.893836    
     11000   0.49998355    -7.813526      -7.0635613      3.6654714      50218.233      36.893836      36.893836      36.893836    
     12000   0.50032933    -7.8127981     -7.0623147      3.6736503      50218.233      36.893836      36.893836      36.893836    
     13000   0.50069325    -7.8136223     -7.0625931      3.6665746      50218.233      36.893836      36.893836      36.893836    
     14000   0.4981704     -7.8116449     -7.0643999      3.6696415      50218.233      36.893836      36.893836      36.893836    
     15000   0.50141777    -7.8119911     -7.0598751      3.6756661      50218.233      36.893836      36.893836      36.893836    
     16000   0.499933      -7.8111794     -7.0612905      3.6730316      50218.233      36.893836      36.893836      36.893836    
     17000   0.50132474    -7.8154497     -7.0634733      3.6512404      50218.233      36.893836      36.893836      36.893836    
     18000   0.5003277     -7.8124084     -7.0619275      3.664922       50218.233      36.893836      36.893836      36.893836    
     19000   0.50113221    -7.8160463     -7.0643587      3.6451148      50218.233      36.893836      36.893836      36.893836    
     20000   0.50081947    -7.8116249     -7.0604064      3.6755176      50218.233      36.893836      36.893836      36.893836    
     21000   0.50114431    -7.8127193     -7.0610135      3.6757388      50218.233      36.893836      36.893836      36.893836    
     22000   0.49876718    -7.8108984     -7.0627582      3.6758097      50218.233      36.893836      36.893836      36.893836    
     23000   0.49744312    -7.8133533     -7.0671992      3.6544819      50218.233      36.893836      36.893836      36.893836    
     24000   0.50013545    -7.8097162     -7.0595237      3.7028009      50218.233      36.893836      36.893836      36.893836    
     25000   0.5002833     -7.8157943     -7.06538        3.6460058      50218.233      36.893836      36.893836      36.893836    
     26000   0.50052007    -7.8158688     -7.0650994      3.6404898      50218.233      36.893836      36.893836      36.893836    
     27000   0.49605595    -7.8158555     -7.0717822      3.6323986      50218.233      36.893836      36.893836      36.893836    
     28000   0.49975009    -7.8120086     -7.0623942      3.6710099      50218.233      36.893836      36.893836      36.893836    
     29000   0.50201223    -7.8133627     -7.060355       3.6677571      50218.233      36.893836      36.893836      36.893836    
     30000   0.50096494    -7.8140176     -7.0625809      3.669227       50218.233      36.893836      36.893836      36.893836    
     31000   0.49961698    -7.8139422     -7.0645274      3.6697091      50218.233      36.893836      36.893836      36.893836    
     32000   0.50225444    -7.8091177     -7.0557467      3.695975       50218.233      36.893836      36.893836      36.893836    
     33000   0.50050547    -7.8142418     -7.0634943      3.6530878      50218.233      36.893836      36.893836      36.893836    
     34000   0.49767188    -7.8136353     -7.0671381      3.6672525      50218.233      36.893836      36.893836      36.893836    
     35000   0.49967852    -7.8151788     -7.0656717      3.6390007      50218.233      36.893836      36.893836      36.893836    
     36000   0.49687756    -7.8129417     -7.067636       3.6606297      50218.233      36.893836      36.893836      36.893836    
     37000   0.50018608    -7.8113217     -7.0610532      3.6759699      50218.233      36.893836      36.893836      36.893836    
     38000   0.49929597    -7.8163962     -7.0674629      3.6406208      50218.233      36.893836      36.893836      36.893836    
     39000   0.50084436    -7.8126658     -7.0614099      3.6723708      50218.233      36.893836      36.893836      36.893836    
     40000   0.49924822    -7.8169474     -7.0680857      3.6331816      50218.233      36.893836      36.893836      36.893836    
     41000   0.49798936    -7.8175114     -7.070538       3.640637       50218.233      36.893836      36.893836      36.893836    
     42000   0.50082735    -7.8128485     -7.0616181      3.6783154      50218.233      36.893836      36.893836      36.893836    
     43000   0.50041316    -7.814521      -7.0639119      3.6560671      50218.233      36.893836      36.893836      36.893836    
     44000   0.50015737    -7.812495      -7.0622696      3.6701806      50218.233      36.893836      36.893836      36.893836    
     45000   0.50001528    -7.8125318     -7.0625196      3.6695103      50218.233      36.893836      36.893836      36.893836    
     46000   0.49877271    -7.8168573     -7.0687089      3.6333951      50218.233      36.893836      36.893836      36.893836    
     47000   0.49753759    -7.8161426     -7.0698468      3.6446082      50218.233      36.893836      36.893836      36.893836    
     48000   0.49741895    -7.8135186     -7.0674008      3.6517703      50218.233      36.893836      36.893836      36.893836    
     49000   0.49815724    -7.8127252     -7.0655         3.6651131      50218.233      36.893836      36.893836      36.893836    
     50000   0.49737506    -7.8108838     -7.0648318      3.6827915      50218.233      36.893836      36.893836      36.893836    
     51000   0.49824446    -7.8148142     -7.0674581      3.6480632      50218.233      36.893836      36.893836      36.893836    
     52000   0.49932722    -7.8172415     -7.0682613      3.6282238      50218.233      36.893836      36.893836      36.893836    
     53000   0.500295      -7.8159995     -7.0655677      3.6464233      50218.233      36.893836      36.893836      36.893836    
     54000   0.50002998    -7.8146589     -7.0646246      3.6572506      50218.233      36.893836      36.893836      36.893836    
     55000   0.49951363    -7.8139116     -7.0646518      3.6538521      50218.233      36.893836      36.893836      36.893836    
     56000   0.49964172    -7.8145848     -7.0651329      3.660299       50218.233      36.893836      36.893836      36.893836    
     57000   0.49805269    -7.8130464     -7.065978       3.6688813      50218.233      36.893836      36.893836      36.893836    
     58000   0.49850948    -7.8159432     -7.0681896      3.6445899      50218.233      36.893836      36.893836      36.893836    
     59000   0.49894538    -7.8169548     -7.0685474      3.6354583      50218.233      36.893836      36.893836      36.893836    
     60000   0.4988803     -7.8132276     -7.0649178      3.6630547      50218.233      36.893836      36.893836      36.893836    
     61000   0.49872668    -7.8165533     -7.0684739      3.6392093      50218.233      36.893836      36.893836      36.893836    
     62000   0.50113512    -7.8139539     -7.0622619      3.6663568      50218.233      36.893836      36.893836      36.893836    
     63000   0.50231176    -7.8133037     -7.0598468      3.6621096      50218.233      36.893836      36.893836      36.893836    
     64000   0.49955015    -7.8110989     -7.0617844      3.6807334      50218.233      36.893836      36.893836      36.893836    
     65000   0.50293688    -7.8122738     -7.0578792      3.6816326      50218.233      36.893836      36.893836      36.893836    
     66000   0.50058054    -7.8146457     -7.0637856      3.6527838      50218.233      36.893836      36.893836      36.893836    
     67000   0.50461299    -7.8115003     -7.0545916      3.6859296      50218.233      36.893836      36.893836      36.893836    
     68000   0.50018937    -7.8120615     -7.0617881      3.6808206      50218.233      36.893836      36.893836      36.893836    
     69000   0.50238656    -7.8125678     -7.0589986      3.6743084      50218.233      36.893836      36.893836      36.893836    
     70000   0.50050485    -7.8088475     -7.0581009      3.7147746      50218.233      36.893836      36.893836      36.893836    
     71000   0.49845935    -7.8156541     -7.0679757      3.6477147      50218.233      36.893836      36.893836      36.893836    
     72000   0.50006967    -7.810455      -7.0603611      3.6907071      50218.233      36.893836      36.893836      36.893836    
     73000   0.49831006    -7.8123191     -7.0648646      3.6686863      50218.233      36.893836      36.893836      36.893836    
     74000   0.49999562    -7.8119904     -7.0620077      3.6715115      50218.233      36.893836      36.893836      36.893836    
     75000   0.49675813    -7.8131961     -7.0680695      3.6659364      50218.233      36.893836      36.893836      36.893836    
     76000   0.499698      -7.8130993     -7.063563       3.6711641      50218.233      36.893836      36.893836      36.893836    
     77000   0.49876896    -7.8144257     -7.0662829      3.6636201      50218.233      36.893836      36.893836      36.893836    
     78000   0.50050593    -7.8128192     -7.062071       3.6593707      50218.233      36.893836      36.893836      36.893836    
     79000   0.50024062    -7.8130794     -7.0627292      3.6661223      50218.233      36.893836      36.893836      36.893836    
     80000   0.49861257    -7.814608      -7.0666998      3.6540626      50218.233      36.893836      36.893836      36.893836    
     81000   0.49929868    -7.8094902     -7.0605528      3.6967698      50218.233      36.893836      36.893836      36.893836    
     82000   0.50041517    -7.8158774     -7.0652653      3.6447812      50218.233      36.893836      36.893836      36.893836    
     83000   0.50085531    -7.8198419     -7.0685696      3.6241596      50218.233      36.893836      36.893836      36.893836    
     84000   0.50093362    -7.8113522     -7.0599625      3.6706237      50218.233      36.893836      36.893836      36.893836    
     85000   0.50089191    -7.8121227     -7.0607955      3.6737265      50218.233      36.893836      36.893836      36.893836    
     86000   0.50190272    -7.8123195     -7.0594761      3.6840034      50218.233      36.893836      36.893836      36.893836    
     87000   0.5003512     -7.8105375     -7.0600214      3.6928089      50218.233      36.893836      36.893836      36.893836    
     88000   0.50026822    -7.8118296     -7.061438       3.6846101      50218.233      36.893836      36.893836      36.893836    
     89000   0.50010797    -7.811246      -7.0610947      3.6857527      50218.233      36.893836      36.893836      36.893836    
     90000   0.49935826    -7.8159896     -7.0669628      3.6432064      50218.233      36.893836      36.893836      36.893836    
     91000   0.4999204     -7.8179675     -7.0680976      3.6330186      50218.233      36.893836      36.893836      36.893836    
     92000   0.49996202    -7.8138102     -7.0638778      3.6680488      50218.233      36.893836      36.893836      36.893836    
     93000   0.50170409    -7.8103842     -7.0578388      3.6895179      50218.233      36.893836      36.893836      36.893836    
     94000   0.50032775    -7.8116977     -7.0612168      3.6703575      50218.233      36.893836      36.893836      36.893836    
     95000   0.49740997    -7.818455      -7.0723507      3.6171459      50218.233      36.893836      36.893836      36.893836    
     96000   0.49988712    -7.8127509     -7.0629309      3.6831188      50218.233      36.893836      36.893836      36.893836    
     97000   0.5029599     -7.8128543     -7.0584252      3.6680958      50218.233      36.893836      36.893836      36.893836    
     98000   0.49879449    -7.8145485     -7.0663675      3.6619306      50218.233      36.893836      36.893836      36.893836    
     99000   0.49907548    -7.8156078     -7.0670053      3.6575145      50218.233      36.893836      36.893836      36.893836    
    100000   0.4976099     -7.8112546     -7.0648504      3.6897394      50218.233      36.893836      36.893836      36.893836    
    101000   0.49689869    -7.8102933     -7.0649558      3.6962051      50218.233      36.893836      36.893836      36.893836    
    102000   0.5022105     -7.8132119     -7.0599069      3.6688563      50218.233      36.893836      36.893836      36.893836    
    103000   0.4984201     -7.8146345     -7.0670149      3.6539955      50218.233      36.893836      36.893836      36.893836    
    104000   0.4996277     -7.815564      -7.0661331      3.6459599      50218.233      36.893836      36.893836      36.893836    
    105000   0.49992347    -7.8122526     -7.0623781      3.6770891      50218.233      36.893836      36.893836      36.893836    
    106000   0.50001943    -7.8134991     -7.0634807      3.6691407      50218.233      36.893836      36.893836      36.893836    
    107000   0.49693787    -7.8113766     -7.0659804      3.6776132      50218.233      36.893836      36.893836      36.893836    
    108000   0.50140593    -7.8138675     -7.0617693      3.6609593      50218.233      36.893836      36.893836      36.893836    
    109000   0.49799686    -7.8167432     -7.0697585      3.6341241      50218.233      36.893836      36.893836      36.893836    
    110000   0.50062764    -7.8126526     -7.0617218      3.6735527      50218.233      36.893836      36.893836      36.893836    
    111000   0.50049952    -7.8106787     -7.0599401      3.6887383      50218.233      36.893836      36.893836      36.893836    
    112000   0.50050974    -7.8115372     -7.0607833      3.6791512      50218.233      36.893836      36.893836      36.893836    
    113000   0.49964393    -7.8125874     -7.0631321      3.6682795      50218.233      36.893836      36.893836      36.893836    
    114000   0.49727906    -7.8150768     -7.0691688      3.6502683      50218.233      36.893836      36.893836      36.893836    
    115000   0.49910473    -7.8179938     -7.0693474      3.627097       50218.233      36.893836      36.893836      36.893836    
    116000   0.50063815    -7.8102248     -7.0592783      3.681763       50218.233      36.893836      36.893836      36.893836    
    117000   0.49986813    -7.8127166     -7.0629251      3.6730306      50218.233      36.893836      36.893836      36.893836    
    118000   0.50078073    -7.8174181     -7.0662577      3.6384285      50218.233      36.893836      36.893836      36.893836    
    119000   0.50140971    -7.8126874     -7.0605835      3.6752808      50218.233      36.893836      36.893836      36.893836    
    120000   0.49892343    -7.8110182     -7.0626437      3.6779715      50218.233      36.893836      36.893836      36.893836    
    121000   0.50120233    -7.8142594     -7.0624666      3.6570837      50218.233      36.893836      36.893836      36.893836    
    122000   0.49922354    -7.8122139     -7.0633892      3.6607651      50218.233      36.893836      36.893836      36.893836    
    123000   0.50070308    -7.8118441     -7.0608001      3.6685455      50218.233      36.893836      36.893836      36.893836    
    124000   0.49871481    -7.8127876     -7.064726       3.6669536      50218.233      36.893836      36.893836      36.893836    
    125000   0.50132016    -7.8175408     -7.0655712      3.653382       50218.233      36.893836      36.893836      36.893836    
    126000   0.49796592    -7.8124936     -7.0655554      3.6661355      50218.233      36.893836      36.893836      36.893836    
    127000   0.50000579    -7.8116243     -7.0616263      3.6784385      50218.233      36.893836      36.893836      36.893836    
    128000   0.49926062    -7.8128463     -7.0639661      3.6679586      50218.233      36.893836      36.893836      36.893836    
    129000   0.49927464    -7.8181986     -7.0692973      3.626974       50218.233      36.893836      36.893836      36.893836    
    130000   0.50142451    -7.811864      -7.0597379      3.6772696      50218.233      36.893836      36.893836      36.893836    
    131000   0.49954419    -7.8092217     -7.0599161      3.695949       50218.233      36.893836      36.893836      36.893836    
    132000   0.49991834    -7.8090656     -7.0591988      3.7082564      50218.233      36.893836      36.893836      36.893836    
    133000   0.49806591    -7.8116532     -7.064565       3.6792782      50218.233      36.893836      36.893836      36.893836    
    134000   0.50155239    -7.8164646     -7.0641467      3.6495123      50218.233      36.893836      36.893836      36.893836    
    135000   0.49919356    -7.8106177     -7.061838       3.6926828      50218.233      36.893836      36.893836      36.893836    
    136000   0.49848681    -7.8121219     -7.0644023      3.6743223      50218.233      36.893836      36.893836      36.893836    
    137000   0.49809977    -7.8099927     -7.0628537      3.6930043      50218.233      36.893836      36.893836      36.893836    
    138000   0.50081268    -7.8119909     -7.0607825      3.6830712      50218.233      36.893836      36.893836      36.893836    
    139000   0.4995271     -7.81173       -7.06245        3.6689321      50218.233      36.893836      36.893836      36.893836    
    140000   0.49968008    -7.8096106     -7.0601011      3.6989536      50218.233      36.893836      36.893836      36.893836    
    141000   0.50209054    -7.8125509     -7.0594258      3.6779469      50218.233      36.893836      36.893836      36.893836    
    142000   0.49906372    -7.8141612     -7.0655762      3.6671772      50218.233      36.893836      36.893836      36.893836    
    143000   0.50181339    -7.8090262     -7.0563168      3.7005591      50218.233      36.893836      36.893836      36.893836    
    144000   0.49859028    -7.8145219     -7.0666471      3.6517194      50218.233      36.893836      36.893836      36.893836    
    145000   0.50087323    -7.8152305     -7.0639314      3.6586293      50218.233      36.893836      36.893836      36.893836    
    146000   0.50083478    -7.8101959     -7.0589544      3.696102       50218.233      36.893836      36.893836      36.893836    
    147000   0.50109268    -7.8118134     -7.0601851      3.6799581      50218.233      36.893836      36.893836      36.893836    
    148000   0.5009811     -7.810495      -7.059034       3.6966391      50218.233      36.893836      36.893836      36.893836    
    149000   0.50272527    -7.8115865     -7.0575093      3.6925614      50218.233      36.893836      36.893836      36.893836    
    150000   0.50361637    -7.8143398     -7.058926       3.6672542      50218.233      36.893836      36.893836      36.893836    
    151000   0.49873698    -7.8094824     -7.0613876      3.6943613      50218.233      36.893836      36.893836      36.893836    
    152000   0.5015168     -7.8138684     -7.0616039      3.6779327      50218.233      36.893836      36.893836      36.893836    
    153000   0.50038199    -7.8121563     -7.061594       3.6751931      50218.233      36.893836      36.893836      36.893836    
    154000   0.49946396    -7.8129803     -7.063795       3.6714528      50218.233      36.893836      36.893836      36.893836    
    155000   0.50106729    -7.8120292     -7.0604389      3.6711167      50218.233      36.893836      36.893836      36.893836    
    156000   0.49868844    -7.8139073     -7.0658853      3.6570618      50218.233      36.893836      36.893836      36.893836    
    157000   0.50133737    -7.8144929     -7.0624976      3.6633959      50218.233      36.893836      36.893836      36.893836    
    158000   0.49956127    -7.8125893     -7.063258       3.6726782      50218.233      36.893836      36.893836      36.893836    
    159000   0.50092722    -7.8153549     -7.0639748      3.6602517      50218.233      36.893836      36.893836      36.893836    
    160000   0.50191015    -7.8129319     -7.0600774      3.6638484      50218.233      36.893836      36.893836      36.893836    
    161000   0.50107834    -7.8114801     -7.0598733      3.6762124      50218.233      36.893836      36.893836      36.893836    
    162000   0.50031243    -7.8112292     -7.0607712      3.6784533      50218.233      36.893836      36.893836      36.893836    
    163000   0.49896833    -7.8076056     -7.0591638      3.7073764      50218.233      36.893836      36.893836      36.893836    
    164000   0.50021379    -7.8137211     -7.063411       3.6594587      50218.233      36.893836      36.893836      36.893836    
    165000   0.4989586     -7.8126342     -7.064207       3.6606177      50218.233      36.893836      36.893836      36.893836    
    166000   0.50444532    -7.8158703     -7.0592131      3.6433681      50218.233      36.893836      36.893836      36.893836    
    167000   0.5004629     -7.8100996     -7.0594159      3.6943359      50218.233      36.893836      36.893836      36.893836    
    168000   0.50034224    -7.8121965     -7.0616938      3.6679817      50218.233      36.893836      36.893836      36.893836    
    169000   0.50101414    -7.8120997     -7.0605892      3.6741044      50218.233      36.893836      36.893836      36.893836    
    170000   0.49760754    -7.810877      -7.0644763      3.6745373      50218.233      36.893836      36.893836      36.893836    
    171000   0.50204416    -7.8126229     -7.0595674      3.6704403      50218.233      36.893836      36.893836      36.893836    
    172000   0.49981471    -7.8130066     -7.0632952      3.6643873      50218.233      36.893836      36.893836      36.893836    
    173000   0.49996094    -7.8127428     -7.0628121      3.6698024      50218.233      36.893836      36.893836      36.893836    
    174000   0.49820969    -7.8107708     -7.0634669      3.6843174      50218.233      36.893836      36.893836      36.893836    
    175000   0.50090324    -7.8129022     -7.061558       3.6582975      50218.233      36.893836      36.893836      36.893836    
    176000   0.49736552    -7.8112675     -7.0652298      3.676145       50218.233      36.893836      36.893836      36.893836    
    177000   0.49865654    -7.8125137     -7.0645395      3.6694244      50218.233      36.893836      36.893836      36.893836    
    178000   0.502293      -7.8108232     -7.0573944      3.6854355      50218.233      36.893836      36.893836      36.893836    
    179000   0.50226884    -7.8146145     -7.0612219      3.6566475      50218.233      36.893836      36.893836      36.893836    
    180000   0.50234347    -7.8105692     -7.0570647      3.6866898      50218.233      36.893836      36.893836      36.893836    
    181000   0.50006988    -7.8138575     -7.0637633      3.6646533      50218.233      36.893836      36.893836      36.893836    
    182000   0.50399184    -7.8110607     -7.0550837      3.6905882      50218.233      36.893836      36.893836      36.893836    
    183000   0.50033991    -7.8118987     -7.0613995      3.6860094      50218.233      36.893836      36.893836      36.893836    
    184000   0.49868058    -7.8079298     -7.0599196      3.7104209      50218.233      36.893836      36.893836      36.893836    
    185000   0.49822742    -7.8103245     -7.062994       3.6795226      50218.233      36.893836      36.893836      36.893836    
    186000   0.49974993    -7.8121147     -7.0625005      3.6737599      50218.233      36.893836      36.893836      36.893836    
    187000   0.49758453    -7.8113582     -7.0649921      3.675687       50218.233      36.893836      36.893836      36.893836    
    188000   0.49922987    -7.8155344     -7.0667003      3.6491417      50218.233      36.893836      36.893836      36.893836    
    189000   0.50009578    -7.8093513     -7.0592183      3.7018585      50218.233      36.893836      36.893836      36.893836    
    190000   0.50214198    -7.8153859     -7.0621836      3.6664909      50218.233      36.893836      36.893836      36.893836    
    191000   0.50066274    -7.8145157     -7.0635323      3.6479772      50218.233      36.893836      36.893836      36.893836    
    192000   0.50080875    -7.8129602     -7.0617578      3.670291       50218.233      36.893836      36.893836      36.893836    
    193000   0.49900611    -7.8153317     -7.0668332      3.6511623      50218.233      36.893836      36.893836      36.893836    
    194000   0.5002592     -7.8082813     -7.0579032      3.7024285      50218.233      36.893836      36.893836      36.893836    
    195000   0.49927581    -7.8126153     -7.0637122      3.6733982      50218.233      36.893836      36.893836      36.893836    
    196000   0.49957142    -7.8136004     -7.064254       3.6659031      50218.233      36.893836      36.893836      36.893836    
    197000   0.49566137    -7.8143052     -7.0708237      3.640287       50218.233      36.893836      36.893836      36.893836    
    198000   0.49831578    -7.8100671     -7.0626041      3.6909961      50218.233      36.893836      36.893836      36.893836    
    199000   0.50183028    -7.8121877     -7.059453       3.6828501      50218.233      36.893836      36.893836      36.893836    
    200000   0.50040492    -7.811583      -7.0609863      3.6865388      50218.233      36.893836      36.893836      36.893836    
    201000   0.50122402    -7.8154153     -7.0635899      3.6503114      50218.233      36.893836      36.893836      36.893836    
    202000   0.50120324    -7.8141273     -7.0623332      3.6643638      50218.233      36.893836      36.893836      36.893836    
    203000   0.49964928    -7.8118518     -7.0623886      3.6728556      50218.233      36.893836      36.893836      36.893836    
    204000   0.50094386    -7.813884      -7.0624789      3.6604271      50218.233      36.893836      36.893836      36.893836    
    205000   0.50053498    -7.8112144     -7.0604226      3.6975713      50218.233      36.893836      36.893836      36.893836    
    206000   0.5009104     -7.8126681     -7.0613132      3.6786671      50218.233      36.893836      36.893836      36.893836    
    207000   0.49937307    -7.8145937     -7.0655447      3.6668317      50218.233      36.893836      36.893836      36.893836    
    208000   0.50151438    -7.812444      -7.0601831      3.6836782      50218.233      36.893836      36.893836      36.893836    
    209000   0.50199586    -7.80895       -7.0559669      3.7073434      50218.233      36.893836      36.893836      36.893836    
    210000   0.50104388    -7.8130466     -7.0614914      3.6739759      50218.233      36.893836      36.893836      36.893836    
    211000   0.49899698    -7.8112751     -7.0627903      3.6905912      50218.233      36.893836      36.893836      36.893836    
    212000   0.50097053    -7.8127306     -7.0612855      3.6751909      50218.233      36.893836      36.893836      36.893836    
    213000   0.50014851    -7.8160812     -7.0658691      3.6422014      50218.233      36.893836      36.893836      36.893836    
    214000   0.49932687    -7.8122944     -7.0633147      3.6800236      50218.233      36.893836      36.893836      36.893836    
    215000   0.4973321     -7.8112049     -7.0652174      3.6832377      50218.233      36.893836      36.893836      36.893836    
    216000   0.50035597    -7.8159964     -7.0654731      3.6520784      50218.233      36.893836      36.893836      36.893836    
    217000   0.49755404    -7.8090392     -7.0627187      3.6966192      50218.233      36.893836      36.893836      36.893836    
    218000   0.49683349    -7.8101675     -7.0649278      3.6888318      50218.233      36.893836      36.893836      36.893836    
    219000   0.49845674    -7.8115495     -7.063875       3.6711358      50218.233      36.893836      36.893836      36.893836    
    220000   0.49995789    -7.8092016     -7.0592754      3.6950569      50218.233      36.893836      36.893836      36.893836    
    221000   0.49965232    -7.8148173     -7.0653495      3.6563907      50218.233      36.893836      36.893836      36.893836    
    222000   0.49961771    -7.8121672     -7.0627513      3.6766129      50218.233      36.893836      36.893836      36.893836    
    223000   0.49800948    -7.8136935     -7.0666899      3.6707411      50218.233      36.893836      36.893836      36.893836    
    224000   0.49856384    -7.8114726     -7.0636375      3.678399       50218.233      36.893836      36.893836      36.893836    
    225000   0.50052634    -7.81026       -7.0594812      3.6909416      50218.233      36.893836      36.893836      36.893836    
    226000   0.50174841    -7.8137244     -7.0611124      3.6825242      50218.233      36.893836      36.893836      36.893836    
    227000   0.5012983     -7.8105708     -7.058634       3.6798538      50218.233      36.893836      36.893836      36.893836    
    228000   0.50076926    -7.8115801     -7.0604369      3.6947627      50218.233      36.893836      36.893836      36.893836    
    229000   0.50094002    -7.8135693     -7.06217        3.6693107      50218.233      36.893836      36.893836      36.893836    
    230000   0.49820731    -7.8064265     -7.0591262      3.7182312      50218.233      36.893836      36.893836      36.893836    
    231000   0.50211785    -7.8083426     -7.0551766      3.7104063      50218.233      36.893836      36.893836      36.893836    
    232000   0.50043351    -7.8113693     -7.0607297      3.68274        50218.233      36.893836      36.893836      36.893836    
    233000   0.49925939    -7.8127683     -7.0638898      3.6682407      50218.233      36.893836      36.893836      36.893836    
    234000   0.50073932    -7.8112714     -7.0601731      3.6735916      50218.233      36.893836      36.893836      36.893836    
    235000   0.50061138    -7.8109026     -7.0599962      3.6828276      50218.233      36.893836      36.893836      36.893836    
    236000   0.50140659    -7.8117012     -7.059602       3.678081       50218.233      36.893836      36.893836      36.893836    
    237000   0.49894516    -7.8111239     -7.0627168      3.6861837      50218.233      36.893836      36.893836      36.893836    
    238000   0.49864677    -7.8135255     -7.065566       3.6649415      50218.233      36.893836      36.893836      36.893836    
    239000   0.49873949    -7.8119583     -7.0638597      3.6817812      50218.233      36.893836      36.893836      36.893836    
    240000   0.50081902    -7.8131487     -7.0619309      3.6668652      50218.233      36.893836      36.893836      36.893836    
    241000   0.49937239    -7.8099856     -7.0609376      3.6917088      50218.233      36.893836      36.893836      36.893836    
    242000   0.4970219     -7.8116855     -7.0661633      3.6689762      50218.233      36.893836      36.893836      36.893836    
    243000   0.50136496    -7.8159331     -7.0638964      3.6562702      50218.233      36.893836      36.893836      36.893836    
    244000   0.49894498    -7.81251       -7.0641031      3.6654352      50218.233      36.893836      36.893836      36.893836    
    245000   0.49976107    -7.8065234     -7.0568925      3.723727       50218.233      36.893836      36.893836      36.893836    
    246000   0.50189512    -7.8101924     -7.0573605      3.6855425      50218.233      36.893836      36.893836      36.893836    
    247000   0.50065877    -7.811968      -7.0609905      3.6720628      50218.233      36.893836      36.893836      36.893836    
    248000   0.50032239    -7.8133765     -7.0629036      3.6665117      50218.233      36.893836      36.893836      36.893836    
    249000   0.50092034    -7.8112726     -7.0599028      3.685682       50218.233      36.893836      36.893836      36.893836    
    250000   0.50144955    -7.8150169     -7.0628532      3.6482881      50218.233      36.893836      36.893836      36.893836    
    251000   0.50173844    -7.8126238     -7.0600269      3.6748938      50218.233      36.893836      36.893836      36.893836    
    252000   0.49910064    -7.813788      -7.0651477      3.6620431      50218.233      36.893836      36.893836      36.893836    
    253000   0.49672892    -7.812648      -7.0675652      3.6595512      50218.233      36.893836      36.893836      36.893836    
    254000   0.49841897    -7.8163447     -7.0687269      3.6230875      50218.233      36.893836      36.893836      36.893836    
    255000   0.50096582    -7.8121063     -7.0606682      3.6855282      50218.233      36.893836      36.893836      36.893836    
    256000   0.50289364    -7.816303      -7.0619733      3.6492284      50218.233      36.893836      36.893836      36.893836    
    257000   0.50003884    -7.814323      -7.0642754      3.6495675      50218.233      36.893836      36.893836      36.893836    
    258000   0.50018328    -7.8088638     -7.0585995      3.6807093      50218.233      36.893836      36.893836      36.893836    
    259000   0.49900372    -7.8152962     -7.0668013      3.6535681      50218.233      36.893836      36.893836      36.893836    
    260000   0.4993888     -7.810986      -7.0619135      3.6793813      50218.233      36.893836      36.893836      36.893836    
    261000   0.49963423    -7.8139735     -7.0645328      3.6695682      50218.233      36.893836      36.893836      36.893836    
    262000   0.49971656    -7.8110897     -7.0615255      3.6839749      50218.233      36.893836      36.893836      36.893836    
    263000   0.50018343    -7.8136788     -7.0634143      3.6573107      50218.233      36.893836      36.893836      36.893836    
    264000   0.50264084    -7.8131042     -7.0591536      3.6713523      50218.233      36.893836      36.893836      36.893836    
    265000   0.50024808    -7.8125266     -7.0621651      3.6615012      50218.233      36.893836      36.893836      36.893836    
    266000   0.49798242    -7.8117856     -7.0648226      3.6820021      50218.233      36.893836      36.893836      36.893836    
    267000   0.49950631    -7.8143557     -7.0651069      3.6611736      50218.233      36.893836      36.893836      36.893836    
    268000   0.49991121    -7.8102601     -7.060404       3.6836278      50218.233      36.893836      36.893836      36.893836    
    269000   0.50058643    -7.8135424     -7.0626735      3.650048       50218.233      36.893836      36.893836      36.893836    
    270000   0.50032369    -7.8129478     -7.062473       3.6735302      50218.233      36.893836      36.893836      36.893836    
    271000   0.50062735    -7.8141979     -7.0632676      3.657474       50218.233      36.893836      36.893836      36.893836    
    272000   0.49955604    -7.8158852     -7.0665618      3.6464304      50218.233      36.893836      36.893836      36.893836    
    273000   0.50207063    -7.8113671     -7.0582719      3.6938136      50218.233      36.893836      36.893836      36.893836    
    274000   0.50371146    -7.8101198     -7.0545633      3.6954707      50218.233      36.893836      36.893836      36.893836    
    275000   0.49903312    -7.8141235     -7.0655845      3.6588339      50218.233      36.893836      36.893836      36.893836    
    276000   0.50215276    -7.809657      -7.0564386      3.6909033      50218.233      36.893836      36.893836      36.893836    
    277000   0.50171352    -7.8091075     -7.0565479      3.694904       50218.233      36.893836      36.893836      36.893836    
    278000   0.4986516     -7.8086208     -7.060654       3.7034963      50218.233      36.893836      36.893836      36.893836    
    279000   0.49818322    -7.8129115     -7.0656473      3.6633561      50218.233      36.893836      36.893836      36.893836    
    280000   0.49907466    -7.8095671     -7.0609658      3.6930345      50218.233      36.893836      36.893836      36.893836    
    281000   0.49981731    -7.813509      -7.0637937      3.6598603      50218.233      36.893836      36.893836      36.893836    
    282000   0.50006259    -7.8075016     -7.0574184      3.7109145      50218.233      36.893836      36.893836      36.893836    
    283000   0.50178585    -7.8093741     -7.0567061      3.7003461      50218.233      36.893836      36.893836      36.893836    
    284000   0.50012052    -7.8128848     -7.0627147      3.6608967      50218.233      36.893836      36.893836      36.893836    
    285000   0.50043637    -7.8124281     -7.0617843      3.6745285      50218.233      36.893836      36.893836      36.893836    
    286000   0.50131516    -7.812363      -7.0604009      3.663899       50218.233      36.893836      36.893836      36.893836    
    287000   0.50072771    -7.8144416     -7.0633607      3.6600549      50218.233      36.893836      36.893836      36.893836    
    288000   0.49692334    -7.8115942     -7.0662198      3.6661306      50218.233      36.893836      36.893836      36.893836    
    289000   0.49814341    -7.8071622     -7.0599578      3.7005045      50218.233      36.893836      36.893836      36.893836    
    290000   0.49886673    -7.81287       -7.0645806      3.6683692      50218.233      36.893836      36.893836      36.893836    
    291000   0.50045027    -7.8135785     -7.0629138      3.66495        50218.233      36.893836      36.893836      36.893836    
    292000   0.49902189    -7.8101786     -7.0616564      3.6839997      50218.233      36.893836      36.893836      36.893836    
    293000   0.49960967    -7.8136208     -7.064217       3.6719776      50218.233      36.893836      36.893836      36.893836    
    294000   0.49890257    -7.8098972     -7.061554       3.6897712      50218.233      36.893836      36.893836      36.893836    
    295000   0.50017504    -7.8115409     -7.061289       3.661307       50218.233      36.893836      36.893836      36.893836    
    296000   0.49803777    -7.8109991     -7.0639531      3.6685005      50218.233      36.893836      36.893836      36.893836    
    297000   0.50020192    -7.8132076     -7.0629154      3.6683326      50218.233      36.893836      36.893836      36.893836    
    298000   0.50129405    -7.8090717     -7.0571413      3.6902111      50218.233      36.893836      36.893836      36.893836    
    299000   0.49986517    -7.8133146     -7.0635275      3.6588417      50218.233      36.893836      36.893836      36.893836    
    300000   0.49839381    -7.8100535     -7.0624734      3.6840029      50218.233      36.893836      36.893836      36.893836    
    301000   0.49661362    -7.814348      -7.0694382      3.6469562      50218.233      36.893836      36.893836      36.893836    
    302000   0.50357052    -7.8109419     -7.0555969      3.6883343      50218.233      36.893836      36.893836      36.893836    
    303000   0.50224384    -7.8076698     -7.0543148      3.7097872      50218.233      36.893836      36.893836      36.893836    
    304000   0.49987918    -7.8128867     -7.0630786      3.6666049      50218.233      36.893836      36.893836      36.893836    
    305000   0.50041113    -7.8139835     -7.0633774      3.6590764      50218.233      36.893836      36.893836      36.893836    
    306000   0.50086866    -7.8055995     -7.0543071      3.7252656      50218.233      36.893836      36.893836      36.893836    
    307000   0.50132306    -7.8150655     -7.0630916      3.6444234      50218.233      36.893836      36.893836      36.893836    
    308000   0.50008907    -7.8119479     -7.061825       3.6779573      50218.233      36.893836      36.893836      36.893836    
    309000   0.50072399    -7.8098717     -7.0587964      3.6856442      50218.233      36.893836      36.893836      36.893836    
    310000   0.49739337    -7.8109706     -7.0648911      3.6867771      50218.233      36.893836      36.893836      36.893836    
    311000   0.50050619    -7.8109559     -7.0602073      3.6892739      50218.233      36.893836      36.893836      36.893836    
    312000   0.49957817    -7.8117153     -7.0623587      3.6632704      50218.233      36.893836      36.893836      36.893836    
    313000   0.50077818    -7.81305       -7.0618934      3.6642544      50218.233      36.893836      36.893836      36.893836    
    314000   0.49672336    -7.8168357     -7.0717612      3.6328704      50218.233      36.893836      36.893836      36.893836    
    315000   0.50037812    -7.8121502     -7.0615937      3.6812991      50218.233      36.893836      36.893836      36.893836    
    316000   0.50080358    -7.8106296     -7.0594349      3.6930124      50218.233      36.893836      36.893836      36.893836    
    317000   0.50045497    -7.8108527     -7.0601809      3.68402        50218.233      36.893836      36.893836      36.893836    
    318000   0.50315049    -7.8084908     -7.0537758      3.7103447      50218.233      36.893836      36.893836      36.893836    
    319000   0.50061969    -7.8118638     -7.060945       3.6758387      50218.233      36.893836      36.893836      36.893836    
    320000   0.4957295     -7.8098888     -7.0663051      3.6858934      50218.233      36.893836      36.893836      36.893836    
    321000   0.5023862     -7.8123001     -7.0587315      3.6652365      50218.233      36.893836      36.893836      36.893836    
    322000   0.50205904    -7.8107051     -7.0576272      3.6843488      50218.233      36.893836      36.893836      36.893836    
    323000   0.49930442    -7.8103774     -7.0614314      3.6817367      50218.233      36.893836      36.893836      36.893836    
    324000   0.50013806    -7.8120004     -7.061804       3.6702271      50218.233      36.893836      36.893836      36.893836    
    325000   0.50097767    -7.8100839     -7.058628       3.688912       50218.233      36.893836      36.893836      36.893836    
    326000   0.49877367    -7.8070903     -7.0589404      3.7133615      50218.233      36.893836      36.893836      36.893836    
    327000   0.49716265    -7.8109257     -7.0651923      3.6902777      50218.233      36.893836      36.893836      36.893836    
    328000   0.49946119    -7.8125671     -7.063386       3.6851978      50218.233      36.893836      36.893836      36.893836    
    329000   0.50044037    -7.8126507     -7.0620008      3.67788        50218.233      36.893836      36.893836      36.893836    
    330000   0.50095931    -7.8106884     -7.0592601      3.6967057      50218.233      36.893836      36.893836      36.893836    
    331000   0.49862528    -7.8095398     -7.0616125      3.6877893      50218.233      36.893836      36.893836      36.893836    
    332000   0.49937157    -7.804091      -7.0550443      3.7241696      50218.233      36.893836      36.893836      36.893836    
    333000   0.49880279    -7.8131996     -7.065006       3.6601808      50218.233      36.893836      36.893836      36.893836    
    334000   0.50012305    -7.8102004     -7.0600265      3.6964294      50218.233      36.893836      36.893836      36.893836    
    335000   0.50172234    -7.8148735     -7.0623006      3.6581154      50218.233      36.893836      36.893836      36.893836    
    336000   0.49487128    -7.8140017     -7.0717053      3.6659117      50218.233      36.893836      36.893836      36.893836    
    337000   0.49885873    -7.8115662     -7.0632888      3.6800115      50218.233      36.893836      36.893836      36.893836    
    338000   0.49911568    -7.8101045     -7.0614417      3.6922858      50218.233      36.893836      36.893836      36.893836    
    339000   0.50294647    -7.810963      -7.0565541      3.6893488      50218.233      36.893836      36.893836      36.893836    
    340000   0.50026004    -7.8149824     -7.0646031      3.6470498      50218.233      36.893836      36.893836      36.893836    
    341000   0.50027245    -7.8093215     -7.0589235      3.6971637      50218.233      36.893836      36.893836      36.893836    
    342000   0.50197748    -7.8162412     -7.0632856      3.646906       50218.233      36.893836      36.893836      36.893836    
    343000   0.50024355    -7.8121344     -7.0617797      3.6846081      50218.233      36.893836      36.893836      36.893836    
    344000   0.50077289    -7.8124756     -7.061327       3.6765431      50218.233      36.893836      36.893836      36.893836    
    345000   0.50004259    -7.8115157     -7.0614625      3.682863       50218.233      36.893836      36.893836      36.893836    
    346000   0.50005668    -7.8064208     -7.0563465      3.7203555      50218.233      36.893836      36.893836      36.893836    
    347000   0.50177889    -7.8111226     -7.058465       3.6839643      50218.233      36.893836      36.893836      36.893836    
    348000   0.49792686    -7.8094356     -7.0625559      3.6909819      50218.233      36.893836      36.893836      36.893836    
    349000   0.50033507    -7.8125773     -7.0620854      3.6827341      50218.233      36.893836      36.893836      36.893836    
    350000   0.5002371     -7.8101897     -7.0598447      3.6859033      50218.233      36.893836      36.893836      36.893836    
    351000   0.50111134    -7.8124401     -7.0607838      3.6730661      50218.233      36.893836      36.893836      36.893836    
    352000   0.50282187    -7.8086069     -7.0543848      3.6972228      50218.233      36.893836      36.893836      36.893836    
    353000   0.49932154    -7.8095699     -7.0605982      3.6899401      50218.233      36.893836      36.893836      36.893836    
    354000   0.49844476    -7.8135457     -7.0658892      3.6678014      50218.233      36.893836      36.893836      36.893836    
    355000   0.49894051    -7.812106      -7.0637058      3.6812381      50218.233      36.893836      36.893836      36.893836    
    356000   0.50007387    -7.8112699     -7.0611697      3.6784444      50218.233      36.893836      36.893836      36.893836    
    357000   0.50089475    -7.8117286     -7.0603972      3.6768528      50218.233      36.893836      36.893836      36.893836    
    358000   0.5006581     -7.8078412     -7.0568647      3.7086226      50218.233      36.893836      36.893836      36.893836    
    359000   0.50093853    -7.8093069     -7.0579098      3.6962948      50218.233      36.893836      36.893836      36.893836    
    360000   0.49857918    -7.8155763     -7.0677182      3.6453293      50218.233      36.893836      36.893836      36.893836    
    361000   0.50031002    -7.8091044     -7.05865        3.7022178      50218.233      36.893836      36.893836      36.893836    
    362000   0.49863436    -7.8108897     -7.0629488      3.6727898      50218.233      36.893836      36.893836      36.893836    
    363000   0.49905739    -7.8127215     -7.0641461      3.6632852      50218.233      36.893836      36.893836      36.893836    
    364000   0.50072966    -7.810486      -7.0594022      3.6804205      50218.233      36.893836      36.893836      36.893836    
    365000   0.49878912    -7.8053168     -7.0571438      3.7254112      50218.233      36.893836      36.893836      36.893836    
    366000   0.50024815    -7.8109943     -7.0606328      3.6840649      50218.233      36.893836      36.893836      36.893836    
    367000   0.49679865    -7.8104396     -7.0652522      3.6952378      50218.233      36.893836      36.893836      36.893836    
    368000   0.50113475    -7.8087353     -7.0570438      3.7084552      50218.233      36.893836      36.893836      36.893836    
    369000   0.49863496    -7.80656       -7.0586182      3.7270067      50218.233      36.893836      36.893836      36.893836    
    370000   0.5017726     -7.8140292     -7.061381       3.661291       50218.233      36.893836      36.893836      36.893836    
    371000   0.50046701    -7.8133075     -7.0626177      3.6688747      50218.233      36.893836      36.893836      36.893836    
    372000   0.49947719    -7.8115531     -7.062348       3.6810491      50218.233      36.893836      36.893836      36.893836    
    373000   0.49874761    -7.8103458     -7.062235       3.6828705      50218.233      36.893836      36.893836      36.893836    
    374000   0.50023273    -7.8098444     -7.059506       3.6999625      50218.233      36.893836      36.893836      36.893836    
    375000   0.50245604    -7.8120827     -7.0584094      3.6803143      50218.233      36.893836      36.893836      36.893836    
    376000   0.50126482    -7.811066      -7.0591794      3.6835456      50218.233      36.893836      36.893836      36.893836    
    377000   0.50065841    -7.8064532     -7.0554763      3.7207626      50218.233      36.893836      36.893836      36.893836    
    378000   0.49762115    -7.8080493     -7.0616281      3.6962906      50218.233      36.893836      36.893836      36.893836    
    379000   0.5001554     -7.8101017     -7.0598793      3.691673       50218.233      36.893836      36.893836      36.893836    
    380000   0.49833025    -7.8136965     -7.0662117      3.6516556      50218.233      36.893836      36.893836      36.893836    
    381000   0.49975537    -7.8073643     -7.0577419      3.7072416      50218.233      36.893836      36.893836      36.893836    
    382000   0.50137864    -7.8100269     -7.0579696      3.6885096      50218.233      36.893836      36.893836      36.893836    
    383000   0.50023413    -7.8114111     -7.0610705      3.6803273      50218.233      36.893836      36.893836      36.893836    
    384000   0.50040566    -7.8108909     -7.0602931      3.6829539      50218.233      36.893836      36.893836      36.893836    
    385000   0.50095602    -7.8069379     -7.0555146      3.7208693      50218.233      36.893836      36.893836      36.893836    
    386000   0.5011927     -7.8080815     -7.0563031      3.7003876      50218.233      36.893836      36.893836      36.893836    
    387000   0.49894281    -7.8092973     -7.0608937      3.7033025      50218.233      36.893836      36.893836      36.893836    
    388000   0.49885846    -7.8086748     -7.0603978      3.6916374      50218.233      36.893836      36.893836      36.893836    
    389000   0.49762478    -7.81129       -7.0648634      3.6793109      50218.233      36.893836      36.893836      36.893836    
    390000   0.50101881    -7.8135645     -7.062047       3.6537063      50218.233      36.893836      36.893836      36.893836    
    391000   0.50143801    -7.8077036     -7.0555572      3.7078792      50218.233      36.893836      36.893836      36.893836    
    392000   0.49779511    -7.8085102     -7.0618281      3.6929141      50218.233      36.893836      36.893836      36.893836    
    393000   0.49983763    -7.8146213     -7.0648756      3.6526357      50218.233      36.893836      36.893836      36.893836    
    394000   0.49863743    -7.8083741     -7.0604286      3.6987237      50218.233      36.893836      36.893836      36.893836    
    395000   0.49742652    -7.8119781     -7.065849       3.670931       50218.233      36.893836      36.893836      36.893836    
    396000   0.49781608    -7.8144401     -7.0677266      3.6680074      50218.233      36.893836      36.893836      36.893836    
    397000   0.49826979    -7.8100505     -7.0626564      3.6976394      50218.233      36.893836      36.893836      36.893836    
    398000   0.50496515    -7.8124979     -7.055061       3.6834182      50218.233      36.893836      36.893836      36.893836    
    399000   0.49973263    -7.8120267     -7.0624384      3.6743696      50218.233      36.893836      36.893836      36.893836    
    400000   0.50004891    -7.813708      -7.0636453      3.6634603      50218.233      36.893836      36.893836      36.893836    
    401000   0.50054381    -7.8068264     -7.0560213      3.7181555      50218.233      36.893836      36.893836      36.893836    
    402000   0.50077837    -7.8107037     -7.0595468      3.6980954      50218.233      36.893836      36.893836      36.893836    
    403000   0.49946982    -7.8145283     -7.0653343      3.6508451      50218.233      36.893836      36.893836      36.893836    
    404000   0.50034751    -7.8110359     -7.0605253      3.6919224      50218.233      36.893836      36.893836      36.893836    
    405000   0.50060465    -7.809517      -7.0586207      3.6923499      50218.233      36.893836      36.893836      36.893836    
    406000   0.49649055    -7.8140529     -7.0693276      3.6528325      50218.233      36.893836      36.893836      36.893836    
    407000   0.50194745    -7.8088489     -7.0559384      3.6928762      50218.233      36.893836      36.893836      36.893836    
    408000   0.50143       -7.8110694     -7.0589351      3.6798392      50218.233      36.893836      36.893836      36.893836    
    409000   0.49857459    -7.8070765     -7.0592253      3.7075998      50218.233      36.893836      36.893836      36.893836    
    410000   0.50095534    -7.8127432     -7.0613209      3.6695861      50218.233      36.893836      36.893836      36.893836    
    411000   0.50300615    -7.8062028     -7.0517043      3.7242061      50218.233      36.893836      36.893836      36.893836    
    412000   0.50034397    -7.8088196     -7.0583143      3.7001919      50218.233      36.893836      36.893836      36.893836    
    413000   0.50164341    -7.8106831     -7.0582287      3.6927328      50218.233      36.893836      36.893836      36.893836    
    414000   0.49806483    -7.8123269     -7.0652403      3.6751886      50218.233      36.893836      36.893836      36.893836    
    415000   0.50195924    -7.8140911     -7.061163       3.6645219      50218.233      36.893836      36.893836      36.893836    
    416000   0.50185908    -7.8130881     -7.0603102      3.6726388      50218.233      36.893836      36.893836      36.893836    
    417000   0.50111765    -7.8131674     -7.0615016      3.6766833      50218.233      36.893836      36.893836      36.893836    
    418000   0.49823596    -7.8114332     -7.0640899      3.6840218      50218.233      36.893836      36.893836      36.893836    
    419000   0.50200187    -7.8074189     -7.0544268      3.7148395      50218.233      36.893836      36.893836      36.893836    
    420000   0.50022712    -7.8144946     -7.0641646      3.6631987      50218.233      36.893836      36.893836      36.893836    
    421000   0.50228003    -7.8108604     -7.0574511      3.6875614      50218.233      36.893836      36.893836      36.893836    
    422000   0.49965774    -7.8115245     -7.0620486      3.6753891      50218.233      36.893836      36.893836      36.893836    
    423000   0.50009007    -7.8132887     -7.0631642      3.667321       50218.233      36.893836      36.893836      36.893836    
    424000   0.50261907    -7.8085997     -7.0546818      3.7054047      50218.233      36.893836      36.893836      36.893836    
    425000   0.49707771    -7.8124091     -7.0668031      3.6815907      50218.233      36.893836      36.893836      36.893836    
    426000   0.49806674    -7.8071306     -7.0600411      3.7087288      50218.233      36.893836      36.893836      36.893836    
    427000   0.50027427    -7.8081451     -7.0577444      3.7110316      50218.233      36.893836      36.893836      36.893836    
    428000   0.49735423    -7.8106234     -7.0646027      3.6908312      50218.233      36.893836      36.893836      36.893836    
    429000   0.49912253    -7.8098991     -7.061226       3.6969728      50218.233      36.893836      36.893836      36.893836    
    430000   0.50198516    -7.8112627     -7.0582957      3.6827813      50218.233      36.893836      36.893836      36.893836    
    431000   0.4989459     -7.8078629     -7.0594547      3.7124116      50218.233      36.893836      36.893836      36.893836    
    432000   0.50048311    -7.8104395     -7.0597255      3.6899611      50218.233      36.893836      36.893836      36.893836    
    433000   0.50066064    -7.812322      -7.0613417      3.6850708      50218.233      36.893836      36.893836      36.893836    
    434000   0.49905484    -7.8088694     -7.0602978      3.708387       50218.233      36.893836      36.893836      36.893836    
    435000   0.50257212    -7.8123289     -7.0584815      3.6645873      50218.233      36.893836      36.893836      36.893836    
    436000   0.50165807    -7.8114205     -7.0589441      3.694958       50218.233      36.893836      36.893836      36.893836    
    437000   0.4978773     -7.8106177     -7.0638124      3.6849307      50218.233      36.893836      36.893836      36.893836    
    438000   0.49654877    -7.8090581     -7.0642456      3.7017474      50218.233      36.893836      36.893836      36.893836    
    439000   0.49978126    -7.8090115     -7.0593503      3.7037081      50218.233      36.893836      36.893836      36.893836    
    440000   0.50061152    -7.8098963     -7.0589897      3.6932578      50218.233      36.893836      36.893836      36.893836    
    441000   0.49859001    -7.8131759     -7.0653015      3.6687055      50218.233      36.893836      36.893836      36.893836    
    442000   0.50171637    -7.8101178     -7.0575539      3.6919027      50218.233      36.893836      36.893836      36.893836    
    443000   0.50133074    -7.8161887     -7.0642032      3.6528032      50218.233      36.893836      36.893836      36.893836    
    444000   0.50131124    -7.8096195     -7.0576634      3.6988065      50218.233      36.893836      36.893836      36.893836    
    445000   0.50139628    -7.8101115     -7.0580278      3.6985506      50218.233      36.893836      36.893836      36.893836    
    446000   0.50090496    -7.813444      -7.0620972      3.670154       50218.233      36.893836      36.893836      36.893836    
    447000   0.49902421    -7.8111783     -7.0626527      3.692642       50218.233      36.893836      36.893836      36.893836    
    448000   0.50242687    -7.808164      -7.0545344      3.7180017      50218.233      36.893836      36.893836      36.893836    
    449000   0.50033284    -7.8137002     -7.0632116      3.6697991      50218.233      36.893836      36.893836      36.893836    
    450000   0.50128068    -7.8049902     -7.0530799      3.7323452      50218.233      36.893836      36.893836      36.893836    
    451000   0.50124205    -7.8103662     -7.0585138      3.6980395      50218.233      36.893836      36.893836      36.893836    
    452000   0.49754734    -7.8117117     -7.0654013      3.6789732      50218.233      36.893836      36.893836      36.893836    
    453000   0.50312332    -7.8085324     -7.0538581      3.7045206      50218.233      36.893836      36.893836      36.893836    
    454000   0.50319659    -7.8106532     -7.055869       3.6953044      50218.233      36.893836      36.893836      36.893836    
    455000   0.50054771    -7.8111372     -7.0603263      3.6850464      50218.233      36.893836      36.893836      36.893836    
    456000   0.49999554    -7.8094558     -7.0594732      3.6922535      50218.233      36.893836      36.893836      36.893836    
    457000   0.50065367    -7.8096088     -7.0586389      3.6960006      50218.233      36.893836      36.893836      36.893836    
    458000   0.50082393    -7.8135554     -7.0623302      3.6629755      50218.233      36.893836      36.893836      36.893836    
    459000   0.50475865    -7.8099764     -7.0528492      3.6935962      50218.233      36.893836      36.893836      36.893836    
    460000   0.50109301    -7.8125787     -7.0609499      3.6696053      50218.233      36.893836      36.893836      36.893836    
    461000   0.49977953    -7.8111452     -7.0614865      3.685284       50218.233      36.893836      36.893836      36.893836    
    462000   0.50185618    -7.8102734     -7.0574999      3.686147       50218.233      36.893836      36.893836      36.893836    
    463000   0.50073445    -7.805859      -7.0547681      3.7234751      50218.233      36.893836      36.893836      36.893836    
    464000   0.49896762    -7.8125478     -7.064107       3.6775957      50218.233      36.893836      36.893836      36.893836    
    465000   0.4985161     -7.8130852     -7.0653217      3.6636184      50218.233      36.893836      36.893836      36.893836    
    466000   0.5027727     -7.8097365     -7.0555882      3.689823       50218.233      36.893836      36.893836      36.893836    
    467000   0.49791666    -7.8076044     -7.06074        3.7065532      50218.233      36.893836      36.893836      36.893836    
    468000   0.49987419    -7.8107293     -7.0609287      3.6774277      50218.233      36.893836      36.893836      36.893836    
    469000   0.50195641    -7.8062813     -7.0533574      3.7171476      50218.233      36.893836      36.893836      36.893836    
    470000   0.50118549    -7.8115997     -7.0598322      3.6773429      50218.233      36.893836      36.893836      36.893836    
    471000   0.49857443    -7.8071236     -7.0592726      3.7050275      50218.233      36.893836      36.893836      36.893836    
    472000   0.50206246    -7.8083637     -7.0552807      3.7008573      50218.233      36.893836      36.893836      36.893836    
    473000   0.49897149    -7.8096361     -7.0611895      3.6925507      50218.233      36.893836      36.893836      36.893836    
    474000   0.4989555     -7.8104525     -7.0620299      3.6867077      50218.233      36.893836      36.893836      36.893836    
    475000   0.50140777    -7.8131392     -7.0610382      3.6716078      50218.233      36.893836      36.893836      36.893836    
    476000   0.49953785    -7.8092339     -7.0599378      3.6957881      50218.233      36.893836      36.893836      36.893836    
    477000   0.50011549    -7.8103401     -7.0601776      3.6788112      50218.233      36.893836      36.893836      36.893836    
    478000   0.50276751    -7.8075611     -7.0534205      3.7138781      50218.233      36.893836      36.893836      36.893836    
    479000   0.50243862    -7.8126113     -7.0589641      3.6805472      50218.233      36.893836      36.893836      36.893836    
    480000   0.50231693    -7.811287      -7.0578223      3.6718106      50218.233      36.893836      36.893836      36.893836    
    481000   0.49691561    -7.810177      -7.0648142      3.6879517      50218.233      36.893836      36.893836      36.893836    
    482000   0.49988925    -7.8152911     -7.0654679      3.6533285      50218.233      36.893836      36.893836      36.893836    
    483000   0.49781393    -7.8093712     -7.062661       3.6848865      50218.233      36.893836      36.893836      36.893836    
    484000   0.50175331    -7.8113651     -7.0587458      3.6810729      50218.233      36.893836      36.893836      36.893836    
    485000   0.49976185    -7.813105      -7.0634729      3.6634755      50218.233      36.893836      36.893836      36.893836    
    486000   0.50161456    -7.8097017     -7.0572906      3.6997238      50218.233      36.893836      36.893836      36.893836    
    487000   0.5003993     -7.8116303     -7.061042       3.6754381      50218.233      36.893836      36.893836      36.893836    
    488000   0.49574241    -7.8086692     -7.0650661      3.6902712      50218.233      36.893836      36.893836      36.893836    
    489000   0.4999001     -7.8105318     -7.0606923      3.6807713      50218.233      36.893836      36.893836      36.893836    
    490000   0.50204893    -7.814318      -7.0612553      3.6675759      50218.233      36.893836      36.893836      36.893836    
    491000   0.49947647    -7.8114309     -7.0622269      3.6785723      50218.233      36.893836      36.893836      36.893836    
    492000   0.50058293    -7.8105242     -7.0596605      3.6900544      50218.233      36.893836      36.893836      36.893836    
    493000   0.50026892    -7.8084878     -7.058095       3.7123444      50218.233      36.893836      36.893836      36.893836    
    494000   0.49777699    -7.8131649     -7.06651        3.6689626      50218.233      36.893836      36.893836      36.893836    
    495000   0.49793836    -7.8105771     -7.0636802      3.6815613      50218.233      36.893836      36.893836      36.893836    
    496000   0.50285871    -7.8093376     -7.0550603      3.6924356      50218.233      36.893836      36.893836      36.893836    
    497000   0.50094688    -7.8141122     -7.0627026      3.6558829      50218.233      36.893836      36.893836      36.893836    
    498000   0.49854445    -7.8075381     -7.0597321      3.7166467      50218.233      36.893836      36.893836      36.893836    
    499000   0.49997611    -7.8129736     -7.0630201      3.6724072      50218.233      36.893836      36.893836      36.893836    
    500000   0.49874249    -7.8102929     -7.0621898      3.6907656      50218.233      36.893836      36.893836      36.893836    
    501000   0.50090927    -7.8110459     -7.0596927      3.6816936      50218.233      36.893836      36.893836      36.893836    
    502000   0.49744722    -7.8112043     -7.0650441      3.6694202      50218.233      36.893836      36.893836      36.893836    
    503000   0.49896132    -7.816524      -7.0680926      3.6438863      50218.233      36.893836      36.893836      36.893836    
    504000   0.5011586     -7.8162576     -7.0645304      3.6461374      50218.233      36.893836      36.893836      36.893836    
    505000   0.50017468    -7.8138453     -7.063594       3.6582273      50218.233      36.893836      36.893836      36.893836    
    506000   0.50043765    -7.8117092     -7.0610634      3.6824987      50218.233      36.893836      36.893836      36.893836    
    507000   0.49997543    -7.8144699     -7.0645174      3.6535453      50218.233      36.893836      36.893836      36.893836    
    508000   0.50231762    -7.80719       -7.0537242      3.7158619      50218.233      36.893836      36.893836      36.893836    
    509000   0.49940272    -7.8141523     -7.0650588      3.6552644      50218.233      36.893836      36.893836      36.893836    
    510000   0.49833881    -7.8130602     -7.0655627      3.6674763      50218.233      36.893836      36.893836      36.893836    
    511000   0.49888853    -7.8078974     -7.0595753      3.7036725      50218.233      36.893836      36.893836      36.893836    
    512000   0.49910072    -7.8137069     -7.0650664      3.6546775      50218.233      36.893836      36.893836      36.893836    
    513000   0.49600737    -7.8098812     -7.0658807      3.6795203      50218.233      36.893836      36.893836      36.893836    
    514000   0.5005018     -7.8107357     -7.0599937      3.6899996      50218.233      36.893836      36.893836      36.893836    
    515000   0.49835235    -7.8137333     -7.0662154      3.6731519      50218.233      36.893836      36.893836      36.893836    
    516000   0.49882768    -7.8122564     -7.0640255      3.6650226      50218.233      36.893836      36.893836      36.893836    
    517000   0.50086808    -7.8122559     -7.0609645      3.6713447      50218.233      36.893836      36.893836      36.893836    
    518000   0.49981622    -7.8135501     -7.0638364      3.6631602      50218.233      36.893836      36.893836      36.893836    
    519000   0.50122248    -7.8122428     -7.0604198      3.6812957      50218.233      36.893836      36.893836      36.893836    
    520000   0.49949816    -7.8118164     -7.0625798      3.6736497      50218.233      36.893836      36.893836      36.893836    
    521000   0.50076984    -7.8089501     -7.0578061      3.6949834      50218.233      36.893836      36.893836      36.893836    
    522000   0.50298803    -7.8099627     -7.0554913      3.6910617      50218.233      36.893836      36.893836      36.893836    
    523000   0.49954669    -7.8080604     -7.0587511      3.7163282      50218.233      36.893836      36.893836      36.893836    
    524000   0.49975417    -7.8113481     -7.0617275      3.676632       50218.233      36.893836      36.893836      36.893836    
    525000   0.50249177    -7.8140011     -7.0602741      3.6707158      50218.233      36.893836      36.893836      36.893836    
    526000   0.5007897     -7.8105733     -7.0593995      3.6855373      50218.233      36.893836      36.893836      36.893836    
    527000   0.50150051    -7.8093982     -7.0571581      3.683962       50218.233      36.893836      36.893836      36.893836    
    528000   0.50084193    -7.8122326     -7.0609804      3.66828        50218.233      36.893836      36.893836      36.893836    
    529000   0.4974598     -7.8085191     -7.06234        3.7038338      50218.233      36.893836      36.893836      36.893836    
    530000   0.50040927    -7.8106391     -7.0600359      3.6929578      50218.233      36.893836      36.893836      36.893836    
    531000   0.49854743    -7.8092555     -7.061445       3.6904518      50218.233      36.893836      36.893836      36.893836    
    532000   0.50108188    -7.8128232     -7.0612111      3.6818227      50218.233      36.893836      36.893836      36.893836    
    533000   0.49962911    -7.8102078     -7.0607748      3.6911355      50218.233      36.893836      36.893836      36.893836    
    534000   0.49863843    -7.8075214     -7.0595744      3.7188008      50218.233      36.893836      36.893836      36.893836    
    535000   0.49731003    -7.8099051     -7.0639507      3.6935932      50218.233      36.893836      36.893836      36.893836    
    536000   0.50207527    -7.8128915     -7.0597893      3.6793897      50218.233      36.893836      36.893836      36.893836    
    537000   0.49738693    -7.8096381     -7.0635683      3.6928224      50218.233      36.893836      36.893836      36.893836    
    538000   0.49936201    -7.817149      -7.0681167      3.6361456      50218.233      36.893836      36.893836      36.893836    
    539000   0.49876474    -7.8121424     -7.0640059      3.672294       50218.233      36.893836      36.893836      36.893836    
    540000   0.50189845    -7.8162878     -7.0634508      3.6481979      50218.233      36.893836      36.893836      36.893836    
    541000   0.49601587    -7.8132674     -7.0692542      3.6502589      50218.233      36.893836      36.893836      36.893836    
    542000   0.50069701    -7.8124422     -7.0614074      3.6699237      50218.233      36.893836      36.893836      36.893836    
    543000   0.50293675    -7.8138758     -7.0594814      3.665736       50218.233      36.893836      36.893836      36.893836    
    544000   0.50096354    -7.812798      -7.0613634      3.6627997      50218.233      36.893836      36.893836      36.893836    
    545000   0.50192436    -7.813612      -7.0607362      3.6603298      50218.233      36.893836      36.893836      36.893836    
    546000   0.49656762    -7.8089581     -7.0641173      3.6928824      50218.233      36.893836      36.893836      36.893836    
    547000   0.49952178    -7.8150912     -7.0658192      3.6535899      50218.233      36.893836      36.893836      36.893836    
    548000   0.4988158     -7.8107885     -7.0625755      3.6911914      50218.233      36.893836      36.893836      36.893836    
    549000   0.5021323     -7.810141      -7.0569532      3.6915697      50218.233      36.893836      36.893836      36.893836    
    550000   0.49528762    -7.8140209     -7.0711001      3.6559206      50218.233      36.893836      36.893836      36.893836    
    551000   0.50148688    -7.8153594     -7.0631398      3.6500269      50218.233      36.893836      36.893836      36.893836    
    552000   0.49950266    -7.8100124     -7.0607691      3.6943045      50218.233      36.893836      36.893836      36.893836    
    553000   0.4959105     -7.8172817     -7.0734265      3.6307885      50218.233      36.893836      36.893836      36.893836    
    554000   0.50213795    -7.8086652     -7.0554689      3.7063203      50218.233      36.893836      36.893836      36.893836    
    555000   0.4980108     -7.8136611     -7.0666555      3.6602897      50218.233      36.893836      36.893836      36.893836    
    556000   0.49935724    -7.8138875     -7.0648623      3.6566919      50218.233      36.893836      36.893836      36.893836    
    557000   0.49830182    -7.8132197     -7.0657776      3.6642436      50218.233      36.893836      36.893836      36.893836    
    558000   0.49969601    -7.8138209     -7.0642876      3.6614137      50218.233      36.893836      36.893836      36.893836    
    559000   0.4972651     -7.8112941     -7.0654071      3.6771072      50218.233      36.893836      36.893836      36.893836    
    560000   0.50144215    -7.8066541     -7.0545016      3.726019       50218.233      36.893836      36.893836      36.893836    
    561000   0.49960174    -7.8126267     -7.0632348      3.6692334      50218.233      36.893836      36.893836      36.893836    
    562000   0.5010113     -7.812573      -7.0610667      3.6693911      50218.233      36.893836      36.893836      36.893836    
    563000   0.50071006    -7.8128651     -7.0618107      3.6757977      50218.233      36.893836      36.893836      36.893836    
    564000   0.50514003    -7.8117323     -7.054033       3.690346       50218.233      36.893836      36.893836      36.893836    
    565000   0.50263457    -7.8107893     -7.0568482      3.6810601      50218.233      36.893836      36.893836      36.893836    
    566000   0.50072132    -7.8117961     -7.0607248      3.6753806      50218.233      36.893836      36.893836      36.893836    
    567000   0.49848692    -7.8136307     -7.065911       3.6631623      50218.233      36.893836      36.893836      36.893836    
    568000   0.50069949    -7.811101      -7.0600624      3.677875       50218.233      36.893836      36.893836      36.893836    
    569000   0.49774536    -7.8140607     -7.0674532      3.6500602      50218.233      36.893836      36.893836      36.893836    
    570000   0.50141881    -7.8132986     -7.061181       3.6760199      50218.233      36.893836      36.893836      36.893836    
    571000   0.49740082    -7.8117415     -7.0656509      3.6735592      50218.233      36.893836      36.893836      36.893836    
    572000   0.49940432    -7.8142563     -7.0651605      3.6574701      50218.233      36.893836      36.893836      36.893836    
    573000   0.49916647    -7.8108161     -7.062077       3.6844306      50218.233      36.893836      36.893836      36.893836    
    574000   0.49835577    -7.8127725     -7.0652495      3.6739194      50218.233      36.893836      36.893836      36.893836    
    575000   0.50143222    -7.815382      -7.0632444      3.6511959      50218.233      36.893836      36.893836      36.893836    
    576000   0.50176093    -7.8149757     -7.062345       3.6605202      50218.233      36.893836      36.893836      36.893836    
    577000   0.50044866    -7.8163248     -7.0656625      3.6489502      50218.233      36.893836      36.893836      36.893836    
    578000   0.49967491    -7.8098263     -7.0603245      3.6901772      50218.233      36.893836      36.893836      36.893836    
    579000   0.50013696    -7.8150772     -7.0648824      3.6475823      50218.233      36.893836      36.893836      36.893836    
    580000   0.50073644    -7.8126404     -7.0615464      3.6696251      50218.233      36.893836      36.893836      36.893836    
    581000   0.50076879    -7.8164452     -7.0653027      3.6442045      50218.233      36.893836      36.893836      36.893836    
    582000   0.49855176    -7.8127977     -7.0649807      3.6477883      50218.233      36.893836      36.893836      36.893836    
    583000   0.49929721    -7.8135506     -7.0646154      3.6693624      50218.233      36.893836      36.893836      36.893836    
    584000   0.49763883    -7.8081155     -7.0616679      3.7024531      50218.233      36.893836      36.893836      36.893836    
    585000   0.50189804    -7.8109611     -7.0581247      3.6805358      50218.233      36.893836      36.893836      36.893836    
    586000   0.50021266    -7.815017      -7.0647086      3.6477104      50218.233      36.893836      36.893836      36.893836    
    587000   0.49947076    -7.8065256     -7.0573301      3.7058274      50218.233      36.893836      36.893836      36.893836    
    588000   0.49965129    -7.8151097     -7.0656435      3.652815       50218.233      36.893836      36.893836      36.893836    
    589000   0.49712155    -7.8133952     -7.0677235      3.661112       50218.233      36.893836      36.893836      36.893836    
    590000   0.50099397    -7.812099      -7.0606188      3.6808115      50218.233      36.893836      36.893836      36.893836    
    591000   0.49829995    -7.8139837     -7.0665444      3.6701036      50218.233      36.893836      36.893836      36.893836    
    592000   0.49806461    -7.8147856     -7.0676993      3.655056       50218.233      36.893836      36.893836      36.893836    
    593000   0.49720485    -7.8149444     -7.0691477      3.6393849      50218.233      36.893836      36.893836      36.893836    
    594000   0.50112173    -7.8128771     -7.0612052      3.6746772      50218.233      36.893836      36.893836      36.893836    
    595000   0.50167915    -7.8120648     -7.0595568      3.6945649      50218.233      36.893836      36.893836      36.893836    
    596000   0.50251459    -7.8131619     -7.0594008      3.6816148      50218.233      36.893836      36.893836      36.893836    
    597000   0.50043781    -7.8131573     -7.0625112      3.6707288      50218.233      36.893836      36.893836      36.893836    
    598000   0.49802718    -7.8128921     -7.065862       3.6646819      50218.233      36.893836      36.893836      36.893836    
    599000   0.49897389    -7.8145016     -7.0660514      3.6541421      50218.233      36.893836      36.893836      36.893836    
    600000   0.5003242     -7.8184676     -7.067992       3.6253926      50218.233      36.893836      36.893836      36.893836    
    601000   0.49634443    -7.810026      -7.06552        3.6730534      50218.233      36.893836      36.893836      36.893836    
    602000   0.50005531    -7.8137276     -7.0636553      3.6716964      50218.233      36.893836      36.893836      36.893836    
    603000   0.50295261    -7.817351      -7.0629329      3.644981       50218.233      36.893836      36.893836      36.893836    
    604000   0.50177404    -7.810609      -7.0579586      3.6967132      50218.233      36.893836      36.893836      36.893836    
    605000   0.49958656    -7.8065718     -7.0572026      3.7149538      50218.233      36.893836      36.893836      36.893836    
    606000   0.49925879    -7.8114301     -7.0625526      3.6753676      50218.233      36.893836      36.893836      36.893836    
    607000   0.50390449    -7.8112169     -7.0553709      3.6910858      50218.233      36.893836      36.893836      36.893836    
    608000   0.49940861    -7.8123165     -7.0632142      3.666932       50218.233      36.893836      36.893836      36.893836    
    609000   0.49907198    -7.8096494     -7.061052       3.6882321      50218.233      36.893836      36.893836      36.893836    
    610000   0.49856688    -7.8137705     -7.0659308      3.6586429      50218.233      36.893836      36.893836      36.893836    
    611000   0.49799156    -7.8119238     -7.0649471      3.6854011      50218.233      36.893836      36.893836      36.893836    
    612000   0.49875032    -7.8100695     -7.0619546      3.6834083      50218.233      36.893836      36.893836      36.893836    
    613000   0.50188511    -7.814593      -7.061776       3.6602641      50218.233      36.893836      36.893836      36.893836    
    614000   0.50115628    -7.8110716     -7.0593479      3.6786314      50218.233      36.893836      36.893836      36.893836    
    615000   0.50031246    -7.81149       -7.0610319      3.6834809      50218.233      36.893836      36.893836      36.893836    
    616000   0.50157648    -7.8076405     -7.0552865      3.7095008      50218.233      36.893836      36.893836      36.893836    
    617000   0.50128923    -7.8096324     -7.0577093      3.6899695      50218.233      36.893836      36.893836      36.893836    
    618000   0.4993906     -7.8103233     -7.0612481      3.685928       50218.233      36.893836      36.893836      36.893836    
    619000   0.50089251    -7.8091781     -7.05785        3.6971004      50218.233      36.893836      36.893836      36.893836    
    620000   0.50109076    -7.810267      -7.0586415      3.6963147      50218.233      36.893836      36.893836      36.893836    
    621000   0.50093611    -7.8125738     -7.0611803      3.6791195      50218.233      36.893836      36.893836      36.893836    
    622000   0.49947089    -7.8091068     -7.0599111      3.6960305      50218.233      36.893836      36.893836      36.893836    
    623000   0.50056403    -7.810716      -7.0598806      3.6913787      50218.233      36.893836      36.893836      36.893836    
    624000   0.50275598    -7.8101996     -7.0560764      3.6946847      50218.233      36.893836      36.893836      36.893836    
    625000   0.50278217    -7.8161987     -7.0620362      3.6448485      50218.233      36.893836      36.893836      36.893836    
    626000   0.4997855     -7.8113822     -7.0617146      3.677846       50218.233      36.893836      36.893836      36.893836    
    627000   0.50070479    -7.8107463     -7.0596998      3.6916092      50218.233      36.893836      36.893836      36.893836    
    628000   0.4989692     -7.8122985     -7.0638554      3.6770291      50218.233      36.893836      36.893836      36.893836    
    629000   0.49846231    -7.8114022     -7.0637194      3.6835425      50218.233      36.893836      36.893836      36.893836    
    630000   0.49938636    -7.8068047     -7.0577358      3.7011789      50218.233      36.893836      36.893836      36.893836    
    631000   0.49891171    -7.8092666     -7.0609097      3.7027258      50218.233      36.893836      36.893836      36.893836    
    632000   0.49823687    -7.812662      -7.0653173      3.6646862      50218.233      36.893836      36.893836      36.893836    
    633000   0.49848344    -7.8124773     -7.0647628      3.6789503      50218.233      36.893836      36.893836      36.893836    
    634000   0.49978146    -7.8116477     -7.0619862      3.6720402      50218.233      36.893836      36.893836      36.893836    
    635000   0.49836901    -7.8154421     -7.0678992      3.6525373      50218.233      36.893836      36.893836      36.893836    
    636000   0.49879615    -7.8064829     -7.0582993      3.704246       50218.233      36.893836      36.893836      36.893836    
    637000   0.49670898    -7.8141091     -7.0690562      3.645608       50218.233      36.893836      36.893836      36.893836    
    638000   0.49616367    -7.8103634     -7.0661284      3.6736695      50218.233      36.893836      36.893836      36.893836    
    639000   0.50174908    -7.8127285     -7.0601156      3.675903       50218.233      36.893836      36.893836      36.893836    
    640000   0.49957035    -7.8089372     -7.0595924      3.6907161      50218.233      36.893836      36.893836      36.893836    
    641000   0.50126392    -7.8118072     -7.059922       3.6709359      50218.233      36.893836      36.893836      36.893836    
    642000   0.50008026    -7.8119473     -7.0618376      3.6779958      50218.233      36.893836      36.893836      36.893836    
    643000   0.50084717    -7.8097005     -7.0584404      3.6900004      50218.233      36.893836      36.893836      36.893836    
    644000   0.50026376    -7.8113408     -7.0609559      3.6744492      50218.233      36.893836      36.893836      36.893836    
    645000   0.49935465    -7.8158791     -7.0668578      3.6484777      50218.233      36.893836      36.893836      36.893836    
    646000   0.49839417    -7.8088156     -7.061235       3.7051967      50218.233      36.893836      36.893836      36.893836    
    647000   0.49852621    -7.8092976     -7.0615189      3.697975       50218.233      36.893836      36.893836      36.893836    
    648000   0.49996764    -7.8130656     -7.0631248      3.6721962      50218.233      36.893836      36.893836      36.893836    
    649000   0.49900099    -7.8102115     -7.0617207      3.683868       50218.233      36.893836      36.893836      36.893836    
    650000   0.4998229     -7.8110078     -7.0612841      3.6858576      50218.233      36.893836      36.893836      36.893836    
    651000   0.50090318    -7.8150958     -7.0637517      3.6624817      50218.233      36.893836      36.893836      36.893836    
    652000   0.49959917    -7.8133237     -7.0639356      3.6609971      50218.233      36.893836      36.893836      36.893836    
    653000   0.50022035    -7.8134006     -7.0630808      3.6842133      50218.233      36.893836      36.893836      36.893836    
    654000   0.50194802    -7.8137234     -7.0608121      3.6527897      50218.233      36.893836      36.893836      36.893836    
    655000   0.50092188    -7.8123049     -7.0609328      3.6654259      50218.233      36.893836      36.893836      36.893836    
    656000   0.50056354    -7.8132316     -7.062397       3.6826828      50218.233      36.893836      36.893836      36.893836    
    657000   0.49874779    -7.8107333     -7.0626223      3.6773994      50218.233      36.893836      36.893836      36.893836    
    658000   0.50165934    -7.8155278     -7.0630495      3.6403869      50218.233      36.893836      36.893836      36.893836    
    659000   0.50072896    -7.8128652     -7.0617825      3.6718412      50218.233      36.893836      36.893836      36.893836    
    660000   0.50083271    -7.8101674     -7.058929       3.6934204      50218.233      36.893836      36.893836      36.893836    
    661000   0.49923122    -7.8104472     -7.061611       3.693205       50218.233      36.893836      36.893836      36.893836    
    662000   0.50073352    -7.8098519     -7.0587623      3.6938248      50218.233      36.893836      36.893836      36.893836    
    663000   0.50144103    -7.8115597     -7.0594089      3.6745959      50218.233      36.893836      36.893836      36.893836    
    664000   0.50155508    -7.8101071     -7.0577852      3.6879546      50218.233      36.893836      36.893836      36.893836    
    665000   0.50008023    -7.8126192     -7.0625095      3.670986       50218.233      36.893836      36.893836      36.893836    
    666000   0.50028888    -7.8131879     -7.0627653      3.6712396      50218.233      36.893836      36.893836      36.893836    
    667000   0.49854161    -7.8062708     -7.058469       3.7027455      50218.233      36.893836      36.893836      36.893836    
    668000   0.50054758    -7.8129551     -7.0621444      3.6656586      50218.233      36.893836      36.893836      36.893836    
    669000   0.50064531    -7.8118435     -7.0608862      3.679404       50218.233      36.893836      36.893836      36.893836    
    670000   0.49953885    -7.8086047     -7.0593071      3.7013862      50218.233      36.893836      36.893836      36.893836    
    671000   0.50028542    -7.8115458     -7.0611283      3.6818645      50218.233      36.893836      36.893836      36.893836    
    672000   0.49913093    -7.8155211     -7.0668354      3.6470655      50218.233      36.893836      36.893836      36.893836    
    673000   0.49932209    -7.8125858     -7.0636133      3.6780224      50218.233      36.893836      36.893836      36.893836    
    674000   0.50000125    -7.8088808     -7.0588896      3.6991243      50218.233      36.893836      36.893836      36.893836    
    675000   0.50179163    -7.812516      -7.0598393      3.6711944      50218.233      36.893836      36.893836      36.893836    
    676000   0.49763935    -7.8137453     -7.0672969      3.6624238      50218.233      36.893836      36.893836      36.893836    
    677000   0.50097071    -7.8138633     -7.0624179      3.6608807      50218.233      36.893836      36.893836      36.893836    
    678000   0.49915062    -7.8129601     -7.0642448      3.6707429      50218.233      36.893836      36.893836      36.893836    
    679000   0.50184264    -7.8090369     -7.0562836      3.6984865      50218.233      36.893836      36.893836      36.893836    
    680000   0.49867574    -7.8106072     -7.0626042      3.6949846      50218.233      36.893836      36.893836      36.893836    
    681000   0.50138405    -7.8135593     -7.0614939      3.6849259      50218.233      36.893836      36.893836      36.893836    
    682000   0.50106279    -7.8150852     -7.0635017      3.6515857      50218.233      36.893836      36.893836      36.893836    
    683000   0.50116878    -7.8115118     -7.0597693      3.6874508      50218.233      36.893836      36.893836      36.893836    
    684000   0.50192343    -7.8118833     -7.0590089      3.6761909      50218.233      36.893836      36.893836      36.893836    
    685000   0.50216638    -7.8088499     -7.055611       3.6991499      50218.233      36.893836      36.893836      36.893836    
    686000   0.49801728    -7.8112433     -7.064228       3.6810893      50218.233      36.893836      36.893836      36.893836    
    687000   0.50107951    -7.8123279     -7.0607193      3.6628245      50218.233      36.893836      36.893836      36.893836    
    688000   0.50094012    -7.8119481     -7.0605486      3.6764917      50218.233      36.893836      36.893836      36.893836    
    689000   0.50046152    -7.8065758     -7.0558942      3.7145782      50218.233      36.893836      36.893836      36.893836    
    690000   0.50024858    -7.8095125     -7.0591503      3.700598       50218.233      36.893836      36.893836      36.893836    
    691000   0.50355483    -7.8119912     -7.0566697      3.6816233      50218.233      36.893836      36.893836      36.893836    
    692000   0.49851515    -7.8124355     -7.0646734      3.6678014      50218.233      36.893836      36.893836      36.893836    
    693000   0.50167109    -7.8109264     -7.0584305      3.6793018      50218.233      36.893836      36.893836      36.893836    
    694000   0.50166307    -7.811849      -7.0593651      3.6844469      50218.233      36.893836      36.893836      36.893836    
    695000   0.49942387    -7.8094102     -7.060285       3.6944527      50218.233      36.893836      36.893836      36.893836    
    696000   0.50098197    -7.8133693     -7.0619071      3.6755121      50218.233      36.893836      36.893836      36.893836    
    697000   0.49746611    -7.8106741     -7.0644856      3.6841623      50218.233      36.893836      36.893836      36.893836    
    698000   0.49980944    -7.8159784     -7.0662749      3.6546137      50218.233      36.893836      36.893836      36.893836    
    699000   0.50180597    -7.8081806     -7.0554824      3.7069609      50218.233      36.893836      36.893836      36.893836    
    700000   0.49960393    -7.8129598     -7.0635646      3.6677367      50218.233      36.893836      36.893836      36.893836    
    701000   0.49979004    -7.8130175     -7.0633431      3.6697266      50218.233      36.893836      36.893836      36.893836    
    702000   0.49950882    -7.8125223     -7.0632697      3.6660667      50218.233      36.893836      36.893836      36.893836    
    703000   0.50210886    -7.8107767     -7.0576241      3.6918992      50218.233      36.893836      36.893836      36.893836    
    704000   0.50124455    -7.8151872     -7.0633311      3.6619126      50218.233      36.893836      36.893836      36.893836    
    705000   0.50009245    -7.8099423     -7.0598143      3.6984094      50218.233      36.893836      36.893836      36.893836    
    706000   0.49983287    -7.8085909     -7.0588523      3.6969392      50218.233      36.893836      36.893836      36.893836    
    707000   0.49888655    -7.8129186     -7.0645994      3.6789673      50218.233      36.893836      36.893836      36.893836    
    708000   0.49763567    -7.8114617     -7.0650188      3.6933253      50218.233      36.893836      36.893836      36.893836    
    709000   0.50245627    -7.8103191     -7.0566454      3.6969133      50218.233      36.893836      36.893836      36.893836    
    710000   0.49989047    -7.8121584     -7.0623334      3.6847182      50218.233      36.893836      36.893836      36.893836    
    711000   0.49902718    -7.8094246     -7.0608945      3.7043344      50218.233      36.893836      36.893836      36.893836    
    712000   0.50269575    -7.8115073     -7.0574744      3.6943761      50218.233      36.893836      36.893836      36.893836    
    713000   0.50014425    -7.8109648     -7.0607591      3.6879977      50218.233      36.893836      36.893836      36.893836    
    714000   0.50087641    -7.8102561     -7.0589522      3.6965389      50218.233      36.893836      36.893836      36.893836    
    715000   0.49887904    -7.8085296     -7.0602217      3.7000444      50218.233      36.893836      36.893836      36.893836    
    716000   0.49792325    -7.8138098     -7.0669356      3.661938       50218.233      36.893836      36.893836      36.893836    
    717000   0.49933127    -7.8109494     -7.0619632      3.6871829      50218.233      36.893836      36.893836      36.893836    
    718000   0.50013331    -7.8111913     -7.061002       3.6779115      50218.233      36.893836      36.893836      36.893836    
    719000   0.5025568     -7.8127997     -7.0589752      3.6854552      50218.233      36.893836      36.893836      36.893836    
    720000   0.49906442    -7.813214      -7.064628       3.6697499      50218.233      36.893836      36.893836      36.893836    
    721000   0.49989234    -7.8127062     -7.0628783      3.6749813      50218.233      36.893836      36.893836      36.893836    
    722000   0.49830838    -7.8101539     -7.062702       3.6961271      50218.233      36.893836      36.893836      36.893836    
    723000   0.4999959     -7.8139268     -7.0639436      3.6642454      50218.233      36.893836      36.893836      36.893836    
    724000   0.50151747    -7.8141893     -7.0619238      3.6657729      50218.233      36.893836      36.893836      36.893836    
    725000   0.50103996    -7.8111703     -7.059621       3.6873861      50218.233      36.893836      36.893836      36.893836    
    726000   0.50008982    -7.8074484     -7.0573244      3.7087322      50218.233      36.893836      36.893836      36.893836    
    727000   0.49964333    -7.8108051     -7.0613508      3.680495       50218.233      36.893836      36.893836      36.893836    
    728000   0.50024436    -7.8126364     -7.0622805      3.672892       50218.233      36.893836      36.893836      36.893836    
    729000   0.49866707    -7.808365      -7.0603751      3.701562       50218.233      36.893836      36.893836      36.893836    
    730000   0.50068747    -7.8110802     -7.0600597      3.6899746      50218.233      36.893836      36.893836      36.893836    
    731000   0.50075911    -7.8113375     -7.0602095      3.6831944      50218.233      36.893836      36.893836      36.893836    
    732000   0.50109482    -7.812782      -7.0611505      3.6758608      50218.233      36.893836      36.893836      36.893836    
    733000   0.50082168    -7.8108249     -7.0596031      3.6941767      50218.233      36.893836      36.893836      36.893836    
    734000   0.49804384    -7.8072304     -7.0601753      3.7061309      50218.233      36.893836      36.893836      36.893836    
    735000   0.4992567     -7.8110668     -7.0621924      3.6881254      50218.233      36.893836      36.893836      36.893836    
    736000   0.5013644     -7.8088284     -7.0567925      3.7065131      50218.233      36.893836      36.893836      36.893836    
    737000   0.4994545     -7.8148311     -7.06566        3.656466       50218.233      36.893836      36.893836      36.893836    
    738000   0.49900052    -7.8127312     -7.064241       3.6730307      50218.233      36.893836      36.893836      36.893836    
    739000   0.50093229    -7.8111384     -7.0597506      3.6858063      50218.233      36.893836      36.893836      36.893836    
    740000   0.49989835    -7.810632      -7.0607952      3.678269       50218.233      36.893836      36.893836      36.893836    
    741000   0.4998405     -7.8129162     -7.0631661      3.6683542      50218.233      36.893836      36.893836      36.893836    
    742000   0.50020335    -7.8131796     -7.0628852      3.6746781      50218.233      36.893836      36.893836      36.893836    
    743000   0.50034679    -7.8087703     -7.0582607      3.7030265      50218.233      36.893836      36.893836      36.893836    
    744000   0.50068357    -7.8121296     -7.0611149      3.6731009      50218.233      36.893836      36.893836      36.893836    
    745000   0.49978217    -7.8131784     -7.0635158      3.6742062      50218.233      36.893836      36.893836      36.893836    
    746000   0.49855645    -7.8118571     -7.064033       3.6884213      50218.233      36.893836      36.893836      36.893836    
    747000   0.50231358    -7.8037689     -7.0503093      3.7529357      50218.233      36.893836      36.893836      36.893836    
    748000   0.50194192    -7.8085874     -7.0556852      3.7013503      50218.233      36.893836      36.893836      36.893836    
    749000   0.49849758    -7.8133452     -7.0656095      3.6581092      50218.233      36.893836      36.893836      36.893836    
    750000   0.50104166    -7.811351      -7.0597992      3.6951122      50218.233      36.893836      36.893836      36.893836    
    751000   0.49912225    -7.813452      -7.0647793      3.6610749      50218.233      36.893836      36.893836      36.893836    
    752000   0.49810436    -7.8145006     -7.0673547      3.6626932      50218.233      36.893836      36.893836      36.893836    
    753000   0.49870906    -7.8090094     -7.0609565      3.7006919      50218.233      36.893836      36.893836      36.893836    
    754000   0.49883395    -7.8094313     -7.061191       3.6931385      50218.233      36.893836      36.893836      36.893836    
    755000   0.49786699    -7.8144612     -7.0676714      3.6659887      50218.233      36.893836      36.893836      36.893836    
    756000   0.49937465    -7.8114486     -7.0623973      3.6865982      50218.233      36.893836      36.893836      36.893836    
    757000   0.50047851    -7.8067915     -7.0560844      3.7282385      50218.233      36.893836      36.893836      36.893836    
    758000   0.50036823    -7.8145249     -7.0639832      3.6750626      50218.233      36.893836      36.893836      36.893836    
    759000   0.49861992    -7.8157392     -7.06782        3.6517871      50218.233      36.893836      36.893836      36.893836    
    760000   0.50193151    -7.8110781     -7.0581916      3.6967678      50218.233      36.893836      36.893836      36.893836    
    761000   0.50029914    -7.8063522     -7.0559142      3.7242833      50218.233      36.893836      36.893836      36.893836    
    762000   0.50043119    -7.8130901     -7.062454       3.6721968      50218.233      36.893836      36.893836      36.893836    
    763000   0.50094099    -7.8119968     -7.060596       3.686281       50218.233      36.893836      36.893836      36.893836    
    764000   0.49888119    -7.8101152     -7.0618041      3.6981541      50218.233      36.893836      36.893836      36.893836    
    765000   0.50028283    -7.812486      -7.0620725      3.6687141      50218.233      36.893836      36.893836      36.893836    
    766000   0.50078297    -7.8121751     -7.0610113      3.6791091      50218.233      36.893836      36.893836      36.893836    
    767000   0.5007033     -7.8147188     -7.0636745      3.6549653      50218.233      36.893836      36.893836      36.893836    
    768000   0.49814828    -7.8108034     -7.0635916      3.6850682      50218.233      36.893836      36.893836      36.893836    
    769000   0.50169739    -7.809289      -7.0567536      3.705459       50218.233      36.893836      36.893836      36.893836    
    770000   0.50161706    -7.8112755     -7.0588606      3.6776677      50218.233      36.893836      36.893836      36.893836    
    771000   0.49953277    -7.810588      -7.0612995      3.6904102      50218.233      36.893836      36.893836      36.893836    
    772000   0.50205488    -7.8119897     -7.0589181      3.6819239      50218.233      36.893836      36.893836      36.893836    
    773000   0.50219319    -7.8121792     -7.0589002      3.6827941      50218.233      36.893836      36.893836      36.893836    
    774000   0.49910383    -7.8109583     -7.0623132      3.6787995      50218.233      36.893836      36.893836      36.893836    
    775000   0.49923152    -7.8101516     -7.0613149      3.6855838      50218.233      36.893836      36.893836      36.893836    
    776000   0.50219355    -7.8102431     -7.0569635      3.6996733      50218.233      36.893836      36.893836      36.893836    
    777000   0.49575544    -7.8127808     -7.0691582      3.6655448      50218.233      36.893836      36.893836      36.893836    
    778000   0.50105954    -7.8145503     -7.0629717      3.6636211      50218.233      36.893836      36.893836      36.893836    
    779000   0.49965614    -7.8085149     -7.0590414      3.7036087      50218.233      36.893836      36.893836      36.893836    
    780000   0.49854977    -7.8173036     -7.0694896      3.6440715      50218.233      36.893836      36.893836      36.893836    
    781000   0.50014431    -7.8179993     -7.0677935      3.6477823      50218.233      36.893836      36.893836      36.893836    
    782000   0.49836191    -7.8137116     -7.0661794      3.6708076      50218.233      36.893836      36.893836      36.893836    
    783000   0.50053508    -7.8142872     -7.0634953      3.6628601      50218.233      36.893836      36.893836      36.893836    
    784000   0.49934405    -7.8086143     -7.0596089      3.7030108      50218.233      36.893836      36.893836      36.893836    
    785000   0.49962272    -7.8116144     -7.062191       3.6823438      50218.233      36.893836      36.893836      36.893836    
    786000   0.49884967    -7.8138238     -7.0655599      3.6672756      50218.233      36.893836      36.893836      36.893836    
    787000   0.50165633    -7.8122449     -7.0597711      3.6736773      50218.233      36.893836      36.893836      36.893836    
    788000   0.49879616    -7.808121      -7.0599374      3.7063073      50218.233      36.893836      36.893836      36.893836    
    789000   0.49756402    -7.8127629     -7.0664275      3.6645792      50218.233      36.893836      36.893836      36.893836    
    790000   0.49837679    -7.8113012     -7.0637466      3.6742991      50218.233      36.893836      36.893836      36.893836    
    791000   0.49959874    -7.813903      -7.0645155      3.664139       50218.233      36.893836      36.893836      36.893836    
    792000   0.49779865    -7.814034      -7.0673467      3.6608652      50218.233      36.893836      36.893836      36.893836    
    793000   0.50084797    -7.8146309     -7.0633696      3.6645617      50218.233      36.893836      36.893836      36.893836    
    794000   0.49946978    -7.8133322     -7.0641382      3.6772097      50218.233      36.893836      36.893836      36.893836    
    795000   0.49811542    -7.8098146     -7.0626521      3.6913459      50218.233      36.893836      36.893836      36.893836    
    796000   0.50158969    -7.8142122     -7.0618384      3.6692168      50218.233      36.893836      36.893836      36.893836    
    797000   0.49932076    -7.8105681     -7.0615976      3.6784143      50218.233      36.893836      36.893836      36.893836    
    798000   0.4999639     -7.8120663     -7.0621311      3.6745048      50218.233      36.893836      36.893836      36.893836    
    799000   0.50070059    -7.8098968     -7.0588566      3.6963395      50218.233      36.893836      36.893836      36.893836    
    800000   0.50115011    -7.8109716     -7.0592571      3.6902078      50218.233      36.893836      36.893836      36.893836    
    801000   0.50149201    -7.8125356     -7.0603082      3.6822943      50218.233      36.893836      36.893836      36.893836    
    802000   0.50040345    -7.8155493     -7.0649548      3.6518878      50218.233      36.893836      36.893836      36.893836    
    803000   0.4999409     -7.8131772     -7.0632765      3.6763401      50218.233      36.893836      36.893836      36.893836    
    804000   0.49940715    -7.8143618     -7.0652617      3.657088       50218.233      36.893836      36.893836      36.893836    
    805000   0.50193166    -7.8121783     -7.0592915      3.6958234      50218.233      36.893836      36.893836      36.893836    
    806000   0.49865204    -7.8155559     -7.0675884      3.6539126      50218.233      36.893836      36.893836      36.893836    
    807000   0.50123061    -7.8097884     -7.0579531      3.698024       50218.233      36.893836      36.893836      36.893836    
    808000   0.5010856     -7.8104609     -7.0588432      3.6899372      50218.233      36.893836      36.893836      36.893836    
    809000   0.49978686    -7.8189435     -7.0692739      3.6291209      50218.233      36.893836      36.893836      36.893836    
    810000   0.49924026    -7.8154045     -7.0665548      3.6596044      50218.233      36.893836      36.893836      36.893836    
    811000   0.49845272    -7.8102146     -7.0625462      3.6936874      50218.233      36.893836      36.893836      36.893836    
    812000   0.49801278    -7.8094424     -7.0624338      3.6993087      50218.233      36.893836      36.893836      36.893836    
    813000   0.49826816    -7.8126655     -7.0652739      3.6611361      50218.233      36.893836      36.893836      36.893836    
    814000   0.50002873    -7.8080764     -7.0580439      3.7084732      50218.233      36.893836      36.893836      36.893836    
    815000   0.50023663    -7.8098066     -7.0594624      3.697328       50218.233      36.893836      36.893836      36.893836    
    816000   0.4999594     -7.8080582     -7.0581298      3.7065826      50218.233      36.893836      36.893836      36.893836    
    817000   0.49974876    -7.8098068     -7.0601943      3.6963566      50218.233      36.893836      36.893836      36.893836    
    818000   0.50087196    -7.8134036     -7.0621064      3.6748221      50218.233      36.893836      36.893836      36.893836    
    819000   0.49859911    -7.8095187     -7.0616307      3.6993611      50218.233      36.893836      36.893836      36.893836    
    820000   0.5014678     -7.8127325     -7.0605415      3.6803322      50218.233      36.893836      36.893836      36.893836    
    821000   0.50003607    -7.8149842     -7.0649407      3.6545807      50218.233      36.893836      36.893836      36.893836    
    822000   0.49816294    -7.8073346     -7.0601008      3.7203854      50218.233      36.893836      36.893836      36.893836    
    823000   0.49815463    -7.8111399     -7.0639186      3.6744247      50218.233      36.893836      36.893836      36.893836    
    824000   0.49728156    -7.8076838     -7.0617721      3.7106215      50218.233      36.893836      36.893836      36.893836    
    825000   0.50083598    -7.814998      -7.0637547      3.6559141      50218.233      36.893836      36.893836      36.893836    
    826000   0.50021929    -7.813181      -7.0628628      3.6672445      50218.233      36.893836      36.893836      36.893836    
    827000   0.49932147    -7.8094514     -7.0604799      3.690464       50218.233      36.893836      36.893836      36.893836    
    828000   0.49866928    -7.8091919     -7.0611987      3.7078847      50218.233      36.893836      36.893836      36.893836    
    829000   0.50049083    -7.8112054     -7.0604799      3.6935764      50218.233      36.893836      36.893836      36.893836    
    830000   0.49918593    -7.8115567     -7.0627885      3.695208       50218.233      36.893836      36.893836      36.893836    
    831000   0.50031369    -7.8119105     -7.0614506      3.680421       50218.233      36.893836      36.893836      36.893836    
    832000   0.50139285    -7.8135062     -7.0614276      3.6728841      50218.233      36.893836      36.893836      36.893836    
    833000   0.50332273    -7.8126348     -7.0576614      3.6717084      50218.233      36.893836      36.893836      36.893836    
    834000   0.5004284     -7.8126417     -7.0620097      3.676294       50218.233      36.893836      36.893836      36.893836    
    835000   0.50003748    -7.8114697     -7.0614241      3.6781445      50218.233      36.893836      36.893836      36.893836    
    836000   0.50115991    -7.8143418     -7.0626126      3.6689509      50218.233      36.893836      36.893836      36.893836    
    837000   0.50159357    -7.8130178     -7.0606381      3.6830567      50218.233      36.893836      36.893836      36.893836    
    838000   0.4995421     -7.8107749     -7.0614724      3.6977563      50218.233      36.893836      36.893836      36.893836    
    839000   0.50006813    -7.8131242     -7.0630326      3.6633809      50218.233      36.893836      36.893836      36.893836    
    840000   0.50088886    -7.813418      -7.0620954      3.6677597      50218.233      36.893836      36.893836      36.893836    
    841000   0.50027586    -7.8091954     -7.0587923      3.700139       50218.233      36.893836      36.893836      36.893836    
    842000   0.50291265    -7.8091182     -7.05476        3.7058133      50218.233      36.893836      36.893836      36.893836    
    843000   0.50147057    -7.8123392     -7.0601441      3.6910443      50218.233      36.893836      36.893836      36.893836    
    844000   0.49874076    -7.8086644     -7.0605639      3.7072226      50218.233      36.893836      36.893836      36.893836    
    845000   0.49847288    -7.811665      -7.0639663      3.6873039      50218.233      36.893836      36.893836      36.893836    
    846000   0.50073865    -7.8132842     -7.0621869      3.6663318      50218.233      36.893836      36.893836      36.893836    
    847000   0.49637171    -7.8130865     -7.0685395      3.6669127      50218.233      36.893836      36.893836      36.893836    
    848000   0.49978255    -7.8112185     -7.0615553      3.6816851      50218.233      36.893836      36.893836      36.893836    
    849000   0.49984322    -7.8064826     -7.0567284      3.7228901      50218.233      36.893836      36.893836      36.893836    
    850000   0.50032344    -7.8132798     -7.0628053      3.6675903      50218.233      36.893836      36.893836      36.893836    
    851000   0.49891624    -7.8106683     -7.0623045      3.6916103      50218.233      36.893836      36.893836      36.893836    
    852000   0.50243777    -7.8093001     -7.0556542      3.7086791      50218.233      36.893836      36.893836      36.893836    
    853000   0.49936045    -7.8091002     -7.0600701      3.694905       50218.233      36.893836      36.893836      36.893836    
    854000   0.49866866    -7.81433       -7.0663377      3.6568554      50218.233      36.893836      36.893836      36.893836    
    855000   0.49798359    -7.814494      -7.0675293      3.6535573      50218.233      36.893836      36.893836      36.893836    
    856000   0.49680285    -7.8086446     -7.0634509      3.701078       50218.233      36.893836      36.893836      36.893836    
    857000   0.50037904    -7.8126113     -7.0620534      3.6698531      50218.233      36.893836      36.893836      36.893836    
    858000   0.50273855    -7.8107272     -7.0566301      3.6905862      50218.233      36.893836      36.893836      36.893836    
    859000   0.50076197    -7.8098581     -7.0587258      3.7029084      50218.233      36.893836      36.893836      36.893836    
    860000   0.49652012    -7.8131571     -7.0683875      3.6709457      50218.233      36.893836      36.893836      36.893836    
    861000   0.50301628    -7.8116671     -7.0571534      3.6786062      50218.233      36.893836      36.893836      36.893836    
    862000   0.49969331    -7.8088188     -7.0592895      3.6957272      50218.233      36.893836      36.893836      36.893836    
    863000   0.49889871    -7.8070331     -7.0586957      3.7185878      50218.233      36.893836      36.893836      36.893836    
    864000   0.50121046    -7.8110025     -7.0591975      3.6941429      50218.233      36.893836      36.893836      36.893836    
    865000   0.50117113    -7.805939      -7.054193       3.7234965      50218.233      36.893836      36.893836      36.893836    
    866000   0.49943848    -7.8075997     -7.0584526      3.7053891      50218.233      36.893836      36.893836      36.893836    
    867000   0.5011022     -7.8121        -7.0604574      3.6833133      50218.233      36.893836      36.893836      36.893836    
    868000   0.49878576    -7.8113475     -7.0631795      3.6864742      50218.233      36.893836      36.893836      36.893836    
    869000   0.50112507    -7.810797      -7.0591201      3.6768394      50218.233      36.893836      36.893836      36.893836    
    870000   0.50128951    -7.8106572     -7.0587336      3.6888638      50218.233      36.893836      36.893836      36.893836    
    871000   0.50078549    -7.8089631     -7.0577956      3.7097262      50218.233      36.893836      36.893836      36.893836    
    872000   0.50145211    -7.809949      -7.0577815      3.6949091      50218.233      36.893836      36.893836      36.893836    
    873000   0.5008703     -7.8122417     -7.060947       3.676736       50218.233      36.893836      36.893836      36.893836    
    874000   0.5018646     -7.8085        -7.0557138      3.7004196      50218.233      36.893836      36.893836      36.893836    
    875000   0.49777145    -7.8121158     -7.0654693      3.6724477      50218.233      36.893836      36.893836      36.893836    
    876000   0.50055202    -7.8102563     -7.059439       3.692568       50218.233      36.893836      36.893836      36.893836    
    877000   0.50029109    -7.8082446     -7.0578186      3.7038677      50218.233      36.893836      36.893836      36.893836    
    878000   0.5001903     -7.8100026     -7.0597278      3.693939       50218.233      36.893836      36.893836      36.893836    
    879000   0.49926978    -7.8065531     -7.0576591      3.7072156      50218.233      36.893836      36.893836      36.893836    
    880000   0.49973822    -7.8108631     -7.0612665      3.6823532      50218.233      36.893836      36.893836      36.893836    
    881000   0.50175684    -7.8107801     -7.0581555      3.685908       50218.233      36.893836      36.893836      36.893836    
    882000   0.49809064    -7.8101265     -7.0630011      3.6859925      50218.233      36.893836      36.893836      36.893836    
    883000   0.49863272    -7.8116309     -7.0636924      3.682419       50218.233      36.893836      36.893836      36.893836    
    884000   0.4989407     -7.8103339     -7.0619335      3.6840867      50218.233      36.893836      36.893836      36.893836    
    885000   0.5016973     -7.8109577     -7.0584224      3.6886818      50218.233      36.893836      36.893836      36.893836    
    886000   0.50102069    -7.8132131     -7.0616927      3.6752892      50218.233      36.893836      36.893836      36.893836    
    887000   0.50199816    -7.8095366     -7.0565501      3.7129522      50218.233      36.893836      36.893836      36.893836    
    888000   0.50247538    -7.8107046     -7.0570023      3.6926287      50218.233      36.893836      36.893836      36.893836    
    889000   0.49791768    -7.8120622     -7.0651963      3.6805878      50218.233      36.893836      36.893836      36.893836    
    890000   0.49769493    -7.8147362     -7.0682044      3.6536246      50218.233      36.893836      36.893836      36.893836    
    891000   0.4975027     -7.8125238     -7.0662804      3.672589       50218.233      36.893836      36.893836      36.893836    
    892000   0.49777242    -7.8119324     -7.0652844      3.6681093      50218.233      36.893836      36.893836      36.893836    
    893000   0.49897231    -7.8122334     -7.0637855      3.6810935      50218.233      36.893836      36.893836      36.893836    
    894000   0.49864308    -7.8131874     -7.0652335      3.6642567      50218.233      36.893836      36.893836      36.893836    
    895000   0.49968219    -7.8140967     -7.0645841      3.6669724      50218.233      36.893836      36.893836      36.893836    
    896000   0.49707375    -7.81216       -7.06656        3.6795179      50218.233      36.893836      36.893836      36.893836    
    897000   0.50126597    -7.8087651     -7.0568769      3.7112416      50218.233      36.893836      36.893836      36.893836    
    898000   0.5052662     -7.81006       -7.0521715      3.7053103      50218.233      36.893836      36.893836      36.893836    
    899000   0.49925807    -7.8103378     -7.0614613      3.6907564      50218.233      36.893836      36.893836      36.893836    
    900000   0.49736496    -7.8121428     -7.066106       3.6727261      50218.233      36.893836      36.893836      36.893836    
    901000   0.49966597    -7.8101665     -7.0606782      3.6831606      50218.233      36.893836      36.893836      36.893836    
    902000   0.50188007    -7.8082347     -7.0554253      3.7024948      50218.233      36.893836      36.893836      36.893836    
    903000   0.50229589    -7.8109595     -7.0575264      3.6818716      50218.233      36.893836      36.893836      36.893836    
    904000   0.50063673    -7.8126955     -7.0617511      3.6733664      50218.233      36.893836      36.893836      36.893836    
    905000   0.50212948    -7.8111586     -7.057975       3.6843071      50218.233      36.893836      36.893836      36.893836    
    906000   0.50118756    -7.8094615     -7.0576909      3.6932007      50218.233      36.893836      36.893836      36.893836    
    907000   0.50015732    -7.8122545     -7.0620292      3.6767196      50218.233      36.893836      36.893836      36.893836    
    908000   0.50118063    -7.8065034     -7.0547431      3.7129178      50218.233      36.893836      36.893836      36.893836    
    909000   0.50145808    -7.8106657     -7.0584893      3.6923312      50218.233      36.893836      36.893836      36.893836    
    910000   0.50238823    -7.8106044     -7.0570328      3.6952151      50218.233      36.893836      36.893836      36.893836    
    911000   0.49892532    -7.8114225     -7.0630451      3.6857332      50218.233      36.893836      36.893836      36.893836    
    912000   0.50098875    -7.8078009     -7.0563284      3.716613       50218.233      36.893836      36.893836      36.893836    
    913000   0.49947407    -7.8076532     -7.0584528      3.7062249      50218.233      36.893836      36.893836      36.893836    
    914000   0.50151192    -7.8123854     -7.0601283      3.6877083      50218.233      36.893836      36.893836      36.893836    
    915000   0.49916153    -7.8145903     -7.0658587      3.6617503      50218.233      36.893836      36.893836      36.893836    
    916000   0.49865465    -7.8081285     -7.0601572      3.70881        50218.233      36.893836      36.893836      36.893836    
    917000   0.49793215    -7.8097227     -7.0628351      3.6955493      50218.233      36.893836      36.893836      36.893836    
    918000   0.49995208    -7.812136      -7.0622185      3.6783331      50218.233      36.893836      36.893836      36.893836    
    919000   0.49959779    -7.8104546     -7.0610686      3.685235       50218.233      36.893836      36.893836      36.893836    
    920000   0.50284593    -7.8142292     -7.059971       3.6611101      50218.233      36.893836      36.893836      36.893836    
    921000   0.49885996    -7.8118161     -7.0635368      3.6735987      50218.233      36.893836      36.893836      36.893836    
    922000   0.49778912    -7.810949      -7.0642759      3.6796236      50218.233      36.893836      36.893836      36.893836    
    923000   0.50093309    -7.809878      -7.0584891      3.700559       50218.233      36.893836      36.893836      36.893836    
    924000   0.49894387    -7.8161541     -7.0677489      3.6419509      50218.233      36.893836      36.893836      36.893836    
    925000   0.4974762     -7.8113715     -7.0651678      3.6834533      50218.233      36.893836      36.893836      36.893836    
    926000   0.49899978    -7.8122013     -7.0637123      3.6772964      50218.233      36.893836      36.893836      36.893836    
    927000   0.50268254    -7.8065956     -7.0525825      3.7211365      50218.233      36.893836      36.893836      36.893836    
    928000   0.49886409    -7.8137571     -7.0654716      3.670263       50218.233      36.893836      36.893836      36.893836    
    929000   0.4969646     -7.809262      -7.0638257      3.6839448      50218.233      36.893836      36.893836      36.893836    
    930000   0.4992857     -7.8090306     -7.0601127      3.6973318      50218.233      36.893836      36.893836      36.893836    
    931000   0.50068631    -7.8075698     -7.056551       3.7215148      50218.233      36.893836      36.893836      36.893836    
    932000   0.50301844    -7.81089       -7.0563731      3.6833956      50218.233      36.893836      36.893836      36.893836    
    933000   0.50033264    -7.8145617     -7.0640734      3.6467058      50218.233      36.893836      36.893836      36.893836    
    934000   0.50021809    -7.8081001     -7.0577836      3.7101435      50218.233      36.893836      36.893836      36.893836    
    935000   0.50110218    -7.8092535     -7.0576109      3.6960941      50218.233      36.893836      36.893836      36.893836    
    936000   0.50002265    -7.8106508     -7.0606275      3.6926792      50218.233      36.893836      36.893836      36.893836    
    937000   0.5002682     -7.8172707     -7.0668791      3.6342038      50218.233      36.893836      36.893836      36.893836    
    938000   0.49852278    -7.8096555     -7.061882       3.6962698      50218.233      36.893836      36.893836      36.893836    
    939000   0.4998709     -7.811042      -7.0612463      3.6891715      50218.233      36.893836      36.893836      36.893836    
    940000   0.5004414     -7.8110157     -7.0603642      3.6917291      50218.233      36.893836      36.893836      36.893836    
    941000   0.50302271    -7.8074214     -7.052898       3.7124542      50218.233      36.893836      36.893836      36.893836    
    942000   0.5001345     -7.8155269     -7.0653358      3.6580663      50218.233      36.893836      36.893836      36.893836    
    943000   0.50011694    -7.810893      -7.0607283      3.6944361      50218.233      36.893836      36.893836      36.893836    
    944000   0.4988863     -7.8076502     -7.0593314      3.7081019      50218.233      36.893836      36.893836      36.893836    
    945000   0.49830067    -7.8091797     -7.0617393      3.6935579      50218.233      36.893836      36.893836      36.893836    
    946000   0.49856484    -7.8090417     -7.0612051      3.6994293      50218.233      36.893836      36.893836      36.893836    
    947000   0.50145481    -7.8135154     -7.0613439      3.6711489      50218.233      36.893836      36.893836      36.893836    
    948000   0.49998222    -7.8100431     -7.0600804      3.7020789      50218.233      36.893836      36.893836      36.893836    
    949000   0.5016086     -7.8129895     -7.0605873      3.670583       50218.233      36.893836      36.893836      36.893836    
    950000   0.49949452    -7.8117788     -7.0625477      3.6810017      50218.233      36.893836      36.893836      36.893836    
    951000   0.50289093    -7.8103173     -7.0559916      3.6985079      50218.233      36.893836      36.893836      36.893836    
    952000   0.50057754    -7.8104108     -7.0595552      3.6951172      50218.233      36.893836      36.893836      36.893836    
    953000   0.49765413    -7.8106033     -7.0641327      3.6885232      50218.233      36.893836      36.893836      36.893836    
    954000   0.49856508    -7.8099128     -7.0620758      3.6972795      50218.233      36.893836      36.893836      36.893836    
    955000   0.4993535     -7.8090748     -7.0600552      3.7005573      50218.233      36.893836      36.893836      36.893836    
    956000   0.50067012    -7.8131505     -7.062156       3.6677533      50218.233      36.893836      36.893836      36.893836    
    957000   0.49808132    -7.8078087     -7.0606974      3.7097559      50218.233      36.893836      36.893836      36.893836    
    958000   0.49929241    -7.8121674     -7.0632395      3.6696348      50218.233      36.893836      36.893836      36.893836    
    959000   0.49578221    -7.8126868     -7.0690241      3.6672016      50218.233      36.893836      36.893836      36.893836    
    960000   0.50149643    -7.8112425     -7.0590085      3.6869194      50218.233      36.893836      36.893836      36.893836    
    961000   0.50027946    -7.8072454     -7.0568368      3.7119321      50218.233      36.893836      36.893836      36.893836    
    962000   0.49817228    -7.811411      -7.0641632      3.6814107      50218.233      36.893836      36.893836      36.893836    
    963000   0.49972938    -7.8087323     -7.0591489      3.7004356      50218.233      36.893836      36.893836      36.893836    
    964000   0.50063891    -7.8076843     -7.0567366      3.7253198      50218.233      36.893836      36.893836      36.893836    
    965000   0.49805268    -7.8105468     -7.0634784      3.6857874      50218.233      36.893836      36.893836      36.893836    
    966000   0.50128377    -7.8090405     -7.0571255      3.7074622      50218.233      36.893836      36.893836      36.893836    
    967000   0.49902536    -7.8119284     -7.063401       3.6773235      50218.233      36.893836      36.893836      36.893836    
    968000   0.50122104    -7.8081769     -7.056356       3.699783       50218.233      36.893836      36.893836      36.893836    
    969000   0.50060627    -7.8103238     -7.0594251      3.6993591      50218.233      36.893836      36.893836      36.893836    
    970000   0.50019415    -7.8112511     -7.0609706      3.6824121      50218.233      36.893836      36.893836      36.893836    
    971000   0.49852484    -7.8063016     -7.058525       3.7157228      50218.233      36.893836      36.893836      36.893836    
    972000   0.50254504    -7.8075839     -7.0537771      3.7137579      50218.233      36.893836      36.893836      36.893836    
    973000   0.49857056    -7.8062982     -7.058453       3.7198611      50218.233      36.893836      36.893836      36.893836    
    974000   0.50129469    -7.808327      -7.0563957      3.7156522      50218.233      36.893836      36.893836      36.893836    
    975000   0.50154201    -7.8075123     -7.05521        3.7278089      50218.233      36.893836      36.893836      36.893836    
    976000   0.49975046    -7.8095146     -7.0598995      3.7083673      50218.233      36.893836      36.893836      36.893836    
    977000   0.50151967    -7.8101842     -7.0579154      3.6951126      50218.233      36.893836      36.893836      36.893836    
    978000   0.49882208    -7.807107      -7.0588845      3.71961        50218.233      36.893836      36.893836      36.893836    
    979000   0.50290837    -7.8106628     -7.056311       3.6830469      50218.233      36.893836      36.893836      36.893836    
    980000   0.50224607    -7.8067775     -7.0534191      3.7217545      50218.233      36.893836      36.893836      36.893836    
    981000   0.50030809    -7.8079776     -7.0575261      3.7117645      50218.233      36.893836      36.893836      36.893836    
    982000   0.50183612    -7.8131021     -7.0603586      3.6757191      50218.233      36.893836      36.893836      36.893836    
    983000   0.50075581    -7.8148135     -7.0636905      3.6699408      50218.233      36.893836      36.893836      36.893836    
    984000   0.497793      -7.8083159     -7.0616371      3.7006338      50218.233      36.893836      36.893836      36.893836    
    985000   0.49845308    -7.8128189     -7.0651499      3.6698861      50218.233      36.893836      36.893836      36.893836    
    986000   0.5000393     -7.8120201     -7.0619718      3.6728521      50218.233      36.893836      36.893836      36.893836    
    987000   0.49855188    -7.809163      -7.0613458      3.7024951      50218.233      36.893836      36.893836      36.893836    
    988000   0.49855888    -7.8142857     -7.066458       3.6527314      50218.233      36.893836      36.893836      36.893836    
    989000   0.49849845    -7.8037344     -7.0559974      3.7277772      50218.233      36.893836      36.893836      36.893836    
    990000   0.50184863    -7.8094397     -7.0566775      3.7009458      50218.233      36.893836      36.893836      36.893836    
    991000   0.50010353    -7.8096716     -7.059527       3.6938077      50218.233      36.893836      36.893836      36.893836    
    992000   0.50020644    -7.8063954     -7.0560964      3.7309117      50218.233      36.893836      36.893836      36.893836    
    993000   0.49938281    -7.8106531     -7.0615895      3.6929252      50218.233      36.893836      36.893836      36.893836    
    994000   0.49865564    -7.8084978     -7.060525       3.708267       50218.233      36.893836      36.893836      36.893836    
    995000   0.50217586    -7.8090177     -7.0557646      3.6914917      50218.233      36.893836      36.893836      36.893836    
    996000   0.50077813    -7.8097327     -7.0585762      3.6937933      50218.233      36.893836      36.893836      36.893836    
    997000   0.49920596    -7.8119075     -7.0631092      3.6672903      50218.233      36.893836      36.893836      36.893836    
    998000   0.50228217    -7.8100329     -7.0566203      3.6947554      50218.233      36.893836      36.893836      36.893836    
    999000   0.49800657    -7.8109383     -7.0639391      3.6838687      50218.233      36.893836      36.893836      36.893836    
   1000000   0.50022253    -7.8095678     -7.0592447      3.7013269      50218.233      36.893836      36.893836      36.893836    
Loop time of 1601.16 on 4 procs for 1000000 steps with 70304 atoms

Performance: 539607.815 tau/day, 624.546 timesteps/s, 43.908 Matom-step/s
95.4% CPU use with 4 MPI tasks x 1 OpenMP threads

MPI task timing breakdown:
Section |  min time  |  avg time  |  max time  |%varavg| %total
---------------------------------------------------------------
Pair    | 508.93     | 576.61     | 690.15     | 302.7 | 36.01
Neigh   | 6.1921     | 6.6356     | 6.9205     |  11.2 |  0.41
Comm    | 238.32     | 242.38     | 245.74     |  19.9 | 15.14
Output  | 0.19875    | 0.2048     | 0.2148     |   1.4 |  0.01
Modify  | 578.68     | 689.71     | 755.26     | 269.6 | 43.08
Other   |            | 85.63      |            |       |  5.35

Nlocal:          17576 ave       17609 max       17534 min
Histogram: 1 0 0 1 0 0 0 0 1 1
Nghost:          16819 ave       16895 max       16742 min
Histogram: 1 1 0 0 0 0 0 0 1 1
Neighs:              0 ave           0 max           0 min
Histogram: 4 0 0 0 0 0 0 0 0 0

Total # of neighbors = 0
Ave neighs/atom = 0
Neighbor list builds = 204736
Dangerous builds = 0
clear
OMP_NUM_THREADS environment is not set. Defaulting to 1 thread. (src/comm.cpp:98)
  using 1 OpenMP thread(s) per MPI task
package gpu 0
jump dms480.lmp

variable T equal 480
# T = 1000* (temp in LJ unit)
variable f equal 1000
log log.${T}
log log.480
