variable TLJ equal (${T}/1000)
variable TLJ equal (505/1000)
variable NCyle equal 10
variable iStep equal (${f})
variable iStep equal (1000)
variable dumpStep equal (${f}*100)
variable dumpStep equal (1000*100)
variable runStep equal (${f}*100*${NCyle})
variable runStep equal (1000*100*${NCyle})
variable runStep equal (1000*100*10)

units       lj
atom_style  atomic
dimension 3
boundary     p p p
pair_style  lj/cut 2.5
read_data  ../data/T${T}.dat
read_data  ../data/T505.dat
Reading data file ...
  orthogonal box = (0.97250269 0.97250269 0.97250269) to (37.866338 37.866338 37.866338)
  1 by 1 by 1 MPI processor grid
  reading atoms ...
  70304 atoms
  reading velocities ...
  70304 velocities
  read_data CPU = 0.224 seconds
change_box all triclinic
Changing box ...
  triclinic box = (0.97250269 0.97250269 0.97250269) to (37.866338 37.866338 37.866338) with tilt (0 0 0)
mass 1 1
mass 2 1
pair_modify shift yes
pair_coeff  1 1 1 1
pair_coeff  1 2 1.5 0.8
pair_coeff  2 2 0.5 0.88


timestep 0.01
thermo ${iStep}
thermo 1000
reset_timestep 0
thermo_style custom step temp pe etotal press vol lx ly lz
fix             1 all nvt temp ${TLJ}  ${TLJ}  0.1
fix             1 all nvt temp 0.505  ${TLJ}  0.1
fix             1 all nvt temp 0.505  0.505  0.1
thermo_modify flush yes

fix dsf all deform 1 xy  wiggle 0.5  ${f}   units box
fix dsf all deform 1 xy  wiggle 0.5  1000   units box
fix ps1 all ave/time 1 1 ${iStep} c_thermo_press[1] c_thermo_press[2]  c_thermo_press[3] c_thermo_press[4]  c_thermo_press[5] c_thermo_press[6]  file  stress.${T}
fix ps1 all ave/time 1 1 1000 c_thermo_press[1] c_thermo_press[2]  c_thermo_press[3] c_thermo_press[4]  c_thermo_press[5] c_thermo_press[6]  file  stress.${T}
fix ps1 all ave/time 1 1 1000 c_thermo_press[1] c_thermo_press[2]  c_thermo_press[3] c_thermo_press[4]  c_thermo_press[5] c_thermo_press[6]  file  stress.505
dump            1 all custom ${dumpStep} dump.${T} id type x y z
dump            1 all custom 100000 dump.${T} id type x y z
dump            1 all custom 100000 dump.505 id type x y z
dump_modify 1 sort id
fix nodrift all momentum 1  linear 1 1 1
fix com_seed all recenter INIT INIT INIT shift all
run ${runStep}
run 1000000
Generated 0 of 1 mixed pair_coeff terms from geometric mixing rule
Per MPI rank memory allocation (min/avg/max) = 21.18 | 21.18 | 21.18 Mbytes
   Step          Temp          PotEng         TotEng         Press          Volume           Lx             Ly             Lz      
         0   0.50504113    -7.8194685     -7.0619175      3.6333487      50218.233      36.893836      36.893836      36.893836    
      1000   0.50464307    -7.8054039     -7.0484501      3.7289479      50218.233      36.893836      36.893836      36.893836    
      2000   0.50493517    -7.8044861     -7.0470941      3.7394458      50218.233      36.893836      36.893836      36.893836    
      3000   0.50432812    -7.8064938     -7.0500124      3.7225162      50218.233      36.893836      36.893836      36.893836    
      4000   0.50633838    -7.8019201     -7.0424233      3.7526276      50218.233      36.893836      36.893836      36.893836    
      5000   0.50260575    -7.811338      -7.0574401      3.6870178      50218.233      36.893836      36.893836      36.893836    
      6000   0.50270075    -7.8110819     -7.0570415      3.6834819      50218.233      36.893836      36.893836      36.893836    
      7000   0.50851532    -7.8047355     -7.0419734      3.7346705      50218.233      36.893836      36.893836      36.893836    
      8000   0.50586928    -7.8039236     -7.0451305      3.7366929      50218.233      36.893836      36.893836      36.893836    
      9000   0.50574496    -7.8046271     -7.0460204      3.730816       50218.233      36.893836      36.893836      36.893836    
     10000   0.50585818    -7.8061146     -7.0473381      3.7195183      50218.233      36.893836      36.893836      36.893836    
     11000   0.50360017    -7.8034016     -7.0480121      3.7442012      50218.233      36.893836      36.893836      36.893836    
     12000   0.50441778    -7.8053382     -7.0487223      3.7338268      50218.233      36.893836      36.893836      36.893836    
     13000   0.50598448    -7.8050887     -7.0461228      3.7427966      50218.233      36.893836      36.893836      36.893836    
     14000   0.50631298    -7.8029671     -7.0435085      3.772223       50218.233      36.893836      36.893836      36.893836    
     15000   0.50440672    -7.8043342     -7.0477349      3.7424478      50218.233      36.893836      36.893836      36.893836    
     16000   0.50360648    -7.8017131     -7.0463142      3.7519678      50218.233      36.893836      36.893836      36.893836    
     17000   0.50578732    -7.8042553     -7.0455851      3.7481939      50218.233      36.893836      36.893836      36.893836    
     18000   0.50396547    -7.8051498     -7.0492124      3.7335856      50218.233      36.893836      36.893836      36.893836    
     19000   0.5082169     -7.8027719     -7.0404574      3.7567496      50218.233      36.893836      36.893836      36.893836    
     20000   0.50442388    -7.8057186     -7.0490936      3.7421288      50218.233      36.893836      36.893836      36.893836    
     21000   0.50480542    -7.8025001     -7.0453027      3.7519784      50218.233      36.893836      36.893836      36.893836    
     22000   0.5055684     -7.8036937     -7.0453519      3.7487959      50218.233      36.893836      36.893836      36.893836    
     23000   0.5052775     -7.8055659     -7.0476604      3.7483083      50218.233      36.893836      36.893836      36.893836    
     24000   0.50334258    -7.8051339     -7.0501308      3.7333434      50218.233      36.893836      36.893836      36.893836    
     25000   0.50420449    -7.8044286     -7.0481326      3.7366113      50218.233      36.893836      36.893836      36.893836    
     26000   0.50134758    -7.803252      -7.0512413      3.7495071      50218.233      36.893836      36.893836      36.893836    
     27000   0.50744022    -7.7986549     -7.0375054      3.7865643      50218.233      36.893836      36.893836      36.893836    
     28000   0.50340934    -7.8007005     -7.0455972      3.7737567      50218.233      36.893836      36.893836      36.893836    
     29000   0.50479127    -7.8072117     -7.0500356      3.7289919      50218.233      36.893836      36.893836      36.893836    
     30000   0.50655837    -7.8046141     -7.0447874      3.7452075      50218.233      36.893836      36.893836      36.893836    
     31000   0.50558749    -7.7984152     -7.0400447      3.7892567      50218.233      36.893836      36.893836      36.893836    
     32000   0.50860244    -7.8062757     -7.0433829      3.7333196      50218.233      36.893836      36.893836      36.893836    
     33000   0.50203947    -7.8036306     -7.0505821      3.7413705      50218.233      36.893836      36.893836      36.893836    
     34000   0.50449702    -7.8048318     -7.048097       3.7354044      50218.233      36.893836      36.893836      36.893836    
     35000   0.50661155    -7.8065529     -7.0466464      3.7254337      50218.233      36.893836      36.893836      36.893836    
     36000   0.50751579    -7.8076262     -7.0463634      3.7263856      50218.233      36.893836      36.893836      36.893836    
     37000   0.5078558     -7.8065742     -7.0448013      3.7187211      50218.233      36.893836      36.893836      36.893836    
     38000   0.5061192     -7.8039289     -7.0447609      3.7538029      50218.233      36.893836      36.893836      36.893836    
     39000   0.5031226     -7.8050742     -7.0504011      3.7375462      50218.233      36.893836      36.893836      36.893836    
     40000   0.50438404    -7.8063171     -7.0497518      3.7232423      50218.233      36.893836      36.893836      36.893836    
     41000   0.5032297     -7.8054102     -7.0505764      3.7293505      50218.233      36.893836      36.893836      36.893836    
     42000   0.5027666     -7.8047013     -7.0505621      3.736519       50218.233      36.893836      36.893836      36.893836    
     43000   0.50721656    -7.8045282     -7.0437142      3.7435309      50218.233      36.893836      36.893836      36.893836    
     44000   0.50416373    -7.8098131     -7.0535782      3.7053429      50218.233      36.893836      36.893836      36.893836    
     45000   0.50310071    -7.7996385     -7.0449982      3.7757973      50218.233      36.893836      36.893836      36.893836    
     46000   0.50450782    -7.8076678     -7.0509169      3.7121464      50218.233      36.893836      36.893836      36.893836    
     47000   0.50402989    -7.8089254     -7.0528914      3.7078003      50218.233      36.893836      36.893836      36.893836    
     48000   0.50524303    -7.8065792     -7.0487254      3.733302       50218.233      36.893836      36.893836      36.893836    
     49000   0.50439543    -7.8068535     -7.0502711      3.7206848      50218.233      36.893836      36.893836      36.893836    
     50000   0.50647184    -7.8020278     -7.0423309      3.762454       50218.233      36.893836      36.893836      36.893836    
     51000   0.50544563    -7.8033495     -7.0451918      3.7460731      50218.233      36.893836      36.893836      36.893836    
     52000   0.50403556    -7.8032646     -7.047222       3.7558695      50218.233      36.893836      36.893836      36.893836    
     53000   0.50641778    -7.8057194     -7.0461035      3.7295408      50218.233      36.893836      36.893836      36.893836    
     54000   0.50367413    -7.8035579     -7.0480575      3.7507709      50218.233      36.893836      36.893836      36.893836    
     55000   0.50379363    -7.8059201     -7.0502404      3.7320613      50218.233      36.893836      36.893836      36.893836    
     56000   0.50722301    -7.8015735     -7.0407498      3.7676524      50218.233      36.893836      36.893836      36.893836    
     57000   0.50296406    -7.8060392     -7.0516038      3.7219375      50218.233      36.893836      36.893836      36.893836    
     58000   0.50523193    -7.807077      -7.0492399      3.718333       50218.233      36.893836      36.893836      36.893836    
     59000   0.50486685    -7.8094789     -7.0521894      3.7054719      50218.233      36.893836      36.893836      36.893836    
     60000   0.50128063    -7.8035126     -7.0516024      3.7333008      50218.233      36.893836      36.893836      36.893836    
     61000   0.50453969    -7.8032405     -7.0464417      3.7479425      50218.233      36.893836      36.893836      36.893836    
     62000   0.50529168    -7.8046001     -7.0466733      3.7370088      50218.233      36.893836      36.893836      36.893836    
     63000   0.50184794    -7.8015635     -7.0488023      3.7594006      50218.233      36.893836      36.893836      36.893836    
     64000   0.50497994    -7.8051125     -7.0476533      3.7404338      50218.233      36.893836      36.893836      36.893836    
     65000   0.50402886    -7.803171      -7.0471384      3.7471401      50218.233      36.893836      36.893836      36.893836    
     66000   0.50711596    -7.8019668     -7.0413037      3.7605087      50218.233      36.893836      36.893836      36.893836    
     67000   0.50526427    -7.804691      -7.0468054      3.7351977      50218.233      36.893836      36.893836      36.893836    
     68000   0.50373466    -7.8036634     -7.0480721      3.7505809      50218.233      36.893836      36.893836      36.893836    
     69000   0.50512058    -7.808796      -7.0511259      3.7127912      50218.233      36.893836      36.893836      36.893836    
     70000   0.50356327    -7.8057686     -7.0504345      3.7304477      50218.233      36.893836      36.893836      36.893836    
     71000   0.50608027    -7.805415      -7.0463054      3.7392872      50218.233      36.893836      36.893836      36.893836    
     72000   0.50729979    -7.8065432     -7.0456043      3.7452779      50218.233      36.893836      36.893836      36.893836    
     73000   0.50604692    -7.8053766     -7.046317       3.7390112      50218.233      36.893836      36.893836      36.893836    
     74000   0.50555813    -7.8026679     -7.0443415      3.7481998      50218.233      36.893836      36.893836      36.893836    
     75000   0.50689016    -7.8071423     -7.0468179      3.7194557      50218.233      36.893836      36.893836      36.893836    
     76000   0.50393527    -7.8060369     -7.0501447      3.735378       50218.233      36.893836      36.893836      36.893836    
     77000   0.50608986    -7.8015093     -7.0423853      3.7664756      50218.233      36.893836      36.893836      36.893836    
     78000   0.50503058    -7.806744      -7.049209       3.7322745      50218.233      36.893836      36.893836      36.893836    
     79000   0.50602226    -7.8002301     -7.0412075      3.7680183      50218.233      36.893836      36.893836      36.893836    
     80000   0.50455521    -7.8058072     -7.0489851      3.730281       50218.233      36.893836      36.893836      36.893836    
     81000   0.50533995    -7.8049541     -7.046955       3.7284929      50218.233      36.893836      36.893836      36.893836    
     82000   0.50382664    -7.8062814     -7.0505522      3.7168327      50218.233      36.893836      36.893836      36.893836    
     83000   0.5022301     -7.8023028     -7.0489683      3.7533077      50218.233      36.893836      36.893836      36.893836    
     84000   0.50558311    -7.8061775     -7.0478136      3.7227478      50218.233      36.893836      36.893836      36.893836    
     85000   0.5060817     -7.8064344     -7.0473226      3.7261277      50218.233      36.893836      36.893836      36.893836    
     86000   0.50504177    -7.8069507     -7.0493988      3.7133259      50218.233      36.893836      36.893836      36.893836    
     87000   0.50483847    -7.8085748     -7.0513279      3.7097838      50218.233      36.893836      36.893836      36.893836    
     88000   0.50484307    -7.8054466     -7.0481928      3.7293923      50218.233      36.893836      36.893836      36.893836    
     89000   0.50572697    -7.8050989     -7.0465192      3.7300219      50218.233      36.893836      36.893836      36.893836    
     90000   0.50606672    -7.8047668     -7.0456775      3.7342774      50218.233      36.893836      36.893836      36.893836    
     91000   0.505613      -7.8017711     -7.0433624      3.7673866      50218.233      36.893836      36.893836      36.893836    
     92000   0.50808285    -7.807055      -7.0449416      3.7237725      50218.233      36.893836      36.893836      36.893836    
     93000   0.50317596    -7.8034386     -7.0486854      3.7438471      50218.233      36.893836      36.893836      36.893836    
     94000   0.50540947    -7.8040105     -7.0459071      3.7386204      50218.233      36.893836      36.893836      36.893836    
     95000   0.50687176    -7.8069115     -7.0466147      3.7257996      50218.233      36.893836      36.893836      36.893836    
     96000   0.50512242    -7.8032007     -7.0455278      3.7441066      50218.233      36.893836      36.893836      36.893836    
     97000   0.50508726    -7.8069701     -7.04935        3.7205557      50218.233      36.893836      36.893836      36.893836    
     98000   0.50520681    -7.8073436     -7.0495442      3.7162277      50218.233      36.893836      36.893836      36.893836    
     99000   0.50419222    -7.8090432     -7.0527656      3.7061244      50218.233      36.893836      36.893836      36.893836    
    100000   0.50292366    -7.8029443     -7.0485695      3.7385738      50218.233      36.893836      36.893836      36.893836    
    101000   0.5046547     -7.8049533     -7.047982       3.7420462      50218.233      36.893836      36.893836      36.893836    
    102000   0.50462448    -7.8066118     -7.0496858      3.7313759      50218.233      36.893836      36.893836      36.893836    
    103000   0.5076168     -7.8041721     -7.0427578      3.7543517      50218.233      36.893836      36.893836      36.893836    
    104000   0.50757874    -7.8080888     -7.0467315      3.7182278      50218.233      36.893836      36.893836      36.893836    
    105000   0.50568867    -7.8066673     -7.048145       3.7225983      50218.233      36.893836      36.893836      36.893836    
    106000   0.50618047    -7.8064152     -7.0471553      3.7209638      50218.233      36.893836      36.893836      36.893836    
    107000   0.50335403    -7.8032056     -7.0481853      3.7525688      50218.233      36.893836      36.893836      36.893836    
    108000   0.50252236    -7.804975      -7.0512022      3.7348748      50218.233      36.893836      36.893836      36.893836    
    109000   0.5038376     -7.8052076     -7.0494619      3.7384338      50218.233      36.893836      36.893836      36.893836    
    110000   0.50548547    -7.8020228     -7.0438054      3.7651055      50218.233      36.893836      36.893836      36.893836    
    111000   0.50687293    -7.80316       -7.0428615      3.7569251      50218.233      36.893836      36.893836      36.893836    
    112000   0.50548222    -7.8032411     -7.0450285      3.7468446      50218.233      36.893836      36.893836      36.893836    
    113000   0.50656666    -7.8010003     -7.0411612      3.7679994      50218.233      36.893836      36.893836      36.893836    
    114000   0.50453054    -7.8015895     -7.0448045      3.7603687      50218.233      36.893836      36.893836      36.893836    
    115000   0.50395383    -7.8007132     -7.0447932      3.7745651      50218.233      36.893836      36.893836      36.893836    
    116000   0.5059126     -7.8038093     -7.0449512      3.7436588      50218.233      36.893836      36.893836      36.893836    
    117000   0.50430936    -7.8022979     -7.0458447      3.7563047      50218.233      36.893836      36.893836      36.893836    
    118000   0.50505337    -7.8084383     -7.0508691      3.70945        50218.233      36.893836      36.893836      36.893836    
    119000   0.50720402    -7.8051888     -7.0443936      3.7393116      50218.233      36.893836      36.893836      36.893836    
    120000   0.50591722    -7.8041848     -7.0453198      3.7430358      50218.233      36.893836      36.893836      36.893836    
    121000   0.50520902    -7.8039063     -7.0461036      3.7490309      50218.233      36.893836      36.893836      36.893836    
    122000   0.50351603    -7.8025693     -7.047306       3.7586881      50218.233      36.893836      36.893836      36.893836    
    123000   0.50902768    -7.8059866     -7.0424559      3.7327166      50218.233      36.893836      36.893836      36.893836    
    124000   0.50767258    -7.8081487     -7.0466507      3.7193129      50218.233      36.893836      36.893836      36.893836    
    125000   0.50466363    -7.799424      -7.0424393      3.7843981      50218.233      36.893836      36.893836      36.893836    
    126000   0.50452393    -7.8077814     -7.0510063      3.722712       50218.233      36.893836      36.893836      36.893836    
    127000   0.50338861    -7.8084422     -7.05337        3.7062496      50218.233      36.893836      36.893836      36.893836    
    128000   0.50429282    -7.802389      -7.0459605      3.7540195      50218.233      36.893836      36.893836      36.893836    
    129000   0.50430025    -7.8016113     -7.0451717      3.7551049      50218.233      36.893836      36.893836      36.893836    
    130000   0.50512607    -7.8014287     -7.0437503      3.7635956      50218.233      36.893836      36.893836      36.893836    
    131000   0.50653592    -7.8056831     -7.04589        3.729601       50218.233      36.893836      36.893836      36.893836    
    132000   0.50494708    -7.808258      -7.0508482      3.7353443      50218.233      36.893836      36.893836      36.893836    
    133000   0.50488111    -7.8044029     -7.047092       3.7456245      50218.233      36.893836      36.893836      36.893836    
    134000   0.5063754     -7.8064053     -7.046853       3.7269617      50218.233      36.893836      36.893836      36.893836    
    135000   0.50341804    -7.8041807     -7.0490644      3.7515625      50218.233      36.893836      36.893836      36.893836    
    136000   0.50467749    -7.8034365     -7.0464311      3.7494582      50218.233      36.893836      36.893836      36.893836    
    137000   0.50529669    -7.8006561     -7.0427219      3.7713441      50218.233      36.893836      36.893836      36.893836    
    138000   0.50550477    -7.8005561     -7.0423098      3.7760516      50218.233      36.893836      36.893836      36.893836    
    139000   0.50594463    -7.805908      -7.0470019      3.7404507      50218.233      36.893836      36.893836      36.893836    
    140000   0.50598734    -7.8042196     -7.0452493      3.7427707      50218.233      36.893836      36.893836      36.893836    
    141000   0.50741216    -7.8022716     -7.0411641      3.7590803      50218.233      36.893836      36.893836      36.893836    
    142000   0.5012237     -7.7995292     -7.0477044      3.7819469      50218.233      36.893836      36.893836      36.893836    
    143000   0.50381572    -7.804232      -7.0485191      3.7459811      50218.233      36.893836      36.893836      36.893836    
    144000   0.50570603    -7.8024053     -7.043857       3.7529449      50218.233      36.893836      36.893836      36.893836    
    145000   0.50419422    -7.803504      -7.0472234      3.7496052      50218.233      36.893836      36.893836      36.893836    
    146000   0.50453177    -7.805755      -7.0489681      3.726975       50218.233      36.893836      36.893836      36.893836    
    147000   0.50378931    -7.8045105     -7.0488373      3.7357593      50218.233      36.893836      36.893836      36.893836    
    148000   0.50524123    -7.8056294     -7.0477784      3.7269561      50218.233      36.893836      36.893836      36.893836    
    149000   0.50406295    -7.8084592     -7.0523755      3.7110707      50218.233      36.893836      36.893836      36.893836    
    150000   0.50615618    -7.8054101     -7.0461867      3.7446676      50218.233      36.893836      36.893836      36.893836    
    151000   0.50433173    -7.8036259     -7.047139       3.7512677      50218.233      36.893836      36.893836      36.893836    
    152000   0.50571082    -7.8056225     -7.0470671      3.7389716      50218.233      36.893836      36.893836      36.893836    
    153000   0.50662349    -7.810013      -7.0500886      3.7060168      50218.233      36.893836      36.893836      36.893836    
    154000   0.50370642    -7.8056975     -7.0501486      3.7336514      50218.233      36.893836      36.893836      36.893836    
    155000   0.50461903    -7.8011128     -7.044195       3.7572942      50218.233      36.893836      36.893836      36.893836    
    156000   0.50399295    -7.8017738     -7.0457951      3.7559601      50218.233      36.893836      36.893836      36.893836    
    157000   0.50525846    -7.802061      -7.0441841      3.7581467      50218.233      36.893836      36.893836      36.893836    
    158000   0.5056078     -7.8071765     -7.0487756      3.7252422      50218.233      36.893836      36.893836      36.893836    
    159000   0.50335779    -7.8062708     -7.0512449      3.7318518      50218.233      36.893836      36.893836      36.893836    
    160000   0.50233489    -7.8044701     -7.0509785      3.7504853      50218.233      36.893836      36.893836      36.893836    
    161000   0.50271599    -7.806262      -7.0521987      3.7238408      50218.233      36.893836      36.893836      36.893836    
    162000   0.50585997    -7.8047931     -7.0460139      3.7433238      50218.233      36.893836      36.893836      36.893836    
    163000   0.50652054    -7.8043524     -7.0445824      3.7393752      50218.233      36.893836      36.893836      36.893836    
    164000   0.5017721     -7.8039828     -7.0513354      3.7483839      50218.233      36.893836      36.893836      36.893836    
    165000   0.5075176     -7.8079112     -7.0466456      3.7243997      50218.233      36.893836      36.893836      36.893836    
    166000   0.50320312    -7.8098055     -7.0550115      3.691794       50218.233      36.893836      36.893836      36.893836    
    167000   0.50469941    -7.8012259     -7.0441875      3.7655481      50218.233      36.893836      36.893836      36.893836    
    168000   0.50450657    -7.80148       -7.0447309      3.7749263      50218.233      36.893836      36.893836      36.893836    
    169000   0.50625318    -7.8018351     -7.0424662      3.7724395      50218.233      36.893836      36.893836      36.893836    
    170000   0.50309308    -7.8026309     -7.048002       3.75459        50218.233      36.893836      36.893836      36.893836    
    171000   0.50346014    -7.804095      -7.0489155      3.7455873      50218.233      36.893836      36.893836      36.893836    
    172000   0.50171417    -7.7965679     -7.0440073      3.7947096      50218.233      36.893836      36.893836      36.893836    
    173000   0.50526386    -7.8049385     -7.0470535      3.7513776      50218.233      36.893836      36.893836      36.893836    
    174000   0.50595378    -7.8036599     -7.04474        3.7462773      50218.233      36.893836      36.893836      36.893836    
    175000   0.50645597    -7.8079031     -7.0482299      3.7207166      50218.233      36.893836      36.893836      36.893836    
    176000   0.5056073     -7.8088364     -7.0504362      3.7094259      50218.233      36.893836      36.893836      36.893836    
    177000   0.50443558    -7.8015867     -7.0449441      3.7659397      50218.233      36.893836      36.893836      36.893836    
    178000   0.50431295    -7.8060415     -7.0495828      3.7183369      50218.233      36.893836      36.893836      36.893836    
    179000   0.50694122    -7.8040284     -7.0436274      3.7493556      50218.233      36.893836      36.893836      36.893836    
    180000   0.50425512    -7.806051      -7.0496791      3.7316888      50218.233      36.893836      36.893836      36.893836    
    181000   0.50362263    -7.8051134     -7.0496902      3.7380524      50218.233      36.893836      36.893836      36.893836    
    182000   0.50332783    -7.8045667     -7.0495857      3.736463       50218.233      36.893836      36.893836      36.893836    
    183000   0.50022791    -7.8044584     -7.0541272      3.7463852      50218.233      36.893836      36.893836      36.893836    
    184000   0.50225814    -7.8060226     -7.0526461      3.7320917      50218.233      36.893836      36.893836      36.893836    
    185000   0.50282794    -7.8042155     -7.0499843      3.7446878      50218.233      36.893836      36.893836      36.893836    
    186000   0.50740432    -7.8030524     -7.0419567      3.7562549      50218.233      36.893836      36.893836      36.893836    
    187000   0.50663614    -7.8016669     -7.0417235      3.7720878      50218.233      36.893836      36.893836      36.893836    
    188000   0.50501802    -7.8054534     -7.0479371      3.7363196      50218.233      36.893836      36.893836      36.893836    
    189000   0.50354842    -7.8066499     -7.051338       3.7325314      50218.233      36.893836      36.893836      36.893836    
    190000   0.50715676    -7.8080534     -7.047329       3.7313816      50218.233      36.893836      36.893836      36.893836    
    191000   0.50745761    -7.8053107     -7.0441351      3.7296797      50218.233      36.893836      36.893836      36.893836    
    192000   0.50216232    -7.806839      -7.0536062      3.7130407      50218.233      36.893836      36.893836      36.893836    
    193000   0.50515559    -7.8009755     -7.0432529      3.7719537      50218.233      36.893836      36.893836      36.893836    
    194000   0.50347507    -7.8044239     -7.0492221      3.7415834      50218.233      36.893836      36.893836      36.893836    
    195000   0.50458683    -7.8012855     -7.0444161      3.7606592      50218.233      36.893836      36.893836      36.893836    
    196000   0.50704898    -7.8024806     -7.0419179      3.7598479      50218.233      36.893836      36.893836      36.893836    
    197000   0.50149387    -7.800692      -7.0484619      3.7637013      50218.233      36.893836      36.893836      36.893836    
    198000   0.50254934    -7.8087373     -7.054924       3.707961       50218.233      36.893836      36.893836      36.893836    
    199000   0.50361752    -7.8080811     -7.0526656      3.7061855      50218.233      36.893836      36.893836      36.893836    
    200000   0.50727598    -7.8078432     -7.04694        3.7212785      50218.233      36.893836      36.893836      36.893836    
    201000   0.50419952    -7.8061084     -7.0498199      3.7326907      50218.233      36.893836      36.893836      36.893836    
    202000   0.50577779    -7.8047126     -7.0460567      3.7389845      50218.233      36.893836      36.893836      36.893836    
    203000   0.50343764    -7.8080882     -7.0529425      3.7229377      50218.233      36.893836      36.893836      36.893836    
    204000   0.50692447    -7.8048358     -7.0444599      3.7471888      50218.233      36.893836      36.893836      36.893836    
    205000   0.50726154    -7.8024127     -7.0415312      3.7651518      50218.233      36.893836      36.893836      36.893836    
    206000   0.50697351    -7.8061811     -7.0457317      3.725852       50218.233      36.893836      36.893836      36.893836    
    207000   0.50625125    -7.8030189     -7.0436528      3.7509904      50218.233      36.893836      36.893836      36.893836    
    208000   0.50491566    -7.8039756     -7.0466129      3.7445874      50218.233      36.893836      36.893836      36.893836    
    209000   0.50462466    -7.8027454     -7.0458192      3.7585003      50218.233      36.893836      36.893836      36.893836    
    210000   0.50572011    -7.8028636     -7.0442942      3.7483832      50218.233      36.893836      36.893836      36.893836    
    211000   0.5040369     -7.8037535     -7.0477089      3.7476612      50218.233      36.893836      36.893836      36.893836    
    212000   0.50456687    -7.8060692     -7.0492297      3.7374933      50218.233      36.893836      36.893836      36.893836    
    213000   0.50651243    -7.8033576     -7.0435997      3.7520354      50218.233      36.893836      36.893836      36.893836    
    214000   0.50539521    -7.799892      -7.04181        3.7754193      50218.233      36.893836      36.893836      36.893836    
    215000   0.50754632    -7.8067724     -7.0454638      3.7336339      50218.233      36.893836      36.893836      36.893836    
    216000   0.50596256    -7.8036468     -7.0447137      3.7533588      50218.233      36.893836      36.893836      36.893836    
    217000   0.50311824    -7.8077448     -7.0530781      3.7086168      50218.233      36.893836      36.893836      36.893836    
    218000   0.50329762    -7.7989333     -7.0439976      3.7871063      50218.233      36.893836      36.893836      36.893836    
    219000   0.50557419    -7.79841       -7.0400595      3.7860919      50218.233      36.893836      36.893836      36.893836    
    220000   0.50343627    -7.8060172     -7.0508736      3.7297145      50218.233      36.893836      36.893836      36.893836    
    221000   0.50500586    -7.8034658     -7.0459678      3.7536446      50218.233      36.893836      36.893836      36.893836    
    222000   0.50406008    -7.8031983     -7.0471189      3.7449501      50218.233      36.893836      36.893836      36.893836    
    223000   0.50710449    -7.80097       -7.0403241      3.7754628      50218.233      36.893836      36.893836      36.893836    
    224000   0.50773429    -7.8010031     -7.0394125      3.7694975      50218.233      36.893836      36.893836      36.893836    
    225000   0.50622804    -7.8033983     -7.044067       3.7491675      50218.233      36.893836      36.893836      36.893836    
    226000   0.50431786    -7.805764      -7.049298       3.7377075      50218.233      36.893836      36.893836      36.893836    
    227000   0.50471729    -7.8054715     -7.0484064      3.7338441      50218.233      36.893836      36.893836      36.893836    
    228000   0.50382196    -7.8018637     -7.0461415      3.7536584      50218.233      36.893836      36.893836      36.893836    
    229000   0.50524518    -7.8013931     -7.0435361      3.7604258      50218.233      36.893836      36.893836      36.893836    
    230000   0.50383517    -7.7985808     -7.0428388      3.7790845      50218.233      36.893836      36.893836      36.893836    
    231000   0.50497862    -7.8059344     -7.0484773      3.7298179      50218.233      36.893836      36.893836      36.893836    
    232000   0.50793779    -7.8041452     -7.0422494      3.7444955      50218.233      36.893836      36.893836      36.893836    
    233000   0.50439263    -7.8059389     -7.0493608      3.7264904      50218.233      36.893836      36.893836      36.893836    
    234000   0.50504283    -7.8004099     -7.0428564      3.7675499      50218.233      36.893836      36.893836      36.893836    
    235000   0.50608379    -7.8004164     -7.0413015      3.7798143      50218.233      36.893836      36.893836      36.893836    
    236000   0.50055585    -7.8041454     -7.0533223      3.7364853      50218.233      36.893836      36.893836      36.893836    
    237000   0.50548139    -7.8057339     -7.0475226      3.7402728      50218.233      36.893836      36.893836      36.893836    
    238000   0.50010832    -7.8065698     -7.056418       3.7230329      50218.233      36.893836      36.893836      36.893836    
    239000   0.50501546    -7.8045406     -7.0470282      3.7434458      50218.233      36.893836      36.893836      36.893836    
    240000   0.50708978    -7.803977      -7.0433532      3.7558963      50218.233      36.893836      36.893836      36.893836    
    241000   0.50321299    -7.8040279     -7.0492192      3.7429384      50218.233      36.893836      36.893836      36.893836    
    242000   0.50777924    -7.7988867     -7.0372287      3.7848538      50218.233      36.893836      36.893836      36.893836    
    243000   0.50559757    -7.8015724     -7.0431868      3.76893        50218.233      36.893836      36.893836      36.893836    
    244000   0.50386951    -7.802674      -7.0468805      3.7569123      50218.233      36.893836      36.893836      36.893836    
    245000   0.5051625     -7.8030513     -7.0453183      3.7590541      50218.233      36.893836      36.893836      36.893836    
    246000   0.50604175    -7.8053452     -7.0462934      3.7313122      50218.233      36.893836      36.893836      36.893836    
    247000   0.50353299    -7.8071709     -7.0518821      3.7141959      50218.233      36.893836      36.893836      36.893836    
    248000   0.50519665    -7.8030815     -7.0452974      3.7545167      50218.233      36.893836      36.893836      36.893836    
    249000   0.50707154    -7.8014597     -7.0408632      3.7724855      50218.233      36.893836      36.893836      36.893836    
    250000   0.50625813    -7.803849      -7.0444726      3.7498845      50218.233      36.893836      36.893836      36.893836    
    251000   0.50706865    -7.7999249     -7.0393327      3.7770806      50218.233      36.893836      36.893836      36.893836    
    252000   0.50482737    -7.8038122     -7.0465819      3.7431554      50218.233      36.893836      36.893836      36.893836    
    253000   0.50500596    -7.8057496     -7.0482514      3.7253392      50218.233      36.893836      36.893836      36.893836    
    254000   0.50721737    -7.8073029     -7.0464877      3.7159112      50218.233      36.893836      36.893836      36.893836    
    255000   0.50328488    -7.803255      -7.0483384      3.7571305      50218.233      36.893836      36.893836      36.893836    
    256000   0.50531729    -7.8013484     -7.0433833      3.7680892      50218.233      36.893836      36.893836      36.893836    
    257000   0.50309125    -7.8048536     -7.0502274      3.7416371      50218.233      36.893836      36.893836      36.893836    
    258000   0.50619764    -7.804493      -7.0452074      3.7423017      50218.233      36.893836      36.893836      36.893836    
    259000   0.50608314    -7.805228      -7.0461141      3.745213       50218.233      36.893836      36.893836      36.893836    
    260000   0.50811704    -7.8049374     -7.0427726      3.7551749      50218.233      36.893836      36.893836      36.893836    
    261000   0.50248132    -7.8058755     -7.0521643      3.7264787      50218.233      36.893836      36.893836      36.893836    
    262000   0.50445154    -7.8085558     -7.0518892      3.7124349      50218.233      36.893836      36.893836      36.893836    
    263000   0.50476676    -7.8008392     -7.0436999      3.7694692      50218.233      36.893836      36.893836      36.893836    
    264000   0.50440285    -7.8046521     -7.0480586      3.7470562      50218.233      36.893836      36.893836      36.893836    
    265000   0.50461426    -7.8023261     -7.0454155      3.7469085      50218.233      36.893836      36.893836      36.893836    
    266000   0.50378996    -7.8033567     -7.0476825      3.7439846      50218.233      36.893836      36.893836      36.893836    
    267000   0.50356795    -7.8067555     -7.0514143      3.7209499      50218.233      36.893836      36.893836      36.893836    
    268000   0.50554166    -7.8050049     -7.0467032      3.7367607      50218.233      36.893836      36.893836      36.893836    
    269000   0.50400412    -7.8027182     -7.0467228      3.7549608      50218.233      36.893836      36.893836      36.893836    
    270000   0.5005844     -7.8057354     -7.0548694      3.7297924      50218.233      36.893836      36.893836      36.893836    
    271000   0.5056288     -7.7995902     -7.0411577      3.786084       50218.233      36.893836      36.893836      36.893836    
    272000   0.5042042     -7.8003115     -7.044016       3.7795176      50218.233      36.893836      36.893836      36.893836    
    273000   0.50701494    -7.7997194     -7.0392078      3.7761038      50218.233      36.893836      36.893836      36.893836    
    274000   0.50670318    -7.802298      -7.0422541      3.755728       50218.233      36.893836      36.893836      36.893836    
    275000   0.50675603    -7.8012737     -7.0411505      3.7683798      50218.233      36.893836      36.893836      36.893836    
    276000   0.50889634    -7.8012256     -7.0378919      3.7638804      50218.233      36.893836      36.893836      36.893836    
    277000   0.50594023    -7.8001975     -7.0412979      3.7705214      50218.233      36.893836      36.893836      36.893836    
    278000   0.50177206    -7.8019611     -7.0493138      3.7569782      50218.233      36.893836      36.893836      36.893836    
    279000   0.50367899    -7.8020813     -7.0465736      3.7466294      50218.233      36.893836      36.893836      36.893836    
    280000   0.50387427    -7.8024339     -7.0466333      3.7584817      50218.233      36.893836      36.893836      36.893836    
    281000   0.50712605    -7.8040335     -7.0433553      3.7460899      50218.233      36.893836      36.893836      36.893836    
    282000   0.50606109    -7.8046773     -7.0455965      3.7487533      50218.233      36.893836      36.893836      36.893836    
    283000   0.50556317    -7.8052034     -7.0468695      3.7362166      50218.233      36.893836      36.893836      36.893836    
    284000   0.50299122    -7.8068162     -7.0523401      3.7182632      50218.233      36.893836      36.893836      36.893836    
    285000   0.50522788    -7.8057015     -7.0478705      3.7456519      50218.233      36.893836      36.893836      36.893836    
    286000   0.50405136    -7.802924      -7.0468577      3.7616766      50218.233      36.893836      36.893836      36.893836    
    287000   0.50543242    -7.8025024     -7.0443645      3.7597125      50218.233      36.893836      36.893836      36.893836    
    288000   0.50646482    -7.8039086     -7.0442222      3.7514092      50218.233      36.893836      36.893836      36.893836    
    289000   0.50695588    -7.8065053     -7.0460823      3.7287756      50218.233      36.893836      36.893836      36.893836    
    290000   0.50619319    -7.8013582     -7.0420792      3.7685219      50218.233      36.893836      36.893836      36.893836    
    291000   0.50452509    -7.8058476     -7.0490707      3.7379098      50218.233      36.893836      36.893836      36.893836    
    292000   0.50488098    -7.8035076     -7.0461969      3.7382931      50218.233      36.893836      36.893836      36.893836    
    293000   0.50694447    -7.8057862     -7.0453803      3.7373082      50218.233      36.893836      36.893836      36.893836    
    294000   0.50766336    -7.80462       -7.0431358      3.7544876      50218.233      36.893836      36.893836      36.893836    
    295000   0.50400641    -7.8005876     -7.0445887      3.7731076      50218.233      36.893836      36.893836      36.893836    
    296000   0.50594782    -7.8032462     -7.0443352      3.7649869      50218.233      36.893836      36.893836      36.893836    
    297000   0.50530214    -7.8043853     -7.0464429      3.7336827      50218.233      36.893836      36.893836      36.893836    
    298000   0.5085956     -7.802527      -7.0396445      3.7639669      50218.233      36.893836      36.893836      36.893836    
    299000   0.50340314    -7.8049619     -7.0498679      3.7395521      50218.233      36.893836      36.893836      36.893836    
    300000   0.50439282    -7.8011519     -7.0445734      3.7639587      50218.233      36.893836      36.893836      36.893836    
    301000   0.50402665    -7.8051739     -7.0491447      3.736014       50218.233      36.893836      36.893836      36.893836    
    302000   0.5066364     -7.8002522     -7.0403085      3.7620104      50218.233      36.893836      36.893836      36.893836    
    303000   0.50722294    -7.8036841     -7.0428605      3.7569941      50218.233      36.893836      36.893836      36.893836    
    304000   0.50288559    -7.8064954     -7.0521778      3.7326288      50218.233      36.893836      36.893836      36.893836    
    305000   0.50637679    -7.808277      -7.0487226      3.7113997      50218.233      36.893836      36.893836      36.893836    
    306000   0.50555834    -7.8043726     -7.0460459      3.755425       50218.233      36.893836      36.893836      36.893836    
    307000   0.50260889    -7.8017897     -7.0478871      3.7652608      50218.233      36.893836      36.893836      36.893836    
    308000   0.50437108    -7.8041313     -7.0475854      3.7500446      50218.233      36.893836      36.893836      36.893836    
    309000   0.50180435    -7.8042662     -7.0515704      3.7469169      50218.233      36.893836      36.893836      36.893836    
    310000   0.50639286    -7.8054624     -7.0458839      3.7371901      50218.233      36.893836      36.893836      36.893836    
    311000   0.50471136    -7.8048315     -7.0477753      3.736429       50218.233      36.893836      36.893836      36.893836    
    312000   0.50723559    -7.8042364     -7.0433939      3.7423014      50218.233      36.893836      36.893836      36.893836    
    313000   0.505138      -7.804291      -7.0465947      3.7482181      50218.233      36.893836      36.893836      36.893836    
    314000   0.50459451    -7.8041528     -7.0472718      3.7573812      50218.233      36.893836      36.893836      36.893836    
    315000   0.50547837    -7.8034257     -7.045219       3.7516455      50218.233      36.893836      36.893836      36.893836    
    316000   0.50497122    -7.8022737     -7.0448276      3.7542957      50218.233      36.893836      36.893836      36.893836    
    317000   0.50449877    -7.8055308     -7.0487934      3.7273975      50218.233      36.893836      36.893836      36.893836    
    318000   0.50491216    -7.8042886     -7.0469311      3.7404609      50218.233      36.893836      36.893836      36.893836    
    319000   0.50384587    -7.8027413     -7.0469833      3.7536085      50218.233      36.893836      36.893836      36.893836    
    320000   0.50281227    -7.8031285     -7.0489209      3.7488424      50218.233      36.893836      36.893836      36.893836    
    321000   0.50469339    -7.8030632     -7.0460339      3.7510866      50218.233      36.893836      36.893836      36.893836    
    322000   0.50493411    -7.8057487     -7.0483583      3.7294372      50218.233      36.893836      36.893836      36.893836    
    323000   0.50760642    -7.8023657     -7.0409669      3.7653399      50218.233      36.893836      36.893836      36.893836    
    324000   0.5055701     -7.8020161     -7.0436718      3.7633123      50218.233      36.893836      36.893836      36.893836    
    325000   0.50587039    -7.8017744     -7.0429796      3.7627628      50218.233      36.893836      36.893836      36.893836    
    326000   0.50520676    -7.8043018     -7.0465024      3.754436       50218.233      36.893836      36.893836      36.893836    
    327000   0.50543942    -7.8016636     -7.0435153      3.7620174      50218.233      36.893836      36.893836      36.893836    
    328000   0.50417635    -7.8048428     -7.048589       3.741302       50218.233      36.893836      36.893836      36.893836    
    329000   0.50504626    -7.8018748     -7.0443162      3.7654037      50218.233      36.893836      36.893836      36.893836    
    330000   0.50388506    -7.8014875     -7.0456707      3.7657914      50218.233      36.893836      36.893836      36.893836    
    331000   0.5053179     -7.8006396     -7.0426735      3.7797709      50218.233      36.893836      36.893836      36.893836    
    332000   0.50578637    -7.801559      -7.0428903      3.7769276      50218.233      36.893836      36.893836      36.893836    
    333000   0.50312823    -7.8031047     -7.0484231      3.7535026      50218.233      36.893836      36.893836      36.893836    
    334000   0.50577291    -7.8011557     -7.0425072      3.7845762      50218.233      36.893836      36.893836      36.893836    
    335000   0.50379821    -7.8068308     -7.0511442      3.7257583      50218.233      36.893836      36.893836      36.893836    
    336000   0.50428053    -7.8014744     -7.0450643      3.7602799      50218.233      36.893836      36.893836      36.893836    
    337000   0.50608075    -7.8059652     -7.0468549      3.7402405      50218.233      36.893836      36.893836      36.893836    
    338000   0.50584886    -7.8042696     -7.0455071      3.7479967      50218.233      36.893836      36.893836      36.893836    
    339000   0.50443961    -7.8026978     -7.0460492      3.7600958      50218.233      36.893836      36.893836      36.893836    
    340000   0.50669358    -7.8006945     -7.0406649      3.7813454      50218.233      36.893836      36.893836      36.893836    
    341000   0.50137705    -7.8040052     -7.0519503      3.7479458      50218.233      36.893836      36.893836      36.893836    
    342000   0.50782745    -7.8026674     -7.0409371      3.7608528      50218.233      36.893836      36.893836      36.893836    
    343000   0.50724983    -7.7999803     -7.0391164      3.7867688      50218.233      36.893836      36.893836      36.893836    
    344000   0.50589392    -7.8030174     -7.0441873      3.7505842      50218.233      36.893836      36.893836      36.893836    
    345000   0.50383773    -7.8031021     -7.0473562      3.7568718      50218.233      36.893836      36.893836      36.893836    
    346000   0.50502362    -7.8017216     -7.044197       3.7689195      50218.233      36.893836      36.893836      36.893836    
    347000   0.50641409    -7.80309       -7.0434796      3.7640953      50218.233      36.893836      36.893836      36.893836    
    348000   0.50636602    -7.8065915     -7.0470533      3.7414705      50218.233      36.893836      36.893836      36.893836    
    349000   0.50770252    -7.807172      -7.0456291      3.7288804      50218.233      36.893836      36.893836      36.893836    
    350000   0.50627927    -7.8018326     -7.0424245      3.7682616      50218.233      36.893836      36.893836      36.893836    
    351000   0.50864231    -7.8054589     -7.0425063      3.7406342      50218.233      36.893836      36.893836      36.893836    
    352000   0.50520054    -7.8026819     -7.0448918      3.7788267      50218.233      36.893836      36.893836      36.893836    
    353000   0.50668266    -7.8027906     -7.0427774      3.7584421      50218.233      36.893836      36.893836      36.893836    
    354000   0.50675221    -7.8022649     -7.0421474      3.7711505      50218.233      36.893836      36.893836      36.893836    
    355000   0.50543472    -7.8055699     -7.0474286      3.7456879      50218.233      36.893836      36.893836      36.893836    
    356000   0.50451047    -7.8033757     -7.0466208      3.7585571      50218.233      36.893836      36.893836      36.893836    
    357000   0.50582343    -7.8035353     -7.044811       3.7634539      50218.233      36.893836      36.893836      36.893836    
    358000   0.50279469    -7.804996      -7.0508147      3.7403574      50218.233      36.893836      36.893836      36.893836    
    359000   0.50609612    -7.8038549     -7.0447215      3.7588111      50218.233      36.893836      36.893836      36.893836    
    360000   0.503686      -7.8043474     -7.0488292      3.7432275      50218.233      36.893836      36.893836      36.893836    
    361000   0.50344392    -7.8010739     -7.0459188      3.7521328      50218.233      36.893836      36.893836      36.893836    
    362000   0.50413453    -7.8065609     -7.0503699      3.7285594      50218.233      36.893836      36.893836      36.893836    
    363000   0.50543882    -7.8034998     -7.0453523      3.7534849      50218.233      36.893836      36.893836      36.893836    
    364000   0.5071367     -7.801412      -7.0407177      3.7752046      50218.233      36.893836      36.893836      36.893836    
    365000   0.50586243    -7.8013802     -7.0425974      3.7701333      50218.233      36.893836      36.893836      36.893836    
    366000   0.50599286    -7.8031011     -7.0441226      3.7583576      50218.233      36.893836      36.893836      36.893836    
    367000   0.50465512    -7.8010027     -7.0440308      3.776885       50218.233      36.893836      36.893836      36.893836    
    368000   0.50477555    -7.8044283     -7.0472758      3.7491986      50218.233      36.893836      36.893836      36.893836    
    369000   0.50530412    -7.8039536     -7.0460082      3.7504204      50218.233      36.893836      36.893836      36.893836    
    370000   0.50335459    -7.8065274     -7.0515063      3.7350995      50218.233      36.893836      36.893836      36.893836    
    371000   0.50341795    -7.8024488     -7.0473327      3.7564072      50218.233      36.893836      36.893836      36.893836    
    372000   0.50558409    -7.8022156     -7.0438503      3.7715627      50218.233      36.893836      36.893836      36.893836    
    373000   0.50308579    -7.7994916     -7.0448737      3.7890791      50218.233      36.893836      36.893836      36.893836    
    374000   0.50551569    -7.8017222     -7.0434594      3.7660353      50218.233      36.893836      36.893836      36.893836    
    375000   0.50190182    -7.8009818     -7.0481398      3.7687882      50218.233      36.893836      36.893836      36.893836    
    376000   0.50423426    -7.7996308     -7.0432902      3.783462       50218.233      36.893836      36.893836      36.893836    
    377000   0.50433783    -7.8025277     -7.0460317      3.7593003      50218.233      36.893836      36.893836      36.893836    
    378000   0.50533129    -7.8016403     -7.0436541      3.7702911      50218.233      36.893836      36.893836      36.893836    
    379000   0.50476008    -7.8011827     -7.0440534      3.7722154      50218.233      36.893836      36.893836      36.893836    
    380000   0.50310935    -7.8059182     -7.0512649      3.7279539      50218.233      36.893836      36.893836      36.893836    
    381000   0.50196165    -7.7992667     -7.0463349      3.7873166      50218.233      36.893836      36.893836      36.893836    
    382000   0.50390489    -7.8041385     -7.0482919      3.7400609      50218.233      36.893836      36.893836      36.893836    
    383000   0.50697644    -7.8005933     -7.0401394      3.783766       50218.233      36.893836      36.893836      36.893836    
    384000   0.50578335    -7.8015558     -7.0428915      3.7597739      50218.233      36.893836      36.893836      36.893836    
    385000   0.50275866    -7.8025028     -7.0483756      3.7627723      50218.233      36.893836      36.893836      36.893836    
    386000   0.50499423    -7.800586      -7.0431054      3.7705601      50218.233      36.893836      36.893836      36.893836    
    387000   0.50556223    -7.8016072     -7.0432746      3.7746309      50218.233      36.893836      36.893836      36.893836    
    388000   0.5038184     -7.8011544     -7.0454376      3.7695387      50218.233      36.893836      36.893836      36.893836    
    389000   0.50545925    -7.8049171     -7.046739       3.7376047      50218.233      36.893836      36.893836      36.893836    
    390000   0.50486738    -7.8031031     -7.0458128      3.7501544      50218.233      36.893836      36.893836      36.893836    
    391000   0.50451878    -7.8030045     -7.0462371      3.7550676      50218.233      36.893836      36.893836      36.893836    
    392000   0.50520495    -7.8045557     -7.0467591      3.7478731      50218.233      36.893836      36.893836      36.893836    
    393000   0.50528122    -7.8072304     -7.0493194      3.7138628      50218.233      36.893836      36.893836      36.893836    
    394000   0.50654182    -7.804571      -7.0447691      3.7376149      50218.233      36.893836      36.893836      36.893836    
    395000   0.50482082    -7.8025316     -7.0453112      3.757121       50218.233      36.893836      36.893836      36.893836    
    396000   0.5034339     -7.802812      -7.0476719      3.7546386      50218.233      36.893836      36.893836      36.893836    
    397000   0.50468157    -7.8053809     -7.0483694      3.737366       50218.233      36.893836      36.893836      36.893836    
    398000   0.5071025     -7.8034551     -7.0428122      3.7476857      50218.233      36.893836      36.893836      36.893836    
    399000   0.50540049    -7.8041313     -7.0460414      3.7484658      50218.233      36.893836      36.893836      36.893836    
    400000   0.50374834    -7.8021324     -7.0465206      3.7552044      50218.233      36.893836      36.893836      36.893836    
    401000   0.50553237    -7.8067398     -7.048452       3.7273487      50218.233      36.893836      36.893836      36.893836    
    402000   0.50490818    -7.800926      -7.0435745      3.7667954      50218.233      36.893836      36.893836      36.893836    
    403000   0.50429662    -7.803951      -7.0475168      3.7490441      50218.233      36.893836      36.893836      36.893836    
    404000   0.50536036    -7.8031361     -7.0451063      3.7504046      50218.233      36.893836      36.893836      36.893836    
    405000   0.50594793    -7.80107       -7.0421589      3.762178       50218.233      36.893836      36.893836      36.893836    
    406000   0.50611855    -7.8024914     -7.0433244      3.7642038      50218.233      36.893836      36.893836      36.893836    
    407000   0.50355062    -7.8033031     -7.0479879      3.7551818      50218.233      36.893836      36.893836      36.893836    
    408000   0.50392157    -7.8029874     -7.0471158      3.7577432      50218.233      36.893836      36.893836      36.893836    
    409000   0.50892399    -7.8058234     -7.0424483      3.7390156      50218.233      36.893836      36.893836      36.893836    
    410000   0.50636092    -7.8086333     -7.0491027      3.711548       50218.233      36.893836      36.893836      36.893836    
    411000   0.50801322    -7.8029796     -7.0409706      3.7548172      50218.233      36.893836      36.893836      36.893836    
    412000   0.50465193    -7.8060305     -7.0490634      3.7283916      50218.233      36.893836      36.893836      36.893836    
    413000   0.50461301    -7.8009034     -7.0439946      3.7635507      50218.233      36.893836      36.893836      36.893836    
    414000   0.50242321    -7.8017439     -7.0481198      3.7506501      50218.233      36.893836      36.893836      36.893836    
    415000   0.50716252    -7.8032098     -7.0424768      3.7546794      50218.233      36.893836      36.893836      36.893836    
    416000   0.50484434    -7.8016683     -7.0444126      3.7586153      50218.233      36.893836      36.893836      36.893836    
    417000   0.50630666    -7.8060597     -7.0466105      3.7238123      50218.233      36.893836      36.893836      36.893836    
    418000   0.50773275    -7.8021296     -7.0405413      3.7627367      50218.233      36.893836      36.893836      36.893836    
    419000   0.50499559    -7.8008761     -7.0433935      3.7755321      50218.233      36.893836      36.893836      36.893836    
    420000   0.50489871    -7.8030219     -7.0456846      3.7496409      50218.233      36.893836      36.893836      36.893836    
    421000   0.50708709    -7.8066068     -7.045987       3.7399196      50218.233      36.893836      36.893836      36.893836    
    422000   0.50440537    -7.8013141     -7.0447168      3.7635346      50218.233      36.893836      36.893836      36.893836    
    423000   0.50646981    -7.8042443     -7.0445504      3.7537956      50218.233      36.893836      36.893836      36.893836    
    424000   0.50562692    -7.7981956     -7.039766       3.7948204      50218.233      36.893836      36.893836      36.893836    
    425000   0.50300958    -7.8019904     -7.0474868      3.7673273      50218.233      36.893836      36.893836      36.893836    
    426000   0.50137621    -7.8024554     -7.0504018      3.7462983      50218.233      36.893836      36.893836      36.893836    
    427000   0.50559098    -7.8031245     -7.0447488      3.7657483      50218.233      36.893836      36.893836      36.893836    
    428000   0.50669849    -7.803067      -7.0430301      3.7552385      50218.233      36.893836      36.893836      36.893836    
    429000   0.50207459    -7.8061922     -7.053091       3.717172       50218.233      36.893836      36.893836      36.893836    
    430000   0.5051971     -7.8072601     -7.0494753      3.730249       50218.233      36.893836      36.893836      36.893836    
    431000   0.50479151    -7.7990338     -7.0418573      3.7889847      50218.233      36.893836      36.893836      36.893836    
    432000   0.50502513    -7.8008467     -7.0433198      3.7816437      50218.233      36.893836      36.893836      36.893836    
    433000   0.50377291    -7.8010977     -7.0454491      3.7707643      50218.233      36.893836      36.893836      36.893836    
    434000   0.50863094    -7.8019648     -7.0390292      3.7694087      50218.233      36.893836      36.893836      36.893836    
    435000   0.50251833    -7.7972649     -7.0434981      3.7972289      50218.233      36.893836      36.893836      36.893836    
    436000   0.50417959    -7.8031396     -7.046881       3.7596633      50218.233      36.893836      36.893836      36.893836    
    437000   0.50629251    -7.8000565     -7.0406285      3.7724626      50218.233      36.893836      36.893836      36.893836    
    438000   0.50255439    -7.8019787     -7.0481578      3.7603091      50218.233      36.893836      36.893836      36.893836    
    439000   0.505324      -7.8039287     -7.0459535      3.7365023      50218.233      36.893836      36.893836      36.893836    
    440000   0.50512111    -7.8047902     -7.0471193      3.7369387      50218.233      36.893836      36.893836      36.893836    
    441000   0.50551128    -7.8022952     -7.0440391      3.7626992      50218.233      36.893836      36.893836      36.893836    
    442000   0.50622164    -7.804745      -7.0454233      3.7381663      50218.233      36.893836      36.893836      36.893836    
    443000   0.50495288    -7.8022413     -7.0448228      3.7648136      50218.233      36.893836      36.893836      36.893836    
    444000   0.50438136    -7.8048017     -7.0482404      3.7429624      50218.233      36.893836      36.893836      36.893836    
    445000   0.50219745    -7.8039396     -7.0506541      3.747118       50218.233      36.893836      36.893836      36.893836    
    446000   0.50495786    -7.8043652     -7.0469392      3.7484284      50218.233      36.893836      36.893836      36.893836    
    447000   0.50640207    -7.7976446     -7.0380523      3.7987514      50218.233      36.893836      36.893836      36.893836    
    448000   0.50380994    -7.7997214     -7.0440172      3.7863576      50218.233      36.893836      36.893836      36.893836    
    449000   0.50593558    -7.8012752     -7.0423827      3.7707589      50218.233      36.893836      36.893836      36.893836    
    450000   0.50476807    -7.8045834     -7.0474421      3.7406526      50218.233      36.893836      36.893836      36.893836    
    451000   0.50558211    -7.8015799     -7.0432175      3.7639547      50218.233      36.893836      36.893836      36.893836    
    452000   0.50363378    -7.8068329     -7.0513929      3.7311566      50218.233      36.893836      36.893836      36.893836    
    453000   0.50397215    -7.8031169     -7.0471694      3.7517511      50218.233      36.893836      36.893836      36.893836    
    454000   0.50466724    -7.8037511     -7.046761       3.7604493      50218.233      36.893836      36.893836      36.893836    
    455000   0.5069014     -7.8043565     -7.0440152      3.7444175      50218.233      36.893836      36.893836      36.893836    
    456000   0.50754576    -7.8004852     -7.0391774      3.773109       50218.233      36.893836      36.893836      36.893836    
    457000   0.50313111    -7.8070709     -7.0523849      3.7202741      50218.233      36.893836      36.893836      36.893836    
    458000   0.50650241    -7.8049147     -7.0451719      3.7431276      50218.233      36.893836      36.893836      36.893836    
    459000   0.5050236     -7.8001802     -7.0426555      3.7782354      50218.233      36.893836      36.893836      36.893836    
    460000   0.50609627    -7.8048504     -7.0457168      3.744165       50218.233      36.893836      36.893836      36.893836    
    461000   0.50419366    -7.8025525     -7.0462728      3.750938       50218.233      36.893836      36.893836      36.893836    
    462000   0.50362347    -7.8070009     -7.0515765      3.7426172      50218.233      36.893836      36.893836      36.893836    
    463000   0.50603111    -7.8041117     -7.0450758      3.7502599      50218.233      36.893836      36.893836      36.893836    
    464000   0.504206      -7.8068153     -7.050517       3.7339571      50218.233      36.893836      36.893836      36.893836    
    465000   0.50632645    -7.7989489     -7.0394701      3.7782597      50218.233      36.893836      36.893836      36.893836    
    466000   0.50596301    -7.8007638     -7.0418301      3.7677241      50218.233      36.893836      36.893836      36.893836    
    467000   0.50697433    -7.801871      -7.0414203      3.7633356      50218.233      36.893836      36.893836      36.893836    
    468000   0.50564297    -7.803842      -7.0453883      3.7552084      50218.233      36.893836      36.893836      36.893836    
    469000   0.50593043    -7.8027167     -7.0438318      3.7579121      50218.233      36.893836      36.893836      36.893836    
    470000   0.50732589    -7.8000744     -7.0390964      3.7774651      50218.233      36.893836      36.893836      36.893836    
    471000   0.50335478    -7.8008163     -7.0457948      3.7597414      50218.233      36.893836      36.893836      36.893836    
    472000   0.50510549    -7.800424      -7.0427765      3.7857154      50218.233      36.893836      36.893836      36.893836    
    473000   0.50479969    -7.7985327     -7.041344       3.779677       50218.233      36.893836      36.893836      36.893836    
    474000   0.50335618    -7.802306      -7.0472825      3.7594482      50218.233      36.893836      36.893836      36.893836    
    475000   0.50452345    -7.8012353     -7.0444609      3.7630271      50218.233      36.893836      36.893836      36.893836    
    476000   0.50749347    -7.8045347     -7.0433053      3.7407192      50218.233      36.893836      36.893836      36.893836    
    477000   0.50337955    -7.8015831     -7.0465245      3.7515567      50218.233      36.893836      36.893836      36.893836    
    478000   0.50781328    -7.8045758     -7.0428667      3.7432172      50218.233      36.893836      36.893836      36.893836    
    479000   0.5074149     -7.8058749     -7.0447633      3.7399319      50218.233      36.893836      36.893836      36.893836    
    480000   0.50679551    -7.7989251     -7.0387426      3.7785074      50218.233      36.893836      36.893836      36.893836    
    481000   0.50528373    -7.8018267     -7.0439119      3.7622365      50218.233      36.893836      36.893836      36.893836    
    482000   0.50278198    -7.7992769     -7.0451146      3.7737949      50218.233      36.893836      36.893836      36.893836    
    483000   0.50433012    -7.8014072     -7.0449227      3.7665837      50218.233      36.893836      36.893836      36.893836    
    484000   0.50223208    -7.7993032     -7.0459658      3.7678927      50218.233      36.893836      36.893836      36.893836    
    485000   0.50325034    -7.8008185     -7.0459538      3.7603964      50218.233      36.893836      36.893836      36.893836    
    486000   0.50423955    -7.8033848     -7.0470363      3.7467066      50218.233      36.893836      36.893836      36.893836    
    487000   0.50399345    -7.803329      -7.0473495      3.7511054      50218.233      36.893836      36.893836      36.893836    
    488000   0.50181367    -7.8056021     -7.0528923      3.7291165      50218.233      36.893836      36.893836      36.893836    
    489000   0.50311795    -7.7993129     -7.0446467      3.7755572      50218.233      36.893836      36.893836      36.893836    
    490000   0.50381126    -7.8045363     -7.0488302      3.7375253      50218.233      36.893836      36.893836      36.893836    
    491000   0.50576179    -7.8031679     -7.044536       3.755185       50218.233      36.893836      36.893836      36.893836    
    492000   0.50323333    -7.8019595     -7.0471202      3.7586724      50218.233      36.893836      36.893836      36.893836    
    493000   0.50799867    -7.8003635     -7.0383763      3.7717116      50218.233      36.893836      36.893836      36.893836    
    494000   0.50262288    -7.8071504     -7.0532268      3.7102037      50218.233      36.893836      36.893836      36.893836    
    495000   0.50391323    -7.8025217     -7.0466626      3.7460594      50218.233      36.893836      36.893836      36.893836    
    496000   0.50474754    -7.8032235     -7.0461129      3.7438785      50218.233      36.893836      36.893836      36.893836    
    497000   0.50508296    -7.8035085     -7.0458949      3.7619818      50218.233      36.893836      36.893836      36.893836    
    498000   0.5059227     -7.8087086     -7.0498353      3.7086061      50218.233      36.893836      36.893836      36.893836    
    499000   0.50494052    -7.7994443     -7.0420442      3.7841117      50218.233      36.893836      36.893836      36.893836    
    500000   0.50507675    -7.8006049     -7.0430006      3.7693055      50218.233      36.893836      36.893836      36.893836    
    501000   0.50378867    -7.8018804     -7.0462081      3.7656816      50218.233      36.893836      36.893836      36.893836    
    502000   0.50494359    -7.8012902     -7.0438856      3.7657936      50218.233      36.893836      36.893836      36.893836    
    503000   0.50447698    -7.8061448     -7.0494401      3.7261002      50218.233      36.893836      36.893836      36.893836    
    504000   0.50363642    -7.8012335     -7.0457897      3.762841       50218.233      36.893836      36.893836      36.893836    
    505000   0.5045604     -7.802562      -7.0457321      3.7522263      50218.233      36.893836      36.893836      36.893836    
    506000   0.50521676    -7.8017848     -7.0439704      3.7616501      50218.233      36.893836      36.893836      36.893836    
    507000   0.50376556    -7.8010612     -7.0454236      3.7656922      50218.233      36.893836      36.893836      36.893836    
    508000   0.50359632    -7.8034081     -7.0480243      3.7465957      50218.233      36.893836      36.893836      36.893836    
    509000   0.50615438    -7.8009607     -7.0417399      3.7726514      50218.233      36.893836      36.893836      36.893836    
    510000   0.50525572    -7.8036921     -7.0458193      3.7430521      50218.233      36.893836      36.893836      36.893836    
    511000   0.5069278     -7.8004147     -7.0400338      3.7737077      50218.233      36.893836      36.893836      36.893836    
    512000   0.50408334    -7.7998534     -7.0437391      3.771632       50218.233      36.893836      36.893836      36.893836    
    513000   0.50500517    -7.8030865     -7.0455896      3.7541234      50218.233      36.893836      36.893836      36.893836    
    514000   0.50375502    -7.8029447     -7.0473229      3.7599726      50218.233      36.893836      36.893836      36.893836    
    515000   0.50241639    -7.805157      -7.0515431      3.7462069      50218.233      36.893836      36.893836      36.893836    
    516000   0.5061429     -7.8001181     -7.0409145      3.7805088      50218.233      36.893836      36.893836      36.893836    
    517000   0.50525646    -7.8032383     -7.0453644      3.7582176      50218.233      36.893836      36.893836      36.893836    
    518000   0.50407226    -7.8022197     -7.046122       3.7584745      50218.233      36.893836      36.893836      36.893836    
    519000   0.5037055     -7.8043201     -7.0487726      3.7461603      50218.233      36.893836      36.893836      36.893836    
    520000   0.50476156    -7.7994092     -7.0422777      3.7841931      50218.233      36.893836      36.893836      36.893836    
    521000   0.50544016    -7.8006731     -7.0425236      3.7731537      50218.233      36.893836      36.893836      36.893836    
    522000   0.50491706    -7.8024654     -7.0451006      3.7656254      50218.233      36.893836      36.893836      36.893836    
    523000   0.50656845    -7.8046125     -7.0447706      3.7518016      50218.233      36.893836      36.893836      36.893836    
    524000   0.50123739    -7.8014507     -7.0496053      3.7456337      50218.233      36.893836      36.893836      36.893836    
    525000   0.50731064    -7.8025581     -7.041603       3.7492792      50218.233      36.893836      36.893836      36.893836    
    526000   0.50678333    -7.8039136     -7.0437494      3.7573614      50218.233      36.893836      36.893836      36.893836    
    527000   0.50537017    -7.8039483     -7.0459038      3.7473015      50218.233      36.893836      36.893836      36.893836    
    528000   0.5035085     -7.8010017     -7.0457497      3.7663555      50218.233      36.893836      36.893836      36.893836    
    529000   0.50376749    -7.7987953     -7.0431548      3.776667       50218.233      36.893836      36.893836      36.893836    
    530000   0.50527047    -7.801025      -7.0431301      3.7687582      50218.233      36.893836      36.893836      36.893836    
    531000   0.50377871    -7.8011748     -7.0455175      3.7617485      50218.233      36.893836      36.893836      36.893836    
    532000   0.50603698    -7.8055167     -7.046472       3.7316722      50218.233      36.893836      36.893836      36.893836    
    533000   0.5069216     -7.800997      -7.0406254      3.7750866      50218.233      36.893836      36.893836      36.893836    
    534000   0.50376429    -7.8026645     -7.0470288      3.7512271      50218.233      36.893836      36.893836      36.893836    
    535000   0.5061346     -7.8029083     -7.0437172      3.7584692      50218.233      36.893836      36.893836      36.893836    
    536000   0.50335127    -7.8007482     -7.045732       3.7687071      50218.233      36.893836      36.893836      36.893836    
    537000   0.50622406    -7.8033327     -7.0440074      3.7537949      50218.233      36.893836      36.893836      36.893836    
    538000   0.50450957    -7.7995969     -7.0428433      3.7668723      50218.233      36.893836      36.893836      36.893836    
    539000   0.50474706    -7.8021084     -7.0449986      3.7617268      50218.233      36.893836      36.893836      36.893836    
    540000   0.50547893    -7.8064308     -7.0482232      3.7351532      50218.233      36.893836      36.893836      36.893836    
    541000   0.50442748    -7.8065894     -7.0499589      3.724          50218.233      36.893836      36.893836      36.893836    
    542000   0.50821311    -7.8033301     -7.0410213      3.7564009      50218.233      36.893836      36.893836      36.893836    
    543000   0.50290689    -7.8003653     -7.0460157      3.7657055      50218.233      36.893836      36.893836      36.893836    
    544000   0.50608783    -7.801501      -7.04238        3.7706613      50218.233      36.893836      36.893836      36.893836    
    545000   0.50505541    -7.8051528     -7.0475804      3.7292985      50218.233      36.893836      36.893836      36.893836    
    546000   0.50211639    -7.8050356     -7.0518717      3.7366362      50218.233      36.893836      36.893836      36.893836    
    547000   0.50514144    -7.8005623     -7.0428609      3.7726111      50218.233      36.893836      36.893836      36.893836    
    548000   0.50553269    -7.8011282     -7.0428399      3.768771       50218.233      36.893836      36.893836      36.893836    
    549000   0.50524142    -7.802514      -7.0446627      3.7708654      50218.233      36.893836      36.893836      36.893836    
    550000   0.50678032    -7.8000392     -7.0398796      3.7699198      50218.233      36.893836      36.893836      36.893836    
    551000   0.50408795    -7.8018962     -7.045775       3.7512934      50218.233      36.893836      36.893836      36.893836    
    552000   0.50346648    -7.7981136     -7.0429247      3.7907356      50218.233      36.893836      36.893836      36.893836    
    553000   0.50551038    -7.8038289     -7.0455741      3.7440948      50218.233      36.893836      36.893836      36.893836    
    554000   0.50618783    -7.8021156     -7.0428446      3.7594856      50218.233      36.893836      36.893836      36.893836    
    555000   0.50507701    -7.8047924     -7.0471877      3.7358752      50218.233      36.893836      36.893836      36.893836    
    556000   0.50592705    -7.8023203     -7.0434406      3.7610703      50218.233      36.893836      36.893836      36.893836    
    557000   0.50280878    -7.8052918     -7.0510894      3.7351172      50218.233      36.893836      36.893836      36.893836    
    558000   0.5041948     -7.7999305     -7.0436491      3.771945       50218.233      36.893836      36.893836      36.893836    
    559000   0.50455016    -7.8038715     -7.047057       3.7415545      50218.233      36.893836      36.893836      36.893836    
    560000   0.5011896     -7.8015198     -7.0497461      3.7542805      50218.233      36.893836      36.893836      36.893836    
    561000   0.50369232    -7.7974727     -7.041945       3.7902412      50218.233      36.893836      36.893836      36.893836    
    562000   0.50322667    -7.8056717     -7.0508424      3.735385       50218.233      36.893836      36.893836      36.893836    
    563000   0.5029512     -7.8013144     -7.0468983      3.7605733      50218.233      36.893836      36.893836      36.893836    
    564000   0.50481182    -7.7978066     -7.0405996      3.7941583      50218.233      36.893836      36.893836      36.893836    
    565000   0.50441552    -7.803733      -7.0471205      3.7466539      50218.233      36.893836      36.893836      36.893836    
    566000   0.50447372    -7.8023866     -7.0456867      3.7568188      50218.233      36.893836      36.893836      36.893836    
    567000   0.50351606    -7.8001803     -7.0449169      3.7725784      50218.233      36.893836      36.893836      36.893836    
    568000   0.50376779    -7.8001596     -7.0445187      3.7709988      50218.233      36.893836      36.893836      36.893836    
    569000   0.50717567    -7.7982861     -7.0375335      3.7970606      50218.233      36.893836      36.893836      36.893836    
    570000   0.5045486     -7.7954253     -7.0386131      3.8108106      50218.233      36.893836      36.893836      36.893836    
    571000   0.50579444    -7.8010447     -7.0423638      3.770057       50218.233      36.893836      36.893836      36.893836    
    572000   0.50526529    -7.7965059     -7.0386188      3.8053226      50218.233      36.893836      36.893836      36.893836    
    573000   0.50184183    -7.7986956     -7.0459436      3.7743109      50218.233      36.893836      36.893836      36.893836    
    574000   0.50266728    -7.8025379     -7.0485477      3.7506091      50218.233      36.893836      36.893836      36.893836    
    575000   0.50380804    -7.8013279     -7.0456266      3.7596303      50218.233      36.893836      36.893836      36.893836    
    576000   0.50485039    -7.7978368     -7.040572       3.7980752      50218.233      36.893836      36.893836      36.893836    
    577000   0.50765095    -7.8040422     -7.0425766      3.7427417      50218.233      36.893836      36.893836      36.893836    
    578000   0.50472545    -7.7975789     -7.0405015      3.7845015      50218.233      36.893836      36.893836      36.893836    
    579000   0.5050299     -7.7995203     -7.0419862      3.7843423      50218.233      36.893836      36.893836      36.893836    
    580000   0.50395091    -7.7968556     -7.04094        3.7939348      50218.233      36.893836      36.893836      36.893836    
    581000   0.50450878    -7.7989816     -7.0422292      3.7882711      50218.233      36.893836      36.893836      36.893836    
    582000   0.50493555    -7.8004588     -7.0430662      3.7740909      50218.233      36.893836      36.893836      36.893836    
    583000   0.50489674    -7.7949441     -7.0376098      3.8141019      50218.233      36.893836      36.893836      36.893836    
    584000   0.50533167    -7.800586      -7.0425993      3.7715757      50218.233      36.893836      36.893836      36.893836    
    585000   0.50108077    -7.8026612     -7.0510507      3.7419132      50218.233      36.893836      36.893836      36.893836    
    586000   0.50402248    -7.8019714     -7.0459484      3.7566842      50218.233      36.893836      36.893836      36.893836    
    587000   0.50393422    -7.8050931     -7.0492025      3.7356071      50218.233      36.893836      36.893836      36.893836    
    588000   0.50255037    -7.8004108     -7.0465959      3.7734544      50218.233      36.893836      36.893836      36.893836    
    589000   0.50664204    -7.8000361     -7.0400839      3.7819897      50218.233      36.893836      36.893836      36.893836    
    590000   0.50626916    -7.8013056     -7.0419126      3.7659001      50218.233      36.893836      36.893836      36.893836    
    591000   0.50506222    -7.8041655     -7.0465829      3.7345957      50218.233      36.893836      36.893836      36.893836    
    592000   0.50343405    -7.80603       -7.0508896      3.7348029      50218.233      36.893836      36.893836      36.893836    
    593000   0.50531932    -7.7989074     -7.0409391      3.7840537      50218.233      36.893836      36.893836      36.893836    
    594000   0.50262145    -7.7976132     -7.0436917      3.7829446      50218.233      36.893836      36.893836      36.893836    
    595000   0.50820682    -7.8007403     -7.0384409      3.7735559      50218.233      36.893836      36.893836      36.893836    
    596000   0.50643337    -7.799892      -7.0402527      3.766637       50218.233      36.893836      36.893836      36.893836    
    597000   0.50348247    -7.8019061     -7.0466931      3.7584715      50218.233      36.893836      36.893836      36.893836    
    598000   0.50415536    -7.7969357     -7.0407134      3.7886466      50218.233      36.893836      36.893836      36.893836    
    599000   0.5059973     -7.7970202     -7.038035       3.7929741      50218.233      36.893836      36.893836      36.893836    
    600000   0.50231721    -7.800079      -7.0466138      3.7628222      50218.233      36.893836      36.893836      36.893836    
    601000   0.50393573    -7.7992673     -7.0433744      3.7822102      50218.233      36.893836      36.893836      36.893836    
    602000   0.50497021    -7.8008137     -7.0433691      3.7675238      50218.233      36.893836      36.893836      36.893836    
    603000   0.50313527    -7.8021312     -7.047439       3.7529327      50218.233      36.893836      36.893836      36.893836    
    604000   0.50473252    -7.8010779     -7.0439899      3.7527185      50218.233      36.893836      36.893836      36.893836    
    605000   0.50400771    -7.8008758     -7.044875       3.7548245      50218.233      36.893836      36.893836      36.893836    
    606000   0.50532434    -7.7963653     -7.0383896      3.8040459      50218.233      36.893836      36.893836      36.893836    
    607000   0.50625862    -7.7977864     -7.0384092      3.7939437      50218.233      36.893836      36.893836      36.893836    
    608000   0.50550984    -7.7971688     -7.0389148      3.800377       50218.233      36.893836      36.893836      36.893836    
    609000   0.50630096    -7.8010459     -7.0416053      3.7801532      50218.233      36.893836      36.893836      36.893836    
    610000   0.50584181    -7.7991451     -7.0403932      3.7832287      50218.233      36.893836      36.893836      36.893836    
    611000   0.50459097    -7.7989715     -7.0420958      3.7791136      50218.233      36.893836      36.893836      36.893836    
    612000   0.50542029    -7.7979997     -7.03988        3.7908323      50218.233      36.893836      36.893836      36.893836    
    613000   0.50407667    -7.7995167     -7.0434125      3.777267       50218.233      36.893836      36.893836      36.893836    
    614000   0.50588646    -7.7999011     -7.0410822      3.7788968      50218.233      36.893836      36.893836      36.893836    
    615000   0.50608016    -7.7991329     -7.0400235      3.7840864      50218.233      36.893836      36.893836      36.893836    
    616000   0.50327932    -7.7994891     -7.0445809      3.7718543      50218.233      36.893836      36.893836      36.893836    
    617000   0.50461562    -7.8001675     -7.0432549      3.7682379      50218.233      36.893836      36.893836      36.893836    
    618000   0.50753059    -7.7964384     -7.0351533      3.8009047      50218.233      36.893836      36.893836      36.893836    
    619000   0.50377624    -7.801405      -7.0457514      3.7516684      50218.233      36.893836      36.893836      36.893836    
    620000   0.50547439    -7.8036499     -7.0454491      3.7472735      50218.233      36.893836      36.893836      36.893836    
    621000   0.50507397    -7.7999324     -7.0423322      3.7791221      50218.233      36.893836      36.893836      36.893836    
    622000   0.50424887    -7.7976926     -7.04133        3.7888673      50218.233      36.893836      36.893836      36.893836    
    623000   0.50485435    -7.8019284     -7.0446576      3.753          50218.233      36.893836      36.893836      36.893836    
    624000   0.50417697    -7.7971858     -7.0409311      3.7839644      50218.233      36.893836      36.893836      36.893836    
    625000   0.50487736    -7.8004007     -7.0430955      3.7774615      50218.233      36.893836      36.893836      36.893836    
    626000   0.50839256    -7.8006161     -7.0380381      3.7815019      50218.233      36.893836      36.893836      36.893836    
    627000   0.50648621    -7.7997161     -7.0399976      3.7891667      50218.233      36.893836      36.893836      36.893836    
    628000   0.50473633    -7.8008085     -7.0437148      3.76811        50218.233      36.893836      36.893836      36.893836    
    629000   0.50590171    -7.7988878     -7.040046       3.7896445      50218.233      36.893836      36.893836      36.893836    
    630000   0.50706631    -7.7996693     -7.0390807      3.8019431      50218.233      36.893836      36.893836      36.893836    
    631000   0.50453487    -7.7993025     -7.042511       3.7837843      50218.233      36.893836      36.893836      36.893836    
    632000   0.50595902    -7.7987512     -7.0398234      3.7823305      50218.233      36.893836      36.893836      36.893836    
    633000   0.50529078    -7.8007376     -7.0428122      3.764149       50218.233      36.893836      36.893836      36.893836    
    634000   0.50672926    -7.7968993     -7.0368163      3.7971081      50218.233      36.893836      36.893836      36.893836    
    635000   0.5061869     -7.8051737     -7.0459041      3.7447625      50218.233      36.893836      36.893836      36.893836    
    636000   0.50565345    -7.8016323     -7.0431629      3.7609703      50218.233      36.893836      36.893836      36.893836    
    637000   0.50929507    -7.7997961     -7.0358643      3.7801202      50218.233      36.893836      36.893836      36.893836    
    638000   0.50449871    -7.7996661     -7.0429288      3.7660469      50218.233      36.893836      36.893836      36.893836    
    639000   0.50196656    -7.8002506     -7.0473114      3.7717349      50218.233      36.893836      36.893836      36.893836    
    640000   0.50493931    -7.7977488     -7.0403506      3.7936675      50218.233      36.893836      36.893836      36.893836    
    641000   0.50275074    -7.8026264     -7.048511       3.7587611      50218.233      36.893836      36.893836      36.893836    
    642000   0.50721712    -7.8009687     -7.0401538      3.770506       50218.233      36.893836      36.893836      36.893836    
    643000   0.50447841    -7.7971726     -7.0404658      3.8002772      50218.233      36.893836      36.893836      36.893836    
    644000   0.50250094    -7.7977609     -7.0440202      3.7892044      50218.233      36.893836      36.893836      36.893836    
    645000   0.50520814    -7.8002249     -7.0424234      3.7597545      50218.233      36.893836      36.893836      36.893836    
    646000   0.50346016    -7.8034        -7.0482205      3.7541522      50218.233      36.893836      36.893836      36.893836    
    647000   0.50579935    -7.7993755     -7.0406872      3.7876268      50218.233      36.893836      36.893836      36.893836    
    648000   0.50362758    -7.798025      -7.0425944      3.7869838      50218.233      36.893836      36.893836      36.893836    
    649000   0.50285871    -7.800671      -7.0463937      3.7534791      50218.233      36.893836      36.893836      36.893836    
    650000   0.50489361    -7.8033512     -7.0460216      3.743156       50218.233      36.893836      36.893836      36.893836    
    651000   0.50696422    -7.8012774     -7.0408419      3.7694081      50218.233      36.893836      36.893836      36.893836    
    652000   0.50429643    -7.7998126     -7.0433787      3.7733708      50218.233      36.893836      36.893836      36.893836    
    653000   0.50564398    -7.8015343     -7.0430791      3.7553222      50218.233      36.893836      36.893836      36.893836    
    654000   0.50741421    -7.8036329     -7.0425224      3.757147       50218.233      36.893836      36.893836      36.893836    
    655000   0.50228066    -7.7990963     -7.0456861      3.7764178      50218.233      36.893836      36.893836      36.893836    
    656000   0.50548441    -7.8007154     -7.0424996      3.7612943      50218.233      36.893836      36.893836      36.893836    
    657000   0.50466457    -7.8014332     -7.0444471      3.7670977      50218.233      36.893836      36.893836      36.893836    
    658000   0.50444327    -7.7950108     -7.0383567      3.8244506      50218.233      36.893836      36.893836      36.893836    
    659000   0.50575416    -7.7976113     -7.0389908      3.7990628      50218.233      36.893836      36.893836      36.893836    
    660000   0.50757454    -7.7986515     -7.0373005      3.7850547      50218.233      36.893836      36.893836      36.893836    
    661000   0.50427549    -7.7985889     -7.0421864      3.7886574      50218.233      36.893836      36.893836      36.893836    
    662000   0.50556723    -7.7975009     -7.0391608      3.8064079      50218.233      36.893836      36.893836      36.893836    
    663000   0.50516849    -7.8000214     -7.0422794      3.7833116      50218.233      36.893836      36.893836      36.893836    
    664000   0.50648525    -7.8019438     -7.0422267      3.756901       50218.233      36.893836      36.893836      36.893836    
    665000   0.50370088    -7.7944393     -7.0388988      3.8124396      50218.233      36.893836      36.893836      36.893836    
    666000   0.50743578    -7.7975937     -7.0364509      3.7881172      50218.233      36.893836      36.893836      36.893836    
    667000   0.50479915    -7.7956553     -7.0384673      3.8142265      50218.233      36.893836      36.893836      36.893836    
    668000   0.50754233    -7.8012135     -7.0399109      3.774759       50218.233      36.893836      36.893836      36.893836    
    669000   0.50374095    -7.7987489     -7.0431482      3.7911022      50218.233      36.893836      36.893836      36.893836    
    670000   0.5050061     -7.7988464     -7.041348       3.7838386      50218.233      36.893836      36.893836      36.893836    
    671000   0.5057626     -7.7997875     -7.0411544      3.7856239      50218.233      36.893836      36.893836      36.893836    
    672000   0.50373012    -7.8036848     -7.0481003      3.7533963      50218.233      36.893836      36.893836      36.893836    
    673000   0.50585403    -7.7991444     -7.0403741      3.7772565      50218.233      36.893836      36.893836      36.893836    
    674000   0.50487545    -7.7973516     -7.0400492      3.7990431      50218.233      36.893836      36.893836      36.893836    
    675000   0.50379089    -7.8003769     -7.0447013      3.7598636      50218.233      36.893836      36.893836      36.893836    
    676000   0.50680995    -7.7953085     -7.0351044      3.8168009      50218.233      36.893836      36.893836      36.893836    
    677000   0.50317191    -7.8004278     -7.0456807      3.7704415      50218.233      36.893836      36.893836      36.893836    
    678000   0.50345068    -7.8020095     -7.0468443      3.7652657      50218.233      36.893836      36.893836      36.893836    
    679000   0.5069989     -7.8010302     -7.0405427      3.7595888      50218.233      36.893836      36.893836      36.893836    
    680000   0.50482057    -7.8012622     -7.0440422      3.7688965      50218.233      36.893836      36.893836      36.893836    
    681000   0.50553266    -7.8007657     -7.0424775      3.7783841      50218.233      36.893836      36.893836      36.893836    
    682000   0.5044134     -7.806899      -7.0502897      3.7229749      50218.233      36.893836      36.893836      36.893836    
    683000   0.5065782     -7.8027138     -7.0428573      3.7607576      50218.233      36.893836      36.893836      36.893836    
    684000   0.50619861    -7.7981541     -7.038867       3.8028117      50218.233      36.893836      36.893836      36.893836    
    685000   0.50453326    -7.800644      -7.0438549      3.7652263      50218.233      36.893836      36.893836      36.893836    
    686000   0.5030649     -7.8017224     -7.0471358      3.7652549      50218.233      36.893836      36.893836      36.893836    
    687000   0.50163001    -7.7973536     -7.0449193      3.7912399      50218.233      36.893836      36.893836      36.893836    
    688000   0.50540184    -7.8044857     -7.0463937      3.7389731      50218.233      36.893836      36.893836      36.893836    
    689000   0.50757615    -7.7963791     -7.0350257      3.8064492      50218.233      36.893836      36.893836      36.893836    
    690000   0.50435987    -7.8028575     -7.0463285      3.7453656      50218.233      36.893836      36.893836      36.893836    
    691000   0.5046618     -7.7993286     -7.0423466      3.7802445      50218.233      36.893836      36.893836      36.893836    
    692000   0.50512462    -7.8050021     -7.0473259      3.7326153      50218.233      36.893836      36.893836      36.893836    
    693000   0.5061327     -7.802819      -7.0436307      3.7639984      50218.233      36.893836      36.893836      36.893836    
    694000   0.50375409    -7.8023129     -7.0466925      3.7542736      50218.233      36.893836      36.893836      36.893836    
    695000   0.50671855    -7.8022268     -7.0421598      3.7501589      50218.233      36.893836      36.893836      36.893836    
    696000   0.50360637    -7.8008059     -7.0454071      3.7706979      50218.233      36.893836      36.893836      36.893836    
    697000   0.50361241    -7.7992667     -7.0438589      3.7754194      50218.233      36.893836      36.893836      36.893836    
    698000   0.50125859    -7.8038968     -7.0520196      3.7572066      50218.233      36.893836      36.893836      36.893836    
    699000   0.50301698    -7.8001427     -7.045628       3.7673153      50218.233      36.893836      36.893836      36.893836    
    700000   0.50624617    -7.8014106     -7.0420521      3.7551669      50218.233      36.893836      36.893836      36.893836    
    701000   0.50397559    -7.8011654     -7.0452127      3.7615023      50218.233      36.893836      36.893836      36.893836    
    702000   0.50344752    -7.8052938     -7.0501332      3.7283426      50218.233      36.893836      36.893836      36.893836    
    703000   0.50489967    -7.8020369     -7.0446981      3.7531389      50218.233      36.893836      36.893836      36.893836    
    704000   0.50509454    -7.8019514     -7.0443204      3.75548        50218.233      36.893836      36.893836      36.893836    
    705000   0.50620587    -7.8036149     -7.0443169      3.7320194      50218.233      36.893836      36.893836      36.893836    
    706000   0.50710688    -7.8017885     -7.041139       3.7594746      50218.233      36.893836      36.893836      36.893836    
    707000   0.50304404    -7.8020344     -7.0474791      3.7675569      50218.233      36.893836      36.893836      36.893836    
    708000   0.50428797    -7.8059239     -7.0495028      3.720158       50218.233      36.893836      36.893836      36.893836    
    709000   0.50639587    -7.7988782     -7.0392952      3.787211       50218.233      36.893836      36.893836      36.893836    
    710000   0.50257888    -7.7978001     -7.0439425      3.7887295      50218.233      36.893836      36.893836      36.893836    
    711000   0.50409649    -7.8021296     -7.0459956      3.7705267      50218.233      36.893836      36.893836      36.893836    
    712000   0.50728058    -7.7967295     -7.0358194      3.7995127      50218.233      36.893836      36.893836      36.893836    
    713000   0.50715138    -7.8021842     -7.041468       3.7557903      50218.233      36.893836      36.893836      36.893836    
    714000   0.50630075    -7.8014507     -7.0420104      3.7663875      50218.233      36.893836      36.893836      36.893836    
    715000   0.50709003    -7.8017633     -7.041139       3.7582543      50218.233      36.893836      36.893836      36.893836    
    716000   0.50482887    -7.8012797     -7.0440472      3.7638164      50218.233      36.893836      36.893836      36.893836    
    717000   0.50720442    -7.8023254     -7.0415296      3.7580201      50218.233      36.893836      36.893836      36.893836    
    718000   0.50495588    -7.8011231     -7.0437         3.7610714      50218.233      36.893836      36.893836      36.893836    
    719000   0.50731465    -7.8004978     -7.0395366      3.7696482      50218.233      36.893836      36.893836      36.893836    
    720000   0.50467498    -7.7996764     -7.0426747      3.7777168      50218.233      36.893836      36.893836      36.893836    
    721000   0.5062327     -7.7991685     -7.0398303      3.783313       50218.233      36.893836      36.893836      36.893836    
    722000   0.50638543    -7.8008642     -7.0412968      3.7688093      50218.233      36.893836      36.893836      36.893836    
    723000   0.50367375    -7.8016713     -7.0461714      3.7518017      50218.233      36.893836      36.893836      36.893836    
    724000   0.50788275    -7.8014604     -7.0396471      3.7686884      50218.233      36.893836      36.893836      36.893836    
    725000   0.50671223    -7.8014579     -7.0414003      3.7690658      50218.233      36.893836      36.893836      36.893836    
    726000   0.50760745    -7.7994365     -7.0380362      3.7840146      50218.233      36.893836      36.893836      36.893836    
    727000   0.50546118    -7.8011658     -7.0429848      3.7604285      50218.233      36.893836      36.893836      36.893836    
    728000   0.50723074    -7.8017826     -7.0409474      3.7619404      50218.233      36.893836      36.893836      36.893836    
    729000   0.50798474    -7.800428      -7.0384618      3.7743101      50218.233      36.893836      36.893836      36.893836    
    730000   0.50392755    -7.8016107     -7.0457302      3.7580624      50218.233      36.893836      36.893836      36.893836    
    731000   0.50491018    -7.8018348     -7.0444803      3.7702229      50218.233      36.893836      36.893836      36.893836    
    732000   0.50721641    -7.8006204     -7.0398066      3.7706577      50218.233      36.893836      36.893836      36.893836    
    733000   0.50793296    -7.799729      -7.0378404      3.7848737      50218.233      36.893836      36.893836      36.893836    
    734000   0.50658925    -7.8020921     -7.042219       3.7603566      50218.233      36.893836      36.893836      36.893836    
    735000   0.50647296    -7.8019865     -7.0422879      3.7612621      50218.233      36.893836      36.893836      36.893836    
    736000   0.50582409    -7.8018098     -7.0430844      3.7562657      50218.233      36.893836      36.893836      36.893836    
    737000   0.50379451    -7.8036469     -7.0479658      3.7431633      50218.233      36.893836      36.893836      36.893836    
    738000   0.50038042    -7.8042774     -7.0537175      3.7309181      50218.233      36.893836      36.893836      36.893836    
    739000   0.5034527     -7.8078299     -7.0526616      3.7071273      50218.233      36.893836      36.893836      36.893836    
    740000   0.50610177    -7.8037001     -7.0445583      3.7528993      50218.233      36.893836      36.893836      36.893836    
    741000   0.50523076    -7.8028214     -7.0449861      3.7552894      50218.233      36.893836      36.893836      36.893836    
    742000   0.50276157    -7.8048138     -7.0506821      3.7404386      50218.233      36.893836      36.893836      36.893836    
    743000   0.50558507    -7.8055863     -7.0472195      3.7317025      50218.233      36.893836      36.893836      36.893836    
    744000   0.50601352    -7.799875      -7.0408655      3.7801112      50218.233      36.893836      36.893836      36.893836    
    745000   0.50527725    -7.7972488     -7.0393437      3.7900884      50218.233      36.893836      36.893836      36.893836    
    746000   0.50330746    -7.8035666     -7.0486162      3.7464295      50218.233      36.893836      36.893836      36.893836    
    747000   0.50612242    -7.800433      -7.0412602      3.774537       50218.233      36.893836      36.893836      36.893836    
    748000   0.50798764    -7.7985868     -7.0366162      3.7940133      50218.233      36.893836      36.893836      36.893836    
    749000   0.50442184    -7.8049864     -7.0483644      3.7504054      50218.233      36.893836      36.893836      36.893836    
    750000   0.50739025    -7.7989113     -7.0378368      3.7909416      50218.233      36.893836      36.893836      36.893836    
    751000   0.50132265    -7.8014209     -7.0494476      3.7626372      50218.233      36.893836      36.893836      36.893836    
    752000   0.50846995    -7.7976516     -7.0349575      3.8058034      50218.233      36.893836      36.893836      36.893836    
    753000   0.50305108    -7.8005514     -7.0459855      3.7770267      50218.233      36.893836      36.893836      36.893836    
    754000   0.50701856    -7.804123      -7.043606       3.7440313      50218.233      36.893836      36.893836      36.893836    
    755000   0.5066354     -7.8050536     -7.0451113      3.7376821      50218.233      36.893836      36.893836      36.893836    
    756000   0.50398267    -7.8022906     -7.0463274      3.7562541      50218.233      36.893836      36.893836      36.893836    
    757000   0.50347892    -7.8008736     -7.0456659      3.7752195      50218.233      36.893836      36.893836      36.893836    
    758000   0.50478457    -7.8017883     -7.0446222      3.7597773      50218.233      36.893836      36.893836      36.893836    
    759000   0.50315593    -7.8021785     -7.0474553      3.7450658      50218.233      36.893836      36.893836      36.893836    
    760000   0.50735762    -7.800969      -7.0399434      3.7620713      50218.233      36.893836      36.893836      36.893836    
    761000   0.50488434    -7.8002922     -7.0429764      3.7708119      50218.233      36.893836      36.893836      36.893836    
    762000   0.50453172    -7.8051406     -7.0483538      3.7297533      50218.233      36.893836      36.893836      36.893836    
    763000   0.50389114    -7.797352      -7.041526       3.7934483      50218.233      36.893836      36.893836      36.893836    
    764000   0.50789541    -7.80074       -7.0389078      3.7831474      50218.233      36.893836      36.893836      36.893836    
    765000   0.5054088     -7.8012683     -7.0431659      3.7739187      50218.233      36.893836      36.893836      36.893836    
    766000   0.50658462    -7.7991632     -7.0392971      3.7883606      50218.233      36.893836      36.893836      36.893836    
    767000   0.50630867    -7.7974203     -7.0379681      3.8057907      50218.233      36.893836      36.893836      36.893836    
    768000   0.50504161    -7.8005232     -7.0429716      3.7677282      50218.233      36.893836      36.893836      36.893836    
    769000   0.50306372    -7.7986208     -7.044036       3.7784841      50218.233      36.893836      36.893836      36.893836    
    770000   0.50342281    -7.8028613     -7.0477378      3.746117       50218.233      36.893836      36.893836      36.893836    
    771000   0.50485119    -7.8007216     -7.0434556      3.7675358      50218.233      36.893836      36.893836      36.893836    
    772000   0.50461049    -7.8040859     -7.047181       3.7480127      50218.233      36.893836      36.893836      36.893836    
    773000   0.50629952    -7.7994897     -7.0400512      3.7795767      50218.233      36.893836      36.893836      36.893836    
    774000   0.50349527    -7.8019275     -7.0466954      3.762404       50218.233      36.893836      36.893836      36.893836    
    775000   0.50360975    -7.8038536     -7.0484497      3.7369659      50218.233      36.893836      36.893836      36.893836    
    776000   0.50631201    -7.8009208     -7.0414635      3.7704756      50218.233      36.893836      36.893836      36.893836    
    777000   0.50217645    -7.8014727     -7.0482187      3.7607907      50218.233      36.893836      36.893836      36.893836    
    778000   0.50711313    -7.8014918     -7.0408329      3.7652995      50218.233      36.893836      36.893836      36.893836    
    779000   0.50438255    -7.7977553     -7.0411923      3.7942484      50218.233      36.893836      36.893836      36.893836    
    780000   0.50799511    -7.7988555     -7.0368736      3.7779409      50218.233      36.893836      36.893836      36.893836    
    781000   0.50438135    -7.7999163     -7.043355       3.7819831      50218.233      36.893836      36.893836      36.893836    
    782000   0.50457775    -7.7968573     -7.0400015      3.7977531      50218.233      36.893836      36.893836      36.893836    
    783000   0.50404567    -7.8014792     -7.0454215      3.7573711      50218.233      36.893836      36.893836      36.893836    
    784000   0.5045818     -7.8055329     -7.048671       3.7431718      50218.233      36.893836      36.893836      36.893836    
    785000   0.5058731     -7.8015207     -7.0427218      3.7662619      50218.233      36.893836      36.893836      36.893836    
    786000   0.50508699    -7.7995942     -7.0419745      3.7841582      50218.233      36.893836      36.893836      36.893836    
    787000   0.50463189    -7.7978224     -7.0408853      3.7963428      50218.233      36.893836      36.893836      36.893836    
    788000   0.50517678    -7.8014293     -7.0436749      3.7706511      50218.233      36.893836      36.893836      36.893836    
    789000   0.50330414    -7.8031534     -7.0482079      3.7491799      50218.233      36.893836      36.893836      36.893836    
    790000   0.50710384    -7.8027974     -7.0421525      3.7602312      50218.233      36.893836      36.893836      36.893836    
    791000   0.50548823    -7.8032626     -7.0450411      3.7501295      50218.233      36.893836      36.893836      36.893836    
    792000   0.505806      -7.7998404     -7.0411421      3.7850371      50218.233      36.893836      36.893836      36.893836    
    793000   0.50420938    -7.799845      -7.0435417      3.7746109      50218.233      36.893836      36.893836      36.893836    
    794000   0.50236889    -7.8015983     -7.0480557      3.7656276      50218.233      36.893836      36.893836      36.893836    
    795000   0.50619135    -7.8015013     -7.0422251      3.7677724      50218.233      36.893836      36.893836      36.893836    
    796000   0.50505212    -7.8022133     -7.0446459      3.7671126      50218.233      36.893836      36.893836      36.893836    
    797000   0.50466879    -7.801017      -7.0440246      3.7697546      50218.233      36.893836      36.893836      36.893836    
    798000   0.50222651    -7.8015996     -7.0482706      3.7693606      50218.233      36.893836      36.893836      36.893836    
    799000   0.50668833    -7.8047423     -7.0447206      3.7487713      50218.233      36.893836      36.893836      36.893836    
    800000   0.50679551    -7.7959925     -7.0358101      3.803627       50218.233      36.893836      36.893836      36.893836    
    801000   0.50550873    -7.8023176     -7.0440653      3.7534689      50218.233      36.893836      36.893836      36.893836    
    802000   0.50606197    -7.8040481     -7.0449659      3.7448777      50218.233      36.893836      36.893836      36.893836    
    803000   0.50676075    -7.803215      -7.0430847      3.7499112      50218.233      36.893836      36.893836      36.893836    
    804000   0.5014737     -7.807345      -7.0551452      3.7276975      50218.233      36.893836      36.893836      36.893836    
    805000   0.50575149    -7.8026476     -7.0440311      3.7586001      50218.233      36.893836      36.893836      36.893836    
    806000   0.50244431    -7.8025814     -7.0489256      3.7503939      50218.233      36.893836      36.893836      36.893836    
    807000   0.50326731    -7.7984386     -7.0435484      3.7872228      50218.233      36.893836      36.893836      36.893836    
    808000   0.50660035    -7.8021436     -7.0422539      3.7625423      50218.233      36.893836      36.893836      36.893836    
    809000   0.50749532    -7.8006855     -7.0394533      3.7785036      50218.233      36.893836      36.893836      36.893836    
    810000   0.50366283    -7.8045478     -7.0490643      3.7437599      50218.233      36.893836      36.893836      36.893836    
    811000   0.50490848    -7.8015851     -7.0442331      3.7708762      50218.233      36.893836      36.893836      36.893836    
    812000   0.50534335    -7.800615      -7.0426108      3.7822818      50218.233      36.893836      36.893836      36.893836    
    813000   0.50193092    -7.8018543     -7.0489686      3.7651715      50218.233      36.893836      36.893836      36.893836    
    814000   0.50557943    -7.8029953     -7.0446369      3.7665356      50218.233      36.893836      36.893836      36.893836    
    815000   0.50785571    -7.8002226     -7.0384499      3.7656862      50218.233      36.893836      36.893836      36.893836    
    816000   0.50626498    -7.8046156     -7.0452289      3.7438965      50218.233      36.893836      36.893836      36.893836    
    817000   0.50794021    -7.7989743     -7.0370748      3.7874045      50218.233      36.893836      36.893836      36.893836    
    818000   0.50463775    -7.8036839     -7.0467381      3.7428465      50218.233      36.893836      36.893836      36.893836    
    819000   0.50637865    -7.8006185     -7.0410614      3.7788629      50218.233      36.893836      36.893836      36.893836    
    820000   0.50629049    -7.7998913     -7.0404664      3.7823827      50218.233      36.893836      36.893836      36.893836    
    821000   0.50579639    -7.8010937     -7.0424099      3.766492       50218.233      36.893836      36.893836      36.893836    
    822000   0.50395139    -7.8033809     -7.0474646      3.7571699      50218.233      36.893836      36.893836      36.893836    
    823000   0.50751694    -7.8026113     -7.0413467      3.7635326      50218.233      36.893836      36.893836      36.893836    
    824000   0.50644721    -7.8046908     -7.0450308      3.7400256      50218.233      36.893836      36.893836      36.893836    
    825000   0.50539498    -7.8002709     -7.0421892      3.7806329      50218.233      36.893836      36.893836      36.893836    
    826000   0.5053924     -7.8042316     -7.0461538      3.7553095      50218.233      36.893836      36.893836      36.893836    
    827000   0.50446974    -7.7986289     -7.0419351      3.7884733      50218.233      36.893836      36.893836      36.893836    
    828000   0.50766534    -7.7978463     -7.0363591      3.7975414      50218.233      36.893836      36.893836      36.893836    
    829000   0.50598406    -7.8011858     -7.0422205      3.7791315      50218.233      36.893836      36.893836      36.893836    
    830000   0.50566505    -7.8019112     -7.0434244      3.7707004      50218.233      36.893836      36.893836      36.893836    
    831000   0.50689723    -7.8000348     -7.0396997      3.7770088      50218.233      36.893836      36.893836      36.893836    
    832000   0.50110836    -7.8009132     -7.0492613      3.7663841      50218.233      36.893836      36.893836      36.893836    
    833000   0.50317005    -7.8005418     -7.0457975      3.7728163      50218.233      36.893836      36.893836      36.893836    
    834000   0.508597      -7.8002395     -7.0373548      3.7799298      50218.233      36.893836      36.893836      36.893836    
    835000   0.50508933    -7.7970735     -7.0394503      3.7997686      50218.233      36.893836      36.893836      36.893836    
    836000   0.50495199    -7.7956038     -7.0381866      3.7996544      50218.233      36.893836      36.893836      36.893836    
    837000   0.50504735    -7.8006288     -7.0430686      3.7712359      50218.233      36.893836      36.893836      36.893836    
    838000   0.50422999    -7.8002954     -7.0439612      3.7750826      50218.233      36.893836      36.893836      36.893836    
    839000   0.50706943    -7.8031839     -7.0425905      3.7559079      50218.233      36.893836      36.893836      36.893836    
    840000   0.5055529     -7.799481      -7.0411624      3.7810986      50218.233      36.893836      36.893836      36.893836    
    841000   0.50375615    -7.8018059     -7.0461825      3.7578574      50218.233      36.893836      36.893836      36.893836    
    842000   0.50640069    -7.8007528     -7.0411626      3.7638919      50218.233      36.893836      36.893836      36.893836    
    843000   0.50504462    -7.8016145     -7.0440584      3.7669435      50218.233      36.893836      36.893836      36.893836    
    844000   0.50447298    -7.8023275     -7.0456288      3.7562085      50218.233      36.893836      36.893836      36.893836    
    845000   0.5032587     -7.8037852     -7.0489079      3.7452027      50218.233      36.893836      36.893836      36.893836    
    846000   0.50557861    -7.7963411     -7.037984       3.8116932      50218.233      36.893836      36.893836      36.893836    
    847000   0.50437983    -7.8020495     -7.0454905      3.7565738      50218.233      36.893836      36.893836      36.893836    
    848000   0.50366229    -7.80196       -7.0464773      3.7643824      50218.233      36.893836      36.893836      36.893836    
    849000   0.50488108    -7.8000631     -7.0427523      3.7568839      50218.233      36.893836      36.893836      36.893836    
    850000   0.50503971    -7.7998426     -7.0422938      3.7756492      50218.233      36.893836      36.893836      36.893836    
    851000   0.50647972    -7.8014578     -7.0417491      3.7688956      50218.233      36.893836      36.893836      36.893836    
    852000   0.50415291    -7.7992052     -7.0429866      3.7923271      50218.233      36.893836      36.893836      36.893836    
    853000   0.50556745    -7.7971305     -7.0387901      3.8006946      50218.233      36.893836      36.893836      36.893836    
    854000   0.50602946    -7.7998457     -7.0408123      3.7802433      50218.233      36.893836      36.893836      36.893836    
    855000   0.50599375    -7.8014881     -7.0425083      3.7708342      50218.233      36.893836      36.893836      36.893836    
    856000   0.50366608    -7.805418      -7.0499296      3.7439248      50218.233      36.893836      36.893836      36.893836    
    857000   0.50358115    -7.8018716     -7.0465106      3.7707673      50218.233      36.893836      36.893836      36.893836    
    858000   0.50379786    -7.8035589     -7.0478729      3.7444065      50218.233      36.893836      36.893836      36.893836    
    859000   0.50425073    -7.7999697     -7.0436044      3.7685436      50218.233      36.893836      36.893836      36.893836    
    860000   0.5026889     -7.8015037     -7.0474811      3.7497918      50218.233      36.893836      36.893836      36.893836    
    861000   0.50585299    -7.7981994     -7.0394307      3.7887472      50218.233      36.893836      36.893836      36.893836    
    862000   0.50405068    -7.8039861     -7.0479208      3.7440435      50218.233      36.893836      36.893836      36.893836    
    863000   0.50356999    -7.798415      -7.0430707      3.7756312      50218.233      36.893836      36.893836      36.893836    
    864000   0.50535492    -7.7989814     -7.0409598      3.7861471      50218.233      36.893836      36.893836      36.893836    
    865000   0.50693748    -7.8033382     -7.0429428      3.7600234      50218.233      36.893836      36.893836      36.893836    
    866000   0.50371383    -7.801977      -7.046417       3.7555122      50218.233      36.893836      36.893836      36.893836    
    867000   0.50092382    -7.8017447     -7.0503697      3.7645919      50218.233      36.893836      36.893836      36.893836    
    868000   0.50448141    -7.8044209     -7.0477096      3.7358715      50218.233      36.893836      36.893836      36.893836    
    869000   0.50456345    -7.8016943     -7.0448599      3.7646004      50218.233      36.893836      36.893836      36.893836    
    870000   0.50619803    -7.7959284     -7.0366422      3.8086061      50218.233      36.893836      36.893836      36.893836    
    871000   0.5048463     -7.7978635     -7.0406048      3.7947404      50218.233      36.893836      36.893836      36.893836    
    872000   0.50438832    -7.8013879     -7.0448162      3.7597788      50218.233      36.893836      36.893836      36.893836    
    873000   0.50598373    -7.8014143     -7.0424495      3.7659567      50218.233      36.893836      36.893836      36.893836    
    874000   0.50609404    -7.8015159     -7.0423857      3.7632973      50218.233      36.893836      36.893836      36.893836    
    875000   0.50490708    -7.7989768     -7.0416269      3.7825815      50218.233      36.893836      36.893836      36.893836    
    876000   0.50457894    -7.7988847     -7.0420271      3.782526       50218.233      36.893836      36.893836      36.893836    
    877000   0.5050695     -7.7998039     -7.0422104      3.774928       50218.233      36.893836      36.893836      36.893836    
    878000   0.50601117    -7.7983274     -7.0393215      3.7864191      50218.233      36.893836      36.893836      36.893836    
    879000   0.50651445    -7.8011426     -7.0413817      3.7701303      50218.233      36.893836      36.893836      36.893836    
    880000   0.50732388    -7.8057513     -7.0447763      3.7341757      50218.233      36.893836      36.893836      36.893836    
    881000   0.50562981    -7.8022986     -7.0438647      3.7617864      50218.233      36.893836      36.893836      36.893836    
    882000   0.50358529    -7.7989782     -7.043611       3.7858901      50218.233      36.893836      36.893836      36.893836    
    883000   0.50456661    -7.8004659     -7.0436268      3.7745854      50218.233      36.893836      36.893836      36.893836    
    884000   0.50287848    -7.7966191     -7.0423121      3.8036196      50218.233      36.893836      36.893836      36.893836    
    885000   0.50361402    -7.7985433     -7.043133       3.7910461      50218.233      36.893836      36.893836      36.893836    
    886000   0.50175993    -7.7950221     -7.0423929      3.8111243      50218.233      36.893836      36.893836      36.893836    
    887000   0.5034374     -7.7971147     -7.0419693      3.7993719      50218.233      36.893836      36.893836      36.893836    
    888000   0.5040354     -7.7983483     -7.042306       3.7913254      50218.233      36.893836      36.893836      36.893836    
    889000   0.50495929    -7.7993943     -7.0419661      3.7784517      50218.233      36.893836      36.893836      36.893836    
    890000   0.50434198    -7.8024023     -7.0459001      3.760031       50218.233      36.893836      36.893836      36.893836    
    891000   0.50457123    -7.8023529     -7.0455068      3.7602059      50218.233      36.893836      36.893836      36.893836    
    892000   0.50430584    -7.7977058     -7.0412578      3.788215       50218.233      36.893836      36.893836      36.893836    
    893000   0.50709461    -7.7993573     -7.0387262      3.7773326      50218.233      36.893836      36.893836      36.893836    
    894000   0.50365771    -7.8023892     -7.0469134      3.7504142      50218.233      36.893836      36.893836      36.893836    
    895000   0.50281758    -7.8024729     -7.0482572      3.7500898      50218.233      36.893836      36.893836      36.893836    
    896000   0.5047111     -7.7990974     -7.0420416      3.7775585      50218.233      36.893836      36.893836      36.893836    
    897000   0.50417973    -7.8004729     -7.0442141      3.7691927      50218.233      36.893836      36.893836      36.893836    
    898000   0.50775073    -7.7996119     -7.0379967      3.7892819      50218.233      36.893836      36.893836      36.893836    
    899000   0.50489145    -7.8028268     -7.0455004      3.7569169      50218.233      36.893836      36.893836      36.893836    
    900000   0.50378709    -7.8021728     -7.0465029      3.7740234      50218.233      36.893836      36.893836      36.893836    
    901000   0.50584616    -7.7999964     -7.041238       3.7738062      50218.233      36.893836      36.893836      36.893836    
    902000   0.50312827    -7.8036725     -7.0489908      3.7461042      50218.233      36.893836      36.893836      36.893836    
    903000   0.50663353    -7.8022565     -7.042317       3.7499502      50218.233      36.893836      36.893836      36.893836    
    904000   0.50298597    -7.801188      -7.0467198      3.7588308      50218.233      36.893836      36.893836      36.893836    
    905000   0.50373369    -7.8017231     -7.0461333      3.7608115      50218.233      36.893836      36.893836      36.893836    
    906000   0.50405586    -7.8047045     -7.0486315      3.7300115      50218.233      36.893836      36.893836      36.893836    
    907000   0.50434352    -7.8001172     -7.0436127      3.7599247      50218.233      36.893836      36.893836      36.893836    
    908000   0.50461144    -7.8039413     -7.0470349      3.7411515      50218.233      36.893836      36.893836      36.893836    
    909000   0.5059156     -7.7992986     -7.040436       3.7810915      50218.233      36.893836      36.893836      36.893836    
    910000   0.50589924    -7.8028425     -7.0440044      3.7548911      50218.233      36.893836      36.893836      36.893836    
    911000   0.50277494    -7.798284      -7.0441323      3.7860674      50218.233      36.893836      36.893836      36.893836    
    912000   0.50377703    -7.7993193     -7.0436645      3.7829603      50218.233      36.893836      36.893836      36.893836    
    913000   0.50557195    -7.7984403     -7.0400932      3.7888464      50218.233      36.893836      36.893836      36.893836    
    914000   0.50521754    -7.8037437     -7.0459282      3.753408       50218.233      36.893836      36.893836      36.893836    
    915000   0.50781691    -7.8000915     -7.0383769      3.7740548      50218.233      36.893836      36.893836      36.893836    
    916000   0.50454354    -7.8020928     -7.0452883      3.7574318      50218.233      36.893836      36.893836      36.893836    
    917000   0.50499141    -7.7996338     -7.0421575      3.7884142      50218.233      36.893836      36.893836      36.893836    
    918000   0.50494489    -7.7991581     -7.0417515      3.7772403      50218.233      36.893836      36.893836      36.893836    
    919000   0.50584164    -7.8003268     -7.0415751      3.7851087      50218.233      36.893836      36.893836      36.893836    
    920000   0.5065437     -7.8014685     -7.0416637      3.7647256      50218.233      36.893836      36.893836      36.893836    
    921000   0.50533052    -7.7986676     -7.0406826      3.7870799      50218.233      36.893836      36.893836      36.893836    
    922000   0.50400412    -7.801209      -7.0452136      3.761698       50218.233      36.893836      36.893836      36.893836    
    923000   0.50465065    -7.8003492     -7.043384       3.7672781      50218.233      36.893836      36.893836      36.893836    
    924000   0.50755449    -7.7966602     -7.0353393      3.800665       50218.233      36.893836      36.893836      36.893836    
    925000   0.50584753    -7.798853      -7.0400925      3.7832392      50218.233      36.893836      36.893836      36.893836    
    926000   0.50518427    -7.8001239     -7.0423583      3.7800021      50218.233      36.893836      36.893836      36.893836    
    927000   0.50534353    -7.7979612     -7.0399566      3.800777       50218.233      36.893836      36.893836      36.893836    
    928000   0.50418358    -7.8003227     -7.0440581      3.7676323      50218.233      36.893836      36.893836      36.893836    
    929000   0.50712328    -7.8016955     -7.0410214      3.7576436      50218.233      36.893836      36.893836      36.893836    
    930000   0.50342139    -7.7987908     -7.0436695      3.7754418      50218.233      36.893836      36.893836      36.893836    
    931000   0.50177346    -7.8068282     -7.0541787      3.7172567      50218.233      36.893836      36.893836      36.893836    
    932000   0.50379618    -7.7995883     -7.0439048      3.7726505      50218.233      36.893836      36.893836      36.893836    
    933000   0.50649896    -7.7979454     -7.0382077      3.7969451      50218.233      36.893836      36.893836      36.893836    
    934000   0.50236497    -7.7989475     -7.0454108      3.7716605      50218.233      36.893836      36.893836      36.893836    
    935000   0.50491146    -7.8026284     -7.045272       3.751258       50218.233      36.893836      36.893836      36.893836    
    936000   0.50689359    -7.8019507     -7.0416211      3.7626363      50218.233      36.893836      36.893836      36.893836    
    937000   0.50346744    -7.8023413     -7.0471509      3.7499577      50218.233      36.893836      36.893836      36.893836    
    938000   0.50357099    -7.8021347     -7.046789       3.754796       50218.233      36.893836      36.893836      36.893836    
    939000   0.50530868    -7.7992551     -7.0413029      3.7797271      50218.233      36.893836      36.893836      36.893836    
    940000   0.50548225    -7.8018074     -7.0435948      3.7572516      50218.233      36.893836      36.893836      36.893836    
    941000   0.50371177    -7.7990267     -7.0434698      3.77919        50218.233      36.893836      36.893836      36.893836    
    942000   0.50498574    -7.8026481     -7.0451803      3.7585561      50218.233      36.893836      36.893836      36.893836    
    943000   0.5046435     -7.7986751     -7.0417206      3.7869638      50218.233      36.893836      36.893836      36.893836    
    944000   0.50461152    -7.8003854     -7.0434789      3.7759966      50218.233      36.893836      36.893836      36.893836    
    945000   0.50498742    -7.8033355     -7.0458651      3.7469939      50218.233      36.893836      36.893836      36.893836    
    946000   0.50557486    -7.7993751     -7.0410236      3.7709183      50218.233      36.893836      36.893836      36.893836    
    947000   0.50533222    -7.803663      -7.0456754      3.7472933      50218.233      36.893836      36.893836      36.893836    
    948000   0.5060703     -7.8037172     -7.0446225      3.749149       50218.233      36.893836      36.893836      36.893836    
    949000   0.50575013    -7.799334      -7.0407196      3.7734023      50218.233      36.893836      36.893836      36.893836    
    950000   0.50299542    -7.797527      -7.0430446      3.7919638      50218.233      36.893836      36.893836      36.893836    
    951000   0.50603636    -7.801167      -7.0421233      3.7724476      50218.233      36.893836      36.893836      36.893836    
    952000   0.50541495    -7.8017886     -7.043677       3.7683214      50218.233      36.893836      36.893836      36.893836    
    953000   0.50672728    -7.7994117     -7.0393316      3.7822875      50218.233      36.893836      36.893836      36.893836    
    954000   0.50496402    -7.8072815     -7.0498463      3.7257713      50218.233      36.893836      36.893836      36.893836    
    955000   0.50377425    -7.801823      -7.0461724      3.7645763      50218.233      36.893836      36.893836      36.893836    
    956000   0.50689454    -7.8000396     -7.0397086      3.7707788      50218.233      36.893836      36.893836      36.893836    
    957000   0.50590672    -7.8018099     -7.0429606      3.7642476      50218.233      36.893836      36.893836      36.893836    
    958000   0.50654478    -7.803981      -7.0441747      3.7397771      50218.233      36.893836      36.893836      36.893836    
    959000   0.50610359    -7.7971922     -7.0380476      3.7972509      50218.233      36.893836      36.893836      36.893836    
    960000   0.50325354    -7.7990027     -7.0441331      3.7824443      50218.233      36.893836      36.893836      36.893836    
    961000   0.50326686    -7.7990484     -7.0441588      3.7864746      50218.233      36.893836      36.893836      36.893836    
    962000   0.50645863    -7.8005324     -7.0408552      3.773347       50218.233      36.893836      36.893836      36.893836    
    963000   0.50484036    -7.8029351     -7.0456853      3.7543691      50218.233      36.893836      36.893836      36.893836    
    964000   0.50502415    -7.799585      -7.0420595      3.7608759      50218.233      36.893836      36.893836      36.893836    
    965000   0.50520364    -7.8010754     -7.0432808      3.7646143      50218.233      36.893836      36.893836      36.893836    
    966000   0.50344543    -7.8029399     -7.0477825      3.7532286      50218.233      36.893836      36.893836      36.893836    
    967000   0.50648969    -7.7989017     -7.0391779      3.7937941      50218.233      36.893836      36.893836      36.893836    
    968000   0.50355053    -7.8025723     -7.0472573      3.7449485      50218.233      36.893836      36.893836      36.893836    
    969000   0.50227661    -7.8019117     -7.0485075      3.7553995      50218.233      36.893836      36.893836      36.893836    
    970000   0.50501523    -7.7998316     -7.0423195      3.768777       50218.233      36.893836      36.893836      36.893836    
    971000   0.50362236    -7.8016773     -7.0462545      3.7591854      50218.233      36.893836      36.893836      36.893836    
    972000   0.50132406    -7.8007866     -7.0488112      3.7670686      50218.233      36.893836      36.893836      36.893836    
    973000   0.50699034    -7.7988505     -7.0383758      3.785347       50218.233      36.893836      36.893836      36.893836    
    974000   0.50473385    -7.8009378     -7.0438478      3.7661357      50218.233      36.893836      36.893836      36.893836    
    975000   0.50648338    -7.8035296     -7.0438154      3.755012       50218.233      36.893836      36.893836      36.893836    
    976000   0.50120994    -7.7999533     -7.0481491      3.769761       50218.233      36.893836      36.893836      36.893836    
    977000   0.50473807    -7.8063886     -7.0492923      3.7189844      50218.233      36.893836      36.893836      36.893836    
    978000   0.50478319    -7.8005531     -7.0433891      3.7747984      50218.233      36.893836      36.893836      36.893836    
    979000   0.5067221     -7.8008327     -7.0407604      3.7721461      50218.233      36.893836      36.893836      36.893836    
    980000   0.50399172    -7.8027357     -7.0467588      3.7513608      50218.233      36.893836      36.893836      36.893836    
    981000   0.50585666    -7.7958973     -7.0371231      3.8043752      50218.233      36.893836      36.893836      36.893836    
    982000   0.50398114    -7.7998485     -7.0438875      3.7709087      50218.233      36.893836      36.893836      36.893836    
    983000   0.50878685    -7.8012959     -7.0381265      3.7704758      50218.233      36.893836      36.893836      36.893836    
    984000   0.50465009    -7.7999196     -7.0429552      3.7733596      50218.233      36.893836      36.893836      36.893836    
    985000   0.50758806    -7.8010601     -7.0396889      3.7602998      50218.233      36.893836      36.893836      36.893836    
    986000   0.50809164    -7.8022592     -7.0401326      3.7598989      50218.233      36.893836      36.893836      36.893836    
    987000   0.5057175     -7.8062648     -7.0476994      3.7240429      50218.233      36.893836      36.893836      36.893836    
    988000   0.50520095    -7.8008388     -7.0430482      3.7692793      50218.233      36.893836      36.893836      36.893836    
    989000   0.50479599    -7.8016537     -7.0444704      3.7645087      50218.233      36.893836      36.893836      36.893836    
    990000   0.50544877    -7.799143      -7.0409806      3.7638633      50218.233      36.893836      36.893836      36.893836    
    991000   0.50516057    -7.7988172     -7.0410871      3.7868462      50218.233      36.893836      36.893836      36.893836    
    992000   0.50550053    -7.8056741     -7.047434       3.7195259      50218.233      36.893836      36.893836      36.893836    
    993000   0.50734235    -7.8013724     -7.0403697      3.7731826      50218.233      36.893836      36.893836      36.893836    
    994000   0.50405164    -7.8017507     -7.045684       3.7519108      50218.233      36.893836      36.893836      36.893836    
    995000   0.50890469    -7.7964305     -7.0330843      3.8074441      50218.233      36.893836      36.893836      36.893836    
    996000   0.50771805    -7.8009365     -7.0393703      3.7724603      50218.233      36.893836      36.893836      36.893836    
    997000   0.5029241     -7.8030021     -7.0486267      3.7487717      50218.233      36.893836      36.893836      36.893836    
    998000   0.50169189    -7.8018202     -7.0492931      3.7503613      50218.233      36.893836      36.893836      36.893836    
    999000   0.50364392    -7.8023193     -7.0468641      3.7500931      50218.233      36.893836      36.893836      36.893836    
   1000000   0.5046117     -7.802387      -7.0454802      3.7646736      50218.233      36.893836      36.893836      36.893836    
Loop time of 4303.28 on 1 procs for 1000000 steps with 70304 atoms

Performance: 200777.054 tau/day, 232.381 timesteps/s, 16.337 Matom-step/s
100.0% CPU use with 1 MPI tasks x 1 OpenMP threads

MPI task timing breakdown:
Section |  min time  |  avg time  |  max time  |%varavg| %total
---------------------------------------------------------------
Pair    | 1028.3     | 1028.3     | 1028.3     |   0.0 | 23.90
Neigh   | 39.617     | 39.617     | 39.617     |   0.0 |  0.92
Comm    | 502.59     | 502.59     | 502.59     |   0.0 | 11.68
Output  | 0.74833    | 0.74833    | 0.74833    |   0.0 |  0.02
Modify  | 2300.9     | 2300.9     | 2300.9     |   0.0 | 53.47
Other   |            | 431.1      |            |       | 10.02

Nlocal:          70304 ave       70304 max       70304 min
Histogram: 1 0 0 0 0 0 0 0 0 0
Nghost:          37092 ave       37092 max       37092 min
Histogram: 1 0 0 0 0 0 0 0 0 0
Neighs:              0 ave           0 max           0 min
Histogram: 1 0 0 0 0 0 0 0 0 0

Total # of neighbors = 0
Ave neighs/atom = 0
Neighbor list builds = 205396
Dangerous builds = 0
clear
OMP_NUM_THREADS environment is not set. Defaulting to 1 thread. (src/comm.cpp:98)
  using 1 OpenMP thread(s) per MPI task
package gpu 0
jump dms595.lmp

variable T equal 595
# T = 1000* (temp in LJ unit)
variable f equal 1000
log log.${T}
log log.595
