variable TLJ equal (${T}/1000)
variable TLJ equal (630/1000)
variable NCyle equal 10
variable iStep equal (${f})
variable iStep equal (1000)
variable dumpStep equal (${f}*100)
variable dumpStep equal (1000*100)
variable runStep equal (${f}*100*${NCyle})
variable runStep equal (1000*100*${NCyle})
variable runStep equal (1000*100*10)

units       lj
atom_style  atomic
dimension 3
boundary     p p p
pair_style  lj/cut 2.5
read_data  ../data/T${T}.dat
read_data  ../data/T630.dat
Reading data file ...
  orthogonal box = (0.97250269 0.97250269 0.97250269) to (37.866338 37.866338 37.866338)
  1 by 1 by 1 MPI processor grid
  reading atoms ...
  70304 atoms
  reading velocities ...
  70304 velocities
  read_data CPU = 0.224 seconds
change_box all triclinic
Changing box ...
  triclinic box = (0.97250269 0.97250269 0.97250269) to (37.866338 37.866338 37.866338) with tilt (0 0 0)
mass 1 1
mass 2 1
pair_modify shift yes
pair_coeff  1 1 1 1
pair_coeff  1 2 1.5 0.8
pair_coeff  2 2 0.5 0.88


timestep 0.01
thermo ${iStep}
thermo 1000
reset_timestep 0
thermo_style custom step temp pe etotal press vol lx ly lz
fix             1 all nvt temp ${TLJ}  ${TLJ}  0.1
fix             1 all nvt temp 0.63  ${TLJ}  0.1
fix             1 all nvt temp 0.63  0.63  0.1
thermo_modify flush yes

fix dsf all deform 1 xy  wiggle 0.5  ${f}   units box
fix dsf all deform 1 xy  wiggle 0.5  1000   units box
fix ps1 all ave/time 1 1 ${iStep} c_thermo_press[1] c_thermo_press[2]  c_thermo_press[3] c_thermo_press[4]  c_thermo_press[5] c_thermo_press[6]  file  stress.${T}
fix ps1 all ave/time 1 1 1000 c_thermo_press[1] c_thermo_press[2]  c_thermo_press[3] c_thermo_press[4]  c_thermo_press[5] c_thermo_press[6]  file  stress.${T}
fix ps1 all ave/time 1 1 1000 c_thermo_press[1] c_thermo_press[2]  c_thermo_press[3] c_thermo_press[4]  c_thermo_press[5] c_thermo_press[6]  file  stress.630
dump            1 all custom ${dumpStep} dump.${T} id type x y z
dump            1 all custom 100000 dump.${T} id type x y z
dump            1 all custom 100000 dump.630 id type x y z
dump_modify 1 sort id
fix nodrift all momentum 1  linear 1 1 1
fix com_seed all recenter INIT INIT INIT shift all
run ${runStep}
run 1000000
Generated 0 of 1 mixed pair_coeff terms from geometric mixing rule
Per MPI rank memory allocation (min/avg/max) = 21.18 | 21.18 | 21.18 Mbytes
   Step          Temp          PotEng         TotEng         Press          Volume           Lx             Ly             Lz      
         0   0.62930549    -7.5526211     -6.6086763      5.7640429      50218.233      36.893836      36.893836      36.893836    
      1000   0.62927622    -7.5352665     -6.5913656      5.8881787      50218.233      36.893836      36.893836      36.893836    
      2000   0.63302403    -7.5358132     -6.5862906      5.9034425      50218.233      36.893836      36.893836      36.893836    
      3000   0.6284193     -7.5368721     -6.5942565      5.8827661      50218.233      36.893836      36.893836      36.893836    
      4000   0.63101436    -7.5300673     -6.5835592      5.9342659      50218.233      36.893836      36.893836      36.893836    
      5000   0.62748727    -7.5330066     -6.5917891      5.9086591      50218.233      36.893836      36.893836      36.893836    
      6000   0.6308947     -7.5324957     -6.5861671      5.9058675      50218.233      36.893836      36.893836      36.893836    
      7000   0.62969593    -7.5333148     -6.5887843      5.9039971      50218.233      36.893836      36.893836      36.893836    
      8000   0.62529369    -7.5358419     -6.5979147      5.8878424      50218.233      36.893836      36.893836      36.893836    
      9000   0.63077035    -7.531544      -6.5854019      5.9369875      50218.233      36.893836      36.893836      36.893836    
     10000   0.62885753    -7.5287357     -6.5854629      5.9406288      50218.233      36.893836      36.893836      36.893836    
     11000   0.62722222    -7.5318499     -6.5910299      5.9192806      50218.233      36.893836      36.893836      36.893836    
     12000   0.62999847    -7.5342941     -6.5893099      5.9004756      50218.233      36.893836      36.893836      36.893836    
     13000   0.62981773    -7.541904      -6.5971909      5.8427971      50218.233      36.893836      36.893836      36.893836    
     14000   0.63210573    -7.5316668     -6.5835217      5.9239483      50218.233      36.893836      36.893836      36.893836    
     15000   0.62900971    -7.5329276     -6.5894264      5.9136695      50218.233      36.893836      36.893836      36.893836    
     16000   0.63032676    -7.5359399     -6.5904632      5.9007344      50218.233      36.893836      36.893836      36.893836    
     17000   0.6304966     -7.5354636     -6.5897322      5.8937862      50218.233      36.893836      36.893836      36.893836    
     18000   0.62877936    -7.5333128     -6.5901572      5.9126773      50218.233      36.893836      36.893836      36.893836    
     19000   0.63070503    -7.5353518     -6.5893077      5.8944035      50218.233      36.893836      36.893836      36.893836    
     20000   0.62968481    -7.5333335     -6.5888197      5.9084363      50218.233      36.893836      36.893836      36.893836    
     21000   0.62897682    -7.5367971     -6.5933453      5.8842622      50218.233      36.893836      36.893836      36.893836    
     22000   0.63076793    -7.5381706     -6.5920321      5.8799763      50218.233      36.893836      36.893836      36.893836    
     23000   0.62858353    -7.5337389     -6.590877       5.8964744      50218.233      36.893836      36.893836      36.893836    
     24000   0.63037991    -7.537508      -6.5919516      5.8764065      50218.233      36.893836      36.893836      36.893836    
     25000   0.63011442    -7.541103      -6.5959449      5.8361982      50218.233      36.893836      36.893836      36.893836    
     26000   0.6275877     -7.5357824     -6.5944143      5.8731406      50218.233      36.893836      36.893836      36.893836    
     27000   0.62949455    -7.5335304     -6.589302       5.9087841      50218.233      36.893836      36.893836      36.893836    
     28000   0.6274964     -7.5313863     -6.5901551      5.9168934      50218.233      36.893836      36.893836      36.893836    
     29000   0.63042768    -7.535149      -6.5895209      5.894217       50218.233      36.893836      36.893836      36.893836    
     30000   0.62583304    -7.534802      -6.5960658      5.8930104      50218.233      36.893836      36.893836      36.893836    
     31000   0.6285312     -7.5351361     -6.5923527      5.8797853      50218.233      36.893836      36.893836      36.893836    
     32000   0.63006461    -7.535876      -6.5907926      5.8879817      50218.233      36.893836      36.893836      36.893836    
     33000   0.62860616    -7.5286371     -6.5857413      5.9512267      50218.233      36.893836      36.893836      36.893836    
     34000   0.62889278    -7.5328146     -6.5894888      5.9000524      50218.233      36.893836      36.893836      36.893836    
     35000   0.6287753     -7.5329811     -6.5898316      5.9070358      50218.233      36.893836      36.893836      36.893836    
     36000   0.62996314    -7.5344154     -6.5894841      5.8996079      50218.233      36.893836      36.893836      36.893836    
     37000   0.62944679    -7.5340734     -6.5899167      5.8987081      50218.233      36.893836      36.893836      36.893836    
     38000   0.63288935    -7.5343942     -6.5850736      5.896864       50218.233      36.893836      36.893836      36.893836    
     39000   0.63092682    -7.5363656     -6.5899888      5.8738096      50218.233      36.893836      36.893836      36.893836    
     40000   0.63139703    -7.5325065     -6.5854244      5.9191817      50218.233      36.893836      36.893836      36.893836    
     41000   0.62883733    -7.5318254     -6.5885828      5.9219102      50218.233      36.893836      36.893836      36.893836    
     42000   0.63006707    -7.5304412     -6.585354       5.9288177      50218.233      36.893836      36.893836      36.893836    
     43000   0.6305328     -7.5307752     -6.5849894      5.9341966      50218.233      36.893836      36.893836      36.893836    
     44000   0.63016315    -7.5355503     -6.590319       5.8890925      50218.233      36.893836      36.893836      36.893836    
     45000   0.6310396     -7.5314668     -6.5849209      5.930598       50218.233      36.893836      36.893836      36.893836    
     46000   0.63033555    -7.5276736     -6.5821838      5.9526568      50218.233      36.893836      36.893836      36.893836    
     47000   0.63013025    -7.5326705     -6.5874886      5.9131399      50218.233      36.893836      36.893836      36.893836    
     48000   0.62988192    -7.5324331     -6.5876237      5.9023786      50218.233      36.893836      36.893836      36.893836    
     49000   0.63241215    -7.5268914     -6.5782866      5.9535006      50218.233      36.893836      36.893836      36.893836    
     50000   0.63035855    -7.5351537     -6.5896293      5.8829263      50218.233      36.893836      36.893836      36.893836    
     51000   0.62957558    -7.5326152     -6.5882653      5.9067855      50218.233      36.893836      36.893836      36.893836    
     52000   0.62778199    -7.5288829     -6.5872233      5.9407653      50218.233      36.893836      36.893836      36.893836    
     53000   0.62928105    -7.5302609     -6.5863527      5.9293652      50218.233      36.893836      36.893836      36.893836    
     54000   0.6266791     -7.5360576     -6.5960523      5.8745479      50218.233      36.893836      36.893836      36.893836    
     55000   0.63205878    -7.5352037     -6.587129       5.8881227      50218.233      36.893836      36.893836      36.893836    
     56000   0.63218921    -7.5357273     -6.587457       5.8860799      50218.233      36.893836      36.893836      36.893836    
     57000   0.63147839    -7.5319143     -6.5847101      5.9182446      50218.233      36.893836      36.893836      36.893836    
     58000   0.63081116    -7.5363763     -6.590173       5.8805515      50218.233      36.893836      36.893836      36.893836    
     59000   0.63518083    -7.5370154     -6.5842577      5.8821293      50218.233      36.893836      36.893836      36.893836    
     60000   0.62855709    -7.5371755     -6.5943533      5.8839197      50218.233      36.893836      36.893836      36.893836    
     61000   0.63364621    -7.5327932     -6.5823374      5.9065332      50218.233      36.893836      36.893836      36.893836    
     62000   0.63418173    -7.5367569     -6.5854978      5.8900575      50218.233      36.893836      36.893836      36.893836    
     63000   0.63227075    -7.5345975     -6.5862048      5.9068307      50218.233      36.893836      36.893836      36.893836    
     64000   0.63515304    -7.5353325     -6.5826165      5.8949264      50218.233      36.893836      36.893836      36.893836    
     65000   0.62806315    -7.5375916     -6.5955103      5.8652812      50218.233      36.893836      36.893836      36.893836    
     66000   0.63119016    -7.5374957     -6.5907239      5.8759356      50218.233      36.893836      36.893836      36.893836    
     67000   0.62981656    -7.5335967     -6.5888853      5.9130878      50218.233      36.893836      36.893836      36.893836    
     68000   0.62762857    -7.5388626     -6.5974332      5.8555185      50218.233      36.893836      36.893836      36.893836    
     69000   0.62518601    -7.5279878     -6.5902221      5.9222595      50218.233      36.893836      36.893836      36.893836    
     70000   0.62916762    -7.5303776     -6.5866396      5.9130474      50218.233      36.893836      36.893836      36.893836    
     71000   0.62667166    -7.5258765     -6.5858824      5.9652287      50218.233      36.893836      36.893836      36.893836    
     72000   0.62783527    -7.5335557     -6.5918162      5.9103086      50218.233      36.893836      36.893836      36.893836    
     73000   0.63371791    -7.5313895     -6.5808261      5.9281565      50218.233      36.893836      36.893836      36.893836    
     74000   0.63062037    -7.528879      -6.5829619      5.9438386      50218.233      36.893836      36.893836      36.893836    
     75000   0.63419142    -7.5335513     -6.5822777      5.9202093      50218.233      36.893836      36.893836      36.893836    
     76000   0.63050299    -7.5270787     -6.5813377      5.9583689      50218.233      36.893836      36.893836      36.893836    
     77000   0.62939574    -7.537695      -6.5936148      5.8731262      50218.233      36.893836      36.893836      36.893836    
     78000   0.63089164    -7.5339891     -6.5876651      5.9133943      50218.233      36.893836      36.893836      36.893836    
     79000   0.62794981    -7.5338806     -6.5919693      5.9082795      50218.233      36.893836      36.893836      36.893836    
     80000   0.62965338    -7.5293436     -6.5848769      5.9402883      50218.233      36.893836      36.893836      36.893836    
     81000   0.63078334    -7.5305361     -6.5843746      5.9336466      50218.233      36.893836      36.893836      36.893836    
     82000   0.63141862    -7.5327708     -6.5856563      5.9301406      50218.233      36.893836      36.893836      36.893836    
     83000   0.63009875    -7.5332185     -6.5880838      5.9140997      50218.233      36.893836      36.893836      36.893836    
     84000   0.63008235    -7.5332694     -6.5881593      5.9078356      50218.233      36.893836      36.893836      36.893836    
     85000   0.63129186    -7.5352765     -6.5883522      5.9095174      50218.233      36.893836      36.893836      36.893836    
     86000   0.62889876    -7.5350557     -6.591721       5.8930733      50218.233      36.893836      36.893836      36.893836    
     87000   0.63061324    -7.527246      -6.5813396      5.9622281      50218.233      36.893836      36.893836      36.893836    
     88000   0.6297324     -7.5293951     -6.5848099      5.9427034      50218.233      36.893836      36.893836      36.893836    
     89000   0.62641235    -7.5295098     -6.5899047      5.9473893      50218.233      36.893836      36.893836      36.893836    
     90000   0.63085386    -7.5315733     -6.585306       5.9248818      50218.233      36.893836      36.893836      36.893836    
     91000   0.63146479    -7.5285728     -6.5813891      5.9428622      50218.233      36.893836      36.893836      36.893836    
     92000   0.62987672    -7.5299948     -6.5851932      5.9278843      50218.233      36.893836      36.893836      36.893836    
     93000   0.62866358    -7.5283491     -6.5853671      5.9496686      50218.233      36.893836      36.893836      36.893836    
     94000   0.62972709    -7.533323      -6.5887458      5.9315482      50218.233      36.893836      36.893836      36.893836    
     95000   0.6314701     -7.5298315     -6.5826398      5.9414257      50218.233      36.893836      36.893836      36.893836    
     96000   0.62628268    -7.5359802     -6.5965695      5.8803151      50218.233      36.893836      36.893836      36.893836    
     97000   0.62952353    -7.5305233     -6.5862515      5.9311966      50218.233      36.893836      36.893836      36.893836    
     98000   0.63082034    -7.5292166     -6.5829996      5.9341884      50218.233      36.893836      36.893836      36.893836    
     99000   0.62827824    -7.5265049     -6.5841009      5.9715347      50218.233      36.893836      36.893836      36.893836    
    100000   0.62576464    -7.5290871     -6.5904535      5.934915       50218.233      36.893836      36.893836      36.893836    
    101000   0.62955009    -7.5297389     -6.5854272      5.9419         50218.233      36.893836      36.893836      36.893836    
    102000   0.62886675    -7.532719      -6.5894322      5.9198331      50218.233      36.893836      36.893836      36.893836    
    103000   0.62981203    -7.5259502     -6.5812456      5.9616276      50218.233      36.893836      36.893836      36.893836    
    104000   0.62702806    -7.5379462     -6.5974175      5.8701755      50218.233      36.893836      36.893836      36.893836    
    105000   0.63287716    -7.5269636     -6.5776614      5.9643424      50218.233      36.893836      36.893836      36.893836    
    106000   0.62962332    -7.5317446     -6.587323       5.9198763      50218.233      36.893836      36.893836      36.893836    
    107000   0.6299279     -7.5322423     -6.5873639      5.9153407      50218.233      36.893836      36.893836      36.893836    
    108000   0.62842387    -7.5346975     -6.5920751      5.8926056      50218.233      36.893836      36.893836      36.893836    
    109000   0.62639602    -7.533303      -6.5937223      5.9053489      50218.233      36.893836      36.893836      36.893836    
    110000   0.63024887    -7.5301871     -6.5848273      5.9204251      50218.233      36.893836      36.893836      36.893836    
    111000   0.63116134    -7.5336893     -6.5869608      5.9089449      50218.233      36.893836      36.893836      36.893836    
    112000   0.63108458    -7.535155      -6.5885416      5.8971757      50218.233      36.893836      36.893836      36.893836    
    113000   0.6289856     -7.5321592     -6.5886943      5.9131329      50218.233      36.893836      36.893836      36.893836    
    114000   0.63251053    -7.5322759     -6.5835236      5.9063535      50218.233      36.893836      36.893836      36.893836    
    115000   0.6309624     -7.5278537     -6.5814236      5.9506411      50218.233      36.893836      36.893836      36.893836    
    116000   0.62851636    -7.5292325     -6.5864713      5.92729        50218.233      36.893836      36.893836      36.893836    
    117000   0.63001976    -7.5309961     -6.5859799      5.931924       50218.233      36.893836      36.893836      36.893836    
    118000   0.62859131    -7.5311032     -6.5882297      5.9277135      50218.233      36.893836      36.893836      36.893836    
    119000   0.63099481    -7.5387333     -6.5922546      5.8773257      50218.233      36.893836      36.893836      36.893836    
    120000   0.62942233    -7.5306198     -6.5864998      5.9337917      50218.233      36.893836      36.893836      36.893836    
    121000   0.63049284    -7.5324186     -6.5866928      5.922096       50218.233      36.893836      36.893836      36.893836    
    122000   0.63230585    -7.5293377     -6.5808924      5.9318958      50218.233      36.893836      36.893836      36.893836    
    123000   0.62829927    -7.5265587     -6.5841232      5.9490824      50218.233      36.893836      36.893836      36.893836    
    124000   0.63129906    -7.5313912     -6.5844561      5.9182807      50218.233      36.893836      36.893836      36.893836    
    125000   0.6301009     -7.5301363     -6.5849984      5.9298025      50218.233      36.893836      36.893836      36.893836    
    126000   0.63103721    -7.5267366     -6.5801942      5.9659527      50218.233      36.893836      36.893836      36.893836    
    127000   0.63014157    -7.5303488     -6.5851499      5.9407297      50218.233      36.893836      36.893836      36.893836    
    128000   0.62808831    -7.5296047     -6.5874856      5.9301956      50218.233      36.893836      36.893836      36.893836    
    129000   0.63159072    -7.5318258     -6.5844532      5.920938       50218.233      36.893836      36.893836      36.893836    
    130000   0.62952065    -7.530247      -6.5859795      5.932121       50218.233      36.893836      36.893836      36.893836    
    131000   0.62859979    -7.5390113     -6.596125       5.866332       50218.233      36.893836      36.893836      36.893836    
    132000   0.63038995    -7.5371785     -6.591607       5.8832324      50218.233      36.893836      36.893836      36.893836    
    133000   0.63007122    -7.5322782     -6.5871848      5.9234064      50218.233      36.893836      36.893836      36.893836    
    134000   0.62844684    -7.5335972     -6.5909404      5.9036463      50218.233      36.893836      36.893836      36.893836    
    135000   0.63280427    -7.5289462     -6.5797532      5.9387167      50218.233      36.893836      36.893836      36.893836    
    136000   0.62838314    -7.532428      -6.5898666      5.9126408      50218.233      36.893836      36.893836      36.893836    
    137000   0.6270077     -7.530686      -6.5901879      5.9283792      50218.233      36.893836      36.893836      36.893836    
    138000   0.62822204    -7.5391838     -6.5968642      5.8688536      50218.233      36.893836      36.893836      36.893836    
    139000   0.62906645    -7.5373729     -6.5937866      5.8711537      50218.233      36.893836      36.893836      36.893836    
    140000   0.62745926    -7.5300361     -6.5888606      5.9296061      50218.233      36.893836      36.893836      36.893836    
    141000   0.63116917    -7.5318295     -6.5850892      5.9248296      50218.233      36.893836      36.893836      36.893836    
    142000   0.6291114     -7.5354598     -6.5918061      5.9040255      50218.233      36.893836      36.893836      36.893836    
    143000   0.62929489    -7.526681      -6.5827521      5.9512655      50218.233      36.893836      36.893836      36.893836    
    144000   0.63072641    -7.5264964     -6.5804202      5.9591078      50218.233      36.893836      36.893836      36.893836    
    145000   0.63179968    -7.5338814     -6.5861954      5.8966916      50218.233      36.893836      36.893836      36.893836    
    146000   0.63043446    -7.5294008     -6.5837625      5.9283347      50218.233      36.893836      36.893836      36.893836    
    147000   0.63415439    -7.5284323     -6.5772142      5.9388158      50218.233      36.893836      36.893836      36.893836    
    148000   0.63367351    -7.5277198     -6.5772231      5.951815       50218.233      36.893836      36.893836      36.893836    
    149000   0.63277967    -7.5315577     -6.5824017      5.9273837      50218.233      36.893836      36.893836      36.893836    
    150000   0.62950539    -7.5329808     -6.5887362      5.9023432      50218.233      36.893836      36.893836      36.893836    
    151000   0.6276453     -7.5273387     -6.5858841      5.9388081      50218.233      36.893836      36.893836      36.893836    
    152000   0.62808498    -7.529164      -6.5870499      5.9461809      50218.233      36.893836      36.893836      36.893836    
    153000   0.62940705    -7.5336091     -6.589512       5.9117297      50218.233      36.893836      36.893836      36.893836    
    154000   0.62972326    -7.5323066     -6.5877352      5.9158053      50218.233      36.893836      36.893836      36.893836    
    155000   0.62936532    -7.5293588     -6.5853242      5.9443652      50218.233      36.893836      36.893836      36.893836    
    156000   0.63258774    -7.5304277     -6.5815596      5.9314957      50218.233      36.893836      36.893836      36.893836    
    157000   0.63150093    -7.5354837     -6.5882458      5.8882898      50218.233      36.893836      36.893836      36.893836    
    158000   0.6297356     -7.5316212     -6.5870312      5.9225107      50218.233      36.893836      36.893836      36.893836    
    159000   0.62949952    -7.5298012     -6.5855654      5.9289183      50218.233      36.893836      36.893836      36.893836    
    160000   0.62755821    -7.5375346     -6.5962107      5.8859255      50218.233      36.893836      36.893836      36.893836    
    161000   0.6299289     -7.5334944     -6.5886144      5.9065006      50218.233      36.893836      36.893836      36.893836    
    162000   0.62991889    -7.5270114     -6.5821465      5.9540544      50218.233      36.893836      36.893836      36.893836    
    163000   0.62494615    -7.5310815     -6.5936756      5.9096445      50218.233      36.893836      36.893836      36.893836    
    164000   0.62785611    -7.53126       -6.5894893      5.9303225      50218.233      36.893836      36.893836      36.893836    
    165000   0.63017208    -7.5325821     -6.5873375      5.9217025      50218.233      36.893836      36.893836      36.893836    
    166000   0.63176883    -7.5340702     -6.5864305      5.9046497      50218.233      36.893836      36.893836      36.893836    
    167000   0.63078452    -7.5265359     -6.5803726      5.9570053      50218.233      36.893836      36.893836      36.893836    
    168000   0.63119961    -7.530589      -6.5838031      5.925154       50218.233      36.893836      36.893836      36.893836    
    169000   0.63193038    -7.5315335     -6.5836514      5.9208873      50218.233      36.893836      36.893836      36.893836    
    170000   0.63157277    -7.5338383     -6.5864927      5.9161595      50218.233      36.893836      36.893836      36.893836    
    171000   0.63012106    -7.5327015     -6.5875334      5.9196837      50218.233      36.893836      36.893836      36.893836    
    172000   0.63025487    -7.5289561     -6.5835872      5.9358374      50218.233      36.893836      36.893836      36.893836    
    173000   0.63190851    -7.5306761     -6.5828268      5.9319272      50218.233      36.893836      36.893836      36.893836    
    174000   0.62996879    -7.534278      -6.5893382      5.8955035      50218.233      36.893836      36.893836      36.893836    
    175000   0.62483803    -7.5330836     -6.5958399      5.9031779      50218.233      36.893836      36.893836      36.893836    
    176000   0.62611886    -7.5303841     -6.5912192      5.915307       50218.233      36.893836      36.893836      36.893836    
    177000   0.62916828    -7.5322584     -6.5885194      5.9098519      50218.233      36.893836      36.893836      36.893836    
    178000   0.63084626    -7.5297513     -6.5834954      5.9545994      50218.233      36.893836      36.893836      36.893836    
    179000   0.63052655    -7.5259612     -6.5801848      5.9621215      50218.233      36.893836      36.893836      36.893836    
    180000   0.63265829    -7.5307561     -6.5817822      5.9389021      50218.233      36.893836      36.893836      36.893836    
    181000   0.63231559    -7.5306819     -6.582222       5.9399872      50218.233      36.893836      36.893836      36.893836    
    182000   0.63029775    -7.5307234     -6.5852902      5.9348704      50218.233      36.893836      36.893836      36.893836    
    183000   0.63135641    -7.5295809     -6.5825597      5.9341447      50218.233      36.893836      36.893836      36.893836    
    184000   0.63021474    -7.5275123     -6.5822036      5.9431705      50218.233      36.893836      36.893836      36.893836    
    185000   0.63023351    -7.5325374     -6.5872005      5.9120255      50218.233      36.893836      36.893836      36.893836    
    186000   0.62958825    -7.5339644     -6.5895954      5.9002803      50218.233      36.893836      36.893836      36.893836    
    187000   0.62803437    -7.530243      -6.5882049      5.9327189      50218.233      36.893836      36.893836      36.893836    
    188000   0.63071656    -7.5288194     -6.582758       5.9439244      50218.233      36.893836      36.893836      36.893836    
    189000   0.63165292    -7.5328793     -6.5854134      5.9231734      50218.233      36.893836      36.893836      36.893836    
    190000   0.62640893    -7.5338895     -6.5942895      5.9084956      50218.233      36.893836      36.893836      36.893836    
    191000   0.6317518     -7.5286977     -6.5810835      5.9434249      50218.233      36.893836      36.893836      36.893836    
    192000   0.63265584    -7.5280623     -6.579092       5.9458913      50218.233      36.893836      36.893836      36.893836    
    193000   0.62946832    -7.5336085     -6.5894195      5.9010126      50218.233      36.893836      36.893836      36.893836    
    194000   0.62696846    -7.5260506     -6.5856112      5.9647857      50218.233      36.893836      36.893836      36.893836    
    195000   0.62904632    -7.5299911     -6.586435       5.9427988      50218.233      36.893836      36.893836      36.893836    
    196000   0.62576597    -7.5326392     -6.5940036      5.8974922      50218.233      36.893836      36.893836      36.893836    
    197000   0.62995539    -7.5331536     -6.588234       5.9235262      50218.233      36.893836      36.893836      36.893836    
    198000   0.62901242    -7.5271989     -6.5836937      5.9414036      50218.233      36.893836      36.893836      36.893836    
    199000   0.6304996     -7.5333961     -6.5876601      5.909534       50218.233      36.893836      36.893836      36.893836    
    200000   0.62857602    -7.5314618     -6.5886112      5.921293       50218.233      36.893836      36.893836      36.893836    
    201000   0.63088894    -7.5277978     -6.5814778      5.9575825      50218.233      36.893836      36.893836      36.893836    
    202000   0.63315567    -7.5262922     -6.5765722      5.9679447      50218.233      36.893836      36.893836      36.893836    
    203000   0.62708571    -7.5328755     -6.5922603      5.9031016      50218.233      36.893836      36.893836      36.893836    
    204000   0.63018836    -7.5275446     -6.5822755      5.9556968      50218.233      36.893836      36.893836      36.893836    
    205000   0.63218045    -7.5271104     -6.5788532      5.9617608      50218.233      36.893836      36.893836      36.893836    
    206000   0.63241756    -7.5314314     -6.5828186      5.9229463      50218.233      36.893836      36.893836      36.893836    
    207000   0.6294493     -7.5314465     -6.587286       5.9255636      50218.233      36.893836      36.893836      36.893836    
    208000   0.62535802    -7.52939       -6.5913664      5.9331137      50218.233      36.893836      36.893836      36.893836    
    209000   0.62997138    -7.5283599     -6.5834163      5.9326533      50218.233      36.893836      36.893836      36.893836    
    210000   0.62998781    -7.5278663     -6.5828981      5.9449619      50218.233      36.893836      36.893836      36.893836    
    211000   0.63302001    -7.5304128     -6.5808962      5.9401445      50218.233      36.893836      36.893836      36.893836    
    212000   0.63362664    -7.5316293     -6.5812029      5.9210796      50218.233      36.893836      36.893836      36.893836    
    213000   0.6265625     -7.5247729     -6.5849425      5.9683288      50218.233      36.893836      36.893836      36.893836    
    214000   0.63217021    -7.5281947     -6.5799529      5.9616606      50218.233      36.893836      36.893836      36.893836    
    215000   0.62951179    -7.5290261     -6.5847719      5.9458411      50218.233      36.893836      36.893836      36.893836    
    216000   0.62859163    -7.5300827     -6.5872086      5.9382201      50218.233      36.893836      36.893836      36.893836    
    217000   0.62790233    -7.532637      -6.5907969      5.9043826      50218.233      36.893836      36.893836      36.893836    
    218000   0.62986935    -7.5402387     -6.5954482      5.8514891      50218.233      36.893836      36.893836      36.893836    
    219000   0.62822714    -7.5318885     -6.5895612      5.9118427      50218.233      36.893836      36.893836      36.893836    
    220000   0.63057612    -7.5307898     -6.5849391      5.931058       50218.233      36.893836      36.893836      36.893836    
    221000   0.62943347    -7.5300082     -6.5858715      5.936778       50218.233      36.893836      36.893836      36.893836    
    222000   0.63286074    -7.5351518     -6.5858742      5.8900755      50218.233      36.893836      36.893836      36.893836    
    223000   0.62948176    -7.5324231     -6.5882139      5.9123175      50218.233      36.893836      36.893836      36.893836    
    224000   0.63043721    -7.5292953     -6.5836529      5.9476778      50218.233      36.893836      36.893836      36.893836    
    225000   0.62959972    -7.5312615     -6.5868754      5.9211711      50218.233      36.893836      36.893836      36.893836    
    226000   0.62748309    -7.5347488     -6.5935376      5.8836084      50218.233      36.893836      36.893836      36.893836    
    227000   0.6297386     -7.5272861     -6.5826916      5.9508732      50218.233      36.893836      36.893836      36.893836    
    228000   0.62741126    -7.5289859     -6.5878824      5.9338391      50218.233      36.893836      36.893836      36.893836    
    229000   0.63005728    -7.5283472     -6.5832747      5.9484686      50218.233      36.893836      36.893836      36.893836    
    230000   0.62885583    -7.5281414     -6.5848711      5.9456156      50218.233      36.893836      36.893836      36.893836    
    231000   0.63184931    -7.5260067     -6.5782462      5.9689879      50218.233      36.893836      36.893836      36.893836    
    232000   0.6290252     -7.5291377     -6.5856133      5.9410279      50218.233      36.893836      36.893836      36.893836    
    233000   0.63084939    -7.5349761     -6.5887155      5.9023348      50218.233      36.893836      36.893836      36.893836    
    234000   0.62871509    -7.5283299     -6.5852707      5.9442378      50218.233      36.893836      36.893836      36.893836    
    235000   0.63266508    -7.5279614     -6.5789772      5.9601243      50218.233      36.893836      36.893836      36.893836    
    236000   0.62655892    -7.5274055     -6.5875805      5.9459059      50218.233      36.893836      36.893836      36.893836    
    237000   0.63164485    -7.5331051     -6.5856513      5.9174384      50218.233      36.893836      36.893836      36.893836    
    238000   0.62704663    -7.5291619     -6.5886053      5.9441686      50218.233      36.893836      36.893836      36.893836    
    239000   0.62887669    -7.5366399     -6.5933382      5.8795344      50218.233      36.893836      36.893836      36.893836    
    240000   0.63035602    -7.5339003     -6.5883797      5.9042397      50218.233      36.893836      36.893836      36.893836    
    241000   0.63044646    -7.5331903     -6.5875341      5.9161611      50218.233      36.893836      36.893836      36.893836    
    242000   0.63164482    -7.52603       -6.5785762      5.9759346      50218.233      36.893836      36.893836      36.893836    
    243000   0.63056281    -7.5261089     -6.5802781      5.9735496      50218.233      36.893836      36.893836      36.893836    
    244000   0.6293737     -7.5313625     -6.5873154      5.9273571      50218.233      36.893836      36.893836      36.893836    
    245000   0.62959919    -7.5326189     -6.5882336      5.9130783      50218.233      36.893836      36.893836      36.893836    
    246000   0.630269      -7.5289394     -6.5835493      5.9332506      50218.233      36.893836      36.893836      36.893836    
    247000   0.62873661    -7.5348949     -6.5918034      5.8920247      50218.233      36.893836      36.893836      36.893836    
    248000   0.62940215    -7.5285266     -6.5844368      5.9457177      50218.233      36.893836      36.893836      36.893836    
    249000   0.63151676    -7.5304519     -6.5831902      5.9361953      50218.233      36.893836      36.893836      36.893836    
    250000   0.62925081    -7.5359337     -6.592071       5.879948       50218.233      36.893836      36.893836      36.893836    
    251000   0.62965585    -7.5336274     -6.5891571      5.8940184      50218.233      36.893836      36.893836      36.893836    
    252000   0.63331066    -7.5308626     -6.5809102      5.9318367      50218.233      36.893836      36.893836      36.893836    
    253000   0.63223869    -7.5336241     -6.5852796      5.9021186      50218.233      36.893836      36.893836      36.893836    
    254000   0.62823982    -7.5384042     -6.5960579      5.8752261      50218.233      36.893836      36.893836      36.893836    
    255000   0.62982419    -7.5322254     -6.5875025      5.9209763      50218.233      36.893836      36.893836      36.893836    
    256000   0.63401818    -7.5382796     -6.5872658      5.876069       50218.233      36.893836      36.893836      36.893836    
    257000   0.62851207    -7.5363086     -6.5935539      5.8908219      50218.233      36.893836      36.893836      36.893836    
    258000   0.63169498    -7.5344727     -6.5869438      5.9016686      50218.233      36.893836      36.893836      36.893836    
    259000   0.62530825    -7.535477      -6.597528       5.8862396      50218.233      36.893836      36.893836      36.893836    
    260000   0.62841828    -7.5368865     -6.5942725      5.8848768      50218.233      36.893836      36.893836      36.893836    
    261000   0.63213797    -7.5322984     -6.5841049      5.9241493      50218.233      36.893836      36.893836      36.893836    
    262000   0.63000913    -7.5298504     -6.5848502      5.934403       50218.233      36.893836      36.893836      36.893836    
    263000   0.63131871    -7.5322258     -6.5852612      5.9128133      50218.233      36.893836      36.893836      36.893836    
    264000   0.62974819    -7.5309529     -6.586344       5.9258796      50218.233      36.893836      36.893836      36.893836    
    265000   0.63079548    -7.5330182     -6.5868384      5.9123094      50218.233      36.893836      36.893836      36.893836    
    266000   0.63164869    -7.5273887     -6.5799291      5.9509291      50218.233      36.893836      36.893836      36.893836    
    267000   0.62972235    -7.5301609     -6.5855908      5.9311994      50218.233      36.893836      36.893836      36.893836    
    268000   0.62910344    -7.5275052     -6.5838635      5.9483788      50218.233      36.893836      36.893836      36.893836    
    269000   0.62814512    -7.5293108     -6.5871066      5.9370253      50218.233      36.893836      36.893836      36.893836    
    270000   0.63037359    -7.5256894     -6.5801425      5.9577317      50218.233      36.893836      36.893836      36.893836    
    271000   0.63231405    -7.5285004     -6.5800429      5.9426761      50218.233      36.893836      36.893836      36.893836    
    272000   0.63230971    -7.5284624     -6.5800114      5.9556859      50218.233      36.893836      36.893836      36.893836    
    273000   0.62814037    -7.5247729     -6.5825757      5.9768343      50218.233      36.893836      36.893836      36.893836    
    274000   0.63036137    -7.5274465     -6.5819179      5.9572795      50218.233      36.893836      36.893836      36.893836    
    275000   0.62957954    -7.5321627     -6.5878069      5.9233852      50218.233      36.893836      36.893836      36.893836    
    276000   0.6293269     -7.5295432     -6.5855663      5.94251        50218.233      36.893836      36.893836      36.893836    
    277000   0.6276246     -7.5269469     -6.5855234      5.9511387      50218.233      36.893836      36.893836      36.893836    
    278000   0.62901625    -7.5309626     -6.5874517      5.9184044      50218.233      36.893836      36.893836      36.893836    
    279000   0.63042143    -7.5289825     -6.5833638      5.9422066      50218.233      36.893836      36.893836      36.893836    
    280000   0.63415151    -7.5360744     -6.5848607      5.8977555      50218.233      36.893836      36.893836      36.893836    
    281000   0.63230219    -7.5332146     -6.5847748      5.9305768      50218.233      36.893836      36.893836      36.893836    
    282000   0.6286089     -7.5347465     -6.5918466      5.8808392      50218.233      36.893836      36.893836      36.893836    
    283000   0.63096689    -7.5279539     -6.581517       5.9399112      50218.233      36.893836      36.893836      36.893836    
    284000   0.62967651    -7.53159       -6.5870886      5.9102684      50218.233      36.893836      36.893836      36.893836    
    285000   0.63274298    -7.5301435     -6.5810426      5.9403383      50218.233      36.893836      36.893836      36.893836    
    286000   0.62818093    -7.528259      -6.586001       5.9445625      50218.233      36.893836      36.893836      36.893836    
    287000   0.63058814    -7.5337913     -6.5879226      5.9094504      50218.233      36.893836      36.893836      36.893836    
    288000   0.62701737    -7.5311285     -6.5906158      5.9268047      50218.233      36.893836      36.893836      36.893836    
    289000   0.62938994    -7.5310091     -6.5869376      5.9291596      50218.233      36.893836      36.893836      36.893836    
    290000   0.62878127    -7.5365205     -6.593362       5.8875422      50218.233      36.893836      36.893836      36.893836    
    291000   0.62887185    -7.53621       -6.5929157      5.8897273      50218.233      36.893836      36.893836      36.893836    
    292000   0.63062187    -7.529673      -6.5837536      5.9338658      50218.233      36.893836      36.893836      36.893836    
    293000   0.62938854    -7.5328418     -6.5887724      5.9070921      50218.233      36.893836      36.893836      36.893836    
    294000   0.62816626    -7.5317066     -6.5894706      5.9278472      50218.233      36.893836      36.893836      36.893836    
    295000   0.62928514    -7.5360371     -6.5921228      5.8943655      50218.233      36.893836      36.893836      36.893836    
    296000   0.63513851    -7.5343955     -6.5817013      5.8897055      50218.233      36.893836      36.893836      36.893836    
    297000   0.62675892    -7.5361382     -6.5960132      5.8822369      50218.233      36.893836      36.893836      36.893836    
    298000   0.63083594    -7.5339886     -6.5877481      5.9052893      50218.233      36.893836      36.893836      36.893836    
    299000   0.63253838    -7.5370986     -6.5883045      5.8964         50218.233      36.893836      36.893836      36.893836    
    300000   0.63089063    -7.5296077     -6.5832852      5.9339539      50218.233      36.893836      36.893836      36.893836    
    301000   0.6307719     -7.5320508     -6.5859064      5.92438        50218.233      36.893836      36.893836      36.893836    
    302000   0.62964922    -7.532586      -6.5881256      5.9248464      50218.233      36.893836      36.893836      36.893836    
    303000   0.63380625    -7.5309226     -6.5802267      5.9274684      50218.233      36.893836      36.893836      36.893836    
    304000   0.63144926    -7.5335447     -6.5863843      5.9043877      50218.233      36.893836      36.893836      36.893836    
    305000   0.62863125    -7.5349907     -6.5920573      5.8989342      50218.233      36.893836      36.893836      36.893836    
    306000   0.62912895    -7.5294688     -6.5857888      5.9405873      50218.233      36.893836      36.893836      36.893836    
    307000   0.63325706    -7.5297211     -6.579849       5.9565369      50218.233      36.893836      36.893836      36.893836    
    308000   0.62968345    -7.5317724     -6.5872606      5.9283727      50218.233      36.893836      36.893836      36.893836    
    309000   0.62580198    -7.5343913     -6.5957017      5.9110243      50218.233      36.893836      36.893836      36.893836    
    310000   0.62459841    -7.5322235     -6.5953392      5.910377       50218.233      36.893836      36.893836      36.893836    
    311000   0.62880716    -7.5321179     -6.5889206      5.9151195      50218.233      36.893836      36.893836      36.893836    
    312000   0.63039941    -7.5308501     -6.5852644      5.9209651      50218.233      36.893836      36.893836      36.893836    
    313000   0.62565077    -7.5319198     -6.593457       5.9243833      50218.233      36.893836      36.893836      36.893836    
    314000   0.62630585    -7.5319119     -6.5924664      5.9227206      50218.233      36.893836      36.893836      36.893836    
    315000   0.62850971    -7.5325405     -6.5897894      5.9290906      50218.233      36.893836      36.893836      36.893836    
    316000   0.62904704    -7.5350282     -6.5914711      5.8926131      50218.233      36.893836      36.893836      36.893836    
    317000   0.62702466    -7.534163      -6.5936394      5.8984651      50218.233      36.893836      36.893836      36.893836    
    318000   0.63147265    -7.5300431     -6.5828476      5.9360364      50218.233      36.893836      36.893836      36.893836    
    319000   0.63009655    -7.538097      -6.5929656      5.8623848      50218.233      36.893836      36.893836      36.893836    
    320000   0.6284819     -7.5318073     -6.5890978      5.9200472      50218.233      36.893836      36.893836      36.893836    
    321000   0.62798404    -7.5345778     -6.5926151      5.901334       50218.233      36.893836      36.893836      36.893836    
    322000   0.63042036    -7.5285229     -6.5829059      5.9498006      50218.233      36.893836      36.893836      36.893836    
    323000   0.63092535    -7.5306187     -6.5842441      5.9279118      50218.233      36.893836      36.893836      36.893836    
    324000   0.63073103    -7.5342183     -6.5881352      5.9059983      50218.233      36.893836      36.893836      36.893836    
    325000   0.63157245    -7.5346814     -6.5873362      5.9011293      50218.233      36.893836      36.893836      36.893836    
    326000   0.62831733    -7.5358426     -6.59338        5.89435        50218.233      36.893836      36.893836      36.893836    
    327000   0.63015245    -7.5300366     -6.5848213      5.9340676      50218.233      36.893836      36.893836      36.893836    
    328000   0.62980044    -7.5352242     -6.590537       5.8940981      50218.233      36.893836      36.893836      36.893836    
    329000   0.63097808    -7.53235       -6.5858963      5.9174339      50218.233      36.893836      36.893836      36.893836    
    330000   0.62884322    -7.5299377     -6.5866863      5.9416526      50218.233      36.893836      36.893836      36.893836    
    331000   0.63257892    -7.5275822     -6.5787274      5.9639451      50218.233      36.893836      36.893836      36.893836    
    332000   0.63040686    -7.5303159     -6.5847191      5.9305487      50218.233      36.893836      36.893836      36.893836    
    333000   0.63184086    -7.5310794     -6.5833316      5.9241934      50218.233      36.893836      36.893836      36.893836    
    334000   0.63267301    -7.5385133     -6.5895173      5.8827992      50218.233      36.893836      36.893836      36.893836    
    335000   0.62944857    -7.5314015     -6.5872421      5.9139297      50218.233      36.893836      36.893836      36.893836    
    336000   0.62935163    -7.5355033     -6.5914893      5.8940383      50218.233      36.893836      36.893836      36.893836    
    337000   0.62687295    -7.5370258     -6.5967298      5.8792156      50218.233      36.893836      36.893836      36.893836    
    338000   0.62828973    -7.531881      -6.5894598      5.9212826      50218.233      36.893836      36.893836      36.893836    
    339000   0.63062392    -7.526972      -6.5810496      5.9558762      50218.233      36.893836      36.893836      36.893836    
    340000   0.63015484    -7.5332809     -6.588062       5.913786       50218.233      36.893836      36.893836      36.893836    
    341000   0.6287128     -7.5385479     -6.5954921      5.8658654      50218.233      36.893836      36.893836      36.893836    
    342000   0.63074108    -7.5308998     -6.5848017      5.92525        50218.233      36.893836      36.893836      36.893836    
    343000   0.63277458    -7.5299931     -6.5808448      5.9307636      50218.233      36.893836      36.893836      36.893836    
    344000   0.63218724    -7.5277081     -6.5794407      5.9560804      50218.233      36.893836      36.893836      36.893836    
    345000   0.63104243    -7.5282228     -6.5816726      5.9519507      50218.233      36.893836      36.893836      36.893836    
    346000   0.6308158     -7.5343999     -6.5881897      5.8938547      50218.233      36.893836      36.893836      36.893836    
    347000   0.6336305     -7.5269295     -6.5764973      5.9690192      50218.233      36.893836      36.893836      36.893836    
    348000   0.63149939    -7.5324671     -6.5852314      5.9172618      50218.233      36.893836      36.893836      36.893836    
    349000   0.63273489    -7.5348902     -6.5858013      5.9115995      50218.233      36.893836      36.893836      36.893836    
    350000   0.62742765    -7.5316651     -6.590537       5.9067686      50218.233      36.893836      36.893836      36.893836    
    351000   0.6300708     -7.5262704     -6.5811776      5.9809691      50218.233      36.893836      36.893836      36.893836    
    352000   0.63029463    -7.5327773     -6.5873488      5.9141834      50218.233      36.893836      36.893836      36.893836    
    353000   0.6317008     -7.5319927     -6.584455       5.9274761      50218.233      36.893836      36.893836      36.893836    
    354000   0.63084218    -7.5348731     -6.5886233      5.8904649      50218.233      36.893836      36.893836      36.893836    
    355000   0.63058613    -7.5364008     -6.590535       5.8938857      50218.233      36.893836      36.893836      36.893836    
    356000   0.63319828    -7.5307306     -6.5809467      5.920995       50218.233      36.893836      36.893836      36.893836    
    357000   0.63006919    -7.5357264     -6.590636       5.8910573      50218.233      36.893836      36.893836      36.893836    
    358000   0.62912882    -7.5328054     -6.5891256      5.9182865      50218.233      36.893836      36.893836      36.893836    
    359000   0.62881744    -7.5355409     -6.5923281      5.8945922      50218.233      36.893836      36.893836      36.893836    
    360000   0.63086692    -7.535028      -6.5887411      5.8991775      50218.233      36.893836      36.893836      36.893836    
    361000   0.6310061     -7.5294431     -6.5829474      5.9379999      50218.233      36.893836      36.893836      36.893836    
    362000   0.62972541    -7.5338469     -6.5892722      5.9083469      50218.233      36.893836      36.893836      36.893836    
    363000   0.63158806    -7.5342019     -6.5868333      5.9185659      50218.233      36.893836      36.893836      36.893836    
    364000   0.63475455    -7.5347452     -6.5826269      5.9063131      50218.233      36.893836      36.893836      36.893836    
    365000   0.63055338    -7.5362275     -6.5904109      5.8851234      50218.233      36.893836      36.893836      36.893836    
    366000   0.6279669     -7.5321792     -6.5902422      5.9142249      50218.233      36.893836      36.893836      36.893836    
    367000   0.63215042    -7.532449      -6.5842368      5.9151069      50218.233      36.893836      36.893836      36.893836    
    368000   0.63062272    -7.534009      -6.5880884      5.9012246      50218.233      36.893836      36.893836      36.893836    
    369000   0.62912723    -7.533209      -6.5895316      5.9113718      50218.233      36.893836      36.893836      36.893836    
    370000   0.63004987    -7.5366488     -6.5915875      5.8749078      50218.233      36.893836      36.893836      36.893836    
    371000   0.62616979    -7.5309344     -6.5916931      5.9320316      50218.233      36.893836      36.893836      36.893836    
    372000   0.62680465    -7.5361879     -6.5959943      5.8913196      50218.233      36.893836      36.893836      36.893836    
    373000   0.6262349     -7.5327522     -6.5934132      5.9165487      50218.233      36.893836      36.893836      36.893836    
    374000   0.6314201     -7.5306557     -6.583539       5.9207317      50218.233      36.893836      36.893836      36.893836    
    375000   0.63059645    -7.5348759     -6.5889947      5.9113968      50218.233      36.893836      36.893836      36.893836    
    376000   0.63075571    -7.5317146     -6.5855945      5.9318419      50218.233      36.893836      36.893836      36.893836    
    377000   0.63089651    -7.5337239     -6.5873926      5.9000074      50218.233      36.893836      36.893836      36.893836    
    378000   0.62847918    -7.5380518     -6.5953465      5.8717873      50218.233      36.893836      36.893836      36.893836    
    379000   0.62924625    -7.5325747     -6.5887187      5.923628       50218.233      36.893836      36.893836      36.893836    
    380000   0.62940989    -7.5344069     -6.5903055      5.8905837      50218.233      36.893836      36.893836      36.893836    
    381000   0.62928094    -7.5305342     -6.5866262      5.9180476      50218.233      36.893836      36.893836      36.893836    
    382000   0.63335002    -7.5307952     -6.5807837      5.9316815      50218.233      36.893836      36.893836      36.893836    
    383000   0.63006498    -7.5303098     -6.5852257      5.9348636      50218.233      36.893836      36.893836      36.893836    
    384000   0.62819044    -7.5307451     -6.5884728      5.9358362      50218.233      36.893836      36.893836      36.893836    
    385000   0.62903975    -7.5295818     -6.5860356      5.9339515      50218.233      36.893836      36.893836      36.893836    
    386000   0.63177193    -7.5314573     -6.5838129      5.9206222      50218.233      36.893836      36.893836      36.893836    
    387000   0.62782689    -7.5283828     -6.5866558      5.9420116      50218.233      36.893836      36.893836      36.893836    
    388000   0.62984965    -7.5284516     -6.5836905      5.9610926      50218.233      36.893836      36.893836      36.893836    
    389000   0.63117647    -7.5308535     -6.5841023      5.9297415      50218.233      36.893836      36.893836      36.893836    
    390000   0.63158453    -7.5304772     -6.5831139      5.9345992      50218.233      36.893836      36.893836      36.893836    
    391000   0.63147044    -7.5245095     -6.5773174      5.9820577      50218.233      36.893836      36.893836      36.893836    
    392000   0.62977936    -7.5249174     -6.5802618      5.979595       50218.233      36.893836      36.893836      36.893836    
    393000   0.63416495    -7.5277094     -6.5764755      5.9581015      50218.233      36.893836      36.893836      36.893836    
    394000   0.62829664    -7.5294016     -6.58697        5.9341242      50218.233      36.893836      36.893836      36.893836    
    395000   0.6342905     -7.5329839     -6.5815617      5.9226479      50218.233      36.893836      36.893836      36.893836    
    396000   0.62987073    -7.5283368     -6.5835442      5.9583401      50218.233      36.893836      36.893836      36.893836    
    397000   0.6301572     -7.529807      -6.5845846      5.9402735      50218.233      36.893836      36.893836      36.893836    
    398000   0.63039293    -7.5282589     -6.5826829      5.9402203      50218.233      36.893836      36.893836      36.893836    
    399000   0.63125006    -7.5275621     -6.5807005      5.950872       50218.233      36.893836      36.893836      36.893836    
    400000   0.63138944    -7.5310058     -6.5839351      5.9287343      50218.233      36.893836      36.893836      36.893836    
    401000   0.63224877    -7.5264392     -6.5780795      5.9686963      50218.233      36.893836      36.893836      36.893836    
    402000   0.63075301    -7.5228768     -6.5767608      5.9778325      50218.233      36.893836      36.893836      36.893836    
    403000   0.631121      -7.5284281     -6.5817601      5.9453489      50218.233      36.893836      36.893836      36.893836    
    404000   0.63341642    -7.5270426     -6.5769315      5.9644141      50218.233      36.893836      36.893836      36.893836    
    405000   0.63068502    -7.5314906     -6.5854765      5.9275042      50218.233      36.893836      36.893836      36.893836    
    406000   0.62890009    -7.528489      -6.5851523      5.9409402      50218.233      36.893836      36.893836      36.893836    
    407000   0.63318095    -7.5251768     -6.5754189      5.9760475      50218.233      36.893836      36.893836      36.893836    
    408000   0.62646544    -7.5264857     -6.5868009      5.9550728      50218.233      36.893836      36.893836      36.893836    
    409000   0.63110209    -7.5256891     -6.5790494      5.9686817      50218.233      36.893836      36.893836      36.893836    
    410000   0.62980511    -7.5300594     -6.5853652      5.9362265      50218.233      36.893836      36.893836      36.893836    
    411000   0.62937425    -7.5353595     -6.5913115      5.9020693      50218.233      36.893836      36.893836      36.893836    
    412000   0.63196384    -7.5333571     -6.5854248      5.9159962      50218.233      36.893836      36.893836      36.893836    
    413000   0.63142621    -7.5327502     -6.5856243      5.9111767      50218.233      36.893836      36.893836      36.893836    
    414000   0.6319216     -7.5293687     -6.5814997      5.9405724      50218.233      36.893836      36.893836      36.893836    
    415000   0.62818336    -7.5261242     -6.5838626      5.9584187      50218.233      36.893836      36.893836      36.893836    
    416000   0.63149819    -7.5350585     -6.5878246      5.8868825      50218.233      36.893836      36.893836      36.893836    
    417000   0.62841261    -7.5357554     -6.5931499      5.8899963      50218.233      36.893836      36.893836      36.893836    
    418000   0.63516474    -7.5360265     -6.5832929      5.906966       50218.233      36.893836      36.893836      36.893836    
    419000   0.62910518    -7.5300285     -6.5863842      5.9184898      50218.233      36.893836      36.893836      36.893836    
    420000   0.63120908    -7.5316659     -6.5848658      5.9141239      50218.233      36.893836      36.893836      36.893836    
    421000   0.63192664    -7.5305758     -6.5826993      5.9276406      50218.233      36.893836      36.893836      36.893836    
    422000   0.62807128    -7.5350814     -6.5929879      5.8863472      50218.233      36.893836      36.893836      36.893836    
    423000   0.62965331    -7.5305327     -6.5860662      5.9384286      50218.233      36.893836      36.893836      36.893836    
    424000   0.63219811    -7.5331194     -6.5848357      5.9150652      50218.233      36.893836      36.893836      36.893836    
    425000   0.62973067    -7.5303533     -6.5857708      5.9310622      50218.233      36.893836      36.893836      36.893836    
    426000   0.62923253    -7.5302674     -6.586432       5.9413256      50218.233      36.893836      36.893836      36.893836    
    427000   0.63033502    -7.5335508     -6.5880617      5.9089656      50218.233      36.893836      36.893836      36.893836    
    428000   0.62919592    -7.536303      -6.5925226      5.9009459      50218.233      36.893836      36.893836      36.893836    
    429000   0.6276253     -7.5293139     -6.5878893      5.9352819      50218.233      36.893836      36.893836      36.893836    
    430000   0.6322923     -7.5265422     -6.5781172      5.9584699      50218.233      36.893836      36.893836      36.893836    
    431000   0.63240723    -7.5302623     -6.581665       5.9434464      50218.233      36.893836      36.893836      36.893836    
    432000   0.63063683    -7.5271556     -6.5812138      5.9601241      50218.233      36.893836      36.893836      36.893836    
    433000   0.6274119     -7.5301798     -6.5890754      5.9318885      50218.233      36.893836      36.893836      36.893836    
    434000   0.63197829    -7.5307569     -6.5828029      5.9255628      50218.233      36.893836      36.893836      36.893836    
    435000   0.63042182    -7.5329008     -6.5872815      5.9177373      50218.233      36.893836      36.893836      36.893836    
    436000   0.62919727    -7.5278737     -6.5840912      5.9453872      50218.233      36.893836      36.893836      36.893836    
    437000   0.62662194    -7.5312679     -6.5913484      5.9038892      50218.233      36.893836      36.893836      36.893836    
    438000   0.63189862    -7.528733      -6.5808986      5.9530991      50218.233      36.893836      36.893836      36.893836    
    439000   0.62829741    -7.5306285     -6.5881958      5.9322132      50218.233      36.893836      36.893836      36.893836    
    440000   0.63079977    -7.5305044     -6.5843182      5.9361794      50218.233      36.893836      36.893836      36.893836    
    441000   0.63116356    -7.5277577     -6.5810258      5.9572263      50218.233      36.893836      36.893836      36.893836    
    442000   0.63003124    -7.526198      -6.5811645      5.9514622      50218.233      36.893836      36.893836      36.893836    
    443000   0.63339496    -7.5272071     -6.5771282      5.9541026      50218.233      36.893836      36.893836      36.893836    
    444000   0.63006814    -7.5305756     -6.5854869      5.9376176      50218.233      36.893836      36.893836      36.893836    
    445000   0.63182594    -7.527531      -6.5798056      5.9601064      50218.233      36.893836      36.893836      36.893836    
    446000   0.6279283     -7.5292357     -6.5873566      5.9302302      50218.233      36.893836      36.893836      36.893836    
    447000   0.63101072    -7.5312879     -6.5847853      5.9360391      50218.233      36.893836      36.893836      36.893836    
    448000   0.62794397    -7.536135      -6.5942324      5.8863569      50218.233      36.893836      36.893836      36.893836    
    449000   0.62974027    -7.5365959     -6.5919989      5.8848283      50218.233      36.893836      36.893836      36.893836    
    450000   0.63019516    -7.5325503     -6.587271       5.9210461      50218.233      36.893836      36.893836      36.893836    
    451000   0.62744419    -7.5309534     -6.5898005      5.9337791      50218.233      36.893836      36.893836      36.893836    
    452000   0.63224153    -7.5323108     -6.583962       5.9327628      50218.233      36.893836      36.893836      36.893836    
    453000   0.63142273    -7.5266712     -6.5795506      5.956505       50218.233      36.893836      36.893836      36.893836    
    454000   0.63194768    -7.5341041     -6.5861961      5.9007372      50218.233      36.893836      36.893836      36.893836    
    455000   0.63038475    -7.5288806     -6.583317       5.9485179      50218.233      36.893836      36.893836      36.893836    
    456000   0.63296175    -7.5321811     -6.582752       5.9162074      50218.233      36.893836      36.893836      36.893836    
    457000   0.62960769    -7.5306139     -6.5862159      5.9319494      50218.233      36.893836      36.893836      36.893836    
    458000   0.6332658     -7.5315978     -6.5817126      5.9219234      50218.233      36.893836      36.893836      36.893836    
    459000   0.62946246    -7.5299769     -6.5857966      5.9367873      50218.233      36.893836      36.893836      36.893836    
    460000   0.63288399    -7.5344207     -6.5851082      5.8994856      50218.233      36.893836      36.893836      36.893836    
    461000   0.63315718    -7.5331192     -6.5833969      5.9077785      50218.233      36.893836      36.893836      36.893836    
    462000   0.62817168    -7.5310758     -6.5888317      5.9275097      50218.233      36.893836      36.893836      36.893836    
    463000   0.62930652    -7.5351359     -6.5911896      5.8948625      50218.233      36.893836      36.893836      36.893836    
    464000   0.62877174    -7.532449      -6.5893048      5.9169713      50218.233      36.893836      36.893836      36.893836    
    465000   0.62908796    -7.5281347     -6.5845161      5.9485884      50218.233      36.893836      36.893836      36.893836    
    466000   0.62855251    -7.5280038     -6.5851884      5.9543521      50218.233      36.893836      36.893836      36.893836    
    467000   0.62651874    -7.532244      -6.5924792      5.9055557      50218.233      36.893836      36.893836      36.893836    
    468000   0.63001778    -7.5318661     -6.5868529      5.9178672      50218.233      36.893836      36.893836      36.893836    
    469000   0.62977684    -7.5250877     -6.5804359      5.967256       50218.233      36.893836      36.893836      36.893836    
    470000   0.63004238    -7.5284558     -6.5834057      5.9422459      50218.233      36.893836      36.893836      36.893836    
    471000   0.62893923    -7.5242652     -6.5808698      5.9936809      50218.233      36.893836      36.893836      36.893836    
    472000   0.62867988    -7.5333271     -6.5903207      5.9220767      50218.233      36.893836      36.893836      36.893836    
    473000   0.63220159    -7.5269283     -6.5786395      5.9764308      50218.233      36.893836      36.893836      36.893836    
    474000   0.62693395    -7.5318011     -6.5914136      5.920455       50218.233      36.893836      36.893836      36.893836    
    475000   0.63033411    -7.5281018     -6.5826141      5.9524002      50218.233      36.893836      36.893836      36.893836    
    476000   0.63364598    -7.5367538     -6.5862983      5.8866354      50218.233      36.893836      36.893836      36.893836    
    477000   0.62770498    -7.5299235     -6.5883794      5.9294469      50218.233      36.893836      36.893836      36.893836    
    478000   0.63057757    -7.532273      -6.5864201      5.9205774      50218.233      36.893836      36.893836      36.893836    
    479000   0.63019014    -7.5265956     -6.5813239      5.9728712      50218.233      36.893836      36.893836      36.893836    
    480000   0.62729614    -7.5318965     -6.5909656      5.9112104      50218.233      36.893836      36.893836      36.893836    
    481000   0.62897642    -7.5312317     -6.5877805      5.9172114      50218.233      36.893836      36.893836      36.893836    
    482000   0.62851505    -7.5361143     -6.5933551      5.90515        50218.233      36.893836      36.893836      36.893836    
    483000   0.62936984    -7.5301378     -6.5860965      5.9336605      50218.233      36.893836      36.893836      36.893836    
    484000   0.6324866     -7.5271138     -6.5783974      5.9616836      50218.233      36.893836      36.893836      36.893836    
    485000   0.62808614    -7.5324954     -6.5903796      5.9128007      50218.233      36.893836      36.893836      36.893836    
    486000   0.63091848    -7.5339644     -6.5876002      5.8966883      50218.233      36.893836      36.893836      36.893836    
    487000   0.62916105    -7.5292486     -6.5855204      5.9342937      50218.233      36.893836      36.893836      36.893836    
    488000   0.63149034    -7.5334683     -6.5862463      5.914348       50218.233      36.893836      36.893836      36.893836    
    489000   0.63156102    -7.5275409     -6.5802128      5.9424707      50218.233      36.893836      36.893836      36.893836    
    490000   0.63141811    -7.5314416     -6.5843279      5.9188407      50218.233      36.893836      36.893836      36.893836    
    491000   0.62791361    -7.5322293     -6.5903723      5.9168972      50218.233      36.893836      36.893836      36.893836    
    492000   0.63226926    -7.5332427     -6.5848523      5.9150619      50218.233      36.893836      36.893836      36.893836    
    493000   0.63029929    -7.5345243     -6.5890888      5.9007733      50218.233      36.893836      36.893836      36.893836    
    494000   0.63169594    -7.5330768     -6.5855464      5.9112686      50218.233      36.893836      36.893836      36.893836    
    495000   0.62690267    -7.5279175     -6.5875769      5.9393215      50218.233      36.893836      36.893836      36.893836    
    496000   0.63105893    -7.5242469     -6.577672       5.9787127      50218.233      36.893836      36.893836      36.893836    
    497000   0.63088761    -7.538703      -6.592385       5.8755177      50218.233      36.893836      36.893836      36.893836    
    498000   0.6268186     -7.5276104     -6.5873959      5.9542595      50218.233      36.893836      36.893836      36.893836    
    499000   0.6292945     -7.5331829     -6.5892545      5.9119234      50218.233      36.893836      36.893836      36.893836    
    500000   0.63232077    -7.5278802     -6.5794125      5.9507417      50218.233      36.893836      36.893836      36.893836    
    501000   0.6313789     -7.531964      -6.5849091      5.9221147      50218.233      36.893836      36.893836      36.893836    
    502000   0.63129127    -7.5303574     -6.583434       5.9322153      50218.233      36.893836      36.893836      36.893836    
    503000   0.63304349    -7.5288831     -6.5793314      5.9490504      50218.233      36.893836      36.893836      36.893836    
    504000   0.63350006    -7.5357782     -6.5855416      5.8960084      50218.233      36.893836      36.893836      36.893836    
    505000   0.63069744    -7.5354232     -6.5893905      5.9080909      50218.233      36.893836      36.893836      36.893836    
    506000   0.62807726    -7.5333444     -6.5912419      5.9095729      50218.233      36.893836      36.893836      36.893836    
    507000   0.62984363    -7.530465      -6.585713       5.92819        50218.233      36.893836      36.893836      36.893836    
    508000   0.62959024    -7.5277209     -6.583349       5.9468003      50218.233      36.893836      36.893836      36.893836    
    509000   0.62752889    -7.5315107     -6.5902308      5.92671        50218.233      36.893836      36.893836      36.893836    
    510000   0.62856634    -7.5284815     -6.5856454      5.9516654      50218.233      36.893836      36.893836      36.893836    
    511000   0.63176085    -7.5285648     -6.580937       5.9544148      50218.233      36.893836      36.893836      36.893836    
    512000   0.62782168    -7.5332586     -6.5915394      5.8840211      50218.233      36.893836      36.893836      36.893836    
    513000   0.62811961    -7.5286543     -6.5864883      5.9335157      50218.233      36.893836      36.893836      36.893836    
    514000   0.63009477    -7.5313737     -6.586245       5.9210882      50218.233      36.893836      36.893836      36.893836    
    515000   0.63165392    -7.5278946     -6.5804272      5.945091       50218.233      36.893836      36.893836      36.893836    
    516000   0.63239972    -7.5352313     -6.5866453      5.8983914      50218.233      36.893836      36.893836      36.893836    
    517000   0.62760636    -7.5368392     -6.5954431      5.8792463      50218.233      36.893836      36.893836      36.893836    
    518000   0.630296      -7.5299752     -6.5845447      5.9279935      50218.233      36.893836      36.893836      36.893836    
    519000   0.63023804    -7.5309076     -6.585564       5.9203776      50218.233      36.893836      36.893836      36.893836    
    520000   0.62823528    -7.5320663     -6.5897268      5.9184485      50218.233      36.893836      36.893836      36.893836    
    521000   0.62745759    -7.5325447     -6.5913717      5.9115673      50218.233      36.893836      36.893836      36.893836    
    522000   0.62719453    -7.5267338     -6.5859553      5.9514694      50218.233      36.893836      36.893836      36.893836    
    523000   0.62360393    -7.5284839     -6.5930913      5.9373165      50218.233      36.893836      36.893836      36.893836    
    524000   0.63047823    -7.5325763     -6.5868724      5.9254493      50218.233      36.893836      36.893836      36.893836    
    525000   0.6284691     -7.5345377     -6.5918475      5.9086973      50218.233      36.893836      36.893836      36.893836    
    526000   0.62957286    -7.5350417     -6.5906958      5.8964106      50218.233      36.893836      36.893836      36.893836    
    527000   0.62921537    -7.532062      -6.5882524      5.918943       50218.233      36.893836      36.893836      36.893836    
    528000   0.62988914    -7.5306808     -6.5858605      5.9324164      50218.233      36.893836      36.893836      36.893836    
    529000   0.63019453    -7.530217      -6.5849387      5.9239493      50218.233      36.893836      36.893836      36.893836    
    530000   0.63165922    -7.5353777     -6.5879023      5.8962945      50218.233      36.893836      36.893836      36.893836    
    531000   0.62874269    -7.5351544     -6.5920538      5.8993352      50218.233      36.893836      36.893836      36.893836    
    532000   0.63213305    -7.5289285     -6.5807424      5.9321694      50218.233      36.893836      36.893836      36.893836    
    533000   0.63050931    -7.5356075     -6.5898569      5.893687       50218.233      36.893836      36.893836      36.893836    
    534000   0.6323696     -7.5361828     -6.5876419      5.8815005      50218.233      36.893836      36.893836      36.893836    
    535000   0.63147521    -7.5364174     -6.589218       5.878928       50218.233      36.893836      36.893836      36.893836    
    536000   0.63120441    -7.5368649     -6.5900718      5.8864922      50218.233      36.893836      36.893836      36.893836    
    537000   0.62935157    -7.5351574     -6.5911435      5.9048192      50218.233      36.893836      36.893836      36.893836    
    538000   0.62956082    -7.5369189     -6.5925911      5.8860273      50218.233      36.893836      36.893836      36.893836    
    539000   0.63168503    -7.5329184     -6.5854044      5.9198067      50218.233      36.893836      36.893836      36.893836    
    540000   0.63164211    -7.5321984     -6.5847487      5.9175609      50218.233      36.893836      36.893836      36.893836    
    541000   0.63148606    -7.5327607     -6.585545       5.9204486      50218.233      36.893836      36.893836      36.893836    
    542000   0.63265513    -7.5278979     -6.5789287      5.9467946      50218.233      36.893836      36.893836      36.893836    
    543000   0.62756815    -7.5329038     -6.5915649      5.913479       50218.233      36.893836      36.893836      36.893836    
    544000   0.63119262    -7.5255336     -6.5787582      5.9785814      50218.233      36.893836      36.893836      36.893836    
    545000   0.62797354    -7.5289335     -6.5869866      5.9370384      50218.233      36.893836      36.893836      36.893836    
    546000   0.62877346    -7.5333346     -6.5901878      5.9119155      50218.233      36.893836      36.893836      36.893836    
    547000   0.62821265    -7.5321857     -6.5898802      5.9219357      50218.233      36.893836      36.893836      36.893836    
    548000   0.63085559    -7.5364388     -6.5901688      5.8932592      50218.233      36.893836      36.893836      36.893836    
    549000   0.63001915    -7.5347096     -6.5896943      5.9085694      50218.233      36.893836      36.893836      36.893836    
    550000   0.63178797    -7.5331684     -6.5854999      5.9147426      50218.233      36.893836      36.893836      36.893836    
    551000   0.63149435    -7.5333321     -6.5861041      5.9174702      50218.233      36.893836      36.893836      36.893836    
    552000   0.63047911    -7.5334734     -6.5877682      5.899798       50218.233      36.893836      36.893836      36.893836    
    553000   0.6329283     -7.5334512     -6.5840722      5.9120516      50218.233      36.893836      36.893836      36.893836    
    554000   0.62792007    -7.5357431     -6.5938764      5.9006473      50218.233      36.893836      36.893836      36.893836    
    555000   0.6294214     -7.5298548     -6.5857361      5.9348848      50218.233      36.893836      36.893836      36.893836    
    556000   0.63058435    -7.5349614     -6.5890984      5.892456       50218.233      36.893836      36.893836      36.893836    
    557000   0.6292721     -7.5304118     -6.5865171      5.9372434      50218.233      36.893836      36.893836      36.893836    
    558000   0.63147977    -7.5351051     -6.5878989      5.8963435      50218.233      36.893836      36.893836      36.893836    
    559000   0.63080198    -7.5341403     -6.5879508      5.9036293      50218.233      36.893836      36.893836      36.893836    
    560000   0.63116455    -7.534848      -6.5881146      5.90991        50218.233      36.893836      36.893836      36.893836    
    561000   0.63199695    -7.5310705     -6.5830886      5.9190827      50218.233      36.893836      36.893836      36.893836    
    562000   0.63057095    -7.5369712     -6.5911282      5.8772194      50218.233      36.893836      36.893836      36.893836    
    563000   0.6279161     -7.5323847     -6.590524       5.9225065      50218.233      36.893836      36.893836      36.893836    
    564000   0.63182595    -7.532198      -6.5844725      5.9301641      50218.233      36.893836      36.893836      36.893836    
    565000   0.63085835    -7.5290493     -6.5827753      5.9458899      50218.233      36.893836      36.893836      36.893836    
    566000   0.63018734    -7.530026      -6.5847584      5.9353173      50218.233      36.893836      36.893836      36.893836    
    567000   0.63119386    -7.5320705     -6.5852932      5.9264976      50218.233      36.893836      36.893836      36.893836    
    568000   0.63234604    -7.5268033     -6.5782977      5.9727051      50218.233      36.893836      36.893836      36.893836    
    569000   0.62909529    -7.534163      -6.5905335      5.8997739      50218.233      36.893836      36.893836      36.893836    
    570000   0.63039577    -7.5303539     -6.5847737      5.9327249      50218.233      36.893836      36.893836      36.893836    
    571000   0.62902992    -7.5339668     -6.5904353      5.9010061      50218.233      36.893836      36.893836      36.893836    
    572000   0.62956946    -7.5341594     -6.5898186      5.9098286      50218.233      36.893836      36.893836      36.893836    
    573000   0.63018942    -7.5341757     -6.588905       5.9086942      50218.233      36.893836      36.893836      36.893836    
    574000   0.62818306    -7.5316988     -6.5894376      5.9269659      50218.233      36.893836      36.893836      36.893836    
    575000   0.6240308     -7.5346075     -6.5985746      5.9024593      50218.233      36.893836      36.893836      36.893836    
    576000   0.62564338    -7.5332683     -6.5948166      5.8936613      50218.233      36.893836      36.893836      36.893836    
    577000   0.63115692    -7.5339658     -6.5872439      5.9000336      50218.233      36.893836      36.893836      36.893836    
    578000   0.62827184    -7.531416      -6.5890217      5.9245555      50218.233      36.893836      36.893836      36.893836    
    579000   0.62606118    -7.5372764     -6.598198       5.8651111      50218.233      36.893836      36.893836      36.893836    
    580000   0.63024271    -7.5374467     -6.5920961      5.8694041      50218.233      36.893836      36.893836      36.893836    
    581000   0.63163898    -7.537432      -6.589987       5.888767       50218.233      36.893836      36.893836      36.893836    
    582000   0.62750029    -7.5386878     -6.5974507      5.8718951      50218.233      36.893836      36.893836      36.893836    
    583000   0.62946903    -7.5307392     -6.586549       5.9217946      50218.233      36.893836      36.893836      36.893836    
    584000   0.63173287    -7.529657      -6.5820711      5.9389987      50218.233      36.893836      36.893836      36.893836    
    585000   0.63015123    -7.532633      -6.5874196      5.9125897      50218.233      36.893836      36.893836      36.893836    
    586000   0.63148538    -7.5384308     -6.5912162      5.8679732      50218.233      36.893836      36.893836      36.893836    
    587000   0.63346859    -7.5357424     -6.585553       5.8923564      50218.233      36.893836      36.893836      36.893836    
    588000   0.63130412    -7.5314961     -6.5845534      5.9366379      50218.233      36.893836      36.893836      36.893836    
    589000   0.6303907     -7.5338537     -6.5882811      5.9013312      50218.233      36.893836      36.893836      36.893836    
    590000   0.63164428    -7.5356582     -6.5882052      5.9034123      50218.233      36.893836      36.893836      36.893836    
    591000   0.6296854     -7.5300793     -6.5855646      5.9377278      50218.233      36.893836      36.893836      36.893836    
    592000   0.63336494    -7.5308512     -6.5808173      5.9344988      50218.233      36.893836      36.893836      36.893836    
    593000   0.63351984    -7.5256612     -6.575395       5.9852023      50218.233      36.893836      36.893836      36.893836    
    594000   0.62927301    -7.5335523     -6.5896562      5.9193576      50218.233      36.893836      36.893836      36.893836    
    595000   0.62737643    -7.5337018     -6.5926505      5.9062225      50218.233      36.893836      36.893836      36.893836    
    596000   0.63004459    -7.5376376     -6.5925842      5.8996866      50218.233      36.893836      36.893836      36.893836    
    597000   0.63233661    -7.5394735     -6.5909821      5.8830857      50218.233      36.893836      36.893836      36.893836    
    598000   0.62610429    -7.5289101     -6.589767       5.9308666      50218.233      36.893836      36.893836      36.893836    
    599000   0.63111214    -7.5361935     -6.5895388      5.8946814      50218.233      36.893836      36.893836      36.893836    
    600000   0.63300577    -7.5368131     -6.587318       5.900395       50218.233      36.893836      36.893836      36.893836    
    601000   0.63339884    -7.5302141     -6.5801293      5.9519488      50218.233      36.893836      36.893836      36.893836    
    602000   0.629979      -7.531742      -6.586787       5.9302201      50218.233      36.893836      36.893836      36.893836    
    603000   0.62799486    -7.5321068     -6.5901279      5.9206585      50218.233      36.893836      36.893836      36.893836    
    604000   0.63164587    -7.5341562     -6.5867009      5.9153332      50218.233      36.893836      36.893836      36.893836    
    605000   0.63256718    -7.5315922     -6.5827549      5.9230814      50218.233      36.893836      36.893836      36.893836    
    606000   0.62950731    -7.5351988     -6.5909512      5.8878756      50218.233      36.893836      36.893836      36.893836    
    607000   0.62949164    -7.5346922     -6.5904681      5.9009925      50218.233      36.893836      36.893836      36.893836    
    608000   0.62962693    -7.5279792     -6.5835523      5.9430854      50218.233      36.893836      36.893836      36.893836    
    609000   0.63046893    -7.5361321     -6.5904421      5.8995241      50218.233      36.893836      36.893836      36.893836    
    610000   0.63240291    -7.5319242     -6.5833334      5.9297812      50218.233      36.893836      36.893836      36.893836    
    611000   0.63048934    -7.5339496     -6.588229       5.9033801      50218.233      36.893836      36.893836      36.893836    
    612000   0.62959343    -7.531088      -6.5867113      5.931212       50218.233      36.893836      36.893836      36.893836    
    613000   0.62796544    -7.5316297     -6.5896949      5.9106967      50218.233      36.893836      36.893836      36.893836    
    614000   0.62987328    -7.5321957     -6.5873992      5.9231838      50218.233      36.893836      36.893836      36.893836    
    615000   0.62852232    -7.5343595     -6.5915894      5.8947227      50218.233      36.893836      36.893836      36.893836    
    616000   0.63235655    -7.5277545     -6.5792332      5.9556069      50218.233      36.893836      36.893836      36.893836    
    617000   0.62971214    -7.5294715     -6.5849167      5.948512       50218.233      36.893836      36.893836      36.893836    
    618000   0.62841022    -7.5250498     -6.5824479      5.9661559      50218.233      36.893836      36.893836      36.893836    
    619000   0.62848347    -7.5314937     -6.5887819      5.9101086      50218.233      36.893836      36.893836      36.893836    
    620000   0.62940599    -7.5291475     -6.585052       5.9303954      50218.233      36.893836      36.893836      36.893836    
    621000   0.63065995    -7.5294008     -6.5834243      5.9359012      50218.233      36.893836      36.893836      36.893836    
    622000   0.62612672    -7.52997       -6.5907933      5.9254745      50218.233      36.893836      36.893836      36.893836    
    623000   0.63329307    -7.5258758     -6.5759497      5.9755099      50218.233      36.893836      36.893836      36.893836    
    624000   0.63227909    -7.5248381     -6.5764329      5.9716516      50218.233      36.893836      36.893836      36.893836    
    625000   0.63411177    -7.5292228     -6.5780687      5.9326779      50218.233      36.893836      36.893836      36.893836    
    626000   0.62912958    -7.5309706     -6.5872896      5.9228064      50218.233      36.893836      36.893836      36.893836    
    627000   0.63033182    -7.5300023     -6.584518       5.9213492      50218.233      36.893836      36.893836      36.893836    
    628000   0.62940427    -7.5286087     -6.5845157      5.9392726      50218.233      36.893836      36.893836      36.893836    
    629000   0.63025399    -7.5291303     -6.5837628      5.9422352      50218.233      36.893836      36.893836      36.893836    
    630000   0.62991106    -7.5291614     -6.5843083      5.9497883      50218.233      36.893836      36.893836      36.893836    
    631000   0.62973069    -7.5342844     -6.5897018      5.8990345      50218.233      36.893836      36.893836      36.893836    
    632000   0.63157015    -7.534508      -6.5871663      5.9104714      50218.233      36.893836      36.893836      36.893836    
    633000   0.62964098    -7.5328829     -6.5884349      5.9231392      50218.233      36.893836      36.893836      36.893836    
    634000   0.63080303    -7.5318175     -6.5856265      5.9232578      50218.233      36.893836      36.893836      36.893836    
    635000   0.62915716    -7.5283339     -6.5846116      5.9455304      50218.233      36.893836      36.893836      36.893836    
    636000   0.62792805    -7.5293749     -6.5874962      5.9603132      50218.233      36.893836      36.893836      36.893836    
    637000   0.63217344    -7.5324163     -6.5841696      5.9154537      50218.233      36.893836      36.893836      36.893836    
    638000   0.62979214    -7.5309051     -6.5862303      5.9302226      50218.233      36.893836      36.893836      36.893836    
    639000   0.6289746     -7.5347533     -6.5913048      5.9099027      50218.233      36.893836      36.893836      36.893836    
    640000   0.62807531    -7.5317085     -6.589609       5.9179911      50218.233      36.893836      36.893836      36.893836    
    641000   0.63207523    -7.5354888     -6.5873894      5.9035965      50218.233      36.893836      36.893836      36.893836    
    642000   0.62990895    -7.530116      -6.5852661      5.929202       50218.233      36.893836      36.893836      36.893836    
    643000   0.63054978    -7.5324961     -6.5866849      5.9223353      50218.233      36.893836      36.893836      36.893836    
    644000   0.63006882    -7.5298089     -6.5847191      5.9330811      50218.233      36.893836      36.893836      36.893836    
    645000   0.62972137    -7.5281701     -6.5836015      5.948636       50218.233      36.893836      36.893836      36.893836    
    646000   0.63004864    -7.5252823     -6.5802227      5.9604452      50218.233      36.893836      36.893836      36.893836    
    647000   0.63112605    -7.5342131     -6.5875375      5.8935556      50218.233      36.893836      36.893836      36.893836    
    648000   0.62832933    -7.5273926     -6.584912       5.9444842      50218.233      36.893836      36.893836      36.893836    
    649000   0.6294504     -7.5323409     -6.5881787      5.9192304      50218.233      36.893836      36.893836      36.893836    
    650000   0.62941061    -7.5295256     -6.5854231      5.9352751      50218.233      36.893836      36.893836      36.893836    
    651000   0.62833292    -7.5300183     -6.5875323      5.9316728      50218.233      36.893836      36.893836      36.893836    
    652000   0.62657459    -7.5314673     -6.5916188      5.9170271      50218.233      36.893836      36.893836      36.893836    
    653000   0.63217789    -7.5301894     -6.5819361      5.938152       50218.233      36.893836      36.893836      36.893836    
    654000   0.62878631    -7.5281067     -6.5849407      5.9503877      50218.233      36.893836      36.893836      36.893836    
    655000   0.62943396    -7.5326798     -6.5885423      5.9170723      50218.233      36.893836      36.893836      36.893836    
    656000   0.62675405    -7.5309962     -6.5908785      5.9173089      50218.233      36.893836      36.893836      36.893836    
    657000   0.63077799    -7.5304642     -6.5843107      5.9398611      50218.233      36.893836      36.893836      36.893836    
    658000   0.62892941    -7.5306948     -6.5873141      5.9241809      50218.233      36.893836      36.893836      36.893836    
    659000   0.62918312    -7.5326994     -6.5889382      5.9258016      50218.233      36.893836      36.893836      36.893836    
    660000   0.63167742    -7.534926      -6.5874234      5.8899839      50218.233      36.893836      36.893836      36.893836    
    661000   0.63315283    -7.5324998     -6.5827841      5.9331431      50218.233      36.893836      36.893836      36.893836    
    662000   0.62971085    -7.5344036     -6.5898508      5.8952396      50218.233      36.893836      36.893836      36.893836    
    663000   0.63379765    -7.5311425     -6.5804596      5.9228651      50218.233      36.893836      36.893836      36.893836    
    664000   0.62802982    -7.5350312     -6.5929998      5.902743       50218.233      36.893836      36.893836      36.893836    
    665000   0.63195243    -7.5362671     -6.588352       5.88618        50218.233      36.893836      36.893836      36.893836    
    666000   0.62861679    -7.5352648     -6.592353       5.8907777      50218.233      36.893836      36.893836      36.893836    
    667000   0.62832621    -7.5313811     -6.5889052      5.9216984      50218.233      36.893836      36.893836      36.893836    
    668000   0.6304384     -7.5347204     -6.5890763      5.8911814      50218.233      36.893836      36.893836      36.893836    
    669000   0.62834023    -7.5369652     -6.5944683      5.8880039      50218.233      36.893836      36.893836      36.893836    
    670000   0.63093814    -7.5385394     -6.5921456      5.8625855      50218.233      36.893836      36.893836      36.893836    
    671000   0.62967543    -7.5400143     -6.5955146      5.8544155      50218.233      36.893836      36.893836      36.893836    
    672000   0.63203591    -7.5305364     -6.582496       5.9364932      50218.233      36.893836      36.893836      36.893836    
    673000   0.63144445    -7.5343686     -6.5872153      5.9126822      50218.233      36.893836      36.893836      36.893836    
    674000   0.6289944     -7.5412165     -6.5977383      5.85864        50218.233      36.893836      36.893836      36.893836    
    675000   0.63138918    -7.5363954     -6.5893251      5.8891506      50218.233      36.893836      36.893836      36.893836    
    676000   0.62872751    -7.5369337     -6.5938558      5.8699869      50218.233      36.893836      36.893836      36.893836    
    677000   0.6297694     -7.5339645     -6.5893239      5.9054785      50218.233      36.893836      36.893836      36.893836    
    678000   0.63355763    -7.5335914     -6.5832685      5.9065616      50218.233      36.893836      36.893836      36.893836    
    679000   0.62910996    -7.5332102     -6.5895587      5.9143273      50218.233      36.893836      36.893836      36.893836    
    680000   0.62948355    -7.535195      -6.5909831      5.8929434      50218.233      36.893836      36.893836      36.893836    
    681000   0.62992026    -7.5363056     -6.5914386      5.8962313      50218.233      36.893836      36.893836      36.893836    
    682000   0.63310418    -7.5379754     -6.5883326      5.8855338      50218.233      36.893836      36.893836      36.893836    
    683000   0.62745996    -7.5397935     -6.5986169      5.8641568      50218.233      36.893836      36.893836      36.893836    
    684000   0.63126551    -7.5325901     -6.5857053      5.921885       50218.233      36.893836      36.893836      36.893836    
    685000   0.62744667    -7.5407911     -6.5996345      5.8447157      50218.233      36.893836      36.893836      36.893836    
    686000   0.62908037    -7.5380325     -6.5944254      5.8830794      50218.233      36.893836      36.893836      36.893836    
    687000   0.63220709    -7.5376179     -6.5893208      5.8803675      50218.233      36.893836      36.893836      36.893836    
    688000   0.63094625    -7.5392493     -6.5928434      5.8800937      50218.233      36.893836      36.893836      36.893836    
    689000   0.63378286    -7.5322813     -6.5816205      5.9144606      50218.233      36.893836      36.893836      36.893836    
    690000   0.62998512    -7.5375889     -6.5926247      5.8856845      50218.233      36.893836      36.893836      36.893836    
    691000   0.63137711    -7.5396816     -6.5926295      5.8693601      50218.233      36.893836      36.893836      36.893836    
    692000   0.62698085    -7.5358216     -6.5953637      5.8867796      50218.233      36.893836      36.893836      36.893836    
    693000   0.63099501    -7.5356506     -6.5891716      5.8931805      50218.233      36.893836      36.893836      36.893836    
    694000   0.62802818    -7.5350672     -6.5930383      5.8958188      50218.233      36.893836      36.893836      36.893836    
    695000   0.63151831    -7.5348985     -6.5876345      5.9099258      50218.233      36.893836      36.893836      36.893836    
    696000   0.62893102    -7.5307841     -6.587401       5.9349002      50218.233      36.893836      36.893836      36.893836    
    697000   0.62831212    -7.5365028     -6.5940481      5.8818127      50218.233      36.893836      36.893836      36.893836    
    698000   0.62840662    -7.5383978     -6.5958012      5.8614429      50218.233      36.893836      36.893836      36.893836    
    699000   0.62915697    -7.5305896     -6.5868675      5.9380402      50218.233      36.893836      36.893836      36.893836    
    700000   0.62925154    -7.5370994     -6.5932355      5.8772231      50218.233      36.893836      36.893836      36.893836    
    701000   0.63028787    -7.5309116     -6.5854932      5.9289918      50218.233      36.893836      36.893836      36.893836    
    702000   0.62782254    -7.5326509     -6.5909304      5.8929862      50218.233      36.893836      36.893836      36.893836    
    703000   0.6303603     -7.5366386     -6.5911116      5.8938373      50218.233      36.893836      36.893836      36.893836    
    704000   0.63210986    -7.5354755     -6.5873242      5.8878906      50218.233      36.893836      36.893836      36.893836    
    705000   0.62776899    -7.5361616     -6.5945215      5.8751683      50218.233      36.893836      36.893836      36.893836    
    706000   0.6303512     -7.5336786     -6.5881652      5.8986374      50218.233      36.893836      36.893836      36.893836    
    707000   0.63120463    -7.5307922     -6.5839988      5.937513       50218.233      36.893836      36.893836      36.893836    
    708000   0.63084662    -7.5323078     -6.5860513      5.9147194      50218.233      36.893836      36.893836      36.893836    
    709000   0.6299408     -7.5337125     -6.5888148      5.9040574      50218.233      36.893836      36.893836      36.893836    
    710000   0.63045312    -7.5341198     -6.5884535      5.9103785      50218.233      36.893836      36.893836      36.893836    
    711000   0.62921804    -7.5339203     -6.5901067      5.8929085      50218.233      36.893836      36.893836      36.893836    
    712000   0.62833512    -7.5247505     -6.5822612      5.9567483      50218.233      36.893836      36.893836      36.893836    
    713000   0.63088254    -7.5290978     -6.5827874      5.941381       50218.233      36.893836      36.893836      36.893836    
    714000   0.62934032    -7.530213      -6.586216       5.9281335      50218.233      36.893836      36.893836      36.893836    
    715000   0.62972813    -7.5344585     -6.5898797      5.8886755      50218.233      36.893836      36.893836      36.893836    
    716000   0.63012687    -7.5382652     -6.5930883      5.8733642      50218.233      36.893836      36.893836      36.893836    
    717000   0.62738299    -7.5355877     -6.5945266      5.8795934      50218.233      36.893836      36.893836      36.893836    
    718000   0.63054678    -7.5338212     -6.5880144      5.8983108      50218.233      36.893836      36.893836      36.893836    
    719000   0.63019646    -7.5309982     -6.585717       5.9302277      50218.233      36.893836      36.893836      36.893836    
    720000   0.62483331    -7.5311533     -6.5939167      5.9184291      50218.233      36.893836      36.893836      36.893836    
    721000   0.63236884    -7.5297432     -6.5812034      5.9373972      50218.233      36.893836      36.893836      36.893836    
    722000   0.6321036     -7.5280137     -6.5798718      5.9590525      50218.233      36.893836      36.893836      36.893836    
    723000   0.6276108     -7.5379168     -6.596514       5.8688779      50218.233      36.893836      36.893836      36.893836    
    724000   0.62964354    -7.5305653     -6.5861134      5.9351415      50218.233      36.893836      36.893836      36.893836    
    725000   0.62976822    -7.5347764     -6.5901375      5.9136291      50218.233      36.893836      36.893836      36.893836    
    726000   0.62822224    -7.5309056     -6.5885856      5.9213322      50218.233      36.893836      36.893836      36.893836    
    727000   0.63373016    -7.5286029     -6.5780212      5.930558       50218.233      36.893836      36.893836      36.893836    
    728000   0.62815772    -7.5291868     -6.5869637      5.9425231      50218.233      36.893836      36.893836      36.893836    
    729000   0.6295418     -7.5354932     -6.5911939      5.8968115      50218.233      36.893836      36.893836      36.893836    
    730000   0.63330374    -7.531078      -6.5811359      5.9260859      50218.233      36.893836      36.893836      36.893836    
    731000   0.6332567     -7.527712      -6.5778405      5.9511302      50218.233      36.893836      36.893836      36.893836    
    732000   0.63028921    -7.5335388     -6.5881185      5.9130072      50218.233      36.893836      36.893836      36.893836    
    733000   0.63129701    -7.5314574     -6.5845254      5.9249223      50218.233      36.893836      36.893836      36.893836    
    734000   0.62967868    -7.5310855     -6.5865809      5.9289402      50218.233      36.893836      36.893836      36.893836    
    735000   0.63050162    -7.5355926     -6.5898536      5.8968477      50218.233      36.893836      36.893836      36.893836    
    736000   0.62905257    -7.5374434     -6.593878       5.8910873      50218.233      36.893836      36.893836      36.893836    
    737000   0.62928011    -7.5334552     -6.5895484      5.9129335      50218.233      36.893836      36.893836      36.893836    
    738000   0.63062451    -7.5381479     -6.5922246      5.8649288      50218.233      36.893836      36.893836      36.893836    
    739000   0.6302904     -7.5299908     -6.5845686      5.9333549      50218.233      36.893836      36.893836      36.893836    
    740000   0.62865689    -7.5328579     -6.5898859      5.9062562      50218.233      36.893836      36.893836      36.893836    
    741000   0.62955218    -7.5321155     -6.5878007      5.9078277      50218.233      36.893836      36.893836      36.893836    
    742000   0.62926122    -7.5277196     -6.5838412      5.9509991      50218.233      36.893836      36.893836      36.893836    
    743000   0.6291424     -7.5315875     -6.5878874      5.9210518      50218.233      36.893836      36.893836      36.893836    
    744000   0.62958591    -7.5347329     -6.5903674      5.9081479      50218.233      36.893836      36.893836      36.893836    
    745000   0.63011149    -7.5321908     -6.587037       5.929067       50218.233      36.893836      36.893836      36.893836    
    746000   0.62954635    -7.5268294     -6.5825233      5.9488315      50218.233      36.893836      36.893836      36.893836    
    747000   0.63012911    -7.5293239     -6.5841436      5.9290357      50218.233      36.893836      36.893836      36.893836    
    748000   0.62917761    -7.5367375     -6.5929845      5.8877209      50218.233      36.893836      36.893836      36.893836    
    749000   0.63096751    -7.528488      -6.5820502      5.9417287      50218.233      36.893836      36.893836      36.893836    
    750000   0.62930328    -7.5284127     -6.5844712      5.9465751      50218.233      36.893836      36.893836      36.893836    
    751000   0.63211877    -7.5357344     -6.5875697      5.8926843      50218.233      36.893836      36.893836      36.893836    
    752000   0.62898904    -7.5361022     -6.5926321      5.8855391      50218.233      36.893836      36.893836      36.893836    
    753000   0.63147429    -7.5259191     -6.5787212      5.9732998      50218.233      36.893836      36.893836      36.893836    
    754000   0.63201046    -7.5320213     -6.5840191      5.9154628      50218.233      36.893836      36.893836      36.893836    
    755000   0.63035194    -7.5314852     -6.5859707      5.9171514      50218.233      36.893836      36.893836      36.893836    
    756000   0.63006205    -7.5335258     -6.5884462      5.9092249      50218.233      36.893836      36.893836      36.893836    
    757000   0.63249442    -7.5272638     -6.5785356      5.9664749      50218.233      36.893836      36.893836      36.893836    
    758000   0.63173367    -7.5322117     -6.5846246      5.9249283      50218.233      36.893836      36.893836      36.893836    
    759000   0.62865579    -7.531208      -6.5882378      5.9308773      50218.233      36.893836      36.893836      36.893836    
    760000   0.62845142    -7.5249073     -6.5822435      5.9743236      50218.233      36.893836      36.893836      36.893836    
    761000   0.62868489    -7.5293921     -6.5863782      5.9393636      50218.233      36.893836      36.893836      36.893836    
    762000   0.63127941    -7.5290525     -6.5821468      5.9418797      50218.233      36.893836      36.893836      36.893836    
    763000   0.63037975    -7.53275       -6.5871938      5.9076587      50218.233      36.893836      36.893836      36.893836    
    764000   0.63043449    -7.5271024     -6.5814641      5.9463048      50218.233      36.893836      36.893836      36.893836    
    765000   0.62865052    -7.5285075     -6.5855451      5.9460889      50218.233      36.893836      36.893836      36.893836    
    766000   0.63125113    -7.5346528     -6.5877896      5.9031453      50218.233      36.893836      36.893836      36.893836    
    767000   0.63015328    -7.5331947     -6.5879782      5.899887       50218.233      36.893836      36.893836      36.893836    
    768000   0.63080231    -7.5320753     -6.5858853      5.9186309      50218.233      36.893836      36.893836      36.893836    
    769000   0.63138084    -7.5269743     -6.5799165      5.9419672      50218.233      36.893836      36.893836      36.893836    
    770000   0.63048846    -7.5323716     -6.5866523      5.9183191      50218.233      36.893836      36.893836      36.893836    
    771000   0.62953258    -7.5353347     -6.5910493      5.9056681      50218.233      36.893836      36.893836      36.893836    
    772000   0.63102718    -7.5309202     -6.5843929      5.9209364      50218.233      36.893836      36.893836      36.893836    
    773000   0.63132481    -7.528694      -6.5817203      5.9309447      50218.233      36.893836      36.893836      36.893836    
    774000   0.63259476    -7.532878      -6.5839993      5.9217852      50218.233      36.893836      36.893836      36.893836    
    775000   0.62968303    -7.5305783     -6.5860672      5.9231721      50218.233      36.893836      36.893836      36.893836    
    776000   0.62813918    -7.531101      -6.5889056      5.9320264      50218.233      36.893836      36.893836      36.893836    
    777000   0.63176729    -7.5340365     -6.586399       5.9080862      50218.233      36.893836      36.893836      36.893836    
    778000   0.63067652    -7.5312408     -6.5852394      5.9317892      50218.233      36.893836      36.893836      36.893836    
    779000   0.62862292    -7.5335862     -6.5906652      5.904337       50218.233      36.893836      36.893836      36.893836    
    780000   0.62649713    -7.5338357     -6.5941034      5.912873       50218.233      36.893836      36.893836      36.893836    
    781000   0.62980204    -7.5340732     -6.5893836      5.9069149      50218.233      36.893836      36.893836      36.893836    
    782000   0.63165367    -7.536486      -6.589019       5.9029766      50218.233      36.893836      36.893836      36.893836    
    783000   0.63091211    -7.5325428     -6.5861881      5.9219704      50218.233      36.893836      36.893836      36.893836    
    784000   0.62845935    -7.5312554     -6.5885798      5.9281234      50218.233      36.893836      36.893836      36.893836    
    785000   0.6281335     -7.5300995     -6.5879126      5.9269245      50218.233      36.893836      36.893836      36.893836    
    786000   0.62796989    -7.5258025     -6.5838611      5.9702888      50218.233      36.893836      36.893836      36.893836    
    787000   0.63087828    -7.5318021     -6.5854982      5.9278821      50218.233      36.893836      36.893836      36.893836    
    788000   0.63192309    -7.5318211     -6.5839499      5.9241315      50218.233      36.893836      36.893836      36.893836    
    789000   0.62743632    -7.5327742     -6.5916332      5.9175321      50218.233      36.893836      36.893836      36.893836    
    790000   0.62778856    -7.5323631     -6.5906937      5.9157558      50218.233      36.893836      36.893836      36.893836    
    791000   0.62600056    -7.5271354     -6.588148       5.9475024      50218.233      36.893836      36.893836      36.893836    
    792000   0.63047627    -7.5322951     -6.5865942      5.9277809      50218.233      36.893836      36.893836      36.893836    
    793000   0.63005527    -7.5358596     -6.5907902      5.8946831      50218.233      36.893836      36.893836      36.893836    
    794000   0.62916116    -7.533347      -6.5896187      5.9089698      50218.233      36.893836      36.893836      36.893836    
    795000   0.62706449    -7.5287788     -6.5881954      5.9414838      50218.233      36.893836      36.893836      36.893836    
    796000   0.63088559    -7.5299114     -6.5835965      5.9332689      50218.233      36.893836      36.893836      36.893836    
    797000   0.62924103    -7.5331542     -6.5893061      5.9177837      50218.233      36.893836      36.893836      36.893836    
    798000   0.62794721    -7.5284406     -6.5865332      5.9474484      50218.233      36.893836      36.893836      36.893836    
    799000   0.63215466    -7.5315212     -6.5833027      5.9300767      50218.233      36.893836      36.893836      36.893836    
    800000   0.63137045    -7.528781      -6.5817388      5.9484223      50218.233      36.893836      36.893836      36.893836    
    801000   0.63422231    -7.5299938     -6.5786738      5.9495501      50218.233      36.893836      36.893836      36.893836    
    802000   0.62721443    -7.5279352     -6.5871269      5.9390784      50218.233      36.893836      36.893836      36.893836    
    803000   0.63131379    -7.5353238     -6.5883665      5.8923414      50218.233      36.893836      36.893836      36.893836    
    804000   0.6313234     -7.5305674     -6.5835958      5.9433063      50218.233      36.893836      36.893836      36.893836    
    805000   0.62890373    -7.5276601     -6.5843179      5.9342905      50218.233      36.893836      36.893836      36.893836    
    806000   0.63111956    -7.5349602     -6.5882943      5.8949429      50218.233      36.893836      36.893836      36.893836    
    807000   0.6295025     -7.526274      -6.5820337      5.9680968      50218.233      36.893836      36.893836      36.893836    
    808000   0.62965566    -7.5312005     -6.5867305      5.9205069      50218.233      36.893836      36.893836      36.893836    
    809000   0.629548      -7.5341066     -6.5897981      5.9021702      50218.233      36.893836      36.893836      36.893836    
    810000   0.63004184    -7.5348118     -6.5897625      5.8837516      50218.233      36.893836      36.893836      36.893836    
    811000   0.6280635     -7.532994      -6.5909121      5.905175       50218.233      36.893836      36.893836      36.893836    
    812000   0.62976763    -7.528348      -6.58371        5.9568903      50218.233      36.893836      36.893836      36.893836    
    813000   0.62750363    -7.5227548     -6.5815128      5.9742981      50218.233      36.893836      36.893836      36.893836    
    814000   0.63141918    -7.5314805     -6.5843653      5.9383707      50218.233      36.893836      36.893836      36.893836    
    815000   0.63049501    -7.5314138     -6.5856847      5.9246828      50218.233      36.893836      36.893836      36.893836    
    816000   0.62920912    -7.5291519     -6.5853517      5.9483712      50218.233      36.893836      36.893836      36.893836    
    817000   0.63240625    -7.5293876     -6.5807917      5.9440244      50218.233      36.893836      36.893836      36.893836    
    818000   0.63131159    -7.5294767     -6.5825228      5.9461524      50218.233      36.893836      36.893836      36.893836    
    819000   0.62714727    -7.5330826     -6.5923751      5.9185924      50218.233      36.893836      36.893836      36.893836    
    820000   0.63256535    -7.5323772     -6.5835426      5.9060786      50218.233      36.893836      36.893836      36.893836    
    821000   0.63215489    -7.533394      -6.5851752      5.9131942      50218.233      36.893836      36.893836      36.893836    
    822000   0.63193628    -7.5271347     -6.5792438      5.9621397      50218.233      36.893836      36.893836      36.893836    
    823000   0.63014912    -7.5301846     -6.5849743      5.928603       50218.233      36.893836      36.893836      36.893836    
    824000   0.63478636    -7.5289431     -6.5767771      5.9549904      50218.233      36.893836      36.893836      36.893836    
    825000   0.63311218    -7.528623      -6.5789683      5.9342666      50218.233      36.893836      36.893836      36.893836    
    826000   0.6307114     -7.5312023     -6.5851487      5.9111029      50218.233      36.893836      36.893836      36.893836    
    827000   0.6289246     -7.5295145     -6.586141       5.9347593      50218.233      36.893836      36.893836      36.893836    
    828000   0.63042344    -7.5264013     -6.5807796      5.9577638      50218.233      36.893836      36.893836      36.893836    
    829000   0.62970078    -7.5330584     -6.5885206      5.9196198      50218.233      36.893836      36.893836      36.893836    
    830000   0.63162289    -7.5304345     -6.5830137      5.929482       50218.233      36.893836      36.893836      36.893836    
    831000   0.62798118    -7.532778      -6.5908196      5.9131234      50218.233      36.893836      36.893836      36.893836    
    832000   0.63004229    -7.5306001     -6.5855501      5.9339987      50218.233      36.893836      36.893836      36.893836    
    833000   0.6300452     -7.5340178     -6.5889635      5.8942996      50218.233      36.893836      36.893836      36.893836    
    834000   0.63055141    -7.5361756     -6.5903619      5.8892353      50218.233      36.893836      36.893836      36.893836    
    835000   0.62987448    -7.5314379     -6.5866396      5.9292845      50218.233      36.893836      36.893836      36.893836    
    836000   0.63221947    -7.5350592     -6.5867434      5.9010376      50218.233      36.893836      36.893836      36.893836    
    837000   0.63499781    -7.5341098     -6.5816267      5.9151591      50218.233      36.893836      36.893836      36.893836    
    838000   0.62852839    -7.5308874     -6.5881083      5.9392173      50218.233      36.893836      36.893836      36.893836    
    839000   0.63060891    -7.5283608     -6.5824609      5.9420764      50218.233      36.893836      36.893836      36.893836    
    840000   0.62873353    -7.5321025     -6.5890156      5.9074034      50218.233      36.893836      36.893836      36.893836    
    841000   0.62781416    -7.5280625     -6.5863547      5.9494166      50218.233      36.893836      36.893836      36.893836    
    842000   0.62726078    -7.532462      -6.5915842      5.9234248      50218.233      36.893836      36.893836      36.893836    
    843000   0.63299088    -7.5376861     -6.5882133      5.885018       50218.233      36.893836      36.893836      36.893836    
    844000   0.62826965    -7.531816      -6.5894249      5.9200312      50218.233      36.893836      36.893836      36.893836    
    845000   0.63168828    -7.5367384     -6.5892194      5.8754016      50218.233      36.893836      36.893836      36.893836    
    846000   0.62637727    -7.5359122     -6.5963597      5.879175       50218.233      36.893836      36.893836      36.893836    
    847000   0.62884751    -7.5348818     -6.5916239      5.900258       50218.233      36.893836      36.893836      36.893836    
    848000   0.63097505    -7.5317419     -6.5852928      5.9240281      50218.233      36.893836      36.893836      36.893836    
    849000   0.63286942    -7.5319367     -6.5826461      5.9252271      50218.233      36.893836      36.893836      36.893836    
    850000   0.63097103    -7.5326121     -6.5861691      5.9253048      50218.233      36.893836      36.893836      36.893836    
    851000   0.63181413    -7.5324966     -6.5847888      5.9167578      50218.233      36.893836      36.893836      36.893836    
    852000   0.62736892    -7.5355957     -6.5945557      5.8935687      50218.233      36.893836      36.893836      36.893836    
    853000   0.62718379    -7.532702      -6.5919397      5.90814        50218.233      36.893836      36.893836      36.893836    
    854000   0.62712728    -7.5336495     -6.5929719      5.9070686      50218.233      36.893836      36.893836      36.893836    
    855000   0.63444569    -7.5308452     -6.5791902      5.9268862      50218.233      36.893836      36.893836      36.893836    
    856000   0.62741672    -7.5312181     -6.5901064      5.9156938      50218.233      36.893836      36.893836      36.893836    
    857000   0.63136065    -7.532792      -6.5857645      5.9236802      50218.233      36.893836      36.893836      36.893836    
    858000   0.63116142    -7.5277936     -6.5810649      5.9417156      50218.233      36.893836      36.893836      36.893836    
    859000   0.63015846    -7.5343992     -6.5891749      5.8969652      50218.233      36.893836      36.893836      36.893836    
    860000   0.62744258    -7.5281386     -6.5869881      5.9488564      50218.233      36.893836      36.893836      36.893836    
    861000   0.63207272    -7.5303817     -6.5822861      5.9419048      50218.233      36.893836      36.893836      36.893836    
    862000   0.63071055    -7.5252022     -6.5791499      5.9656864      50218.233      36.893836      36.893836      36.893836    
    863000   0.6289976     -7.5316006     -6.5881176      5.9294544      50218.233      36.893836      36.893836      36.893836    
    864000   0.63108393    -7.5272172     -6.5806047      5.950632       50218.233      36.893836      36.893836      36.893836    
    865000   0.63097048    -7.5317445     -6.5853023      5.9268918      50218.233      36.893836      36.893836      36.893836    
    866000   0.62860624    -7.5279771     -6.5850811      5.9515989      50218.233      36.893836      36.893836      36.893836    
    867000   0.63195949    -7.5295917     -6.581666       5.9374935      50218.233      36.893836      36.893836      36.893836    
    868000   0.62822318    -7.5317681     -6.5894467      5.9185238      50218.233      36.893836      36.893836      36.893836    
    869000   0.62800179    -7.5274211     -6.5854319      5.944432       50218.233      36.893836      36.893836      36.893836    
    870000   0.62913161    -7.5343537     -6.5906697      5.8968279      50218.233      36.893836      36.893836      36.893836    
    871000   0.63146424    -7.5299174     -6.5827345      5.9436137      50218.233      36.893836      36.893836      36.893836    
    872000   0.62872059    -7.529944      -6.5868765      5.9439959      50218.233      36.893836      36.893836      36.893836    
    873000   0.62913966    -7.5286487     -6.5849526      5.9463229      50218.233      36.893836      36.893836      36.893836    
    874000   0.63121989    -7.5307885     -6.5839722      5.9270574      50218.233      36.893836      36.893836      36.893836    
    875000   0.63187496    -7.528751      -6.580952       5.9438393      50218.233      36.893836      36.893836      36.893836    
    876000   0.62939477    -7.5347423     -6.5906635      5.905701       50218.233      36.893836      36.893836      36.893836    
    877000   0.63148211    -7.5329068     -6.5856971      5.9195095      50218.233      36.893836      36.893836      36.893836    
    878000   0.6299395     -7.5378548     -6.592959       5.883107       50218.233      36.893836      36.893836      36.893836    
    879000   0.63061984    -7.5332521     -6.5873358      5.9042276      50218.233      36.893836      36.893836      36.893836    
    880000   0.62874895    -7.536811      -6.593701       5.8884314      50218.233      36.893836      36.893836      36.893836    
    881000   0.631373      -7.537359      -6.590313       5.8658609      50218.233      36.893836      36.893836      36.893836    
    882000   0.62630398    -7.5336379     -6.5941953      5.890981       50218.233      36.893836      36.893836      36.893836    
    883000   0.629138      -7.5333971     -6.5897036      5.9023651      50218.233      36.893836      36.893836      36.893836    
    884000   0.6291033     -7.5362511     -6.5926096      5.8830724      50218.233      36.893836      36.893836      36.893836    
    885000   0.6303458     -7.5385893     -6.5930841      5.8680379      50218.233      36.893836      36.893836      36.893836    
    886000   0.63269935    -7.5369112     -6.5878756      5.8831354      50218.233      36.893836      36.893836      36.893836    
    887000   0.62985788    -7.5373383     -6.5925649      5.8805739      50218.233      36.893836      36.893836      36.893836    
    888000   0.63256252    -7.5361865     -6.5873562      5.8817925      50218.233      36.893836      36.893836      36.893836    
    889000   0.63112671    -7.5311355     -6.5844589      5.9198129      50218.233      36.893836      36.893836      36.893836    
    890000   0.62947021    -7.5374301     -6.5932382      5.8702578      50218.233      36.893836      36.893836      36.893836    
    891000   0.62996899    -7.5436013     -6.5986612      5.8315709      50218.233      36.893836      36.893836      36.893836    
    892000   0.63021086    -7.5410631     -6.5957603      5.8534493      50218.233      36.893836      36.893836      36.893836    
    893000   0.63219125    -7.5372814     -6.589008       5.8851905      50218.233      36.893836      36.893836      36.893836    
    894000   0.63005139    -7.5425354     -6.5974718      5.8324183      50218.233      36.893836      36.893836      36.893836    
    895000   0.62776463    -7.541941      -6.6003074      5.8465346      50218.233      36.893836      36.893836      36.893836    
    896000   0.63105935    -7.5342479     -6.5876723      5.8916108      50218.233      36.893836      36.893836      36.893836    
    897000   0.63040354    -7.5382522     -6.5926604      5.8742645      50218.233      36.893836      36.893836      36.893836    
    898000   0.62813781    -7.542496      -6.6003027      5.8425214      50218.233      36.893836      36.893836      36.893836    
    899000   0.63171447    -7.5378149     -6.5902566      5.8824471      50218.233      36.893836      36.893836      36.893836    
    900000   0.63332172    -7.5362249     -6.5862558      5.8922711      50218.233      36.893836      36.893836      36.893836    
    901000   0.62534642    -7.5383491     -6.6003428      5.8599224      50218.233      36.893836      36.893836      36.893836    
    902000   0.62875128    -7.5360468     -6.5929333      5.8924236      50218.233      36.893836      36.893836      36.893836    
    903000   0.63133386    -7.5406895     -6.5937022      5.8488826      50218.233      36.893836      36.893836      36.893836    
    904000   0.62927293    -7.5346143     -6.5907183      5.9093733      50218.233      36.893836      36.893836      36.893836    
    905000   0.6312221     -7.5299901     -6.5831704      5.9340779      50218.233      36.893836      36.893836      36.893836    
    906000   0.63053077    -7.5379486     -6.5921659      5.8688862      50218.233      36.893836      36.893836      36.893836    
    907000   0.63304512    -7.5351312     -6.585577       5.8977704      50218.233      36.893836      36.893836      36.893836    
    908000   0.62754574    -7.5382016     -6.5968964      5.86389        50218.233      36.893836      36.893836      36.893836    
    909000   0.6310904     -7.5340439     -6.5874218      5.9063854      50218.233      36.893836      36.893836      36.893836    
    910000   0.63347374    -7.5347538     -6.5845567      5.9056967      50218.233      36.893836      36.893836      36.893836    
    911000   0.62946287    -7.5339036     -6.5897227      5.9098283      50218.233      36.893836      36.893836      36.893836    
    912000   0.62579298    -7.5345301     -6.595854       5.8917992      50218.233      36.893836      36.893836      36.893836    
    913000   0.63150823    -7.5305778     -6.5833289      5.9310621      50218.233      36.893836      36.893836      36.893836    
    914000   0.63388245    -7.5336191     -6.5828089      5.9199956      50218.233      36.893836      36.893836      36.893836    
    915000   0.62884656    -7.534563      -6.5913066      5.8902168      50218.233      36.893836      36.893836      36.893836    
    916000   0.63016093    -7.5366685     -6.5914405      5.8835694      50218.233      36.893836      36.893836      36.893836    
    917000   0.6304638     -7.5363855     -6.5907032      5.8829706      50218.233      36.893836      36.893836      36.893836    
    918000   0.63168039    -7.5341435     -6.5866364      5.8934927      50218.233      36.893836      36.893836      36.893836    
    919000   0.63042964    -7.5368994     -6.5912684      5.8929884      50218.233      36.893836      36.893836      36.893836    
    920000   0.62948435    -7.5379856     -6.5937725      5.8868916      50218.233      36.893836      36.893836      36.893836    
    921000   0.6319363     -7.5380201     -6.5901291      5.8798202      50218.233      36.893836      36.893836      36.893836    
    922000   0.62871766    -7.5376837     -6.5946206      5.8893945      50218.233      36.893836      36.893836      36.893836    
    923000   0.62843435    -7.5378057     -6.5951676      5.8770405      50218.233      36.893836      36.893836      36.893836    
    924000   0.63079364    -7.5336022     -6.5874252      5.9207835      50218.233      36.893836      36.893836      36.893836    
    925000   0.62963274    -7.5328946     -6.5884589      5.9158314      50218.233      36.893836      36.893836      36.893836    
    926000   0.63000784    -7.5318435     -6.5868452      5.9291295      50218.233      36.893836      36.893836      36.893836    
    927000   0.63104576    -7.5343407     -6.5877855      5.9108468      50218.233      36.893836      36.893836      36.893836    
    928000   0.62831807    -7.538064      -6.5956003      5.8703675      50218.233      36.893836      36.893836      36.893836    
    929000   0.63247168    -7.535618      -6.586924       5.898606       50218.233      36.893836      36.893836      36.893836    
    930000   0.62609718    -7.5352608     -6.5961284      5.88386        50218.233      36.893836      36.893836      36.893836    
    931000   0.63155952    -7.5348207     -6.5874949      5.904451       50218.233      36.893836      36.893836      36.893836    
    932000   0.62650675    -7.5392194     -6.5994726      5.8552402      50218.233      36.893836      36.893836      36.893836    
    933000   0.62590929    -7.5314016     -6.592551       5.9126733      50218.233      36.893836      36.893836      36.893836    
    934000   0.62730821    -7.537172      -6.596223       5.8649138      50218.233      36.893836      36.893836      36.893836    
    935000   0.62953271    -7.5317892     -6.5875036      5.9256192      50218.233      36.893836      36.893836      36.893836    
    936000   0.63101629    -7.5302558     -6.5837448      5.946369       50218.233      36.893836      36.893836      36.893836    
    937000   0.62929489    -7.5332147     -6.5892858      5.8968044      50218.233      36.893836      36.893836      36.893836    
    938000   0.63050821    -7.5301902     -6.5844414      5.9339981      50218.233      36.893836      36.893836      36.893836    
    939000   0.63104215    -7.5318867     -6.585337       5.9095029      50218.233      36.893836      36.893836      36.893836    
    940000   0.62940895    -7.5315305     -6.5874305      5.9183196      50218.233      36.893836      36.893836      36.893836    
    941000   0.63115659    -7.537377      -6.5906556      5.8840937      50218.233      36.893836      36.893836      36.893836    
    942000   0.62542076    -7.5355132     -6.5973954      5.8811395      50218.233      36.893836      36.893836      36.893836    
    943000   0.63036315    -7.5329538     -6.5874225      5.9128359      50218.233      36.893836      36.893836      36.893836    
    944000   0.63195763    -7.5362194     -6.5882964      5.8823601      50218.233      36.893836      36.893836      36.893836    
    945000   0.6272097     -7.5277613     -6.5869601      5.9339184      50218.233      36.893836      36.893836      36.893836    
    946000   0.62603642    -7.5303464     -6.5913051      5.934411       50218.233      36.893836      36.893836      36.893836    
    947000   0.6331428     -7.5353919     -6.5856912      5.8907203      50218.233      36.893836      36.893836      36.893836    
    948000   0.6290829     -7.5346774     -6.5910665      5.9048369      50218.233      36.893836      36.893836      36.893836    
    949000   0.63067561    -7.5296455     -6.5836456      5.929652       50218.233      36.893836      36.893836      36.893836    
    950000   0.63087855    -7.537745      -6.5914406      5.8930772      50218.233      36.893836      36.893836      36.893836    
    951000   0.62865766    -7.5379221     -6.594949       5.8895492      50218.233      36.893836      36.893836      36.893836    
    952000   0.62811572    -7.5413233     -6.5991631      5.862807       50218.233      36.893836      36.893836      36.893836    
    953000   0.63195257    -7.5364061     -6.5884907      5.9035934      50218.233      36.893836      36.893836      36.893836    
    954000   0.62814424    -7.5415986     -6.5993957      5.866586       50218.233      36.893836      36.893836      36.893836    
    955000   0.63031856    -7.5393612     -6.5938968      5.8703649      50218.233      36.893836      36.893836      36.893836    
    956000   0.63115029    -7.5340725     -6.5873605      5.8977126      50218.233      36.893836      36.893836      36.893836    
    957000   0.62772436    -7.5430691     -6.6014959      5.839008       50218.233      36.893836      36.893836      36.893836    
    958000   0.62980883    -7.5305139     -6.5858141      5.9347717      50218.233      36.893836      36.893836      36.893836    
    959000   0.62893094    -7.5308575     -6.5874745      5.9203216      50218.233      36.893836      36.893836      36.893836    
    960000   0.63015827    -7.5290311     -6.5838072      5.9454291      50218.233      36.893836      36.893836      36.893836    
    961000   0.62615616    -7.5299408     -6.59072        5.9370774      50218.233      36.893836      36.893836      36.893836    
    962000   0.63381905    -7.5342286     -6.5835136      5.922314       50218.233      36.893836      36.893836      36.893836    
    963000   0.63035729    -7.5317809     -6.5862584      5.9229288      50218.233      36.893836      36.893836      36.893836    
    964000   0.63215508    -7.5325053     -6.5842862      5.917865       50218.233      36.893836      36.893836      36.893836    
    965000   0.63375043    -7.5338661     -6.583254       5.9176501      50218.233      36.893836      36.893836      36.893836    
    966000   0.63100684    -7.5281641     -6.5816673      5.9504659      50218.233      36.893836      36.893836      36.893836    
    967000   0.63082615    -7.5327073     -6.5864815      5.9058827      50218.233      36.893836      36.893836      36.893836    
    968000   0.62626441    -7.5332329     -6.5938496      5.9028069      50218.233      36.893836      36.893836      36.893836    
    969000   0.63105646    -7.5295424     -6.5829712      5.927929       50218.233      36.893836      36.893836      36.893836    
    970000   0.629437      -7.5266767     -6.5825346      5.9600762      50218.233      36.893836      36.893836      36.893836    
    971000   0.62641527    -7.5308094     -6.5911998      5.9166983      50218.233      36.893836      36.893836      36.893836    
    972000   0.63195733    -7.5314832     -6.5835607      5.9247976      50218.233      36.893836      36.893836      36.893836    
    973000   0.62987238    -7.5278755     -6.5830804      5.9456596      50218.233      36.893836      36.893836      36.893836    
    974000   0.6283973     -7.5309251     -6.5883425      5.9191213      50218.233      36.893836      36.893836      36.893836    
    975000   0.62917842    -7.5302482     -6.586494       5.935543       50218.233      36.893836      36.893836      36.893836    
    976000   0.62687268    -7.5270608     -6.5867652      5.9566411      50218.233      36.893836      36.893836      36.893836    
    977000   0.62758258    -7.530312      -6.5889515      5.9232388      50218.233      36.893836      36.893836      36.893836    
    978000   0.62911013    -7.526863      -6.5832112      5.9444892      50218.233      36.893836      36.893836      36.893836    
    979000   0.63168388    -7.5353497     -6.5878373      5.9084608      50218.233      36.893836      36.893836      36.893836    
    980000   0.6269777     -7.5273785     -6.5869253      5.9545057      50218.233      36.893836      36.893836      36.893836    
    981000   0.63171164    -7.5332324     -6.5856785      5.9147948      50218.233      36.893836      36.893836      36.893836    
    982000   0.6307719     -7.5282454     -6.582101       5.9413619      50218.233      36.893836      36.893836      36.893836    
    983000   0.63097678    -7.5289314     -6.5824797      5.9490971      50218.233      36.893836      36.893836      36.893836    
    984000   0.62999519    -7.5315092     -6.5865298      5.9223558      50218.233      36.893836      36.893836      36.893836    
    985000   0.62847931    -7.535118      -6.5924125      5.887053       50218.233      36.893836      36.893836      36.893836    
    986000   0.62915686    -7.5310003     -6.5872784      5.9209924      50218.233      36.893836      36.893836      36.893836    
    987000   0.62844136    -7.5384912     -6.5958426      5.8742775      50218.233      36.893836      36.893836      36.893836    
    988000   0.63254542    -7.5354162     -6.5866115      5.8996224      50218.233      36.893836      36.893836      36.893836    
    989000   0.62995237    -7.535276      -6.5903609      5.9008337      50218.233      36.893836      36.893836      36.893836    
    990000   0.62664984    -7.5303947     -6.5904333      5.9249144      50218.233      36.893836      36.893836      36.893836    
    991000   0.63090867    -7.5311543     -6.5848048      5.9262891      50218.233      36.893836      36.893836      36.893836    
    992000   0.62879432    -7.5331127     -6.5899346      5.9192635      50218.233      36.893836      36.893836      36.893836    
    993000   0.62988118    -7.5343058     -6.5894974      5.9001565      50218.233      36.893836      36.893836      36.893836    
    994000   0.63212507    -7.5332237     -6.5850496      5.9082978      50218.233      36.893836      36.893836      36.893836    
    995000   0.62947339    -7.530296      -6.5860993      5.9314455      50218.233      36.893836      36.893836      36.893836    
    996000   0.63147103    -7.5258339     -6.5786408      5.9651998      50218.233      36.893836      36.893836      36.893836    
    997000   0.62914779    -7.5290255     -6.5853172      5.9414583      50218.233      36.893836      36.893836      36.893836    
    998000   0.63431339    -7.5307702     -6.5793136      5.9316381      50218.233      36.893836      36.893836      36.893836    
    999000   0.62998953    -7.5358952     -6.5909243      5.8791229      50218.233      36.893836      36.893836      36.893836    
   1000000   0.62955204    -7.5279693     -6.5836546      5.9489072      50218.233      36.893836      36.893836      36.893836    
Loop time of 4464.38 on 1 procs for 1000000 steps with 70304 atoms

Performance: 193532.029 tau/day, 223.995 timesteps/s, 15.748 Matom-step/s
100.0% CPU use with 1 MPI tasks x 1 OpenMP threads

MPI task timing breakdown:
Section |  min time  |  avg time  |  max time  |%varavg| %total
---------------------------------------------------------------
Pair    | 1066.5     | 1066.5     | 1066.5     |   0.0 | 23.89
Neigh   | 46.268     | 46.268     | 46.268     |   0.0 |  1.04
Comm    | 561.53     | 561.53     | 561.53     |   0.0 | 12.58
Output  | 0.74808    | 0.74808    | 0.74808    |   0.0 |  0.02
Modify  | 2347.5     | 2347.5     | 2347.5     |   0.0 | 52.58
Other   |            | 441.9      |            |       |  9.90

Nlocal:          70304 ave       70304 max       70304 min
Histogram: 1 0 0 0 0 0 0 0 0 0
Nghost:          37148 ave       37148 max       37148 min
Histogram: 1 0 0 0 0 0 0 0 0 0
Neighs:              0 ave           0 max           0 min
Histogram: 1 0 0 0 0 0 0 0 0 0

Total # of neighbors = 0
Ave neighs/atom = 0
Neighbor list builds = 242982
Dangerous builds = 0
clear
OMP_NUM_THREADS environment is not set. Defaulting to 1 thread. (src/comm.cpp:98)
  using 1 OpenMP thread(s) per MPI task
package gpu 0
jump dms625.lmp

variable T equal 625
# T = 1000* (temp in LJ unit)
variable f equal 1000
log log.${T}
log log.625
