variable TLJ equal (${T}/1000)
variable TLJ equal (480/1000)
variable NCyle equal 10
variable iStep equal (${f})
variable iStep equal (1000)
variable dumpStep equal (${f}*100)
variable dumpStep equal (1000*100)
variable runStep equal (${f}*100*${NCyle})
variable runStep equal (1000*100*${NCyle})
variable runStep equal (1000*100*10)

units       lj
atom_style  atomic
dimension 3
boundary     p p p
pair_style  lj/cut 2.5
read_data  ../data/T${T}.dat
read_data  ../data/T480.dat
Reading data file ...
  orthogonal box = (0.97250269 0.97250269 0.97250269) to (37.866338 37.866338 37.866338)
  1 by 2 by 2 MPI processor grid
  reading atoms ...
  70304 atoms
  reading velocities ...
  70304 velocities
  read_data CPU = 0.189 seconds
change_box all triclinic
Changing box ...
  triclinic box = (0.97250269 0.97250269 0.97250269) to (37.866338 37.866338 37.866338) with tilt (0 0 0)
mass 1 1
mass 2 1
pair_modify shift yes
pair_coeff  1 1 1 1
pair_coeff  1 2 1.5 0.8
pair_coeff  2 2 0.5 0.88


timestep 0.01
thermo ${iStep}
thermo 1000
reset_timestep 0
thermo_style custom step temp pe etotal press vol lx ly lz
fix             1 all nvt temp ${TLJ}  ${TLJ}  0.1
fix             1 all nvt temp 0.48  ${TLJ}  0.1
fix             1 all nvt temp 0.48  0.48  0.1
thermo_modify flush yes

fix dsf all deform 1 xy  wiggle 0.5  ${f}   units box
fix dsf all deform 1 xy  wiggle 0.5  1000   units box
fix ps1 all ave/time 1 1 ${iStep} c_thermo_press[1] c_thermo_press[2]  c_thermo_press[3] c_thermo_press[4]  c_thermo_press[5] c_thermo_press[6]  file  stress.${T}
fix ps1 all ave/time 1 1 1000 c_thermo_press[1] c_thermo_press[2]  c_thermo_press[3] c_thermo_press[4]  c_thermo_press[5] c_thermo_press[6]  file  stress.${T}
fix ps1 all ave/time 1 1 1000 c_thermo_press[1] c_thermo_press[2]  c_thermo_press[3] c_thermo_press[4]  c_thermo_press[5] c_thermo_press[6]  file  stress.480
dump            1 all custom ${dumpStep} dump.${T} id type x y z
dump            1 all custom 100000 dump.${T} id type x y z
dump            1 all custom 100000 dump.480 id type x y z
dump_modify 1 sort id
fix nodrift all momentum 1  linear 1 1 1
fix com_seed all recenter INIT INIT INIT shift all
run ${runStep}
run 1000000
Generated 0 of 1 mixed pair_coeff terms from geometric mixing rule
Per MPI rank memory allocation (min/avg/max) = 8.612 | 8.613 | 8.616 Mbytes
   Step          Temp          PotEng         TotEng         Press          Volume           Lx             Ly             Lz      
         0   0.48208273    -7.8640938     -7.14098        3.2637634      50218.233      36.893836      36.893836      36.893836    
      1000   0.47991842    -7.8538143     -7.1339469      3.3441362      50218.233      36.893836      36.893836      36.893836    
      2000   0.48285322    -7.8603285     -7.136059       3.308603       50218.233      36.893836      36.893836      36.893836    
      3000   0.47948796    -7.8576853     -7.1384635      3.3104962      50218.233      36.893836      36.893836      36.893836    
      4000   0.47979351    -7.8536698     -7.1339898      3.3431113      50218.233      36.893836      36.893836      36.893836    
      5000   0.47947924    -7.8521432     -7.1329345      3.3583267      50218.233      36.893836      36.893836      36.893836    
      6000   0.4803462     -7.8559783     -7.1354693      3.3238989      50218.233      36.893836      36.893836      36.893836    
      7000   0.47851541    -7.8561649     -7.138402       3.3183968      50218.233      36.893836      36.893836      36.893836    
      8000   0.48055913    -7.8621813     -7.1413529      3.2812621      50218.233      36.893836      36.893836      36.893836    
      9000   0.4825726     -7.8594223     -7.1355737      3.3117825      50218.233      36.893836      36.893836      36.893836    
     10000   0.47979082    -7.859137      -7.139461       3.3062728      50218.233      36.893836      36.893836      36.893836    
     11000   0.48061424    -7.8547089     -7.1337978      3.340085       50218.233      36.893836      36.893836      36.893836    
     12000   0.47720977    -7.8517846     -7.1359801      3.3578434      50218.233      36.893836      36.893836      36.893836    
     13000   0.47976315    -7.8576302     -7.1379957      3.3122027      50218.233      36.893836      36.893836      36.893836    
     14000   0.48106208    -7.855862      -7.1342792      3.327593       50218.233      36.893836      36.893836      36.893836    
     15000   0.47846572    -7.858071      -7.1403827      3.3149002      50218.233      36.893836      36.893836      36.893836    
     16000   0.48162814    -7.8549056     -7.1324737      3.3357089      50218.233      36.893836      36.893836      36.893836    
     17000   0.48167049    -7.8570905     -7.1345951      3.3167494      50218.233      36.893836      36.893836      36.893836    
     18000   0.48078635    -7.8596054     -7.1384362      3.2960965      50218.233      36.893836      36.893836      36.893836    
     19000   0.48041165    -7.8521474     -7.1315402      3.363674       50218.233      36.893836      36.893836      36.893836    
     20000   0.47951793    -7.8512329     -7.1319663      3.3665494      50218.233      36.893836      36.893836      36.893836    
     21000   0.48175142    -7.8540181     -7.1314012      3.3400994      50218.233      36.893836      36.893836      36.893836    
     22000   0.48015091    -7.8532229     -7.1330068      3.3556854      50218.233      36.893836      36.893836      36.893836    
     23000   0.47925383    -7.8517361     -7.1328656      3.3528559      50218.233      36.893836      36.893836      36.893836    
     24000   0.47867642    -7.8569724     -7.1389679      3.3161039      50218.233      36.893836      36.893836      36.893836    
     25000   0.47901373    -7.8582879     -7.1397775      3.3132123      50218.233      36.893836      36.893836      36.893836    
     26000   0.47696737    -7.8529066     -7.1374657      3.3478555      50218.233      36.893836      36.893836      36.893836    
     27000   0.48030903    -7.8531799     -7.1327266      3.3434719      50218.233      36.893836      36.893836      36.893836    
     28000   0.47993955    -7.8535791     -7.13368        3.348813       50218.233      36.893836      36.893836      36.893836    
     29000   0.4783265     -7.8526781     -7.1351986      3.3516224      50218.233      36.893836      36.893836      36.893836    
     30000   0.47763416    -7.8546566     -7.1382156      3.3409064      50218.233      36.893836      36.893836      36.893836    
     31000   0.48090779    -7.8562293     -7.1348779      3.3208161      50218.233      36.893836      36.893836      36.893836    
     32000   0.48057668    -7.8550077     -7.1341529      3.3429948      50218.233      36.893836      36.893836      36.893836    
     33000   0.47928808    -7.8566013     -7.1376794      3.3232923      50218.233      36.893836      36.893836      36.893836    
     34000   0.48175855    -7.8508099     -7.1281824      3.3726663      50218.233      36.893836      36.893836      36.893836    
     35000   0.48027916    -7.8563966     -7.1359881      3.339268       50218.233      36.893836      36.893836      36.893836    
     36000   0.48106253    -7.8543588     -7.1327753      3.3418184      50218.233      36.893836      36.893836      36.893836    
     37000   0.48029953    -7.854857      -7.1344179      3.3289265      50218.233      36.893836      36.893836      36.893836    
     38000   0.480167      -7.854322      -7.1340818      3.343692       50218.233      36.893836      36.893836      36.893836    
     39000   0.48234895    -7.8541451     -7.1306319      3.3464889      50218.233      36.893836      36.893836      36.893836    
     40000   0.47884878    -7.8527619     -7.1344989      3.3497185      50218.233      36.893836      36.893836      36.893836    
     41000   0.47940109    -7.854686      -7.1355946      3.337041       50218.233      36.893836      36.893836      36.893836    
     42000   0.4820469     -7.8576406     -7.1345806      3.3218684      50218.233      36.893836      36.893836      36.893836    
     43000   0.47992733    -7.8587304     -7.1388496      3.3169865      50218.233      36.893836      36.893836      36.893836    
     44000   0.47886305    -7.8587475     -7.1404631      3.3072011      50218.233      36.893836      36.893836      36.893836    
     45000   0.48158219    -7.855         -7.132637       3.339022       50218.233      36.893836      36.893836      36.893836    
     46000   0.47859694    -7.8563092     -7.138424       3.3283495      50218.233      36.893836      36.893836      36.893836    
     47000   0.48033351    -7.854529      -7.134039       3.3379504      50218.233      36.893836      36.893836      36.893836    
     48000   0.4778573     -7.8566083     -7.1398325      3.3111789      50218.233      36.893836      36.893836      36.893836    
     49000   0.48135499    -7.852748      -7.1307258      3.3571512      50218.233      36.893836      36.893836      36.893836    
     50000   0.48092392    -7.8552268     -7.1338512      3.3388557      50218.233      36.893836      36.893836      36.893836    
     51000   0.48145562    -7.8527799     -7.1306067      3.3519756      50218.233      36.893836      36.893836      36.893836    
     52000   0.48208761    -7.8585798     -7.1354586      3.3157044      50218.233      36.893836      36.893836      36.893836    
     53000   0.48075823    -7.8556609     -7.1345339      3.3339069      50218.233      36.893836      36.893836      36.893836    
     54000   0.48007874    -7.8576037     -7.1374959      3.3276252      50218.233      36.893836      36.893836      36.893836    
     55000   0.47848851    -7.8602744     -7.1425518      3.3068605      50218.233      36.893836      36.893836      36.893836    
     56000   0.47745832    -7.8532437     -7.1370664      3.3513739      50218.233      36.893836      36.893836      36.893836    
     57000   0.47824148    -7.8578872     -7.1405352      3.3158747      50218.233      36.893836      36.893836      36.893836    
     58000   0.48296924    -7.8531315     -7.128688       3.3424887      50218.233      36.893836      36.893836      36.893836    
     59000   0.47871568    -7.8563705     -7.1383072      3.3245892      50218.233      36.893836      36.893836      36.893836    
     60000   0.47750834    -7.854632      -7.1383797      3.3305162      50218.233      36.893836      36.893836      36.893836    
     61000   0.47919341    -7.8546828     -7.1359029      3.3311168      50218.233      36.893836      36.893836      36.893836    
     62000   0.47926701    -7.8538944     -7.1350041      3.3465573      50218.233      36.893836      36.893836      36.893836    
     63000   0.48097025    -7.8585678     -7.1371226      3.3112953      50218.233      36.893836      36.893836      36.893836    
     64000   0.47855201    -7.8548568     -7.137039       3.321221       50218.233      36.893836      36.893836      36.893836    
     65000   0.47930218    -7.8551602     -7.1362172      3.3349109      50218.233      36.893836      36.893836      36.893836    
     66000   0.47837144    -7.8488642     -7.1313172      3.3893495      50218.233      36.893836      36.893836      36.893836    
     67000   0.48128192    -7.853979      -7.1320664      3.3511518      50218.233      36.893836      36.893836      36.893836    
     68000   0.47952553    -7.8568966     -7.1376185      3.3140702      50218.233      36.893836      36.893836      36.893836    
     69000   0.48062272    -7.8525212     -7.1315973      3.3552624      50218.233      36.893836      36.893836      36.893836    
     70000   0.47971876    -7.8532186     -7.1336507      3.3546576      50218.233      36.893836      36.893836      36.893836    
     71000   0.48008782    -7.8542236     -7.1341021      3.3354419      50218.233      36.893836      36.893836      36.893836    
     72000   0.47996107    -7.8565353     -7.1366039      3.3248306      50218.233      36.893836      36.893836      36.893836    
     73000   0.48150378    -7.8581443     -7.1358989      3.314896       50218.233      36.893836      36.893836      36.893836    
     74000   0.48096012    -7.8552696     -7.1338397      3.3355615      50218.233      36.893836      36.893836      36.893836    
     75000   0.47969606    -7.8516248     -7.1320909      3.3584507      50218.233      36.893836      36.893836      36.893836    
     76000   0.47980628    -7.8567869     -7.1370878      3.3285847      50218.233      36.893836      36.893836      36.893836    
     77000   0.48043066    -7.8548754     -7.1342397      3.3460678      50218.233      36.893836      36.893836      36.893836    
     78000   0.48131117    -7.8538115     -7.131855       3.3452212      50218.233      36.893836      36.893836      36.893836    
     79000   0.4786918     -7.8525837     -7.1345562      3.3524796      50218.233      36.893836      36.893836      36.893836    
     80000   0.48053694    -7.8582866     -7.1374915      3.3152942      50218.233      36.893836      36.893836      36.893836    
     81000   0.48053711    -7.8518559     -7.1310605      3.3714033      50218.233      36.893836      36.893836      36.893836    
     82000   0.48196083    -7.8512104     -7.1282794      3.3751062      50218.233      36.893836      36.893836      36.893836    
     83000   0.47773026    -7.85126       -7.1346748      3.3565085      50218.233      36.893836      36.893836      36.893836    
     84000   0.47766124    -7.8550989     -7.1386172      3.3308293      50218.233      36.893836      36.893836      36.893836    
     85000   0.47980776    -7.8583709     -7.1386695      3.3191779      50218.233      36.893836      36.893836      36.893836    
     86000   0.48089941    -7.8560724     -7.1347336      3.3356495      50218.233      36.893836      36.893836      36.893836    
     87000   0.48087029    -7.8520685     -7.1307733      3.3647379      50218.233      36.893836      36.893836      36.893836    
     88000   0.47803127    -7.8521734     -7.1351367      3.3588934      50218.233      36.893836      36.893836      36.893836    
     89000   0.47862076    -7.8579063     -7.1399854      3.3071268      50218.233      36.893836      36.893836      36.893836    
     90000   0.47859006    -7.855014      -7.1371391      3.3463284      50218.233      36.893836      36.893836      36.893836    
     91000   0.47979448    -7.8538091     -7.1341276      3.337938       50218.233      36.893836      36.893836      36.893836    
     92000   0.4778529     -7.8537652     -7.136996       3.3460158      50218.233      36.893836      36.893836      36.893836    
     93000   0.47987548    -7.85714       -7.137337       3.3099603      50218.233      36.893836      36.893836      36.893836    
     94000   0.48279078    -7.8553567     -7.1311808      3.3393562      50218.233      36.893836      36.893836      36.893836    
     95000   0.4813632     -7.8538727     -7.1318381      3.3450424      50218.233      36.893836      36.893836      36.893836    
     96000   0.47949667    -7.856838      -7.1376032      3.3224747      50218.233      36.893836      36.893836      36.893836    
     97000   0.47876569    -7.8567518     -7.1386134      3.3171642      50218.233      36.893836      36.893836      36.893836    
     98000   0.4768986     -7.8528605     -7.1375228      3.358677       50218.233      36.893836      36.893836      36.893836    
     99000   0.4786548     -7.8551362     -7.1371642      3.3228186      50218.233      36.893836      36.893836      36.893836    
    100000   0.48355575    -7.8558708     -7.1305475      3.3256253      50218.233      36.893836      36.893836      36.893836    
    101000   0.48190264    -7.8560695     -7.1332258      3.3298412      50218.233      36.893836      36.893836      36.893836    
    102000   0.48183464    -7.8539747     -7.131233       3.3598205      50218.233      36.893836      36.893836      36.893836    
    103000   0.47941367    -7.8595256     -7.1404153      3.2913845      50218.233      36.893836      36.893836      36.893836    
    104000   0.47729817    -7.8537033     -7.1377662      3.3455861      50218.233      36.893836      36.893836      36.893836    
    105000   0.48020962    -7.8568498     -7.1365456      3.3335795      50218.233      36.893836      36.893836      36.893836    
    106000   0.48298807    -7.8561399     -7.1316681      3.3320793      50218.233      36.893836      36.893836      36.893836    
    107000   0.47983634    -7.8614315     -7.1416872      3.2889898      50218.233      36.893836      36.893836      36.893836    
    108000   0.48068098    -7.8544269     -7.1334156      3.332078       50218.233      36.893836      36.893836      36.893836    
    109000   0.4792276     -7.853336      -7.1345048      3.3539227      50218.233      36.893836      36.893836      36.893836    
    110000   0.47893595    -7.8555698     -7.1371761      3.3453123      50218.233      36.893836      36.893836      36.893836    
    111000   0.47932211    -7.8525702     -7.1335972      3.3607038      50218.233      36.893836      36.893836      36.893836    
    112000   0.47816247    -7.8582438     -7.1410103      3.3000794      50218.233      36.893836      36.893836      36.893836    
    113000   0.47929666    -7.8542388     -7.135304       3.3376441      50218.233      36.893836      36.893836      36.893836    
    114000   0.47977013    -7.8574926     -7.1378476      3.3003007      50218.233      36.893836      36.893836      36.893836    
    115000   0.4766006     -7.8525182     -7.1376274      3.352248       50218.233      36.893836      36.893836      36.893836    
    116000   0.47946897    -7.8528473     -7.1336541      3.3437892      50218.233      36.893836      36.893836      36.893836    
    117000   0.47798064    -7.8531802     -7.1362194      3.3583149      50218.233      36.893836      36.893836      36.893836    
    118000   0.47958179    -7.8587556     -7.1393931      3.30461        50218.233      36.893836      36.893836      36.893836    
    119000   0.47929119    -7.854609      -7.1356825      3.3482782      50218.233      36.893836      36.893836      36.893836    
    120000   0.48012966    -7.8545115     -7.1343273      3.3471928      50218.233      36.893836      36.893836      36.893836    
    121000   0.48024791    -7.8517017     -7.1313401      3.373185       50218.233      36.893836      36.893836      36.893836    
    122000   0.47975312    -7.8555517     -7.1359323      3.3340922      50218.233      36.893836      36.893836      36.893836    
    123000   0.48004775    -7.8583448     -7.1382834      3.3222853      50218.233      36.893836      36.893836      36.893836    
    124000   0.4788651     -7.8545967     -7.1363092      3.3440692      50218.233      36.893836      36.893836      36.893836    
    125000   0.47941618    -7.8524678     -7.1333538      3.3563526      50218.233      36.893836      36.893836      36.893836    
    126000   0.47844748    -7.8546487     -7.1369877      3.3370757      50218.233      36.893836      36.893836      36.893836    
    127000   0.47997689    -7.8513395     -7.1313844      3.3570377      50218.233      36.893836      36.893836      36.893836    
    128000   0.47842454    -7.8514579     -7.1338313      3.3525873      50218.233      36.893836      36.893836      36.893836    
    129000   0.48001736    -7.8498324     -7.1298166      3.3778668      50218.233      36.893836      36.893836      36.893836    
    130000   0.47988213    -7.8556618     -7.1358488      3.3209545      50218.233      36.893836      36.893836      36.893836    
    131000   0.47830296    -7.8592436     -7.1417993      3.2998135      50218.233      36.893836      36.893836      36.893836    
    132000   0.4813123     -7.8557557     -7.1337976      3.3393327      50218.233      36.893836      36.893836      36.893836    
    133000   0.47971418    -7.8522679     -7.1327069      3.355086       50218.233      36.893836      36.893836      36.893836    
    134000   0.4781079     -7.8572556     -7.1401039      3.3207204      50218.233      36.893836      36.893836      36.893836    
    135000   0.4817595     -7.8569583     -7.1343293      3.328836       50218.233      36.893836      36.893836      36.893836    
    136000   0.48245592    -7.8519793     -7.1283057      3.3769666      50218.233      36.893836      36.893836      36.893836    
    137000   0.48138556    -7.8518451     -7.1297771      3.3621281      50218.233      36.893836      36.893836      36.893836    
    138000   0.47972829    -7.8530185     -7.1334363      3.3606256      50218.233      36.893836      36.893836      36.893836    
    139000   0.48062543    -7.8560396     -7.1351117      3.3316444      50218.233      36.893836      36.893836      36.893836    
    140000   0.48074793    -7.8553989     -7.1342873      3.3285222      50218.233      36.893836      36.893836      36.893836    
    141000   0.47953292    -7.8536492     -7.1343601      3.3497221      50218.233      36.893836      36.893836      36.893836    
    142000   0.47974894    -7.8535923     -7.1339791      3.347708       50218.233      36.893836      36.893836      36.893836    
    143000   0.4812013     -7.8571713     -7.1353796      3.3229735      50218.233      36.893836      36.893836      36.893836    
    144000   0.47777621    -7.8542751     -7.137621       3.3394531      50218.233      36.893836      36.893836      36.893836    
    145000   0.48031335    -7.8558643     -7.1354045      3.3406574      50218.233      36.893836      36.893836      36.893836    
    146000   0.47860801    -7.8565484     -7.1386466      3.3189511      50218.233      36.893836      36.893836      36.893836    
    147000   0.48056708    -7.8512914     -7.130451       3.3589252      50218.233      36.893836      36.893836      36.893836    
    148000   0.47925214    -7.8570347     -7.1381667      3.3198057      50218.233      36.893836      36.893836      36.893836    
    149000   0.48173594    -7.8560916     -7.1334979      3.3415115      50218.233      36.893836      36.893836      36.893836    
    150000   0.48172201    -7.8551731     -7.1326003      3.3446637      50218.233      36.893836      36.893836      36.893836    
    151000   0.48189902    -7.8502969     -7.1274587      3.375424       50218.233      36.893836      36.893836      36.893836    
    152000   0.48129429    -7.8550774     -7.1331463      3.334483       50218.233      36.893836      36.893836      36.893836    
    153000   0.47972559    -7.8565304     -7.1369522      3.3262621      50218.233      36.893836      36.893836      36.893836    
    154000   0.47889757    -7.8572494     -7.1389133      3.3186623      50218.233      36.893836      36.893836      36.893836    
    155000   0.47844527    -7.8550759     -7.1374182      3.3423482      50218.233      36.893836      36.893836      36.893836    
    156000   0.48046264    -7.8528263     -7.1321426      3.3458452      50218.233      36.893836      36.893836      36.893836    
    157000   0.48168592    -7.854295      -7.1317764      3.3367864      50218.233      36.893836      36.893836      36.893836    
    158000   0.48168152    -7.8564948     -7.1339828      3.3271098      50218.233      36.893836      36.893836      36.893836    
    159000   0.47920193    -7.8578996     -7.139107       3.3108325      50218.233      36.893836      36.893836      36.893836    
    160000   0.47926973    -7.8567713     -7.1378769      3.3236805      50218.233      36.893836      36.893836      36.893836    
    161000   0.47874073    -7.8535058     -7.1354049      3.3487014      50218.233      36.893836      36.893836      36.893836    
    162000   0.48218505    -7.857738      -7.1344708      3.324582       50218.233      36.893836      36.893836      36.893836    
    163000   0.48204829    -7.8545956     -7.1315334      3.3426907      50218.233      36.893836      36.893836      36.893836    
    164000   0.47707165    -7.8515799     -7.1359826      3.3660839      50218.233      36.893836      36.893836      36.893836    
    165000   0.47769082    -7.8537286     -7.1372025      3.3419153      50218.233      36.893836      36.893836      36.893836    
    166000   0.48059305    -7.8517625     -7.1308831      3.3725877      50218.233      36.893836      36.893836      36.893836    
    167000   0.47708291    -7.851023      -7.1354088      3.3644106      50218.233      36.893836      36.893836      36.893836    
    168000   0.47820743    -7.8556046     -7.1383037      3.3262253      50218.233      36.893836      36.893836      36.893836    
    169000   0.47805669    -7.8573048     -7.14023        3.3181217      50218.233      36.893836      36.893836      36.893836    
    170000   0.48015884    -7.8525278     -7.1322997      3.3638711      50218.233      36.893836      36.893836      36.893836    
    171000   0.4794016     -7.8524426     -7.1333504      3.3612458      50218.233      36.893836      36.893836      36.893836    
    172000   0.47753183    -7.8574683     -7.1411807      3.321051       50218.233      36.893836      36.893836      36.893836    
    173000   0.48104485    -7.8555328     -7.1339758      3.3457391      50218.233      36.893836      36.893836      36.893836    
    174000   0.47685523    -7.8535115     -7.1382388      3.3469508      50218.233      36.893836      36.893836      36.893836    
    175000   0.47963295    -7.8546033     -7.1351641      3.3474134      50218.233      36.893836      36.893836      36.893836    
    176000   0.4786758     -7.855496      -7.1374925      3.3336275      50218.233      36.893836      36.893836      36.893836    
    177000   0.48058874    -7.8568222     -7.1359493      3.3220011      50218.233      36.893836      36.893836      36.893836    
    178000   0.47661352    -7.8560639     -7.1411538      3.3257943      50218.233      36.893836      36.893836      36.893836    
    179000   0.48125681    -7.8549508     -7.1330759      3.3532667      50218.233      36.893836      36.893836      36.893836    
    180000   0.47928043    -7.8508695     -7.1319591      3.3621572      50218.233      36.893836      36.893836      36.893836    
    181000   0.47770415    -7.8537228     -7.1371767      3.3451763      50218.233      36.893836      36.893836      36.893836    
    182000   0.47978919    -7.8557135     -7.13604        3.3307795      50218.233      36.893836      36.893836      36.893836    
    183000   0.48271367    -7.8560636     -7.1320034      3.3319589      50218.233      36.893836      36.893836      36.893836    
    184000   0.48103369    -7.8521086     -7.1305683      3.3603988      50218.233      36.893836      36.893836      36.893836    
    185000   0.47934865    -7.8555309     -7.1365181      3.3346522      50218.233      36.893836      36.893836      36.893836    
    186000   0.47807842    -7.8538264     -7.136719       3.3378279      50218.233      36.893836      36.893836      36.893836    
    187000   0.48040468    -7.8534892     -7.1328924      3.3505081      50218.233      36.893836      36.893836      36.893836    
    188000   0.477387      -7.8577394     -7.1416691      3.3158583      50218.233      36.893836      36.893836      36.893836    
    189000   0.48246543    -7.8530927     -7.1294049      3.3553798      50218.233      36.893836      36.893836      36.893836    
    190000   0.48001432    -7.8549791     -7.1349678      3.3391731      50218.233      36.893836      36.893836      36.893836    
    191000   0.48178246    -7.8574566     -7.1347931      3.3151147      50218.233      36.893836      36.893836      36.893836    
    192000   0.47827149    -7.8551192     -7.1377222      3.3262697      50218.233      36.893836      36.893836      36.893836    
    193000   0.47740228    -7.8551483     -7.1390551      3.3318615      50218.233      36.893836      36.893836      36.893836    
    194000   0.48045258    -7.8547801     -7.1341115      3.3391429      50218.233      36.893836      36.893836      36.893836    
    195000   0.47708883    -7.8526568     -7.1370338      3.3450238      50218.233      36.893836      36.893836      36.893836    
    196000   0.4811554     -7.8548084     -7.1330855      3.3439738      50218.233      36.893836      36.893836      36.893836    
    197000   0.47986312    -7.8499819     -7.1301975      3.3806582      50218.233      36.893836      36.893836      36.893836    
    198000   0.47797852    -7.8552209     -7.1382634      3.3278836      50218.233      36.893836      36.893836      36.893836    
    199000   0.47887514    -7.8564201     -7.1381176      3.3290564      50218.233      36.893836      36.893836      36.893836    
    200000   0.48043774    -7.8587635     -7.1381171      3.3181346      50218.233      36.893836      36.893836      36.893836    
    201000   0.47878999    -7.8566689     -7.1384942      3.3233666      50218.233      36.893836      36.893836      36.893836    
    202000   0.4806183     -7.8604624     -7.1395452      3.2989034      50218.233      36.893836      36.893836      36.893836    
    203000   0.47985443    -7.8584112     -7.1386398      3.3187978      50218.233      36.893836      36.893836      36.893836    
    204000   0.48059409    -7.8591723     -7.1382914      3.3096192      50218.233      36.893836      36.893836      36.893836    
    205000   0.47827236    -7.8554672     -7.1380688      3.3340755      50218.233      36.893836      36.893836      36.893836    
    206000   0.47981056    -7.8548612     -7.1351556      3.3401742      50218.233      36.893836      36.893836      36.893836    
    207000   0.48015151    -7.8517726     -7.1315556      3.3610068      50218.233      36.893836      36.893836      36.893836    
    208000   0.48128337    -7.8545627     -7.132648       3.345196       50218.233      36.893836      36.893836      36.893836    
    209000   0.48162954    -7.8600187     -7.1375846      3.3045757      50218.233      36.893836      36.893836      36.893836    
    210000   0.4794024     -7.85666       -7.1375667      3.3278964      50218.233      36.893836      36.893836      36.893836    
    211000   0.48080315    -7.8547894     -7.1335949      3.3442881      50218.233      36.893836      36.893836      36.893836    
    212000   0.47932677    -7.8549545     -7.1359745      3.3352627      50218.233      36.893836      36.893836      36.893836    
    213000   0.48093955    -7.8535387     -7.1321397      3.339506       50218.233      36.893836      36.893836      36.893836    
    214000   0.48029083    -7.8515613     -7.1311353      3.3659202      50218.233      36.893836      36.893836      36.893836    
    215000   0.48062267    -7.8497964     -7.1288726      3.379909       50218.233      36.893836      36.893836      36.893836    
    216000   0.47985507    -7.8522073     -7.132435       3.3591137      50218.233      36.893836      36.893836      36.893836    
    217000   0.48058057    -7.8540422     -7.1331816      3.3577953      50218.233      36.893836      36.893836      36.893836    
    218000   0.47836105    -7.857591      -7.1400596      3.3164487      50218.233      36.893836      36.893836      36.893836    
    219000   0.47742234    -7.8542753     -7.1381519      3.3378335      50218.233      36.893836      36.893836      36.893836    
    220000   0.47815575    -7.8534587     -7.1362353      3.347895       50218.233      36.893836      36.893836      36.893836    
    221000   0.48043116    -7.8548846     -7.1342481      3.3377957      50218.233      36.893836      36.893836      36.893836    
    222000   0.47943988    -7.8545917     -7.1354421      3.3382413      50218.233      36.893836      36.893836      36.893836    
    223000   0.47823224    -7.8538685     -7.1365304      3.3449294      50218.233      36.893836      36.893836      36.893836    
    224000   0.48123575    -7.8509465     -7.1291031      3.3611713      50218.233      36.893836      36.893836      36.893836    
    225000   0.47814625    -7.8545695     -7.1373603      3.3350654      50218.233      36.893836      36.893836      36.893836    
    226000   0.48138549    -7.8495095     -7.1274415      3.3840858      50218.233      36.893836      36.893836      36.893836    
    227000   0.48070977    -7.8520411     -7.1309867      3.3531775      50218.233      36.893836      36.893836      36.893836    
    228000   0.47858782    -7.8512245     -7.133353       3.36415        50218.233      36.893836      36.893836      36.893836    
    229000   0.47990205    -7.8460163     -7.1261734      3.4037078      50218.233      36.893836      36.893836      36.893836    
    230000   0.48025299    -7.8527569     -7.1323876      3.3472683      50218.233      36.893836      36.893836      36.893836    
    231000   0.47850073    -7.8533423     -7.1356015      3.3482595      50218.233      36.893836      36.893836      36.893836    
    232000   0.48030044    -7.855078      -7.1346376      3.3435658      50218.233      36.893836      36.893836      36.893836    
    233000   0.479736      -7.858168      -7.1385743      3.3104262      50218.233      36.893836      36.893836      36.893836    
    234000   0.47988212    -7.8528871     -7.1330741      3.3539998      50218.233      36.893836      36.893836      36.893836    
    235000   0.47915285    -7.8555202     -7.1368012      3.3385273      50218.233      36.893836      36.893836      36.893836    
    236000   0.48075431    -7.8570434     -7.1359222      3.3166323      50218.233      36.893836      36.893836      36.893836    
    237000   0.48026477    -7.8547886     -7.1344017      3.327501       50218.233      36.893836      36.893836      36.893836    
    238000   0.48204102    -7.854802      -7.1317507      3.3483807      50218.233      36.893836      36.893836      36.893836    
    239000   0.47776904    -7.8568903     -7.1402469      3.3159375      50218.233      36.893836      36.893836      36.893836    
    240000   0.47745891    -7.8575565     -7.1413784      3.314016       50218.233      36.893836      36.893836      36.893836    
    241000   0.48407041    -7.8561078     -7.1300125      3.3243075      50218.233      36.893836      36.893836      36.893836    
    242000   0.48053024    -7.8524575     -7.1316724      3.3561198      50218.233      36.893836      36.893836      36.893836    
    243000   0.48148909    -7.8562485     -7.1340251      3.3243804      50218.233      36.893836      36.893836      36.893836    
    244000   0.47780752    -7.8616501     -7.144949       3.2910854      50218.233      36.893836      36.893836      36.893836    
    245000   0.48157773    -7.8554171     -7.1330607      3.325998       50218.233      36.893836      36.893836      36.893836    
    246000   0.47976117    -7.8577097     -7.1380782      3.3095129      50218.233      36.893836      36.893836      36.893836    
    247000   0.48173229    -7.856342      -7.1337538      3.3300884      50218.233      36.893836      36.893836      36.893836    
    248000   0.47935261    -7.8539733     -7.1349546      3.336178       50218.233      36.893836      36.893836      36.893836    
    249000   0.48030504    -7.850934      -7.1304867      3.365259       50218.233      36.893836      36.893836      36.893836    
    250000   0.48071226    -7.8515576     -7.1304995      3.3639482      50218.233      36.893836      36.893836      36.893836    
    251000   0.47956353    -7.8547429     -7.1354078      3.3307427      50218.233      36.893836      36.893836      36.893836    
    252000   0.48141273    -7.8560007     -7.1338918      3.3371389      50218.233      36.893836      36.893836      36.893836    
    253000   0.47995695    -7.8583262     -7.138401       3.3039523      50218.233      36.893836      36.893836      36.893836    
    254000   0.47910758    -7.8608639     -7.1422128      3.2890184      50218.233      36.893836      36.893836      36.893836    
    255000   0.48139017    -7.857064      -7.134989       3.3221398      50218.233      36.893836      36.893836      36.893836    
    256000   0.48262496    -7.852441      -7.1285139      3.3471901      50218.233      36.893836      36.893836      36.893836    
    257000   0.48085896    -7.8577564     -7.1364782      3.3120252      50218.233      36.893836      36.893836      36.893836    
    258000   0.48045542    -7.8561291     -7.1354562      3.3236474      50218.233      36.893836      36.893836      36.893836    
    259000   0.47964043    -7.849411      -7.1299606      3.3774006      50218.233      36.893836      36.893836      36.893836    
    260000   0.48194164    -7.8550464     -7.1321442      3.3332096      50218.233      36.893836      36.893836      36.893836    
    261000   0.4818914     -7.8536052     -7.1307783      3.3429832      50218.233      36.893836      36.893836      36.893836    
    262000   0.48070914    -7.855556      -7.1345026      3.3279492      50218.233      36.893836      36.893836      36.893836    
    263000   0.47905607    -7.8551312     -7.1365573      3.3264236      50218.233      36.893836      36.893836      36.893836    
    264000   0.47986701    -7.8573277     -7.1375374      3.3178198      50218.233      36.893836      36.893836      36.893836    
    265000   0.47747177    -7.8555913     -7.1393938      3.3357808      50218.233      36.893836      36.893836      36.893836    
    266000   0.47786603    -7.8593592     -7.1425703      3.3114569      50218.233      36.893836      36.893836      36.893836    
    267000   0.48018132    -7.8542397     -7.1339779      3.3457363      50218.233      36.893836      36.893836      36.893836    
    268000   0.47821351    -7.8560118     -7.1387017      3.3256378      50218.233      36.893836      36.893836      36.893836    
    269000   0.48018808    -7.8520168     -7.131745       3.355774       50218.233      36.893836      36.893836      36.893836    
    270000   0.47943469    -7.8530035     -7.1338617      3.3537995      50218.233      36.893836      36.893836      36.893836    
    271000   0.47964957    -7.8530416     -7.1335775      3.3502361      50218.233      36.893836      36.893836      36.893836    
    272000   0.48102967    -7.8555104     -7.1339762      3.3421782      50218.233      36.893836      36.893836      36.893836    
    273000   0.47870516    -7.8507691     -7.1327215      3.3623418      50218.233      36.893836      36.893836      36.893836    
    274000   0.47927053    -7.8537066     -7.134811       3.3332467      50218.233      36.893836      36.893836      36.893836    
    275000   0.48388541    -7.8590094     -7.1331916      3.3079719      50218.233      36.893836      36.893836      36.893836    
    276000   0.48053234    -7.8523261     -7.1315378      3.3688757      50218.233      36.893836      36.893836      36.893836    
    277000   0.47979537    -7.8522001     -7.1325172      3.3544764      50218.233      36.893836      36.893836      36.893836    
    278000   0.48198169    -7.854545      -7.1315828      3.3367243      50218.233      36.893836      36.893836      36.893836    
    279000   0.48457618    -7.8527652     -7.1259112      3.3562618      50218.233      36.893836      36.893836      36.893836    
    280000   0.47807537    -7.8540388     -7.1369359      3.3406311      50218.233      36.893836      36.893836      36.893836    
    281000   0.47668945    -7.8533794     -7.1383554      3.3438223      50218.233      36.893836      36.893836      36.893836    
    282000   0.4808295     -7.852463      -7.131229       3.3555925      50218.233      36.893836      36.893836      36.893836    
    283000   0.47883152    -7.8545898     -7.1363527      3.3389012      50218.233      36.893836      36.893836      36.893836    
    284000   0.48137848    -7.8540759     -7.1320185      3.3516553      50218.233      36.893836      36.893836      36.893836    
    285000   0.4820703     -7.8538355     -7.1307403      3.3522393      50218.233      36.893836      36.893836      36.893836    
    286000   0.47883009    -7.8572604     -7.1390255      3.3127719      50218.233      36.893836      36.893836      36.893836    
    287000   0.48077198    -7.854546      -7.1333983      3.338789       50218.233      36.893836      36.893836      36.893836    
    288000   0.47731147    -7.8530642     -7.1371072      3.3477519      50218.233      36.893836      36.893836      36.893836    
    289000   0.47972679    -7.8576352     -7.1380552      3.3226866      50218.233      36.893836      36.893836      36.893836    
    290000   0.47847464    -7.8570229     -7.1393211      3.3192955      50218.233      36.893836      36.893836      36.893836    
    291000   0.47782174    -7.8564499     -7.1397275      3.319186       50218.233      36.893836      36.893836      36.893836    
    292000   0.48235949    -7.8494211     -7.1258921      3.3803517      50218.233      36.893836      36.893836      36.893836    
    293000   0.47965615    -7.8556497     -7.1361757      3.325972       50218.233      36.893836      36.893836      36.893836    
    294000   0.47997328    -7.856553      -7.1366033      3.3229507      50218.233      36.893836      36.893836      36.893836    
    295000   0.48015935    -7.8536745     -7.1334458      3.3507617      50218.233      36.893836      36.893836      36.893836    
    296000   0.4799923     -7.8543189     -7.1343407      3.3399505      50218.233      36.893836      36.893836      36.893836    
    297000   0.47816358    -7.8529319     -7.1356967      3.3527765      50218.233      36.893836      36.893836      36.893836    
    298000   0.47708057    -7.8576077     -7.141997       3.3167847      50218.233      36.893836      36.893836      36.893836    
    299000   0.47978734    -7.853042      -7.1333712      3.3447496      50218.233      36.893836      36.893836      36.893836    
    300000   0.47666515    -7.8570915     -7.1421039      3.3065748      50218.233      36.893836      36.893836      36.893836    
    301000   0.48324294    -7.8579326     -7.1330785      3.3165566      50218.233      36.893836      36.893836      36.893836    
    302000   0.48049401    -7.8548044     -7.1340736      3.3370196      50218.233      36.893836      36.893836      36.893836    
    303000   0.47998101    -7.855027      -7.1350657      3.3441707      50218.233      36.893836      36.893836      36.893836    
    304000   0.47759239    -7.856469      -7.1400906      3.3276819      50218.233      36.893836      36.893836      36.893836    
    305000   0.47963317    -7.8552374     -7.1357979      3.3274414      50218.233      36.893836      36.893836      36.893836    
    306000   0.47920949    -7.8548423     -7.1360382      3.3364201      50218.233      36.893836      36.893836      36.893836    
    307000   0.48095143    -7.8546051     -7.1331882      3.3461467      50218.233      36.893836      36.893836      36.893836    
    308000   0.4774462     -7.8531553     -7.1369962      3.3521199      50218.233      36.893836      36.893836      36.893836    
    309000   0.47889646    -7.8570584     -7.1387239      3.3115921      50218.233      36.893836      36.893836      36.893836    
    310000   0.48212076    -7.8543184     -7.1311476      3.3527645      50218.233      36.893836      36.893836      36.893836    
    311000   0.48073195    -7.8582716     -7.1371839      3.3064717      50218.233      36.893836      36.893836      36.893836    
    312000   0.48195595    -7.8539974     -7.1310737      3.3475773      50218.233      36.893836      36.893836      36.893836    
    313000   0.47990713    -7.8572114     -7.1373609      3.3197641      50218.233      36.893836      36.893836      36.893836    
    314000   0.48081076    -7.8570646     -7.1358587      3.318672       50218.233      36.893836      36.893836      36.893836    
    315000   0.47824685    -7.8558181     -7.138458       3.32202        50218.233      36.893836      36.893836      36.893836    
    316000   0.48142955    -7.8564448     -7.1343107      3.328761       50218.233      36.893836      36.893836      36.893836    
    317000   0.47957018    -7.853709      -7.134364       3.3514651      50218.233      36.893836      36.893836      36.893836    
    318000   0.48114858    -7.8540763     -7.1323637      3.3428915      50218.233      36.893836      36.893836      36.893836    
    319000   0.47962799    -7.8583034     -7.1388716      3.3115446      50218.233      36.893836      36.893836      36.893836    
    320000   0.48183969    -7.8533862     -7.1306369      3.3430628      50218.233      36.893836      36.893836      36.893836    
    321000   0.47907726    -7.8515859     -7.1329803      3.3553414      50218.233      36.893836      36.893836      36.893836    
    322000   0.48056532    -7.8574589     -7.1366212      3.3180917      50218.233      36.893836      36.893836      36.893836    
    323000   0.48027056    -7.8564891     -7.1360935      3.3280845      50218.233      36.893836      36.893836      36.893836    
    324000   0.4794007     -7.8540979     -7.1350071      3.3334968      50218.233      36.893836      36.893836      36.893836    
    325000   0.48262188    -7.8544976     -7.1305751      3.3358372      50218.233      36.893836      36.893836      36.893836    
    326000   0.48199442    -7.8530383     -7.130057       3.3683799      50218.233      36.893836      36.893836      36.893836    
    327000   0.47845602    -7.858121      -7.1404472      3.311627       50218.233      36.893836      36.893836      36.893836    
    328000   0.48214667    -7.8527852     -7.1295755      3.3597558      50218.233      36.893836      36.893836      36.893836    
    329000   0.4768648     -7.8504478     -7.1351608      3.3499494      50218.233      36.893836      36.893836      36.893836    
    330000   0.48139648    -7.8577739     -7.1356894      3.3057537      50218.233      36.893836      36.893836      36.893836    
    331000   0.47994877    -7.8533844     -7.1334715      3.3528073      50218.233      36.893836      36.893836      36.893836    
    332000   0.4800841     -7.8517345     -7.1316186      3.3610098      50218.233      36.893836      36.893836      36.893836    
    333000   0.4799381     -7.8528961     -7.1329992      3.3448297      50218.233      36.893836      36.893836      36.893836    
    334000   0.47972824    -7.852845      -7.1332629      3.3596598      50218.233      36.893836      36.893836      36.893836    
    335000   0.48201258    -7.8547386     -7.13173        3.3377662      50218.233      36.893836      36.893836      36.893836    
    336000   0.48227083    -7.8572965     -7.1339006      3.3119781      50218.233      36.893836      36.893836      36.893836    
    337000   0.48215488    -7.8552721     -7.1320501      3.3326281      50218.233      36.893836      36.893836      36.893836    
    338000   0.47861295    -7.8535304     -7.1356212      3.3485772      50218.233      36.893836      36.893836      36.893836    
    339000   0.47873108    -7.8540407     -7.1359543      3.3510261      50218.233      36.893836      36.893836      36.893836    
    340000   0.47998907    -7.8512728     -7.1312995      3.3605237      50218.233      36.893836      36.893836      36.893836    
    341000   0.47920507    -7.8545917     -7.1357943      3.3404133      50218.233      36.893836      36.893836      36.893836    
    342000   0.47800625    -7.8583769     -7.1413778      3.3099886      50218.233      36.893836      36.893836      36.893836    
    343000   0.48147603    -7.8597467     -7.1375429      3.2968278      50218.233      36.893836      36.893836      36.893836    
    344000   0.48061454    -7.8542753     -7.1333637      3.3457961      50218.233      36.893836      36.893836      36.893836    
    345000   0.47886535    -7.8517095     -7.1334217      3.360127       50218.233      36.893836      36.893836      36.893836    
    346000   0.4827289     -7.8542267     -7.1301437      3.3411888      50218.233      36.893836      36.893836      36.893836    
    347000   0.47989457    -7.8543146     -7.134483       3.3477273      50218.233      36.893836      36.893836      36.893836    
    348000   0.47973632    -7.852942      -7.1333477      3.3489329      50218.233      36.893836      36.893836      36.893836    
    349000   0.48079434    -7.8588878     -7.1377065      3.30878        50218.233      36.893836      36.893836      36.893836    
    350000   0.4805414     -7.855934      -7.1351322      3.32765        50218.233      36.893836      36.893836      36.893836    
    351000   0.47992482    -7.8548774     -7.1350004      3.3372243      50218.233      36.893836      36.893836      36.893836    
    352000   0.48065392    -7.8510591     -7.1300885      3.3729459      50218.233      36.893836      36.893836      36.893836    
    353000   0.47950046    -7.8526429     -7.1334024      3.3641443      50218.233      36.893836      36.893836      36.893836    
    354000   0.48174086    -7.8544573     -7.1318563      3.3375224      50218.233      36.893836      36.893836      36.893836    
    355000   0.47855926    -7.8563277     -7.138499       3.3261144      50218.233      36.893836      36.893836      36.893836    
    356000   0.4797203     -7.8585156     -7.1389454      3.3083338      50218.233      36.893836      36.893836      36.893836    
    357000   0.47898299    -7.8534412     -7.1349769      3.3478318      50218.233      36.893836      36.893836      36.893836    
    358000   0.47659782    -7.8566184     -7.1417318      3.3172781      50218.233      36.893836      36.893836      36.893836    
    359000   0.4812437     -7.8561176     -7.1342623      3.332718       50218.233      36.893836      36.893836      36.893836    
    360000   0.47942675    -7.8555113     -7.1363814      3.3392163      50218.233      36.893836      36.893836      36.893836    
    361000   0.47691707    -7.8552887     -7.1399233      3.3355974      50218.233      36.893836      36.893836      36.893836    
    362000   0.4804708     -7.8526344     -7.1319384      3.3470926      50218.233      36.893836      36.893836      36.893836    
    363000   0.47942105    -7.8514354     -7.132314       3.3584772      50218.233      36.893836      36.893836      36.893836    
    364000   0.48074319    -7.8543106     -7.1332061      3.3430184      50218.233      36.893836      36.893836      36.893836    
    365000   0.48089994    -7.8536983     -7.1323586      3.3517474      50218.233      36.893836      36.893836      36.893836    
    366000   0.47954661    -7.8514203     -7.1321106      3.3640741      50218.233      36.893836      36.893836      36.893836    
    367000   0.47971569    -7.8590021     -7.1394388      3.3143932      50218.233      36.893836      36.893836      36.893836    
    368000   0.48035268    -7.8583463     -7.1378275      3.3126448      50218.233      36.893836      36.893836      36.893836    
    369000   0.48081708    -7.8554775     -7.1342621      3.3367532      50218.233      36.893836      36.893836      36.893836    
    370000   0.47989535    -7.8517912     -7.1319584      3.3521186      50218.233      36.893836      36.893836      36.893836    
    371000   0.48039929    -7.8554992     -7.1349105      3.3370402      50218.233      36.893836      36.893836      36.893836    
    372000   0.48070024    -7.8563995     -7.1353594      3.327694       50218.233      36.893836      36.893836      36.893836    
    373000   0.48062343    -7.8510455     -7.1301206      3.3661323      50218.233      36.893836      36.893836      36.893836    
    374000   0.48029307    -7.8536734     -7.1332441      3.34143        50218.233      36.893836      36.893836      36.893836    
    375000   0.4806534     -7.8555381     -7.1345683      3.3298283      50218.233      36.893836      36.893836      36.893836    
    376000   0.48057905    -7.8547083     -7.13385        3.3395684      50218.233      36.893836      36.893836      36.893836    
    377000   0.48131089    -7.8550069     -7.1330508      3.3440422      50218.233      36.893836      36.893836      36.893836    
    378000   0.47892365    -7.8550467     -7.1366715      3.3419086      50218.233      36.893836      36.893836      36.893836    
    379000   0.47682311    -7.8550294     -7.1398049      3.3319244      50218.233      36.893836      36.893836      36.893836    
    380000   0.4814131     -7.8558234     -7.133714       3.3341305      50218.233      36.893836      36.893836      36.893836    
    381000   0.48312938    -7.8554004     -7.1307166      3.3377813      50218.233      36.893836      36.893836      36.893836    
    382000   0.48188448    -7.8567337     -7.1339173      3.325935       50218.233      36.893836      36.893836      36.893836    
    383000   0.4776198     -7.8537694     -7.1373499      3.3470969      50218.233      36.893836      36.893836      36.893836    
    384000   0.4811949     -7.8585528     -7.1367707      3.3107789      50218.233      36.893836      36.893836      36.893836    
    385000   0.4812517     -7.8543735     -7.1325062      3.3515482      50218.233      36.893836      36.893836      36.893836    
    386000   0.47622635    -7.852107      -7.1377776      3.3592842      50218.233      36.893836      36.893836      36.893836    
    387000   0.48027682    -7.8566098     -7.1362048      3.3219698      50218.233      36.893836      36.893836      36.893836    
    388000   0.47934205    -7.857324      -7.1383212      3.3207151      50218.233      36.893836      36.893836      36.893836    
    389000   0.47799623    -7.8575919     -7.1406078      3.3164361      50218.233      36.893836      36.893836      36.893836    
    390000   0.47918015    -7.8553279     -7.1365679      3.3340796      50218.233      36.893836      36.893836      36.893836    
    391000   0.48049526    -7.8555946     -7.134862       3.3420858      50218.233      36.893836      36.893836      36.893836    
    392000   0.48220034    -7.8516155     -7.1283253      3.3573825      50218.233      36.893836      36.893836      36.893836    
    393000   0.4790943     -7.8593919     -7.1407607      3.2992131      50218.233      36.893836      36.893836      36.893836    
    394000   0.47864515    -7.8568159     -7.1388584      3.3227281      50218.233      36.893836      36.893836      36.893836    
    395000   0.48114115    -7.8584326     -7.1367312      3.3122251      50218.233      36.893836      36.893836      36.893836    
    396000   0.47959214    -7.8624678     -7.1430898      3.281167       50218.233      36.893836      36.893836      36.893836    
    397000   0.48057408    -7.8557683     -7.1349175      3.323547       50218.233      36.893836      36.893836      36.893836    
    398000   0.48171807    -7.8599249     -7.1373581      3.3082235      50218.233      36.893836      36.893836      36.893836    
    399000   0.48141364    -7.8566774     -7.1345672      3.324594       50218.233      36.893836      36.893836      36.893836    
    400000   0.47870492    -7.8540689     -7.1360217      3.3308399      50218.233      36.893836      36.893836      36.893836    
    401000   0.48093362    -7.8559603     -7.1345701      3.3376349      50218.233      36.893836      36.893836      36.893836    
    402000   0.48133976    -7.8535677     -7.1315683      3.3444475      50218.233      36.893836      36.893836      36.893836    
    403000   0.4793845     -7.8572876     -7.1382211      3.3309622      50218.233      36.893836      36.893836      36.893836    
    404000   0.48030065    -7.8502871     -7.1298464      3.3762786      50218.233      36.893836      36.893836      36.893836    
    405000   0.48040865    -7.8565183     -7.1359156      3.3159745      50218.233      36.893836      36.893836      36.893836    
    406000   0.48094922    -7.8550975     -7.133684       3.341629       50218.233      36.893836      36.893836      36.893836    
    407000   0.47947362    -7.8568811     -7.1376809      3.3126069      50218.233      36.893836      36.893836      36.893836    
    408000   0.48156286    -7.8545962     -7.1322622      3.3382832      50218.233      36.893836      36.893836      36.893836    
    409000   0.47915966    -7.854228      -7.1354987      3.3402741      50218.233      36.893836      36.893836      36.893836    
    410000   0.48228705    -7.8551091     -7.1316888      3.347349       50218.233      36.893836      36.893836      36.893836    
    411000   0.47680476    -7.8532854     -7.1380884      3.3442256      50218.233      36.893836      36.893836      36.893836    
    412000   0.48078163    -7.857544      -7.1363818      3.3138357      50218.233      36.893836      36.893836      36.893836    
    413000   0.47985534    -7.8542003     -7.1344276      3.3438976      50218.233      36.893836      36.893836      36.893836    
    414000   0.4807717     -7.8575267     -7.1363794      3.3100575      50218.233      36.893836      36.893836      36.893836    
    415000   0.48099893    -7.8576753     -7.1361872      3.3206848      50218.233      36.893836      36.893836      36.893836    
    416000   0.481708      -7.854827      -7.1322753      3.3441827      50218.233      36.893836      36.893836      36.893836    
    417000   0.47912137    -7.8547944     -7.1361225      3.348143       50218.233      36.893836      36.893836      36.893836    
    418000   0.47609121    -7.8494707     -7.135344       3.3743578      50218.233      36.893836      36.893836      36.893836    
    419000   0.47944785    -7.8555722     -7.1364106      3.3317891      50218.233      36.893836      36.893836      36.893836    
    420000   0.48127549    -7.8512179     -7.1293149      3.3649522      50218.233      36.893836      36.893836      36.893836    
    421000   0.48069757    -7.8533389     -7.1323028      3.3421857      50218.233      36.893836      36.893836      36.893836    
    422000   0.47798851    -7.8527788     -7.1358062      3.3375042      50218.233      36.893836      36.893836      36.893836    
    423000   0.48035034    -7.8535416     -7.1330264      3.3549699      50218.233      36.893836      36.893836      36.893836    
    424000   0.48194255    -7.8523049     -7.1294014      3.359116       50218.233      36.893836      36.893836      36.893836    
    425000   0.47910664    -7.8526522     -7.1340025      3.3519445      50218.233      36.893836      36.893836      36.893836    
    426000   0.48131772    -7.8555639     -7.1335976      3.3312609      50218.233      36.893836      36.893836      36.893836    
    427000   0.48149579    -7.8514718     -7.1292383      3.3708808      50218.233      36.893836      36.893836      36.893836    
    428000   0.47991413    -7.8525077     -7.1326467      3.3540932      50218.233      36.893836      36.893836      36.893836    
    429000   0.47908045    -7.8526575     -7.1340471      3.358084       50218.233      36.893836      36.893836      36.893836    
    430000   0.48305262    -7.852607      -7.1280383      3.3506238      50218.233      36.893836      36.893836      36.893836    
    431000   0.48214629    -7.85491       -7.1317008      3.3399482      50218.233      36.893836      36.893836      36.893836    
    432000   0.4795035     -7.8553626     -7.1361176      3.3399799      50218.233      36.893836      36.893836      36.893836    
    433000   0.47852335    -7.8557938     -7.138019       3.3298876      50218.233      36.893836      36.893836      36.893836    
    434000   0.47982329    -7.8517523     -7.1320275      3.3499648      50218.233      36.893836      36.893836      36.893836    
    435000   0.48158393    -7.8521319     -7.1297663      3.3609566      50218.233      36.893836      36.893836      36.893836    
    436000   0.47791622    -7.855053      -7.1381888      3.3271379      50218.233      36.893836      36.893836      36.893836    
    437000   0.48220862    -7.8559245     -7.1326218      3.3265662      50218.233      36.893836      36.893836      36.893836    
    438000   0.48042429    -7.8526194     -7.1319932      3.3586787      50218.233      36.893836      36.893836      36.893836    
    439000   0.48150294    -7.8581256     -7.1358814      3.3061095      50218.233      36.893836      36.893836      36.893836    
    440000   0.4800635     -7.8550427     -7.1349577      3.339973       50218.233      36.893836      36.893836      36.893836    
    441000   0.47903502    -7.8565053     -7.137963       3.3301942      50218.233      36.893836      36.893836      36.893836    
    442000   0.47958217    -7.8541782     -7.1348151      3.3399979      50218.233      36.893836      36.893836      36.893836    
    443000   0.48129881    -7.8530233     -7.1310854      3.3563124      50218.233      36.893836      36.893836      36.893836    
    444000   0.47675779    -7.8541505     -7.139024       3.3438847      50218.233      36.893836      36.893836      36.893836    
    445000   0.48069059    -7.855033      -7.1340073      3.336723       50218.233      36.893836      36.893836      36.893836    
    446000   0.48148156    -7.8531945     -7.1309824      3.3481434      50218.233      36.893836      36.893836      36.893836    
    447000   0.47984472    -7.8520315     -7.1322747      3.3693377      50218.233      36.893836      36.893836      36.893836    
    448000   0.47922206    -7.8604519     -7.141629       3.2911826      50218.233      36.893836      36.893836      36.893836    
    449000   0.47833722    -7.857346      -7.1398504      3.3165202      50218.233      36.893836      36.893836      36.893836    
    450000   0.48212944    -7.854707      -7.1315231      3.3358088      50218.233      36.893836      36.893836      36.893836    
    451000   0.47821021    -7.8602513     -7.1429462      3.3022293      50218.233      36.893836      36.893836      36.893836    
    452000   0.47863565    -7.8570467     -7.1391034      3.3169607      50218.233      36.893836      36.893836      36.893836    
    453000   0.48099486    -7.8566741     -7.135192       3.3236661      50218.233      36.893836      36.893836      36.893836    
    454000   0.48058427    -7.8548202     -7.1339541      3.325417       50218.233      36.893836      36.893836      36.893836    
    455000   0.47869389    -7.8549641     -7.1369335      3.3377439      50218.233      36.893836      36.893836      36.893836    
    456000   0.47665547    -7.8538989     -7.1389258      3.3265798      50218.233      36.893836      36.893836      36.893836    
    457000   0.47921516    -7.858685      -7.1398725      3.302064       50218.233      36.893836      36.893836      36.893836    
    458000   0.48197091    -7.8500493     -7.1271032      3.3781276      50218.233      36.893836      36.893836      36.893836    
    459000   0.48202362    -7.8556258     -7.1326006      3.3276122      50218.233      36.893836      36.893836      36.893836    
    460000   0.48237942    -7.8545714     -7.1310126      3.3415714      50218.233      36.893836      36.893836      36.893836    
    461000   0.477548      -7.8538486     -7.1375368      3.3399387      50218.233      36.893836      36.893836      36.893836    
    462000   0.48020958    -7.8548452     -7.1345411      3.3278972      50218.233      36.893836      36.893836      36.893836    
    463000   0.477198      -7.8533545     -7.1375677      3.343158       50218.233      36.893836      36.893836      36.893836    
    464000   0.48079319    -7.8575996     -7.13642        3.3262674      50218.233      36.893836      36.893836      36.893836    
    465000   0.480596      -7.8560846     -7.1352009      3.3193571      50218.233      36.893836      36.893836      36.893836    
    466000   0.48180535    -7.8553397     -7.1326419      3.3235974      50218.233      36.893836      36.893836      36.893836    
    467000   0.4797572     -7.8538079     -7.1341824      3.3462084      50218.233      36.893836      36.893836      36.893836    
    468000   0.47694295    -7.8534204     -7.1380162      3.347233       50218.233      36.893836      36.893836      36.893836    
    469000   0.47910282    -7.8555635     -7.1369195      3.342552       50218.233      36.893836      36.893836      36.893836    
    470000   0.48125969    -7.8547364     -7.1328571      3.3420518      50218.233      36.893836      36.893836      36.893836    
    471000   0.47985577    -7.8559912     -7.1362178      3.3329691      50218.233      36.893836      36.893836      36.893836    
    472000   0.48197237    -7.8544465     -7.1314982      3.3508025      50218.233      36.893836      36.893836      36.893836    
    473000   0.48119819    -7.8541338     -7.1323468      3.33766        50218.233      36.893836      36.893836      36.893836    
    474000   0.48157811    -7.8499731     -7.1276162      3.3773522      50218.233      36.893836      36.893836      36.893836    
    475000   0.47792249    -7.8535844     -7.1367109      3.3467691      50218.233      36.893836      36.893836      36.893836    
    476000   0.4811934     -7.8505496     -7.1287697      3.3688305      50218.233      36.893836      36.893836      36.893836    
    477000   0.48148458    -7.8550403     -7.1328237      3.3382921      50218.233      36.893836      36.893836      36.893836    
    478000   0.47885454    -7.8494455     -7.1311739      3.3741989      50218.233      36.893836      36.893836      36.893836    
    479000   0.47966299    -7.853839      -7.1343548      3.3527762      50218.233      36.893836      36.893836      36.893836    
    480000   0.47902572    -7.8535328     -7.1350044      3.3522456      50218.233      36.893836      36.893836      36.893836    
    481000   0.48080541    -7.853649      -7.1324511      3.3399718      50218.233      36.893836      36.893836      36.893836    
    482000   0.47912037    -7.8527534     -7.134083       3.3453592      50218.233      36.893836      36.893836      36.893836    
    483000   0.48184483    -7.8546394     -7.1318824      3.3346348      50218.233      36.893836      36.893836      36.893836    
    484000   0.47899398    -7.8527913     -7.1343106      3.3507381      50218.233      36.893836      36.893836      36.893836    
    485000   0.4770739     -7.8535136     -7.1379129      3.3456659      50218.233      36.893836      36.893836      36.893836    
    486000   0.47971568    -7.8553733     -7.13581        3.3288145      50218.233      36.893836      36.893836      36.893836    
    487000   0.47957813    -7.8538192     -7.1344623      3.3366995      50218.233      36.893836      36.893836      36.893836    
    488000   0.48002826    -7.8566628     -7.1366307      3.3329506      50218.233      36.893836      36.893836      36.893836    
    489000   0.47796254    -7.8505736     -7.13364        3.3665712      50218.233      36.893836      36.893836      36.893836    
    490000   0.47953909    -7.8541002     -7.1348018      3.3434469      50218.233      36.893836      36.893836      36.893836    
    491000   0.48074327    -7.8572459     -7.1361412      3.3217025      50218.233      36.893836      36.893836      36.893836    
    492000   0.48207579    -7.8514325     -7.1283291      3.3651204      50218.233      36.893836      36.893836      36.893836    
    493000   0.47941378    -7.8551821     -7.1360717      3.3487546      50218.233      36.893836      36.893836      36.893836    
    494000   0.48126726    -7.8559694     -7.1340788      3.3323472      50218.233      36.893836      36.893836      36.893836    
    495000   0.48208449    -7.8559484     -7.1328319      3.3298157      50218.233      36.893836      36.893836      36.893836    
    496000   0.48034425    -7.8568902     -7.1363841      3.3231703      50218.233      36.893836      36.893836      36.893836    
    497000   0.48044454    -7.8552383     -7.1345817      3.3451541      50218.233      36.893836      36.893836      36.893836    
    498000   0.47871421    -7.8550718     -7.1370107      3.3300055      50218.233      36.893836      36.893836      36.893836    
    499000   0.4779948     -7.8503206     -7.1333386      3.3646839      50218.233      36.893836      36.893836      36.893836    
    500000   0.47885399    -7.8589998     -7.140729       3.3125818      50218.233      36.893836      36.893836      36.893836    
    501000   0.47818189    -7.8554455     -7.1381829      3.3338314      50218.233      36.893836      36.893836      36.893836    
    502000   0.47797369    -7.8557422     -7.1387919      3.3307084      50218.233      36.893836      36.893836      36.893836    
    503000   0.48091592    -7.8543362     -7.1329725      3.3431761      50218.233      36.893836      36.893836      36.893836    
    504000   0.47659184    -7.8518224     -7.1369448      3.353406       50218.233      36.893836      36.893836      36.893836    
    505000   0.48177072    -7.8568154     -7.1341696      3.3301794      50218.233      36.893836      36.893836      36.893836    
    506000   0.47874019    -7.8564054     -7.1383053      3.3210435      50218.233      36.893836      36.893836      36.893836    
    507000   0.48260334    -7.8548946     -7.1309999      3.340958       50218.233      36.893836      36.893836      36.893836    
    508000   0.48435249    -7.8544868     -7.1279684      3.3544304      50218.233      36.893836      36.893836      36.893836    
    509000   0.4795074     -7.8510185     -7.1317676      3.3740248      50218.233      36.893836      36.893836      36.893836    
    510000   0.48070096    -7.8544048     -7.1333636      3.3426149      50218.233      36.893836      36.893836      36.893836    
    511000   0.48039072    -7.8569111     -7.1363352      3.3230625      50218.233      36.893836      36.893836      36.893836    
    512000   0.4798588     -7.8555829     -7.1358049      3.3368519      50218.233      36.893836      36.893836      36.893836    
    513000   0.48018293    -7.8547876     -7.1345234      3.3262595      50218.233      36.893836      36.893836      36.893836    
    514000   0.47960758    -7.8556504     -7.1362492      3.3294321      50218.233      36.893836      36.893836      36.893836    
    515000   0.48230666    -7.8524566     -7.1290069      3.3465608      50218.233      36.893836      36.893836      36.893836    
    516000   0.47853134    -7.8544221     -7.1366353      3.3368346      50218.233      36.893836      36.893836      36.893836    
    517000   0.47742502    -7.8529882     -7.1368608      3.3430398      50218.233      36.893836      36.893836      36.893836    
    518000   0.47890571    -7.8476398     -7.1292914      3.3941813      50218.233      36.893836      36.893836      36.893836    
    519000   0.48178703    -7.8543323     -7.131662       3.3488963      50218.233      36.893836      36.893836      36.893836    
    520000   0.47932772    -7.8551959     -7.1362145      3.3363008      50218.233      36.893836      36.893836      36.893836    
    521000   0.47920919    -7.8527395     -7.133936       3.3540187      50218.233      36.893836      36.893836      36.893836    
    522000   0.48101762    -7.8547943     -7.1332781      3.3365896      50218.233      36.893836      36.893836      36.893836    
    523000   0.47877927    -7.8515865     -7.1334278      3.3584229      50218.233      36.893836      36.893836      36.893836    
    524000   0.48112259    -7.8547729     -7.1330993      3.3342387      50218.233      36.893836      36.893836      36.893836    
    525000   0.47957727    -7.8531387     -7.133783       3.3566958      50218.233      36.893836      36.893836      36.893836    
    526000   0.4795459     -7.8535007     -7.1341921      3.3457926      50218.233      36.893836      36.893836      36.893836    
    527000   0.48025371    -7.8564338     -7.1360635      3.3318621      50218.233      36.893836      36.893836      36.893836    
    528000   0.47990347    -7.8522714     -7.1324265      3.3511202      50218.233      36.893836      36.893836      36.893836    
    529000   0.4778748     -7.8511764     -7.1343744      3.3593493      50218.233      36.893836      36.893836      36.893836    
    530000   0.47990901    -7.8546182     -7.1347649      3.3405061      50218.233      36.893836      36.893836      36.893836    
    531000   0.4804573     -7.8528306     -7.1321549      3.3531657      50218.233      36.893836      36.893836      36.893836    
    532000   0.47974534    -7.8520462     -7.1324384      3.3517942      50218.233      36.893836      36.893836      36.893836    
    533000   0.47980325    -7.8527918     -7.1330971      3.3589237      50218.233      36.893836      36.893836      36.893836    
    534000   0.4800243     -7.858761      -7.1387348      3.3087764      50218.233      36.893836      36.893836      36.893836    
    535000   0.47768255    -7.8534989     -7.1369852      3.3359891      50218.233      36.893836      36.893836      36.893836    
    536000   0.47934285    -7.853919      -7.1349149      3.3355426      50218.233      36.893836      36.893836      36.893836    
    537000   0.48087802    -7.8563958     -7.135089       3.3305153      50218.233      36.893836      36.893836      36.893836    
    538000   0.48045098    -7.8569591     -7.1362929      3.3164264      50218.233      36.893836      36.893836      36.893836    
    539000   0.47976224    -7.8541933     -7.1345601      3.3311338      50218.233      36.893836      36.893836      36.893836    
    540000   0.48018568    -7.857045      -7.1367767      3.322377       50218.233      36.893836      36.893836      36.893836    
    541000   0.48251251    -7.8532402     -7.1294817      3.348229       50218.233      36.893836      36.893836      36.893836    
    542000   0.47916041    -7.8544151     -7.1356847      3.337692       50218.233      36.893836      36.893836      36.893836    
    543000   0.4830767     -7.8573175     -7.1327127      3.3202087      50218.233      36.893836      36.893836      36.893836    
    544000   0.48020609    -7.8560187     -7.1357198      3.3291783      50218.233      36.893836      36.893836      36.893836    
    545000   0.48284505    -7.8512243     -7.126967       3.3610396      50218.233      36.893836      36.893836      36.893836    
    546000   0.48050799    -7.8517208     -7.1309691      3.3588085      50218.233      36.893836      36.893836      36.893836    
    547000   0.47909456    -7.8550825     -7.1364508      3.3272503      50218.233      36.893836      36.893836      36.893836    
    548000   0.48167947    -7.8548709     -7.1323619      3.3282404      50218.233      36.893836      36.893836      36.893836    
    549000   0.48128148    -7.8530634     -7.1311514      3.3496371      50218.233      36.893836      36.893836      36.893836    
    550000   0.47921275    -7.8568617     -7.1380528      3.3233887      50218.233      36.893836      36.893836      36.893836    
    551000   0.47993829    -7.8530198     -7.1331226      3.3382705      50218.233      36.893836      36.893836      36.893836    
    552000   0.48025715    -7.8575489     -7.1371735      3.3179796      50218.233      36.893836      36.893836      36.893836    
    553000   0.47926888    -7.8550131     -7.13612        3.3433761      50218.233      36.893836      36.893836      36.893836    
    554000   0.48219609    -7.8562689     -7.1329851      3.3253313      50218.233      36.893836      36.893836      36.893836    
    555000   0.48161099    -7.8562695     -7.1338633      3.323996       50218.233      36.893836      36.893836      36.893836    
    556000   0.47808217    -7.8543554     -7.1372423      3.3360988      50218.233      36.893836      36.893836      36.893836    
    557000   0.48064475    -7.8580798     -7.1371229      3.3110475      50218.233      36.893836      36.893836      36.893836    
    558000   0.48080851    -7.8534016     -7.1321991      3.3467763      50218.233      36.893836      36.893836      36.893836    
    559000   0.48030287    -7.8547622     -7.1343181      3.3298539      50218.233      36.893836      36.893836      36.893836    
    560000   0.47905187    -7.8541088     -7.1355412      3.3477184      50218.233      36.893836      36.893836      36.893836    
    561000   0.48156931    -7.8544005     -7.1320569      3.34421        50218.233      36.893836      36.893836      36.893836    
    562000   0.479709      -7.8551587     -7.1356054      3.3423467      50218.233      36.893836      36.893836      36.893836    
    563000   0.48105237    -7.8528967     -7.1313284      3.3530283      50218.233      36.893836      36.893836      36.893836    
    564000   0.47953558    -7.8536218     -7.1343287      3.3420913      50218.233      36.893836      36.893836      36.893836    
    565000   0.47910322    -7.8550025     -7.1363579      3.3306435      50218.233      36.893836      36.893836      36.893836    
    566000   0.48142804    -7.8539006     -7.1317688      3.3499891      50218.233      36.893836      36.893836      36.893836    
    567000   0.48087284    -7.8547094     -7.1334105      3.3367197      50218.233      36.893836      36.893836      36.893836    
    568000   0.47906678    -7.8571718     -7.1385818      3.3099877      50218.233      36.893836      36.893836      36.893836    
    569000   0.48266846    -7.8529723     -7.1289799      3.3488602      50218.233      36.893836      36.893836      36.893836    
    570000   0.47830717    -7.8550592     -7.1376087      3.3373392      50218.233      36.893836      36.893836      36.893836    
    571000   0.4798705     -7.8558752     -7.1360797      3.3344345      50218.233      36.893836      36.893836      36.893836    
    572000   0.48013959    -7.852604      -7.1324048      3.3515378      50218.233      36.893836      36.893836      36.893836    
    573000   0.47969966    -7.8536801     -7.1341409      3.3403268      50218.233      36.893836      36.893836      36.893836    
    574000   0.47973876    -7.8576529     -7.138055       3.3083985      50218.233      36.893836      36.893836      36.893836    
    575000   0.4820025     -7.8491425     -7.126149       3.3974614      50218.233      36.893836      36.893836      36.893836    
    576000   0.48057739    -7.8558411     -7.1349853      3.3296458      50218.233      36.893836      36.893836      36.893836    
    577000   0.47728324    -7.8498107     -7.133896       3.3653925      50218.233      36.893836      36.893836      36.893836    
    578000   0.47889878    -7.8508613     -7.1325233      3.364051       50218.233      36.893836      36.893836      36.893836    
    579000   0.47965141    -7.855044      -7.1355771      3.3384266      50218.233      36.893836      36.893836      36.893836    
    580000   0.48062722    -7.8537879     -7.1328573      3.342265       50218.233      36.893836      36.893836      36.893836    
    581000   0.48077049    -7.8538685     -7.132723       3.3475186      50218.233      36.893836      36.893836      36.893836    
    582000   0.47826391    -7.8547978     -7.1374122      3.3339815      50218.233      36.893836      36.893836      36.893836    
    583000   0.47961208    -7.8535512     -7.1341433      3.3530869      50218.233      36.893836      36.893836      36.893836    
    584000   0.48068226    -7.856275      -7.1352619      3.3324134      50218.233      36.893836      36.893836      36.893836    
    585000   0.48043614    -7.8549166     -7.1342727      3.3351591      50218.233      36.893836      36.893836      36.893836    
    586000   0.47847441    -7.8529662     -7.1352648      3.3457726      50218.233      36.893836      36.893836      36.893836    
    587000   0.47883691    -7.8525412     -7.1342961      3.3557427      50218.233      36.893836      36.893836      36.893836    
    588000   0.47926459    -7.8538314     -7.1349447      3.3397323      50218.233      36.893836      36.893836      36.893836    
    589000   0.47913813    -7.84917       -7.1304731      3.3773614      50218.233      36.893836      36.893836      36.893836    
    590000   0.48078313    -7.8524774     -7.131313       3.3607093      50218.233      36.893836      36.893836      36.893836    
    591000   0.48145956    -7.858372      -7.1361929      3.3189054      50218.233      36.893836      36.893836      36.893836    
    592000   0.48182675    -7.8555997     -7.1328699      3.3107235      50218.233      36.893836      36.893836      36.893836    
    593000   0.48241905    -7.8563776     -7.1327593      3.3253842      50218.233      36.893836      36.893836      36.893836    
    594000   0.47931521    -7.8560857     -7.1371231      3.3106512      50218.233      36.893836      36.893836      36.893836    
    595000   0.48268915    -7.8552214     -7.131198       3.3279276      50218.233      36.893836      36.893836      36.893836    
    596000   0.47858477    -7.8554004     -7.1375335      3.3349876      50218.233      36.893836      36.893836      36.893836    
    597000   0.48057913    -7.8516916     -7.1308332      3.3606395      50218.233      36.893836      36.893836      36.893836    
    598000   0.48227124    -7.8549456     -7.131549       3.3481999      50218.233      36.893836      36.893836      36.893836    
    599000   0.4785658     -7.8546031     -7.1367646      3.3294364      50218.233      36.893836      36.893836      36.893836    
    600000   0.47934067    -7.8531792     -7.1341784      3.3413521      50218.233      36.893836      36.893836      36.893836    
    601000   0.48052758    -7.852426      -7.1316449      3.3631315      50218.233      36.893836      36.893836      36.893836    
    602000   0.48211967    -7.8553858     -7.1322165      3.3251889      50218.233      36.893836      36.893836      36.893836    
    603000   0.48080472    -7.8547531     -7.1335563      3.3462958      50218.233      36.893836      36.893836      36.893836    
    604000   0.48037985    -7.8579524     -7.1373929      3.3097193      50218.233      36.893836      36.893836      36.893836    
    605000   0.47984777    -7.8570066     -7.1372452      3.3237497      50218.233      36.893836      36.893836      36.893836    
    606000   0.48422223    -7.8523328     -7.1260097      3.3624443      50218.233      36.893836      36.893836      36.893836    
    607000   0.47955928    -7.8563864     -7.1370577      3.3350642      50218.233      36.893836      36.893836      36.893836    
    608000   0.47955364    -7.8543085     -7.1349883      3.3425146      50218.233      36.893836      36.893836      36.893836    
    609000   0.48035905    -7.8573052     -7.1367768      3.3312525      50218.233      36.893836      36.893836      36.893836    
    610000   0.4807584     -7.8531824     -7.1320551      3.3450909      50218.233      36.893836      36.893836      36.893836    
    611000   0.48129669    -7.8511777     -7.1292429      3.3653507      50218.233      36.893836      36.893836      36.893836    
    612000   0.47833914    -7.8538638     -7.1363653      3.3440124      50218.233      36.893836      36.893836      36.893836    
    613000   0.47816486    -7.8537699     -7.1365329      3.3379033      50218.233      36.893836      36.893836      36.893836    
    614000   0.4821015     -7.8550773     -7.1319353      3.329173       50218.233      36.893836      36.893836      36.893836    
    615000   0.4812808     -7.8541169     -7.132206       3.3399929      50218.233      36.893836      36.893836      36.893836    
    616000   0.47836818    -7.8587196     -7.1411775      3.3070788      50218.233      36.893836      36.893836      36.893836    
    617000   0.48333301    -7.853134      -7.1281448      3.3564501      50218.233      36.893836      36.893836      36.893836    
    618000   0.48075436    -7.8557644     -7.1346431      3.3250161      50218.233      36.893836      36.893836      36.893836    
    619000   0.48151943    -7.8516765     -7.1294076      3.3620882      50218.233      36.893836      36.893836      36.893836    
    620000   0.48022233    -7.8538972     -7.1335739      3.355015       50218.233      36.893836      36.893836      36.893836    
    621000   0.48061249    -7.852997      -7.1320885      3.361706       50218.233      36.893836      36.893836      36.893836    
    622000   0.48108299    -7.8541221     -7.1325078      3.3487199      50218.233      36.893836      36.893836      36.893836    
    623000   0.48045762    -7.8526209     -7.1319447      3.3572328      50218.233      36.893836      36.893836      36.893836    
    624000   0.47903284    -7.8538843     -7.1353453      3.3399648      50218.233      36.893836      36.893836      36.893836    
    625000   0.481573      -7.8559759     -7.1336267      3.3353919      50218.233      36.893836      36.893836      36.893836    
    626000   0.4791847     -7.8540657     -7.1352989      3.3404752      50218.233      36.893836      36.893836      36.893836    
    627000   0.4787418     -7.8528278     -7.1347253      3.3480383      50218.233      36.893836      36.893836      36.893836    
    628000   0.48074276    -7.8532961     -7.1321922      3.3429517      50218.233      36.893836      36.893836      36.893836    
    629000   0.47914683    -7.8525199     -7.1338098      3.3538506      50218.233      36.893836      36.893836      36.893836    
    630000   0.48089433    -7.8551541     -7.1338229      3.3445248      50218.233      36.893836      36.893836      36.893836    
    631000   0.48026674    -7.8522964     -7.1319066      3.3561759      50218.233      36.893836      36.893836      36.893836    
    632000   0.47680452    -7.8542769     -7.1390803      3.3326595      50218.233      36.893836      36.893836      36.893836    
    633000   0.48215279    -7.855069      -7.1318501      3.3416371      50218.233      36.893836      36.893836      36.893836    
    634000   0.47980677    -7.8533598     -7.1336599      3.344845       50218.233      36.893836      36.893836      36.893836    
    635000   0.48083095    -7.8502186     -7.1289824      3.3723458      50218.233      36.893836      36.893836      36.893836    
    636000   0.4787556     -7.85319       -7.1350668      3.3466337      50218.233      36.893836      36.893836      36.893836    
    637000   0.48003511    -7.8563586     -7.1363162      3.3248379      50218.233      36.893836      36.893836      36.893836    
    638000   0.48090866    -7.8545461     -7.1331933      3.3366705      50218.233      36.893836      36.893836      36.893836    
    639000   0.47974513    -7.8563868     -7.1367794      3.3246645      50218.233      36.893836      36.893836      36.893836    
    640000   0.48238561    -7.8542655     -7.1306974      3.3394363      50218.233      36.893836      36.893836      36.893836    
    641000   0.48247927    -7.8525859     -7.1288773      3.3543486      50218.233      36.893836      36.893836      36.893836    
    642000   0.48005194    -7.8523317     -7.132264       3.3620789      50218.233      36.893836      36.893836      36.893836    
    643000   0.47774012    -7.8527535     -7.1361535      3.3506906      50218.233      36.893836      36.893836      36.893836    
    644000   0.47872258    -7.8545491     -7.1364755      3.3404445      50218.233      36.893836      36.893836      36.893836    
    645000   0.47906337    -7.8537439     -7.1351591      3.3435115      50218.233      36.893836      36.893836      36.893836    
    646000   0.48251549    -7.8536416     -7.1298787      3.3371498      50218.233      36.893836      36.893836      36.893836    
    647000   0.47901933    -7.8530415     -7.1345227      3.3494191      50218.233      36.893836      36.893836      36.893836    
    648000   0.48120219    -7.8528375     -7.1310444      3.3605123      50218.233      36.893836      36.893836      36.893836    
    649000   0.48259086    -7.8548694     -7.1309934      3.3497233      50218.233      36.893836      36.893836      36.893836    
    650000   0.48143354    -7.8535249     -7.1313848      3.3502915      50218.233      36.893836      36.893836      36.893836    
    651000   0.4795068     -7.8547375     -7.1354876      3.3465613      50218.233      36.893836      36.893836      36.893836    
    652000   0.47979513    -7.8508417     -7.1311593      3.3624662      50218.233      36.893836      36.893836      36.893836    
    653000   0.4816506     -7.8569589     -7.1344932      3.3286473      50218.233      36.893836      36.893836      36.893836    
    654000   0.48223937    -7.8568869     -7.1335381      3.3316259      50218.233      36.893836      36.893836      36.893836    
    655000   0.47737201    -7.8541215     -7.1380736      3.3387186      50218.233      36.893836      36.893836      36.893836    
    656000   0.48153154    -7.8493539     -7.1270669      3.3848445      50218.233      36.893836      36.893836      36.893836    
    657000   0.4789714     -7.8546358     -7.1361889      3.3460056      50218.233      36.893836      36.893836      36.893836    
    658000   0.47753425    -7.8581205     -7.1418294      3.3031189      50218.233      36.893836      36.893836      36.893836    
    659000   0.47767773    -7.8540275     -7.1375211      3.3512794      50218.233      36.893836      36.893836      36.893836    
    660000   0.48004235    -7.8546242     -7.1345709      3.3441241      50218.233      36.893836      36.893836      36.893836    
    661000   0.48136863    -7.852457      -7.1304143      3.3585205      50218.233      36.893836      36.893836      36.893836    
    662000   0.47979313    -7.8545508     -7.1348713      3.3376956      50218.233      36.893836      36.893836      36.893836    
    663000   0.47820177    -7.8540441     -7.1367517      3.336982       50218.233      36.893836      36.893836      36.893836    
    664000   0.47953163    -7.8534867     -7.1341995      3.3489574      50218.233      36.893836      36.893836      36.893836    
    665000   0.47975544    -7.8540779     -7.134455       3.3427727      50218.233      36.893836      36.893836      36.893836    
    666000   0.47916555    -7.8489622     -7.1302241      3.3859403      50218.233      36.893836      36.893836      36.893836    
    667000   0.4821057     -7.8537978     -7.1306495      3.3552271      50218.233      36.893836      36.893836      36.893836    
    668000   0.47990684    -7.8517189     -7.1318689      3.3725962      50218.233      36.893836      36.893836      36.893836    
    669000   0.47856245    -7.8557054     -7.1378719      3.3313012      50218.233      36.893836      36.893836      36.893836    
    670000   0.47893131    -7.8526382     -7.1342514      3.3702619      50218.233      36.893836      36.893836      36.893836    
    671000   0.48201284    -7.8534603     -7.1304513      3.3462792      50218.233      36.893836      36.893836      36.893836    
    672000   0.47730341    -7.8488859     -7.1329409      3.3839406      50218.233      36.893836      36.893836      36.893836    
    673000   0.48078664    -7.8503507     -7.129181       3.3824598      50218.233      36.893836      36.893836      36.893836    
    674000   0.47973176    -7.8528739     -7.1332865      3.3597549      50218.233      36.893836      36.893836      36.893836    
    675000   0.48151084    -7.8514961     -7.1292402      3.3578374      50218.233      36.893836      36.893836      36.893836    
    676000   0.48305885    -7.8520969     -7.1275189      3.3649921      50218.233      36.893836      36.893836      36.893836    
    677000   0.48239585    -7.8528581     -7.1292747      3.3557374      50218.233      36.893836      36.893836      36.893836    
    678000   0.48168939    -7.8537005     -7.1311767      3.3461949      50218.233      36.893836      36.893836      36.893836    
    679000   0.48148962    -7.8557016     -7.1334775      3.3329312      50218.233      36.893836      36.893836      36.893836    
    680000   0.48003496    -7.8527409     -7.1326987      3.3484883      50218.233      36.893836      36.893836      36.893836    
    681000   0.47852981    -7.8555013     -7.1377168      3.3375657      50218.233      36.893836      36.893836      36.893836    
    682000   0.47834156    -7.8540561     -7.136554       3.3387466      50218.233      36.893836      36.893836      36.893836    
    683000   0.48012947    -7.8507721     -7.1305881      3.3725788      50218.233      36.893836      36.893836      36.893836    
    684000   0.48074086    -7.8579972     -7.1368962      3.3256275      50218.233      36.893836      36.893836      36.893836    
    685000   0.48175624    -7.8553861     -7.1327621      3.3420011      50218.233      36.893836      36.893836      36.893836    
    686000   0.47939319    -7.856681      -7.1376015      3.3203785      50218.233      36.893836      36.893836      36.893836    
    687000   0.48111468    -7.8543108     -7.1326491      3.3539487      50218.233      36.893836      36.893836      36.893836    
    688000   0.48109079    -7.8549926     -7.1333667      3.3444512      50218.233      36.893836      36.893836      36.893836    
    689000   0.47944103    -7.8550535     -7.1359022      3.3391587      50218.233      36.893836      36.893836      36.893836    
    690000   0.47874614    -7.8541912     -7.1360822      3.3427003      50218.233      36.893836      36.893836      36.893836    
    691000   0.48089493    -7.8585072     -7.1371751      3.3223893      50218.233      36.893836      36.893836      36.893836    
    692000   0.47894531    -7.8541693     -7.1357615      3.3428713      50218.233      36.893836      36.893836      36.893836    
    693000   0.48042211    -7.8554688     -7.1348459      3.3306142      50218.233      36.893836      36.893836      36.893836    
    694000   0.47756717    -7.8546342     -7.1382936      3.3392563      50218.233      36.893836      36.893836      36.893836    
    695000   0.47821066    -7.8561191     -7.1388134      3.3242138      50218.233      36.893836      36.893836      36.893836    
    696000   0.48236954    -7.8552528     -7.1317088      3.3366309      50218.233      36.893836      36.893836      36.893836    
    697000   0.47824796    -7.856182      -7.1388202      3.3186342      50218.233      36.893836      36.893836      36.893836    
    698000   0.47948328    -7.8533642     -7.1341495      3.3476423      50218.233      36.893836      36.893836      36.893836    
    699000   0.48058164    -7.8516553     -7.1307931      3.3583039      50218.233      36.893836      36.893836      36.893836    
    700000   0.47935006    -7.8531014     -7.1340865      3.3433607      50218.233      36.893836      36.893836      36.893836    
    701000   0.48091161    -7.8623133     -7.1409561      3.2877074      50218.233      36.893836      36.893836      36.893836    
    702000   0.47695882    -7.857045      -7.141617       3.3279961      50218.233      36.893836      36.893836      36.893836    
    703000   0.47821384    -7.8482897     -7.1309791      3.3839217      50218.233      36.893836      36.893836      36.893836    
    704000   0.47773748    -7.850877      -7.134281       3.3699636      50218.233      36.893836      36.893836      36.893836    
    705000   0.48017413    -7.8516799     -7.131429       3.3584149      50218.233      36.893836      36.893836      36.893836    
    706000   0.48046033    -7.8522329     -7.1315527      3.3666027      50218.233      36.893836      36.893836      36.893836    
    707000   0.48159475    -7.8566625     -7.1342807      3.3241303      50218.233      36.893836      36.893836      36.893836    
    708000   0.47998328    -7.8536759     -7.1337112      3.349916       50218.233      36.893836      36.893836      36.893836    
    709000   0.47953603    -7.8534197     -7.1341258      3.3457595      50218.233      36.893836      36.893836      36.893836    
    710000   0.47768157    -7.8537492     -7.1372371      3.3462925      50218.233      36.893836      36.893836      36.893836    
    711000   0.47911188    -7.8530228     -7.1343652      3.3597119      50218.233      36.893836      36.893836      36.893836    
    712000   0.47882276    -7.8494057     -7.1311818      3.3962224      50218.233      36.893836      36.893836      36.893836    
    713000   0.47909303    -7.8535503     -7.134921       3.3470611      50218.233      36.893836      36.893836      36.893836    
    714000   0.47857196    -7.8571302     -7.1392824      3.320555       50218.233      36.893836      36.893836      36.893836    
    715000   0.47974021    -7.8541987     -7.1345986      3.3525511      50218.233      36.893836      36.893836      36.893836    
    716000   0.47966729    -7.8489082     -7.1294175      3.3860423      50218.233      36.893836      36.893836      36.893836    
    717000   0.47803523    -7.8529021     -7.1358595      3.3455844      50218.233      36.893836      36.893836      36.893836    
    718000   0.48177496    -7.853351      -7.1306988      3.3555909      50218.233      36.893836      36.893836      36.893836    
    719000   0.48102751    -7.8544195     -7.1328885      3.3447068      50218.233      36.893836      36.893836      36.893836    
    720000   0.48179776    -7.8541205     -7.1314341      3.35685        50218.233      36.893836      36.893836      36.893836    
    721000   0.48123432    -7.8531791     -7.1313379      3.3535327      50218.233      36.893836      36.893836      36.893836    
    722000   0.47878222    -7.8505158     -7.1323527      3.3647611      50218.233      36.893836      36.893836      36.893836    
    723000   0.47845425    -7.8525356     -7.1348644      3.3528114      50218.233      36.893836      36.893836      36.893836    
    724000   0.47921997    -7.8531535     -7.1343338      3.3570497      50218.233      36.893836      36.893836      36.893836    
    725000   0.48006397    -7.8547711     -7.1346854      3.3293713      50218.233      36.893836      36.893836      36.893836    
    726000   0.4775773     -7.8550492     -7.1386934      3.3369269      50218.233      36.893836      36.893836      36.893836    
    727000   0.47993787    -7.8529878     -7.1330912      3.3527689      50218.233      36.893836      36.893836      36.893836    
    728000   0.47961643    -7.8513227     -7.1319083      3.375953       50218.233      36.893836      36.893836      36.893836    
    729000   0.47753026    -7.8519632     -7.135678       3.3519287      50218.233      36.893836      36.893836      36.893836    
    730000   0.48097426    -7.8497071     -7.128256       3.3756965      50218.233      36.893836      36.893836      36.893836    
    731000   0.48231278    -7.8519956     -7.1285367      3.3652761      50218.233      36.893836      36.893836      36.893836    
    732000   0.47945206    -7.8569351     -7.1377672      3.3233595      50218.233      36.893836      36.893836      36.893836    
    733000   0.48012427    -7.8532274     -7.1330512      3.3422603      50218.233      36.893836      36.893836      36.893836    
    734000   0.47983794    -7.8541889     -7.1344423      3.3433207      50218.233      36.893836      36.893836      36.893836    
    735000   0.47818148    -7.8553905     -7.1381285      3.3297104      50218.233      36.893836      36.893836      36.893836    
    736000   0.48045361    -7.8555477     -7.1348776      3.3289135      50218.233      36.893836      36.893836      36.893836    
    737000   0.47896473    -7.8542996     -7.1358627      3.3372863      50218.233      36.893836      36.893836      36.893836    
    738000   0.48100476    -7.8523858     -7.1308889      3.3566899      50218.233      36.893836      36.893836      36.893836    
    739000   0.4799783     -7.8565366     -7.1365794      3.3228338      50218.233      36.893836      36.893836      36.893836    
    740000   0.47974443    -7.8569103     -7.1373039      3.3183324      50218.233      36.893836      36.893836      36.893836    
    741000   0.47901018    -7.8523205     -7.1338155      3.3601899      50218.233      36.893836      36.893836      36.893836    
    742000   0.48266575    -7.8532072     -7.1292189      3.3541594      50218.233      36.893836      36.893836      36.893836    
    743000   0.48133616    -7.8559612     -7.1339672      3.3308299      50218.233      36.893836      36.893836      36.893836    
    744000   0.48156623    -7.8537565     -7.1314174      3.3486191      50218.233      36.893836      36.893836      36.893836    
    745000   0.48077678    -7.8538513     -7.1326964      3.3569333      50218.233      36.893836      36.893836      36.893836    
    746000   0.48302572    -7.8531934     -7.1286652      3.3447508      50218.233      36.893836      36.893836      36.893836    
    747000   0.48011054    -7.8564266     -7.136271       3.3325833      50218.233      36.893836      36.893836      36.893836    
    748000   0.47859966    -7.8575087     -7.1396194      3.3206587      50218.233      36.893836      36.893836      36.893836    
    749000   0.47835712    -7.8573455     -7.13982        3.3147039      50218.233      36.893836      36.893836      36.893836    
    750000   0.47958457    -7.8553514     -7.1359848      3.3306572      50218.233      36.893836      36.893836      36.893836    
    751000   0.47718909    -7.8546995     -7.1389261      3.3309106      50218.233      36.893836      36.893836      36.893836    
    752000   0.48017656    -7.8543316     -7.134077       3.343433       50218.233      36.893836      36.893836      36.893836    
    753000   0.47882833    -7.8557833     -7.137551       3.3251555      50218.233      36.893836      36.893836      36.893836    
    754000   0.48040943    -7.8547918     -7.1341879      3.3423196      50218.233      36.893836      36.893836      36.893836    
    755000   0.47599422    -7.8522867     -7.1383055      3.3487809      50218.233      36.893836      36.893836      36.893836    
    756000   0.47939824    -7.8542306     -7.1351434      3.349272       50218.233      36.893836      36.893836      36.893836    
    757000   0.47895221    -7.8555825     -7.1371644      3.3260512      50218.233      36.893836      36.893836      36.893836    
    758000   0.48046206    -7.852028      -7.1313452      3.3614681      50218.233      36.893836      36.893836      36.893836    
    759000   0.48056433    -7.8524727     -7.1316365      3.357775       50218.233      36.893836      36.893836      36.893836    
    760000   0.48116277    -7.8553832     -7.1336493      3.333273       50218.233      36.893836      36.893836      36.893836    
    761000   0.48072714    -7.8565878     -7.1355074      3.312292       50218.233      36.893836      36.893836      36.893836    
    762000   0.47798135    -7.8561368     -7.139175       3.3165585      50218.233      36.893836      36.893836      36.893836    
    763000   0.48053869    -7.8548841     -7.1340864      3.3370753      50218.233      36.893836      36.893836      36.893836    
    764000   0.48037246    -7.8524546     -7.1319062      3.3611619      50218.233      36.893836      36.893836      36.893836    
    765000   0.48005822    -7.8509627     -7.1308856      3.358304       50218.233      36.893836      36.893836      36.893836    
    766000   0.48000946    -7.8495915     -7.1295876      3.368479       50218.233      36.893836      36.893836      36.893836    
    767000   0.48325125    -7.8536878     -7.1288212      3.3386679      50218.233      36.893836      36.893836      36.893836    
    768000   0.48067842    -7.8549453     -7.133938       3.3473419      50218.233      36.893836      36.893836      36.893836    
    769000   0.47781793    -7.8540446     -7.1373279      3.3426724      50218.233      36.893836      36.893836      36.893836    
    770000   0.48210333    -7.8498306     -7.1266859      3.3691137      50218.233      36.893836      36.893836      36.893836    
    771000   0.48209953    -7.85121       -7.1280709      3.361721       50218.233      36.893836      36.893836      36.893836    
    772000   0.47849357    -7.854741      -7.1370109      3.3395749      50218.233      36.893836      36.893836      36.893836    
    773000   0.47959961    -7.8568364     -7.1374472      3.3186563      50218.233      36.893836      36.893836      36.893836    
    774000   0.47887405    -7.8531677     -7.1348668      3.3503685      50218.233      36.893836      36.893836      36.893836    
    775000   0.47965062    -7.8568171     -7.1373514      3.3274053      50218.233      36.893836      36.893836      36.893836    
    776000   0.4816037     -7.8513441     -7.1289488      3.3576192      50218.233      36.893836      36.893836      36.893836    
    777000   0.4820241     -7.8529946     -7.1299687      3.3630315      50218.233      36.893836      36.893836      36.893836    
    778000   0.47881517    -7.8559548     -7.1377422      3.3232196      50218.233      36.893836      36.893836      36.893836    
    779000   0.47920898    -7.8515825     -7.1327793      3.3603993      50218.233      36.893836      36.893836      36.893836    
    780000   0.48208259    -7.8537883     -7.1306747      3.3447409      50218.233      36.893836      36.893836      36.893836    
    781000   0.48184044    -7.8584874     -7.135737       3.3096297      50218.233      36.893836      36.893836      36.893836    
    782000   0.47948528    -7.8538288     -7.1346111      3.3493952      50218.233      36.893836      36.893836      36.893836    
    783000   0.47846418    -7.8542341     -7.136548       3.3356341      50218.233      36.893836      36.893836      36.893836    
    784000   0.47665669    -7.8525965     -7.1376216      3.3404532      50218.233      36.893836      36.893836      36.893836    
    785000   0.48029702    -7.8580498     -7.1376146      3.3146104      50218.233      36.893836      36.893836      36.893836    
    786000   0.48198918    -7.8543596     -7.1313861      3.3365023      50218.233      36.893836      36.893836      36.893836    
    787000   0.48097372    -7.8590176     -7.1375673      3.3032477      50218.233      36.893836      36.893836      36.893836    
    788000   0.48103064    -7.8527136     -7.1311779      3.3451201      50218.233      36.893836      36.893836      36.893836    
    789000   0.47912346    -7.8535722     -7.1348972      3.3379929      50218.233      36.893836      36.893836      36.893836    
    790000   0.4835443     -7.8562925     -7.1309864      3.3415442      50218.233      36.893836      36.893836      36.893836    
    791000   0.47876768    -7.8533177     -7.1351764      3.3407319      50218.233      36.893836      36.893836      36.893836    
    792000   0.47783414    -7.8525836     -7.1358426      3.3514937      50218.233      36.893836      36.893836      36.893836    
    793000   0.47814076    -7.8560543     -7.1388534      3.3276218      50218.233      36.893836      36.893836      36.893836    
    794000   0.48031628    -7.8532462     -7.132782       3.3474823      50218.233      36.893836      36.893836      36.893836    
    795000   0.47818211    -7.8539844     -7.1367214      3.3451098      50218.233      36.893836      36.893836      36.893836    
    796000   0.48063497    -7.8595947     -7.1386525      3.2995582      50218.233      36.893836      36.893836      36.893836    
    797000   0.48106802    -7.8521071     -7.1305154      3.3588024      50218.233      36.893836      36.893836      36.893836    
    798000   0.47915505    -7.8570997     -7.1383773      3.3275951      50218.233      36.893836      36.893836      36.893836    
    799000   0.48152275    -7.8520868     -7.1298129      3.3626792      50218.233      36.893836      36.893836      36.893836    
    800000   0.47805475    -7.8552205     -7.1381486      3.3407442      50218.233      36.893836      36.893836      36.893836    
    801000   0.48125661    -7.8543087     -7.1324341      3.3557953      50218.233      36.893836      36.893836      36.893836    
    802000   0.47984406    -7.8549536     -7.1351978      3.3283281      50218.233      36.893836      36.893836      36.893836    
    803000   0.48004571    -7.8566523     -7.136594       3.3232819      50218.233      36.893836      36.893836      36.893836    
    804000   0.48094064    -7.8592689     -7.1378682      3.3039794      50218.233      36.893836      36.893836      36.893836    
    805000   0.47968498    -7.8602085     -7.1406912      3.3037374      50218.233      36.893836      36.893836      36.893836    
    806000   0.48192964    -7.8570522     -7.134168       3.335841       50218.233      36.893836      36.893836      36.893836    
    807000   0.4810297     -7.8549691     -7.1334348      3.3339609      50218.233      36.893836      36.893836      36.893836    
    808000   0.4767796     -7.8594762     -7.144317       3.3012269      50218.233      36.893836      36.893836      36.893836    
    809000   0.47999138    -7.857359      -7.1373822      3.3186698      50218.233      36.893836      36.893836      36.893836    
    810000   0.48180014    -7.8598291     -7.1371392      3.309033       50218.233      36.893836      36.893836      36.893836    
    811000   0.47966417    -7.8558377     -7.1363517      3.3345854      50218.233      36.893836      36.893836      36.893836    
    812000   0.48217148    -7.8531366     -7.1298896      3.3470499      50218.233      36.893836      36.893836      36.893836    
    813000   0.47749193    -7.8555799     -7.1393522      3.3309099      50218.233      36.893836      36.893836      36.893836    
    814000   0.47983779    -7.852241      -7.1324946      3.353312       50218.233      36.893836      36.893836      36.893836    
    815000   0.48010162    -7.8541692     -7.134027       3.3400915      50218.233      36.893836      36.893836      36.893836    
    816000   0.48209087    -7.8567544     -7.1336284      3.3319071      50218.233      36.893836      36.893836      36.893836    
    817000   0.47892943    -7.8543401     -7.1359562      3.3428478      50218.233      36.893836      36.893836      36.893836    
    818000   0.47863351    -7.8571839     -7.1392438      3.3243879      50218.233      36.893836      36.893836      36.893836    
    819000   0.48232984    -7.8537333     -7.1302489      3.3443359      50218.233      36.893836      36.893836      36.893836    
    820000   0.4774179     -7.857981      -7.1418644      3.3105296      50218.233      36.893836      36.893836      36.893836    
    821000   0.47871443    -7.8550116     -7.1369501      3.3306119      50218.233      36.893836      36.893836      36.893836    
    822000   0.48194365    -7.8550597     -7.1321545      3.3466869      50218.233      36.893836      36.893836      36.893836    
    823000   0.47831594    -7.8576453     -7.1401816      3.3075335      50218.233      36.893836      36.893836      36.893836    
    824000   0.47999808    -7.8543936     -7.1344068      3.3449508      50218.233      36.893836      36.893836      36.893836    
    825000   0.48097528    -7.855426      -7.1339733      3.3326308      50218.233      36.893836      36.893836      36.893836    
    826000   0.48125838    -7.8539335     -7.1320562      3.3534611      50218.233      36.893836      36.893836      36.893836    
    827000   0.48065099    -7.8548372     -7.1338709      3.338418       50218.233      36.893836      36.893836      36.893836    
    828000   0.48005685    -7.8587124     -7.1386373      3.313781       50218.233      36.893836      36.893836      36.893836    
    829000   0.47623857    -7.8564712     -7.1421235      3.3318445      50218.233      36.893836      36.893836      36.893836    
    830000   0.47996737    -7.8576856     -7.1377447      3.3138079      50218.233      36.893836      36.893836      36.893836    
    831000   0.47871667    -7.8543016     -7.1362368      3.3471958      50218.233      36.893836      36.893836      36.893836    
    832000   0.47953916    -7.8547654     -7.1354669      3.3329814      50218.233      36.893836      36.893836      36.893836    
    833000   0.48179345    -7.8558307     -7.1331508      3.3302071      50218.233      36.893836      36.893836      36.893836    
    834000   0.47987158    -7.858629      -7.1388319      3.3062904      50218.233      36.893836      36.893836      36.893836    
    835000   0.47712262    -7.8553033     -7.1396295      3.3218468      50218.233      36.893836      36.893836      36.893836    
    836000   0.48045353    -7.8549507     -7.1342807      3.3262485      50218.233      36.893836      36.893836      36.893836    
    837000   0.47952124    -7.8571823     -7.1379107      3.3092932      50218.233      36.893836      36.893836      36.893836    
    838000   0.47920734    -7.8545221     -7.1357213      3.3360141      50218.233      36.893836      36.893836      36.893836    
    839000   0.47949783    -7.8544307     -7.1351942      3.3375215      50218.233      36.893836      36.893836      36.893836    
    840000   0.47804765    -7.8555008     -7.1384395      3.3392379      50218.233      36.893836      36.893836      36.893836    
    841000   0.47925297    -7.8536031     -7.1347339      3.3310015      50218.233      36.893836      36.893836      36.893836    
    842000   0.48150658    -7.8550955     -7.1328459      3.3372644      50218.233      36.893836      36.893836      36.893836    
    843000   0.47654503    -7.8550681     -7.1402607      3.3329642      50218.233      36.893836      36.893836      36.893836    
    844000   0.48040581    -7.8562487     -7.1356502      3.3235421      50218.233      36.893836      36.893836      36.893836    
    845000   0.47898579    -7.8554626     -7.1369941      3.3225504      50218.233      36.893836      36.893836      36.893836    
    846000   0.48295946    -7.8561917     -7.1317628      3.3207483      50218.233      36.893836      36.893836      36.893836    
    847000   0.4817815     -7.8558251     -7.1331632      3.3273237      50218.233      36.893836      36.893836      36.893836    
    848000   0.48168126    -7.8570194     -7.1345078      3.326932       50218.233      36.893836      36.893836      36.893836    
    849000   0.48044651    -7.8551275     -7.134468       3.3398288      50218.233      36.893836      36.893836      36.893836    
    850000   0.48263273    -7.8548642     -7.1309254      3.3338338      50218.233      36.893836      36.893836      36.893836    
    851000   0.4808461     -7.8526373     -7.1313784      3.3504377      50218.233      36.893836      36.893836      36.893836    
    852000   0.48066363    -7.8585897     -7.1376045      3.3234526      50218.233      36.893836      36.893836      36.893836    
    853000   0.47952289    -7.8588923     -7.1396182      3.3011387      50218.233      36.893836      36.893836      36.893836    
    854000   0.48140517    -7.859953      -7.1378555      3.292165       50218.233      36.893836      36.893836      36.893836    
    855000   0.47926983    -7.8562273     -7.1373327      3.3117974      50218.233      36.893836      36.893836      36.893836    
    856000   0.48059981    -7.8573935     -7.136504       3.3257904      50218.233      36.893836      36.893836      36.893836    
    857000   0.47879449    -7.8557831     -7.1376016      3.33           50218.233      36.893836      36.893836      36.893836    
    858000   0.48175042    -7.8536068     -7.1309914      3.3486905      50218.233      36.893836      36.893836      36.893836    
    859000   0.47926769    -7.8575571     -7.1386658      3.3210921      50218.233      36.893836      36.893836      36.893836    
    860000   0.48075076    -7.8487843     -7.1276684      3.3786499      50218.233      36.893836      36.893836      36.893836    
    861000   0.48137149    -7.8531837     -7.1311367      3.3552206      50218.233      36.893836      36.893836      36.893836    
    862000   0.4788377     -7.8512353     -7.132989       3.3588829      50218.233      36.893836      36.893836      36.893836    
    863000   0.47634563    -7.8543852     -7.1398769      3.3424271      50218.233      36.893836      36.893836      36.893836    
    864000   0.4804614     -7.8556143     -7.1349324      3.3254596      50218.233      36.893836      36.893836      36.893836    
    865000   0.47984031    -7.8576024     -7.1378522      3.3201017      50218.233      36.893836      36.893836      36.893836    
    866000   0.48039968    -7.8562113     -7.135622       3.3301137      50218.233      36.893836      36.893836      36.893836    
    867000   0.47982206    -7.85289       -7.1331672      3.363421       50218.233      36.893836      36.893836      36.893836    
    868000   0.48046689    -7.8562453     -7.1355552      3.3242644      50218.233      36.893836      36.893836      36.893836    
    869000   0.48152228    -7.8538159     -7.1315428      3.350566       50218.233      36.893836      36.893836      36.893836    
    870000   0.48101325    -7.8512463     -7.1297367      3.3651829      50218.233      36.893836      36.893836      36.893836    
    871000   0.47835763    -7.8529907     -7.1354645      3.3495906      50218.233      36.893836      36.893836      36.893836    
    872000   0.48125883    -7.8507109     -7.128833       3.3721692      50218.233      36.893836      36.893836      36.893836    
    873000   0.47821529    -7.8547922     -7.1374795      3.3423718      50218.233      36.893836      36.893836      36.893836    
    874000   0.47840797    -7.854224      -7.1366223      3.3427414      50218.233      36.893836      36.893836      36.893836    
    875000   0.48112157    -7.852788      -7.1311159      3.3545491      50218.233      36.893836      36.893836      36.893836    
    876000   0.48021959    -7.8518035     -7.1314843      3.3590926      50218.233      36.893836      36.893836      36.893836    
    877000   0.47841504    -7.8546618     -7.1370494      3.3341498      50218.233      36.893836      36.893836      36.893836    
    878000   0.48054773    -7.8571341     -7.1363228      3.3163917      50218.233      36.893836      36.893836      36.893836    
    879000   0.47987043    -7.8559494     -7.136154       3.3286114      50218.233      36.893836      36.893836      36.893836    
    880000   0.48044296    -7.8513443     -7.1306901      3.3690502      50218.233      36.893836      36.893836      36.893836    
    881000   0.47937716    -7.8575064     -7.1384508      3.3179999      50218.233      36.893836      36.893836      36.893836    
    882000   0.48131511    -7.8549906     -7.1330282      3.3453097      50218.233      36.893836      36.893836      36.893836    
    883000   0.47989015    -7.8548275     -7.1350025      3.3407008      50218.233      36.893836      36.893836      36.893836    
    884000   0.48109457    -7.8522676     -7.130636       3.3581578      50218.233      36.893836      36.893836      36.893836    
    885000   0.47901413    -7.8585503     -7.1400394      3.2982596      50218.233      36.893836      36.893836      36.893836    
    886000   0.47881469    -7.855281      -7.1370692      3.3349287      50218.233      36.893836      36.893836      36.893836    
    887000   0.48049833    -7.854748      -7.1340108      3.3407552      50218.233      36.893836      36.893836      36.893836    
    888000   0.47921184    -7.8521208     -7.1333133      3.3506305      50218.233      36.893836      36.893836      36.893836    
    889000   0.47766032    -7.8546168     -7.1381365      3.3430279      50218.233      36.893836      36.893836      36.893836    
    890000   0.48078585    -7.8568824     -7.1357139      3.3174912      50218.233      36.893836      36.893836      36.893836    
    891000   0.4813321     -7.8548945     -7.1329067      3.3469277      50218.233      36.893836      36.893836      36.893836    
    892000   0.47669383    -7.854774      -7.1397434      3.3352027      50218.233      36.893836      36.893836      36.893836    
    893000   0.47928794    -7.8587696     -7.1398479      3.3004532      50218.233      36.893836      36.893836      36.893836    
    894000   0.47882816    -7.8560453     -7.1378133      3.3219855      50218.233      36.893836      36.893836      36.893836    
    895000   0.47896669    -7.8545313     -7.1360915      3.3481602      50218.233      36.893836      36.893836      36.893836    
    896000   0.48017453    -7.8552619     -7.1350104      3.344037       50218.233      36.893836      36.893836      36.893836    
    897000   0.48030944    -7.8516226     -7.1311686      3.3597967      50218.233      36.893836      36.893836      36.893836    
    898000   0.4783015     -7.851944      -7.1345019      3.3668548      50218.233      36.893836      36.893836      36.893836    
    899000   0.48207676    -7.8552251     -7.1321202      3.3278941      50218.233      36.893836      36.893836      36.893836    
    900000   0.48417262    -7.8526379     -7.1263893      3.3660754      50218.233      36.893836      36.893836      36.893836    
    901000   0.47920348    -7.8533182     -7.1345232      3.3483852      50218.233      36.893836      36.893836      36.893836    
    902000   0.48223972    -7.8554419     -7.1320926      3.3438002      50218.233      36.893836      36.893836      36.893836    
    903000   0.48191333    -7.8581279     -7.1352682      3.314359       50218.233      36.893836      36.893836      36.893836    
    904000   0.4806502     -7.8525328     -7.1315677      3.3604236      50218.233      36.893836      36.893836      36.893836    
    905000   0.48034049    -7.8562839     -7.1357835      3.3339625      50218.233      36.893836      36.893836      36.893836    
    906000   0.48004844    -7.8552963     -7.1352339      3.3440654      50218.233      36.893836      36.893836      36.893836    
    907000   0.48056624    -7.8493939     -7.1285548      3.3717094      50218.233      36.893836      36.893836      36.893836    
    908000   0.47878422    -7.8495022     -7.131336       3.3822946      50218.233      36.893836      36.893836      36.893836    
    909000   0.48033191    -7.8516857     -7.1311981      3.3633746      50218.233      36.893836      36.893836      36.893836    
    910000   0.48094498    -7.8533531     -7.1319459      3.348733       50218.233      36.893836      36.893836      36.893836    
    911000   0.47922754    -7.8563678     -7.1375367      3.3227012      50218.233      36.893836      36.893836      36.893836    
    912000   0.47765989    -7.857414      -7.1409344      3.3240985      50218.233      36.893836      36.893836      36.893836    
    913000   0.48083559    -7.8602601     -7.1390169      3.2996099      50218.233      36.893836      36.893836      36.893836    
    914000   0.47907112    -7.856505      -7.1379086      3.3241419      50218.233      36.893836      36.893836      36.893836    
    915000   0.47854682    -7.8506117     -7.1328017      3.372612       50218.233      36.893836      36.893836      36.893836    
    916000   0.48077998    -7.8555147     -7.134355       3.3278645      50218.233      36.893836      36.893836      36.893836    
    917000   0.48010712    -7.8546436     -7.1344932      3.348704       50218.233      36.893836      36.893836      36.893836    
    918000   0.48070664    -7.8491527     -7.128103       3.384742       50218.233      36.893836      36.893836      36.893836    
    919000   0.48238872    -7.854965      -7.1313922      3.353304       50218.233      36.893836      36.893836      36.893836    
    920000   0.47840467    -7.8522794     -7.1346826      3.3512744      50218.233      36.893836      36.893836      36.893836    
    921000   0.47921506    -7.8561923     -7.13738        3.3289263      50218.233      36.893836      36.893836      36.893836    
    922000   0.48224341    -7.8545868     -7.131232       3.3496798      50218.233      36.893836      36.893836      36.893836    
    923000   0.48027281    -7.8545063     -7.1341073      3.3497866      50218.233      36.893836      36.893836      36.893836    
    924000   0.47905287    -7.8563838     -7.1378147      3.3238853      50218.233      36.893836      36.893836      36.893836    
    925000   0.47936832    -7.8533212     -7.1342789      3.3479234      50218.233      36.893836      36.893836      36.893836    
    926000   0.47676819    -7.8560152     -7.1408731      3.3243096      50218.233      36.893836      36.893836      36.893836    
    927000   0.48136969    -7.8521949     -7.1301506      3.3556454      50218.233      36.893836      36.893836      36.893836    
    928000   0.48037649    -7.8561082     -7.1355537      3.3286899      50218.233      36.893836      36.893836      36.893836    
    929000   0.47881464    -7.8601573     -7.1419456      3.2906672      50218.233      36.893836      36.893836      36.893836    
    930000   0.47977541    -7.8493107     -7.1296578      3.3739046      50218.233      36.893836      36.893836      36.893836    
    931000   0.48068156    -7.8501534     -7.1291413      3.3742407      50218.233      36.893836      36.893836      36.893836    
    932000   0.47926399    -7.8573383     -7.1384525      3.3088836      50218.233      36.893836      36.893836      36.893836    
    933000   0.48077806    -7.8538844     -7.1327276      3.349307       50218.233      36.893836      36.893836      36.893836    
    934000   0.47881341    -7.8536295     -7.1354196      3.3442951      50218.233      36.893836      36.893836      36.893836    
    935000   0.48113047    -7.8516404     -7.129955       3.3582997      50218.233      36.893836      36.893836      36.893836    
    936000   0.47995752    -7.858252      -7.138326       3.3086661      50218.233      36.893836      36.893836      36.893836    
    937000   0.4811918     -7.8537937     -7.1320163      3.3443931      50218.233      36.893836      36.893836      36.893836    
    938000   0.47980116    -7.8551395     -7.135448       3.3455351      50218.233      36.893836      36.893836      36.893836    
    939000   0.47920799    -7.8542641     -7.1354623      3.3364672      50218.233      36.893836      36.893836      36.893836    
    940000   0.4782709     -7.8560323     -7.1386361      3.3266578      50218.233      36.893836      36.893836      36.893836    
    941000   0.48014681    -7.8545654     -7.1343554      3.3485724      50218.233      36.893836      36.893836      36.893836    
    942000   0.48203092    -7.8549357     -7.1318996      3.3468607      50218.233      36.893836      36.893836      36.893836    
    943000   0.47814912    -7.8548637     -7.1376503      3.3388363      50218.233      36.893836      36.893836      36.893836    
    944000   0.48125605    -7.8539128     -7.1320389      3.3457602      50218.233      36.893836      36.893836      36.893836    
    945000   0.47966249    -7.8581175     -7.138634       3.3225654      50218.233      36.893836      36.893836      36.893836    
    946000   0.47964065    -7.8574394     -7.1379887      3.3209325      50218.233      36.893836      36.893836      36.893836    
    947000   0.47771452    -7.8525434     -7.1359818      3.3503853      50218.233      36.893836      36.893836      36.893836    
    948000   0.47892032    -7.8540053     -7.1356351      3.3432582      50218.233      36.893836      36.893836      36.893836    
    949000   0.48008021    -7.8525255     -7.1324154      3.3644215      50218.233      36.893836      36.893836      36.893836    
    950000   0.48015062    -7.8550686     -7.1348529      3.3366587      50218.233      36.893836      36.893836      36.893836    
    951000   0.48195288    -7.8546647     -7.1317457      3.35083        50218.233      36.893836      36.893836      36.893836    
    952000   0.48020125    -7.8530429     -7.1327512      3.3583439      50218.233      36.893836      36.893836      36.893836    
    953000   0.47959786    -7.8593111     -7.1399245      3.3128724      50218.233      36.893836      36.893836      36.893836    
    954000   0.48080878    -7.8547763     -7.1335734      3.3467477      50218.233      36.893836      36.893836      36.893836    
    955000   0.4816297     -7.8570535     -7.1346192      3.3270975      50218.233      36.893836      36.893836      36.893836    
    956000   0.47988147    -7.853385      -7.1335731      3.3510419      50218.233      36.893836      36.893836      36.893836    
    957000   0.48143976    -7.8531223     -7.130973       3.3532163      50218.233      36.893836      36.893836      36.893836    
    958000   0.48209016    -7.8549111     -7.1317861      3.3321748      50218.233      36.893836      36.893836      36.893836    
    959000   0.4777687     -7.8530854     -7.1364425      3.3451849      50218.233      36.893836      36.893836      36.893836    
    960000   0.48196783    -7.853584      -7.1306426      3.3523019      50218.233      36.893836      36.893836      36.893836    
    961000   0.47744809    -7.853156      -7.1369941      3.3550647      50218.233      36.893836      36.893836      36.893836    
    962000   0.47777538    -7.8539679     -7.137315       3.3395351      50218.233      36.893836      36.893836      36.893836    
    963000   0.48051388    -7.8525681     -7.1318075      3.3633525      50218.233      36.893836      36.893836      36.893836    
    964000   0.47976319    -7.8554167     -7.1357821      3.3387085      50218.233      36.893836      36.893836      36.893836    
    965000   0.47970112    -7.8522118     -7.1326703      3.3478346      50218.233      36.893836      36.893836      36.893836    
    966000   0.47936526    -7.8580442     -7.1390065      3.3293973      50218.233      36.893836      36.893836      36.893836    
    967000   0.47804473    -7.8542249     -7.137168       3.3521815      50218.233      36.893836      36.893836      36.893836    
    968000   0.4780904     -7.85258       -7.1354546      3.3612746      50218.233      36.893836      36.893836      36.893836    
    969000   0.47855361    -7.8539888     -7.1361686      3.3593701      50218.233      36.893836      36.893836      36.893836    
    970000   0.4791692     -7.8529096     -7.1341661      3.3395801      50218.233      36.893836      36.893836      36.893836    
    971000   0.4782068     -7.8526516     -7.1353516      3.3575383      50218.233      36.893836      36.893836      36.893836    
    972000   0.48005593    -7.8526588     -7.1325851      3.3626443      50218.233      36.893836      36.893836      36.893836    
    973000   0.47955078    -7.8493332     -7.1300173      3.3763278      50218.233      36.893836      36.893836      36.893836    
    974000   0.4774451     -7.8546342     -7.1384767      3.3430306      50218.233      36.893836      36.893836      36.893836    
    975000   0.48150392    -7.8512867     -7.1290411      3.3645663      50218.233      36.893836      36.893836      36.893836    
    976000   0.47816316    -7.8542198     -7.1369852      3.3336547      50218.233      36.893836      36.893836      36.893836    
    977000   0.4821589     -7.8525391     -7.1293111      3.3647017      50218.233      36.893836      36.893836      36.893836    
    978000   0.48088648    -7.8563319     -7.1350125      3.3310633      50218.233      36.893836      36.893836      36.893836    
    979000   0.48017223    -7.8549052     -7.1346571      3.3313197      50218.233      36.893836      36.893836      36.893836    
    980000   0.4833069     -7.8522751     -7.127325       3.3654417      50218.233      36.893836      36.893836      36.893836    
    981000   0.47997397    -7.8536837     -7.133733       3.3440498      50218.233      36.893836      36.893836      36.893836    
    982000   0.48062642    -7.8533591     -7.1324297      3.3497516      50218.233      36.893836      36.893836      36.893836    
    983000   0.47726071    -7.8551831     -7.1393022      3.33589        50218.233      36.893836      36.893836      36.893836    
    984000   0.4769313     -7.8538676     -7.1384809      3.3434087      50218.233      36.893836      36.893836      36.893836    
    985000   0.48094653    -7.8547162     -7.1333067      3.3484516      50218.233      36.893836      36.893836      36.893836    
    986000   0.47904304    -7.8570456     -7.1384913      3.3212738      50218.233      36.893836      36.893836      36.893836    
    987000   0.48259582    -7.8522327     -7.1283493      3.3610855      50218.233      36.893836      36.893836      36.893836    
    988000   0.48003235    -7.8544457     -7.1344074      3.3403998      50218.233      36.893836      36.893836      36.893836    
    989000   0.48088126    -7.8537089     -7.1323972      3.3497258      50218.233      36.893836      36.893836      36.893836    
    990000   0.4818205     -7.8526324     -7.1299119      3.3649127      50218.233      36.893836      36.893836      36.893836    
    991000   0.48273983    -7.8512333     -7.1271339      3.3800963      50218.233      36.893836      36.893836      36.893836    
    992000   0.47719106    -7.8592834     -7.143507       3.3050397      50218.233      36.893836      36.893836      36.893836    
    993000   0.4793193     -7.8557745     -7.1368057      3.3387975      50218.233      36.893836      36.893836      36.893836    
    994000   0.48251033    -7.8547734     -7.1310182      3.3471735      50218.233      36.893836      36.893836      36.893836    
    995000   0.47925077    -7.8556828     -7.1368168      3.3336293      50218.233      36.893836      36.893836      36.893836    
    996000   0.47908035    -7.8539447     -7.1353344      3.3532264      50218.233      36.893836      36.893836      36.893836    
    997000   0.4816929     -7.852963      -7.130434       3.3544992      50218.233      36.893836      36.893836      36.893836    
    998000   0.47879882    -7.8522187     -7.1340307      3.3560259      50218.233      36.893836      36.893836      36.893836    
    999000   0.47998884    -7.8552267     -7.1352536      3.3453052      50218.233      36.893836      36.893836      36.893836    
   1000000   0.48179677    -7.8537856     -7.1311007      3.3512931      50218.233      36.893836      36.893836      36.893836    
Loop time of 1585.19 on 4 procs for 1000000 steps with 70304 atoms

Performance: 545046.324 tau/day, 630.841 timesteps/s, 44.351 Matom-step/s
95.7% CPU use with 4 MPI tasks x 1 OpenMP threads

MPI task timing breakdown:
Section |  min time  |  avg time  |  max time  |%varavg| %total
---------------------------------------------------------------
Pair    | 439.4      | 569.47     | 714.04     | 430.2 | 35.92
Neigh   | 5.8663     | 6.2627     | 6.5208     |  10.2 |  0.40
Comm    | 239.13     | 243.38     | 248.57     |  24.4 | 15.35
Output  | 0.19935    | 0.20601    | 0.21646    |   1.4 |  0.01
Modify  | 538.04     | 680.8      | 806.66     | 384.7 | 42.95
Other   |            | 85.07      |            |       |  5.37

Nlocal:          17576 ave       17613 max       17537 min
Histogram: 1 0 0 0 1 1 0 0 0 1
Nghost:          16816 ave       16850 max       16777 min
Histogram: 1 0 0 1 0 0 0 1 0 1
Neighs:              0 ave           0 max           0 min
Histogram: 4 0 0 0 0 0 0 0 0 0

Total # of neighbors = 0
Ave neighs/atom = 0
Neighbor list builds = 202678
Dangerous builds = 0
clear
OMP_NUM_THREADS environment is not set. Defaulting to 1 thread. (src/comm.cpp:98)
  using 1 OpenMP thread(s) per MPI task
package gpu 0
jump dms460.lmp

variable T equal 460
# T = 1000* (temp in LJ unit)
variable f equal 1000
log log.${T}
log log.460
