variable TLJ equal (${T}/1000)
variable TLJ equal (180/1000)
variable NCyle equal 10
variable iStep equal (${f})
variable iStep equal (1000)
variable dumpStep equal (${f}*100)
variable dumpStep equal (1000*100)
variable runStep equal (${f}*100*${NCyle})
variable runStep equal (1000*100*${NCyle})
variable runStep equal (1000*100*10)

units       lj
atom_style  atomic
dimension 3
boundary     p p p
pair_style  lj/cut 2.5
read_data  ../data/T${T}.dat
read_data  ../data/T180.dat
Reading data file ...
  orthogonal box = (0.97250269 0.97250269 0.97250269) to (37.866338 37.866338 37.866338)
  1 by 2 by 2 MPI processor grid
  reading atoms ...
  70304 atoms
  reading velocities ...
  70304 velocities
  read_data CPU = 0.192 seconds
change_box all triclinic
Changing box ...
  triclinic box = (0.97250269 0.97250269 0.97250269) to (37.866338 37.866338 37.866338) with tilt (0 0 0)
mass 1 1
mass 2 1
pair_modify shift yes
pair_coeff  1 1 1 1
pair_coeff  1 2 1.5 0.8
pair_coeff  2 2 0.5 0.88


timestep 0.01
thermo ${iStep}
thermo 1000
reset_timestep 0
thermo_style custom step temp pe etotal press vol lx ly lz
fix             1 all nvt temp ${TLJ}  ${TLJ}  0.1
fix             1 all nvt temp 0.18  ${TLJ}  0.1
fix             1 all nvt temp 0.18  0.18  0.1
thermo_modify flush yes

fix dsf all deform 1 xy  wiggle 0.5  ${f}   units box
fix dsf all deform 1 xy  wiggle 0.5  1000   units box
fix ps1 all ave/time 1 1 ${iStep} c_thermo_press[1] c_thermo_press[2]  c_thermo_press[3] c_thermo_press[4]  c_thermo_press[5] c_thermo_press[6]  file  stress.${T}
fix ps1 all ave/time 1 1 1000 c_thermo_press[1] c_thermo_press[2]  c_thermo_press[3] c_thermo_press[4]  c_thermo_press[5] c_thermo_press[6]  file  stress.${T}
fix ps1 all ave/time 1 1 1000 c_thermo_press[1] c_thermo_press[2]  c_thermo_press[3] c_thermo_press[4]  c_thermo_press[5] c_thermo_press[6]  file  stress.180
dump            1 all custom ${dumpStep} dump.${T} id type x y z
dump            1 all custom 100000 dump.${T} id type x y z
dump            1 all custom 100000 dump.180 id type x y z
dump_modify 1 sort id
fix nodrift all momentum 1  linear 1 1 1
fix com_seed all recenter INIT INIT INIT shift all
run ${runStep}
run 1000000
Generated 0 of 1 mixed pair_coeff terms from geometric mixing rule
Per MPI rank memory allocation (min/avg/max) = 8.61 | 8.612 | 8.615 Mbytes
   Step          Temp          PotEng         TotEng         Press          Volume           Lx             Ly             Lz      
         0   0.1788001     -8.3151003     -8.046904      -0.4996329      50218.233      36.893836      36.893836      36.893836    
      1000   0.18011253    -8.3118915     -8.0417266     -0.47458768     50218.233      36.893836      36.893836      36.893836    
      2000   0.18060352    -8.3125551     -8.0416536     -0.47441647     50218.233      36.893836      36.893836      36.893836    
      3000   0.17980543    -8.3106869     -8.0409826     -0.4665756      50218.233      36.893836      36.893836      36.893836    
      4000   0.17981908    -8.312146      -8.0424212     -0.47802447     50218.233      36.893836      36.893836      36.893836    
      5000   0.18068187    -8.3106548     -8.0396358     -0.46321692     50218.233      36.893836      36.893836      36.893836    
      6000   0.18124437    -8.3113549     -8.0394922     -0.47117201     50218.233      36.893836      36.893836      36.893836    
      7000   0.18031448    -8.3097049     -8.039237      -0.45477836     50218.233      36.893836      36.893836      36.893836    
      8000   0.17986824    -8.3110254     -8.0412269     -0.47245675     50218.233      36.893836      36.893836      36.893836    
      9000   0.18017691    -8.3114349     -8.0411734     -0.47333633     50218.233      36.893836      36.893836      36.893836    
     10000   0.17971017    -8.3113354     -8.0417739     -0.47153783     50218.233      36.893836      36.893836      36.893836    
     11000   0.1800305     -8.3096127     -8.0395708     -0.45960882     50218.233      36.893836      36.893836      36.893836    
     12000   0.1805708     -8.3118418     -8.0409895     -0.47588855     50218.233      36.893836      36.893836      36.893836    
     13000   0.18081183    -8.3121491     -8.0409352     -0.47598298     50218.233      36.893836      36.893836      36.893836    
     14000   0.17961445    -8.3107441     -8.0413263     -0.46913105     50218.233      36.893836      36.893836      36.893836    
     15000   0.180616      -8.3112444     -8.0403243     -0.46450907     50218.233      36.893836      36.893836      36.893836    
     16000   0.17966445    -8.3107661     -8.0412733     -0.46870574     50218.233      36.893836      36.893836      36.893836    
     17000   0.18023727    -8.312613      -8.042261      -0.47564742     50218.233      36.893836      36.893836      36.893836    
     18000   0.17970099    -8.3097913     -8.0402436     -0.45651118     50218.233      36.893836      36.893836      36.893836    
     19000   0.1792586     -8.3101015     -8.0412174     -0.45594201     50218.233      36.893836      36.893836      36.893836    
     20000   0.17987509    -8.3123011     -8.0424924     -0.47936127     50218.233      36.893836      36.893836      36.893836    
     21000   0.1801426     -8.3112821     -8.0410721     -0.46923919     50218.233      36.893836      36.893836      36.893836    
     22000   0.18003602    -8.3113995     -8.0413493     -0.47255519     50218.233      36.893836      36.893836      36.893836    
     23000   0.17926416    -8.309913      -8.0410206     -0.46498663     50218.233      36.893836      36.893836      36.893836    
     24000   0.18006262    -8.3108552     -8.0407652     -0.47100477     50218.233      36.893836      36.893836      36.893836    
     25000   0.17970873    -8.3099744     -8.0404151     -0.4574356      50218.233      36.893836      36.893836      36.893836    
     26000   0.17855676    -8.3102202     -8.0423889     -0.47084952     50218.233      36.893836      36.893836      36.893836    
     27000   0.18035213    -8.3096185     -8.0390941     -0.45774232     50218.233      36.893836      36.893836      36.893836    
     28000   0.17989723    -8.3104588     -8.0406168     -0.45929467     50218.233      36.893836      36.893836      36.893836    
     29000   0.17889096    -8.3094772     -8.0411445     -0.45922648     50218.233      36.893836      36.893836      36.893836    
     30000   0.1798922     -8.3100406     -8.0402062     -0.4576132      50218.233      36.893836      36.893836      36.893836    
     31000   0.18001123    -8.3090258     -8.0390128     -0.45586526     50218.233      36.893836      36.893836      36.893836    
     32000   0.1799216     -8.3110161     -8.0411376     -0.46436718     50218.233      36.893836      36.893836      36.893836    
     33000   0.17947998    -8.3100972     -8.0408811     -0.46365228     50218.233      36.893836      36.893836      36.893836    
     34000   0.17993349    -8.3107255     -8.0408291     -0.46733271     50218.233      36.893836      36.893836      36.893836    
     35000   0.18003667    -8.3105379     -8.0404868     -0.46064521     50218.233      36.893836      36.893836      36.893836    
     36000   0.18012338    -8.3105434     -8.0403621     -0.46143255     50218.233      36.893836      36.893836      36.893836    
     37000   0.17960271    -8.3109014     -8.0415012     -0.47445027     50218.233      36.893836      36.893836      36.893836    
     38000   0.1801778     -8.312059      -8.0417962     -0.471525       50218.233      36.893836      36.893836      36.893836    
     39000   0.17947841    -8.3117879     -8.0425741     -0.47272882     50218.233      36.893836      36.893836      36.893836    
     40000   0.18037794    -8.3115372     -8.0409741     -0.46957934     50218.233      36.893836      36.893836      36.893836    
     41000   0.18021027    -8.3110444     -8.0407328     -0.47208184     50218.233      36.893836      36.893836      36.893836    
     42000   0.17946928    -8.311447      -8.0422469     -0.47204208     50218.233      36.893836      36.893836      36.893836    
     43000   0.18020328    -8.3095914     -8.0392903     -0.45636749     50218.233      36.893836      36.893836      36.893836    
     44000   0.17957843    -8.3106886     -8.0413248     -0.46674246     50218.233      36.893836      36.893836      36.893836    
     45000   0.17994773    -8.3106868     -8.0407691     -0.47275374     50218.233      36.893836      36.893836      36.893836    
     46000   0.17923072    -8.3110335     -8.0421912     -0.46866602     50218.233      36.893836      36.893836      36.893836    
     47000   0.179778      -8.3123328     -8.0426696     -0.47083424     50218.233      36.893836      36.893836      36.893836    
     48000   0.17950525    -8.3121113     -8.0428573     -0.47584496     50218.233      36.893836      36.893836      36.893836    
     49000   0.18026659    -8.3112744     -8.0408783     -0.4666663      50218.233      36.893836      36.893836      36.893836    
     50000   0.17929597    -8.3118037     -8.0428635     -0.47105799     50218.233      36.893836      36.893836      36.893836    
     51000   0.18079414    -8.3124812     -8.0412939     -0.47660345     50218.233      36.893836      36.893836      36.893836    
     52000   0.18078901    -8.3115567     -8.040377      -0.47674215     50218.233      36.893836      36.893836      36.893836    
     53000   0.18058884    -8.3114787     -8.0405993     -0.47182391     50218.233      36.893836      36.893836      36.893836    
     54000   0.18015151    -8.3116464     -8.0414229     -0.47089282     50218.233      36.893836      36.893836      36.893836    
     55000   0.17983312    -8.3112426     -8.0414967     -0.47419879     50218.233      36.893836      36.893836      36.893836    
     56000   0.18017881    -8.3105549     -8.0402905     -0.46830061     50218.233      36.893836      36.893836      36.893836    
     57000   0.17965006    -8.3136768     -8.0442056     -0.48804521     50218.233      36.893836      36.893836      36.893836    
     58000   0.18045486    -8.3117035     -8.041025      -0.47163346     50218.233      36.893836      36.893836      36.893836    
     59000   0.1799587     -8.3118978     -8.0419636     -0.48287168     50218.233      36.893836      36.893836      36.893836    
     60000   0.18011214    -8.3105594     -8.040395      -0.46024651     50218.233      36.893836      36.893836      36.893836    
     61000   0.1797982     -8.3123425     -8.0426491     -0.47916356     50218.233      36.893836      36.893836      36.893836    
     62000   0.18080379    -8.3104127     -8.0392109     -0.46279421     50218.233      36.893836      36.893836      36.893836    
     63000   0.1795715     -8.3096421     -8.0402887     -0.4531546      50218.233      36.893836      36.893836      36.893836    
     64000   0.17949485    -8.311875      -8.0426366     -0.47603393     50218.233      36.893836      36.893836      36.893836    
     65000   0.18060267    -8.3105924     -8.0396923     -0.46537543     50218.233      36.893836      36.893836      36.893836    
     66000   0.18046272    -8.308818      -8.0381278     -0.44905408     50218.233      36.893836      36.893836      36.893836    
     67000   0.17951772    -8.312237      -8.0429642     -0.47727043     50218.233      36.893836      36.893836      36.893836    
     68000   0.18013907    -8.3107331     -8.0405283     -0.46785814     50218.233      36.893836      36.893836      36.893836    
     69000   0.18021958    -8.3102511     -8.0399256     -0.45978549     50218.233      36.893836      36.893836      36.893836    
     70000   0.17968088    -8.3095789     -8.0400614     -0.45665239     50218.233      36.893836      36.893836      36.893836    
     71000   0.17999308    -8.3095089     -8.0395232     -0.45299862     50218.233      36.893836      36.893836      36.893836    
     72000   0.18018318    -8.3092846     -8.0390137     -0.45392189     50218.233      36.893836      36.893836      36.893836    
     73000   0.18000962    -8.309494      -8.0394835     -0.44770053     50218.233      36.893836      36.893836      36.893836    
     74000   0.17971588    -8.3119617     -8.0423917     -0.48139296     50218.233      36.893836      36.893836      36.893836    
     75000   0.1798464     -8.3103977     -8.0406319     -0.46564495     50218.233      36.893836      36.893836      36.893836    
     76000   0.17974721    -8.3110179     -8.0414009     -0.46617989     50218.233      36.893836      36.893836      36.893836    
     77000   0.17994496    -8.3090257     -8.0391121     -0.44870153     50218.233      36.893836      36.893836      36.893836    
     78000   0.17928799    -8.3089973     -8.0400692     -0.45115518     50218.233      36.893836      36.893836      36.893836    
     79000   0.1801588     -8.3095505     -8.0393161     -0.46310103     50218.233      36.893836      36.893836      36.893836    
     80000   0.18006819    -8.3099919     -8.0398935     -0.45735376     50218.233      36.893836      36.893836      36.893836    
     81000   0.18027742    -8.3117214     -8.0413091     -0.46833964     50218.233      36.893836      36.893836      36.893836    
     82000   0.17936413    -8.3113341     -8.0422917     -0.47019657     50218.233      36.893836      36.893836      36.893836    
     83000   0.17986875    -8.3106104     -8.0408112     -0.46942431     50218.233      36.893836      36.893836      36.893836    
     84000   0.18047919    -8.3098022     -8.0390872     -0.46036203     50218.233      36.893836      36.893836      36.893836    
     85000   0.18095089    -8.3108865     -8.039464      -0.45860743     50218.233      36.893836      36.893836      36.893836    
     86000   0.17979857    -8.3109989     -8.0413049     -0.46693158     50218.233      36.893836      36.893836      36.893836    
     87000   0.17961945    -8.3105744     -8.041149      -0.46884451     50218.233      36.893836      36.893836      36.893836    
     88000   0.18044344    -8.3104618     -8.0398005     -0.46596794     50218.233      36.893836      36.893836      36.893836    
     89000   0.18121671    -8.3117826     -8.0399614     -0.47427633     50218.233      36.893836      36.893836      36.893836    
     90000   0.18067127    -8.311299      -8.040296      -0.4642513      50218.233      36.893836      36.893836      36.893836    
     91000   0.1798913     -8.3096882     -8.0398551     -0.45703541     50218.233      36.893836      36.893836      36.893836    
     92000   0.18021799    -8.3099042     -8.0395811     -0.45876918     50218.233      36.893836      36.893836      36.893836    
     93000   0.17933069    -8.3118072     -8.042815      -0.4796741      50218.233      36.893836      36.893836      36.893836    
     94000   0.17872357    -8.3111597     -8.0430781     -0.46925468     50218.233      36.893836      36.893836      36.893836    
     95000   0.17936918    -8.3125649     -8.0435149     -0.48205108     50218.233      36.893836      36.893836      36.893836    
     96000   0.18003272    -8.31127       -8.0412247     -0.46712837     50218.233      36.893836      36.893836      36.893836    
     97000   0.17982856    -8.3114406     -8.0417016     -0.47326223     50218.233      36.893836      36.893836      36.893836    
     98000   0.1799833     -8.3103031     -8.0403319     -0.4633352      50218.233      36.893836      36.893836      36.893836    
     99000   0.17980309    -8.312333      -8.0426322     -0.47225229     50218.233      36.893836      36.893836      36.893836    
    100000   0.18016924    -8.3130895     -8.0428395     -0.48655471     50218.233      36.893836      36.893836      36.893836    
    101000   0.17911647    -8.3127733     -8.0441024     -0.48396906     50218.233      36.893836      36.893836      36.893836    
    102000   0.17921341    -8.312366      -8.0435497     -0.47693414     50218.233      36.893836      36.893836      36.893836    
    103000   0.17898273    -8.3107969     -8.0423266     -0.46624213     50218.233      36.893836      36.893836      36.893836    
    104000   0.18115967    -8.3112948     -8.0395592     -0.46882465     50218.233      36.893836      36.893836      36.893836    
    105000   0.18054661    -8.311546      -8.04073       -0.47580991     50218.233      36.893836      36.893836      36.893836    
    106000   0.18003336    -8.3098485     -8.0398023     -0.46680095     50218.233      36.893836      36.893836      36.893836    
    107000   0.1804707     -8.3119585     -8.0412563     -0.48176198     50218.233      36.893836      36.893836      36.893836    
    108000   0.17939937    -8.3094698     -8.0403746     -0.45816802     50218.233      36.893836      36.893836      36.893836    
    109000   0.179606      -8.3118599     -8.0424547     -0.47824285     50218.233      36.893836      36.893836      36.893836    
    110000   0.17987002    -8.310794      -8.0409928     -0.4633664      50218.233      36.893836      36.893836      36.893836    
    111000   0.18024901    -8.3105724     -8.0402027     -0.46442352     50218.233      36.893836      36.893836      36.893836    
    112000   0.17956306    -8.3108474     -8.0415066     -0.46899136     50218.233      36.893836      36.893836      36.893836    
    113000   0.18011183    -8.3114179     -8.041254      -0.46564146     50218.233      36.893836      36.893836      36.893836    
    114000   0.18036987    -8.310237      -8.039686      -0.46693022     50218.233      36.893836      36.893836      36.893836    
    115000   0.18017202    -8.3110854     -8.0408312     -0.47297298     50218.233      36.893836      36.893836      36.893836    
    116000   0.17955705    -8.310049      -8.0407172     -0.45855884     50218.233      36.893836      36.893836      36.893836    
    117000   0.17972989    -8.309275      -8.039684      -0.45794772     50218.233      36.893836      36.893836      36.893836    
    118000   0.1803509     -8.3093647     -8.0388422     -0.4504545      50218.233      36.893836      36.893836      36.893836    
    119000   0.18037239    -8.3113682     -8.0408134     -0.46963781     50218.233      36.893836      36.893836      36.893836    
    120000   0.1797927     -8.3112677     -8.0415825     -0.47106373     50218.233      36.893836      36.893836      36.893836    
    121000   0.18094398    -8.3110456     -8.0396335     -0.46551278     50218.233      36.893836      36.893836      36.893836    
    122000   0.18063989    -8.3094798     -8.0385238     -0.45645416     50218.233      36.893836      36.893836      36.893836    
    123000   0.18075158    -8.3095089     -8.0383854     -0.45965032     50218.233      36.893836      36.893836      36.893836    
    124000   0.18011937    -8.3107782     -8.040603      -0.45499711     50218.233      36.893836      36.893836      36.893836    
    125000   0.18038939    -8.3104201     -8.0398399     -0.46202466     50218.233      36.893836      36.893836      36.893836    
    126000   0.17946197    -8.3105736     -8.0413845     -0.4650485      50218.233      36.893836      36.893836      36.893836    
    127000   0.18048157    -8.3112977     -8.0405792     -0.46811595     50218.233      36.893836      36.893836      36.893836    
    128000   0.18006188    -8.3107287     -8.0406397     -0.46933956     50218.233      36.893836      36.893836      36.893836    
    129000   0.18082179    -8.3092253     -8.0379964     -0.45755        50218.233      36.893836      36.893836      36.893836    
    130000   0.18044245    -8.3094546     -8.0387948     -0.45679883     50218.233      36.893836      36.893836      36.893836    
    131000   0.17918269    -8.3097566     -8.0409863     -0.45891876     50218.233      36.893836      36.893836      36.893836    
    132000   0.17932758    -8.3111741     -8.0421865     -0.47221106     50218.233      36.893836      36.893836      36.893836    
    133000   0.18043524    -8.3097752     -8.0391262     -0.45345505     50218.233      36.893836      36.893836      36.893836    
    134000   0.18050499    -8.3106847     -8.0399311     -0.46597521     50218.233      36.893836      36.893836      36.893836    
    135000   0.17964662    -8.3106579     -8.0411918     -0.47015198     50218.233      36.893836      36.893836      36.893836    
    136000   0.18023336    -8.3105493     -8.0402031     -0.46103234     50218.233      36.893836      36.893836      36.893836    
    137000   0.17974648    -8.3111066     -8.0414907     -0.46967062     50218.233      36.893836      36.893836      36.893836    
    138000   0.18051839    -8.311237      -8.0404632     -0.46516948     50218.233      36.893836      36.893836      36.893836    
    139000   0.1801782     -8.3119886     -8.0417252     -0.47635247     50218.233      36.893836      36.893836      36.893836    
    140000   0.17982849    -8.3112139     -8.041475      -0.46395293     50218.233      36.893836      36.893836      36.893836    
    141000   0.17939691    -8.3116403     -8.0425488     -0.47766582     50218.233      36.893836      36.893836      36.893836    
    142000   0.18032419    -8.3122089     -8.0417264     -0.47590923     50218.233      36.893836      36.893836      36.893836    
    143000   0.17937867    -8.3111354     -8.0420713     -0.47192617     50218.233      36.893836      36.893836      36.893836    
    144000   0.17972445    -8.312303      -8.0427202     -0.486521       50218.233      36.893836      36.893836      36.893836    
    145000   0.17902842    -8.313298      -8.0447591     -0.4815922      50218.233      36.893836      36.893836      36.893836    
    146000   0.17920613    -8.3100963     -8.0412909     -0.45801787     50218.233      36.893836      36.893836      36.893836    
    147000   0.17975905    -8.3135857     -8.0439509     -0.49186527     50218.233      36.893836      36.893836      36.893836    
    148000   0.17985983    -8.3118875     -8.0421016     -0.47414038     50218.233      36.893836      36.893836      36.893836    
    149000   0.18077187    -8.3122518     -8.0410979     -0.47788763     50218.233      36.893836      36.893836      36.893836    
    150000   0.17971377    -8.3119308     -8.042364      -0.47430579     50218.233      36.893836      36.893836      36.893836    
    151000   0.18006561    -8.3114433     -8.0413487     -0.47068948     50218.233      36.893836      36.893836      36.893836    
    152000   0.1805791     -8.3100263     -8.0391616     -0.46644435     50218.233      36.893836      36.893836      36.893836    
    153000   0.18076798    -8.3119738     -8.0408257     -0.47143815     50218.233      36.893836      36.893836      36.893836    
    154000   0.18018657    -8.3126733     -8.0423973     -0.4776272      50218.233      36.893836      36.893836      36.893836    
    155000   0.17999742    -8.3125258     -8.0425335     -0.48225213     50218.233      36.893836      36.893836      36.893836    
    156000   0.18032022    -8.3126701     -8.0421936     -0.48032009     50218.233      36.893836      36.893836      36.893836    
    157000   0.17994796    -8.311267      -8.0413489     -0.4773512      50218.233      36.893836      36.893836      36.893836    
    158000   0.17926747    -8.3117268     -8.0428294     -0.47793093     50218.233      36.893836      36.893836      36.893836    
    159000   0.18023227    -8.3101329     -8.0397883     -0.46119531     50218.233      36.893836      36.893836      36.893836    
    160000   0.17975547    -8.3122676     -8.0426382     -0.47208312     50218.233      36.893836      36.893836      36.893836    
    161000   0.18006523    -8.3097304     -8.0396364     -0.45981763     50218.233      36.893836      36.893836      36.893836    
    162000   0.18023452    -8.3108465     -8.0404986     -0.46916693     50218.233      36.893836      36.893836      36.893836    
    163000   0.18023861    -8.3114839     -8.0411299     -0.47134871     50218.233      36.893836      36.893836      36.893836    
    164000   0.17910486    -8.309154      -8.0405005     -0.46755129     50218.233      36.893836      36.893836      36.893836    
    165000   0.1804259     -8.310339      -8.039704      -0.45818412     50218.233      36.893836      36.893836      36.893836    
    166000   0.1802361     -8.3109045     -8.0405542     -0.46183608     50218.233      36.893836      36.893836      36.893836    
    167000   0.18056412    -8.3101657     -8.0393233     -0.46216367     50218.233      36.893836      36.893836      36.893836    
    168000   0.18069257    -8.3103153     -8.0392803     -0.46013081     50218.233      36.893836      36.893836      36.893836    
    169000   0.18147103    -8.3108497     -8.038647      -0.46854897     50218.233      36.893836      36.893836      36.893836    
    170000   0.18056745    -8.3115945     -8.0407472     -0.47202843     50218.233      36.893836      36.893836      36.893836    
    171000   0.18017545    -8.3115661     -8.0413067     -0.47065532     50218.233      36.893836      36.893836      36.893836    
    172000   0.17955103    -8.310369      -8.0410463     -0.4671842      50218.233      36.893836      36.893836      36.893836    
    173000   0.17988145    -8.3106564     -8.0408381     -0.46267044     50218.233      36.893836      36.893836      36.893836    
    174000   0.18004082    -8.3120134     -8.041956      -0.47846882     50218.233      36.893836      36.893836      36.893836    
    175000   0.18064252    -8.3104154     -8.0394555     -0.46713188     50218.233      36.893836      36.893836      36.893836    
    176000   0.18093795    -8.3118474     -8.0404444     -0.47115084     50218.233      36.893836      36.893836      36.893836    
    177000   0.18041605    -8.3111826     -8.0405624     -0.46556533     50218.233      36.893836      36.893836      36.893836    
    178000   0.18048644    -8.3109615     -8.0402357     -0.45873452     50218.233      36.893836      36.893836      36.893836    
    179000   0.18088088    -8.3106936     -8.0393761     -0.46494454     50218.233      36.893836      36.893836      36.893836    
    180000   0.18004769    -8.3109545     -8.0408868     -0.45831889     50218.233      36.893836      36.893836      36.893836    
    181000   0.18046095    -8.311244      -8.0405565     -0.47028413     50218.233      36.893836      36.893836      36.893836    
    182000   0.18021368    -8.3108497     -8.040533      -0.46401134     50218.233      36.893836      36.893836      36.893836    
    183000   0.17999781    -8.3105287     -8.0405359     -0.46832086     50218.233      36.893836      36.893836      36.893836    
    184000   0.17996644    -8.3095941     -8.0396483     -0.46016068     50218.233      36.893836      36.893836      36.893836    
    185000   0.17997415    -8.3102876     -8.0403302     -0.465659       50218.233      36.893836      36.893836      36.893836    
    186000   0.17982658    -8.311512      -8.041776      -0.47694327     50218.233      36.893836      36.893836      36.893836    
    187000   0.18052327    -8.3109898     -8.0402088     -0.46538396     50218.233      36.893836      36.893836      36.893836    
    188000   0.17951251    -8.3106683     -8.0414034     -0.47414337     50218.233      36.893836      36.893836      36.893836    
    189000   0.17944007    -8.3113144     -8.0421581     -0.46701875     50218.233      36.893836      36.893836      36.893836    
    190000   0.17882344    -8.3108518     -8.0426205     -0.47452614     50218.233      36.893836      36.893836      36.893836    
    191000   0.18076363    -8.3118219     -8.0406803     -0.46786977     50218.233      36.893836      36.893836      36.893836    
    192000   0.18009122    -8.3119021     -8.0417691     -0.46804726     50218.233      36.893836      36.893836      36.893836    
    193000   0.18036194    -8.3113548     -8.0408157     -0.47367877     50218.233      36.893836      36.893836      36.893836    
    194000   0.17888833    -8.3117375     -8.0434088     -0.47521686     50218.233      36.893836      36.893836      36.893836    
    195000   0.18010928    -8.3090826     -8.0389225     -0.44343927     50218.233      36.893836      36.893836      36.893836    
    196000   0.1801019     -8.3105425     -8.0403935     -0.46530728     50218.233      36.893836      36.893836      36.893836    
    197000   0.18059872    -8.3119209     -8.0410267     -0.46969693     50218.233      36.893836      36.893836      36.893836    
    198000   0.18093666    -8.3117658     -8.0403646     -0.47053421     50218.233      36.893836      36.893836      36.893836    
    199000   0.17997714    -8.3121671     -8.0422052     -0.46992749     50218.233      36.893836      36.893836      36.893836    
    200000   0.18101253    -8.3115563     -8.0400413     -0.468093       50218.233      36.893836      36.893836      36.893836    
    201000   0.1801216     -8.3122637     -8.0420851     -0.4746991      50218.233      36.893836      36.893836      36.893836    
    202000   0.18039233    -8.3115783     -8.0409936     -0.46894246     50218.233      36.893836      36.893836      36.893836    
    203000   0.17920899    -8.3125922     -8.0437825     -0.47914298     50218.233      36.893836      36.893836      36.893836    
    204000   0.17969009    -8.313076      -8.0435447     -0.48002635     50218.233      36.893836      36.893836      36.893836    
    205000   0.17967228    -8.31254       -8.0430354     -0.47708529     50218.233      36.893836      36.893836      36.893836    
    206000   0.17998923    -8.3108711     -8.0408911     -0.46494878     50218.233      36.893836      36.893836      36.893836    
    207000   0.17893836    -8.3112316     -8.0428278     -0.46532867     50218.233      36.893836      36.893836      36.893836    
    208000   0.17939611    -8.3125808     -8.0434905     -0.47964465     50218.233      36.893836      36.893836      36.893836    
    209000   0.17989428    -8.3109174     -8.0410798     -0.46891912     50218.233      36.893836      36.893836      36.893836    
    210000   0.18024524    -8.3104085     -8.0400445     -0.45229454     50218.233      36.893836      36.893836      36.893836    
    211000   0.1803473     -8.311166      -8.0406489     -0.46895113     50218.233      36.893836      36.893836      36.893836    
    212000   0.18077428    -8.3110258     -8.0398683     -0.46624105     50218.233      36.893836      36.893836      36.893836    
    213000   0.18144248    -8.3105194     -8.0383595     -0.46135683     50218.233      36.893836      36.893836      36.893836    
    214000   0.17978137    -8.3100812     -8.040413      -0.45826707     50218.233      36.893836      36.893836      36.893836    
    215000   0.18000275    -8.3098743     -8.039874      -0.45504022     50218.233      36.893836      36.893836      36.893836    
    216000   0.17993743    -8.3103958     -8.0404935     -0.46816368     50218.233      36.893836      36.893836      36.893836    
    217000   0.18018128    -8.3121472     -8.0418792     -0.47271228     50218.233      36.893836      36.893836      36.893836    
    218000   0.17855555    -8.3106852     -8.0428557     -0.46341291     50218.233      36.893836      36.893836      36.893836    
    219000   0.179322      -8.3080046     -8.0390254     -0.4403666      50218.233      36.893836      36.893836      36.893836    
    220000   0.18010859    -8.3110141     -8.0408551     -0.46380141     50218.233      36.893836      36.893836      36.893836    
    221000   0.18057096    -8.3101462     -8.0392936     -0.4698453      50218.233      36.893836      36.893836      36.893836    
    222000   0.17986336    -8.3118963     -8.0421051     -0.46998548     50218.233      36.893836      36.893836      36.893836    
    223000   0.18029189    -8.3102992     -8.0398652     -0.46082064     50218.233      36.893836      36.893836      36.893836    
    224000   0.17935451    -8.3110796     -8.0420516     -0.46998415     50218.233      36.893836      36.893836      36.893836    
    225000   0.17992159    -8.3105008     -8.0406223     -0.46492206     50218.233      36.893836      36.893836      36.893836    
    226000   0.18015919    -8.3087274     -8.0384925     -0.45391571     50218.233      36.893836      36.893836      36.893836    
    227000   0.17965122    -8.3108468     -8.0413738     -0.46516113     50218.233      36.893836      36.893836      36.893836    
    228000   0.18034906    -8.3108136     -8.0402938     -0.47010637     50218.233      36.893836      36.893836      36.893836    
    229000   0.17981918    -8.3095966     -8.0398717     -0.45756946     50218.233      36.893836      36.893836      36.893836    
    230000   0.1808704     -8.3112934     -8.0399917     -0.46783122     50218.233      36.893836      36.893836      36.893836    
    231000   0.1796124     -8.3105027     -8.041088      -0.46218634     50218.233      36.893836      36.893836      36.893836    
    232000   0.18013101    -8.3090888     -8.0388961     -0.45115419     50218.233      36.893836      36.893836      36.893836    
    233000   0.18025014    -8.3105086     -8.0401372     -0.46057524     50218.233      36.893836      36.893836      36.893836    
    234000   0.1801698     -8.3099055     -8.0396547     -0.45676783     50218.233      36.893836      36.893836      36.893836    
    235000   0.18022073    -8.3123928     -8.0420655     -0.47590419     50218.233      36.893836      36.893836      36.893836    
    236000   0.17849302    -8.3115308     -8.043795      -0.46548175     50218.233      36.893836      36.893836      36.893836    
    237000   0.18083512    -8.3107254     -8.0394766     -0.46374454     50218.233      36.893836      36.893836      36.893836    
    238000   0.1802657     -8.3118864     -8.0414917     -0.47787655     50218.233      36.893836      36.893836      36.893836    
    239000   0.17998825    -8.3131784     -8.0431999     -0.48041121     50218.233      36.893836      36.893836      36.893836    
    240000   0.17974001    -8.3116653     -8.0420591     -0.46314825     50218.233      36.893836      36.893836      36.893836    
    241000   0.18130609    -8.3112889     -8.0393336     -0.46982322     50218.233      36.893836      36.893836      36.893836    
    242000   0.18036088    -8.3113551     -8.0408177     -0.47384432     50218.233      36.893836      36.893836      36.893836    
    243000   0.1798923     -8.3112289     -8.0413942     -0.4748038      50218.233      36.893836      36.893836      36.893836    
    244000   0.1806833     -8.312077      -8.0410559     -0.47081203     50218.233      36.893836      36.893836      36.893836    
    245000   0.18081444    -8.31014       -8.0389222     -0.45209884     50218.233      36.893836      36.893836      36.893836    
    246000   0.17926644    -8.3126917     -8.0437959     -0.48714555     50218.233      36.893836      36.893836      36.893836    
    247000   0.18042062    -8.3110781     -8.040451      -0.47141506     50218.233      36.893836      36.893836      36.893836    
    248000   0.17908891    -8.3122594     -8.0436299     -0.47657373     50218.233      36.893836      36.893836      36.893836    
    249000   0.17958864    -8.3134764     -8.0440973     -0.4872062      50218.233      36.893836      36.893836      36.893836    
    250000   0.18045335    -8.3106471     -8.0399709     -0.46523746     50218.233      36.893836      36.893836      36.893836    
    251000   0.18006729    -8.3104739     -8.0403768     -0.46859131     50218.233      36.893836      36.893836      36.893836    
    252000   0.18117625    -8.3122262     -8.0404657     -0.47201354     50218.233      36.893836      36.893836      36.893836    
    253000   0.18045284    -8.3113285     -8.0406531     -0.47553675     50218.233      36.893836      36.893836      36.893836    
    254000   0.1793708     -8.3112797     -8.0422273     -0.46975502     50218.233      36.893836      36.893836      36.893836    
    255000   0.18046963    -8.3123206     -8.04162       -0.47445071     50218.233      36.893836      36.893836      36.893836    
    256000   0.17890365    -8.3119108     -8.0435591     -0.48235556     50218.233      36.893836      36.893836      36.893836    
    257000   0.17988775    -8.3117074     -8.0418796     -0.47096711     50218.233      36.893836      36.893836      36.893836    
    258000   0.17935572    -8.3106571     -8.0416273     -0.46792326     50218.233      36.893836      36.893836      36.893836    
    259000   0.17933568    -8.3127628     -8.0437631     -0.48716712     50218.233      36.893836      36.893836      36.893836    
    260000   0.1799872     -8.3113229     -8.0413459     -0.47599238     50218.233      36.893836      36.893836      36.893836    
    261000   0.17942894    -8.3112777     -8.0421381     -0.46903312     50218.233      36.893836      36.893836      36.893836    
    262000   0.18064596    -8.3102155     -8.0392504     -0.459139       50218.233      36.893836      36.893836      36.893836    
    263000   0.17995071    -8.3114515     -8.0415292     -0.47357574     50218.233      36.893836      36.893836      36.893836    
    264000   0.17895191    -8.3113576     -8.0429336     -0.47488821     50218.233      36.893836      36.893836      36.893836    
    265000   0.18031122    -8.3098576     -8.0393946     -0.46066921     50218.233      36.893836      36.893836      36.893836    
    266000   0.17967925    -8.310722      -8.041207      -0.46546241     50218.233      36.893836      36.893836      36.893836    
    267000   0.17966221    -8.3110899     -8.0416004     -0.4710416      50218.233      36.893836      36.893836      36.893836    
    268000   0.17965412    -8.3113479     -8.0418705     -0.4731954      50218.233      36.893836      36.893836      36.893836    
    269000   0.18098264    -8.3110502     -8.0395801     -0.46426047     50218.233      36.893836      36.893836      36.893836    
    270000   0.18024502    -8.3101506     -8.0397869     -0.45620005     50218.233      36.893836      36.893836      36.893836    
    271000   0.18097556    -8.3103165     -8.038857      -0.45807116     50218.233      36.893836      36.893836      36.893836    
    272000   0.1796637     -8.3113299     -8.0418381     -0.47498615     50218.233      36.893836      36.893836      36.893836    
    273000   0.17988654    -8.310865      -8.0410391     -0.46636376     50218.233      36.893836      36.893836      36.893836    
    274000   0.18010798    -8.3096768     -8.0395186     -0.46543257     50218.233      36.893836      36.893836      36.893836    
    275000   0.18036695    -8.3098781     -8.0393315     -0.46051139     50218.233      36.893836      36.893836      36.893836    
    276000   0.18016939    -8.3099215     -8.0396713     -0.46635777     50218.233      36.893836      36.893836      36.893836    
    277000   0.18065118    -8.3100158     -8.0390429     -0.45854038     50218.233      36.893836      36.893836      36.893836    
    278000   0.18125408    -8.3098414     -8.0379641     -0.4607344      50218.233      36.893836      36.893836      36.893836    
    279000   0.17971577    -8.3103426     -8.0407728     -0.46580153     50218.233      36.893836      36.893836      36.893836    
    280000   0.18061388    -8.310173      -8.0392561     -0.46109462     50218.233      36.893836      36.893836      36.893836    
    281000   0.17972688    -8.3104164     -8.0408299     -0.45894525     50218.233      36.893836      36.893836      36.893836    
    282000   0.18008674    -8.3116295     -8.0415032     -0.46859927     50218.233      36.893836      36.893836      36.893836    
    283000   0.18086624    -8.3109289     -8.0396334     -0.46586651     50218.233      36.893836      36.893836      36.893836    
    284000   0.18064922    -8.3109602     -8.0399902     -0.47095701     50218.233      36.893836      36.893836      36.893836    
    285000   0.17986898    -8.3117012     -8.0419016     -0.4781979      50218.233      36.893836      36.893836      36.893836    
    286000   0.1799104     -8.3118954     -8.0420336     -0.47718162     50218.233      36.893836      36.893836      36.893836    
    287000   0.17942945    -8.3106139     -8.0414736     -0.46225193     50218.233      36.893836      36.893836      36.893836    
    288000   0.17930679    -8.3120987     -8.0431423     -0.47450594     50218.233      36.893836      36.893836      36.893836    
    289000   0.17919411    -8.3120665     -8.0432792     -0.47896919     50218.233      36.893836      36.893836      36.893836    
    290000   0.18046395    -8.3128433     -8.0421512     -0.48071207     50218.233      36.893836      36.893836      36.893836    
    291000   0.1802938     -8.3100591     -8.0396223     -0.45577131     50218.233      36.893836      36.893836      36.893836    
    292000   0.17994867    -8.3111336     -8.0412145     -0.47708769     50218.233      36.893836      36.893836      36.893836    
    293000   0.18085461    -8.3102358     -8.0389577     -0.46661343     50218.233      36.893836      36.893836      36.893836    
    294000   0.1800699     -8.3127402     -8.0426392     -0.48469587     50218.233      36.893836      36.893836      36.893836    
    295000   0.17931717    -8.3127545     -8.0437826     -0.48525584     50218.233      36.893836      36.893836      36.893836    
    296000   0.18048843    -8.3122477     -8.0415189     -0.47450276     50218.233      36.893836      36.893836      36.893836    
    297000   0.18054679    -8.3111897     -8.0403734     -0.46691946     50218.233      36.893836      36.893836      36.893836    
    298000   0.17974543    -8.3114675     -8.0418532     -0.47775138     50218.233      36.893836      36.893836      36.893836    
    299000   0.17940513    -8.3118672     -8.0427633     -0.47498866     50218.233      36.893836      36.893836      36.893836    
    300000   0.18031715    -8.3117172     -8.0412453     -0.46833897     50218.233      36.893836      36.893836      36.893836    
    301000   0.17965539    -8.3129478     -8.0434685     -0.48316211     50218.233      36.893836      36.893836      36.893836    
    302000   0.17971081    -8.3120452     -8.0424828     -0.48235582     50218.233      36.893836      36.893836      36.893836    
    303000   0.17976876    -8.3129573     -8.043308      -0.48415072     50218.233      36.893836      36.893836      36.893836    
    304000   0.17965665    -8.3115321     -8.042051      -0.47339325     50218.233      36.893836      36.893836      36.893836    
    305000   0.18068166    -8.3103137     -8.0392951     -0.45663276     50218.233      36.893836      36.893836      36.893836    
    306000   0.17919556    -8.3126807     -8.0438911     -0.47951145     50218.233      36.893836      36.893836      36.893836    
    307000   0.1794192     -8.3132455     -8.0441205     -0.48627843     50218.233      36.893836      36.893836      36.893836    
    308000   0.18032627    -8.3115687     -8.0410832     -0.46945746     50218.233      36.893836      36.893836      36.893836    
    309000   0.18019566    -8.3104803     -8.0401906     -0.46369275     50218.233      36.893836      36.893836      36.893836    
    310000   0.17961697    -8.3115803     -8.0421587     -0.47306963     50218.233      36.893836      36.893836      36.893836    
    311000   0.179637      -8.3113492     -8.0418975     -0.47719416     50218.233      36.893836      36.893836      36.893836    
    312000   0.17954496    -8.311501      -8.0421873     -0.46765456     50218.233      36.893836      36.893836      36.893836    
    313000   0.17988605    -8.3120673     -8.0422421     -0.47492992     50218.233      36.893836      36.893836      36.893836    
    314000   0.17921464    -8.3094748     -8.0406566     -0.46180261     50218.233      36.893836      36.893836      36.893836    
    315000   0.1789964     -8.3106145     -8.0421237     -0.45998434     50218.233      36.893836      36.893836      36.893836    
    316000   0.18038987    -8.3114504     -8.0408694     -0.47223913     50218.233      36.893836      36.893836      36.893836    
    317000   0.18062386    -8.311305      -8.0403731     -0.47110361     50218.233      36.893836      36.893836      36.893836    
    318000   0.18033143    -8.3113072     -8.0408139     -0.46387468     50218.233      36.893836      36.893836      36.893836    
    319000   0.1802097     -8.310536      -8.0402253     -0.45632384     50218.233      36.893836      36.893836      36.893836    
    320000   0.18031493    -8.3103242     -8.0398557     -0.45948983     50218.233      36.893836      36.893836      36.893836    
    321000   0.17958147    -8.3096748     -8.0403064     -0.45549465     50218.233      36.893836      36.893836      36.893836    
    322000   0.18125514    -8.3105599     -8.038681      -0.46168894     50218.233      36.893836      36.893836      36.893836    
    323000   0.18083991    -8.3101059     -8.0388499     -0.46454358     50218.233      36.893836      36.893836      36.893836    
    324000   0.17896248    -8.310433      -8.0419931     -0.45757816     50218.233      36.893836      36.893836      36.893836    
    325000   0.18001118    -8.3099823     -8.0399694     -0.4525002      50218.233      36.893836      36.893836      36.893836    
    326000   0.18081628    -8.3112217     -8.0400011     -0.46156002     50218.233      36.893836      36.893836      36.893836    
    327000   0.18068456    -8.3104989     -8.0394759     -0.45851334     50218.233      36.893836      36.893836      36.893836    
    328000   0.17966683    -8.3106522     -8.0411558     -0.46387563     50218.233      36.893836      36.893836      36.893836    
    329000   0.18056412    -8.3103391     -8.0394968     -0.46416378     50218.233      36.893836      36.893836      36.893836    
    330000   0.18151357    -8.3095827     -8.0373162     -0.45637149     50218.233      36.893836      36.893836      36.893836    
    331000   0.1799379     -8.3108457     -8.0409427     -0.46677041     50218.233      36.893836      36.893836      36.893836    
    332000   0.17977504    -8.3123018     -8.0426431     -0.47862807     50218.233      36.893836      36.893836      36.893836    
    333000   0.17962315    -8.3131851     -8.0437542     -0.47589091     50218.233      36.893836      36.893836      36.893836    
    334000   0.1799948     -8.3134643     -8.043476      -0.48862881     50218.233      36.893836      36.893836      36.893836    
    335000   0.17992464    -8.3100449     -8.0401618     -0.46448057     50218.233      36.893836      36.893836      36.893836    
    336000   0.18069972    -8.3119975     -8.0409517     -0.46924559     50218.233      36.893836      36.893836      36.893836    
    337000   0.1795585     -8.3105174     -8.0411835     -0.45778135     50218.233      36.893836      36.893836      36.893836    
    338000   0.17971984    -8.3117173     -8.0421414     -0.47592474     50218.233      36.893836      36.893836      36.893836    
    339000   0.17944549    -8.3111025     -8.0419381     -0.47288687     50218.233      36.893836      36.893836      36.893836    
    340000   0.18019722    -8.3105717     -8.0402797     -0.4608434      50218.233      36.893836      36.893836      36.893836    
    341000   0.17951705    -8.3117073     -8.0424355     -0.47448837     50218.233      36.893836      36.893836      36.893836    
    342000   0.18042958    -8.313013      -8.0423725     -0.48055405     50218.233      36.893836      36.893836      36.893836    
    343000   0.17876248    -8.3122608     -8.0441209     -0.4734252      50218.233      36.893836      36.893836      36.893836    
    344000   0.17992763    -8.3114477     -8.04156       -0.4678471      50218.233      36.893836      36.893836      36.893836    
    345000   0.18009122    -8.3132288     -8.0430958     -0.48238606     50218.233      36.893836      36.893836      36.893836    
    346000   0.18067015    -8.3125156     -8.0415142     -0.47464651     50218.233      36.893836      36.893836      36.893836    
    347000   0.1799105     -8.3111397     -8.0412778     -0.46920165     50218.233      36.893836      36.893836      36.893836    
    348000   0.18034671    -8.3107682     -8.040252      -0.46302822     50218.233      36.893836      36.893836      36.893836    
    349000   0.17959847    -8.3115009     -8.042107      -0.47594024     50218.233      36.893836      36.893836      36.893836    
    350000   0.18031746    -8.3126779     -8.0422055     -0.48203235     50218.233      36.893836      36.893836      36.893836    
    351000   0.180215      -8.3122849     -8.0419662     -0.47088799     50218.233      36.893836      36.893836      36.893836    
    352000   0.17959435    -8.3124098     -8.0430221     -0.47230178     50218.233      36.893836      36.893836      36.893836    
    353000   0.17901424    -8.3128277     -8.0443102     -0.48547094     50218.233      36.893836      36.893836      36.893836    
    354000   0.18097565    -8.3117224     -8.0402628     -0.46510186     50218.233      36.893836      36.893836      36.893836    
    355000   0.18034022    -8.3116401     -8.0411336     -0.47183899     50218.233      36.893836      36.893836      36.893836    
    356000   0.17960602    -8.3128522     -8.043447      -0.48309132     50218.233      36.893836      36.893836      36.893836    
    357000   0.18059334    -8.3112313     -8.0403451     -0.47531271     50218.233      36.893836      36.893836      36.893836    
    358000   0.1800814     -8.3118132     -8.041695      -0.46776533     50218.233      36.893836      36.893836      36.893836    
    359000   0.17957953    -8.3115459     -8.0421804     -0.47406325     50218.233      36.893836      36.893836      36.893836    
    360000   0.17984725    -8.3119135     -8.0421465     -0.47407402     50218.233      36.893836      36.893836      36.893836    
    361000   0.18028804    -8.3119607     -8.0415324     -0.47658501     50218.233      36.893836      36.893836      36.893836    
    362000   0.17995463    -8.3096918     -8.0397637     -0.45730367     50218.233      36.893836      36.893836      36.893836    
    363000   0.18008316    -8.3123619     -8.042241      -0.47733892     50218.233      36.893836      36.893836      36.893836    
    364000   0.179611      -8.3093437     -8.0399311     -0.45026201     50218.233      36.893836      36.893836      36.893836    
    365000   0.18015474    -8.3114184     -8.0411901     -0.46913463     50218.233      36.893836      36.893836      36.893836    
    366000   0.18131683    -8.309491      -8.0375197     -0.45393248     50218.233      36.893836      36.893836      36.893836    
    367000   0.18004811    -8.3121531     -8.0420847     -0.47954152     50218.233      36.893836      36.893836      36.893836    
    368000   0.1783925     -8.3106334     -8.0430485     -0.46822999     50218.233      36.893836      36.893836      36.893836    
    369000   0.17972288    -8.3103517     -8.0407712     -0.45875345     50218.233      36.893836      36.893836      36.893836    
    370000   0.17968559    -8.3102497     -8.0407252     -0.461431       50218.233      36.893836      36.893836      36.893836    
    371000   0.17998997    -8.3114536     -8.0414725     -0.46986689     50218.233      36.893836      36.893836      36.893836    
    372000   0.18037193    -8.3105508     -8.0399968     -0.46453908     50218.233      36.893836      36.893836      36.893836    
    373000   0.18037413    -8.3102475     -8.0396902     -0.4640719      50218.233      36.893836      36.893836      36.893836    
    374000   0.18092816    -8.3106152     -8.0392269     -0.46359396     50218.233      36.893836      36.893836      36.893836    
    375000   0.18081621    -8.3100593     -8.0388388     -0.45937977     50218.233      36.893836      36.893836      36.893836    
    376000   0.17989113    -8.3091328     -8.0393        -0.45347558     50218.233      36.893836      36.893836      36.893836    
    377000   0.17946072    -8.3105409     -8.0413537     -0.46175861     50218.233      36.893836      36.893836      36.893836    
    378000   0.17943348    -8.3109561     -8.0418097     -0.46813067     50218.233      36.893836      36.893836      36.893836    
    379000   0.17926255    -8.3103932     -8.0415032     -0.46071237     50218.233      36.893836      36.893836      36.893836    
    380000   0.18008441    -8.3102273     -8.0401045     -0.4651517      50218.233      36.893836      36.893836      36.893836    
    381000   0.18054912    -8.3089356     -8.0381158     -0.45091756     50218.233      36.893836      36.893836      36.893836    
    382000   0.17929703    -8.3105902     -8.0416485     -0.46112895     50218.233      36.893836      36.893836      36.893836    
    383000   0.18009646    -8.3113073     -8.0411665     -0.4732958      50218.233      36.893836      36.893836      36.893836    
    384000   0.17954684    -8.3124875     -8.043171      -0.47638725     50218.233      36.893836      36.893836      36.893836    
    385000   0.17983079    -8.3101153     -8.040373      -0.45784517     50218.233      36.893836      36.893836      36.893836    
    386000   0.17997081    -8.3098444     -8.039892      -0.46043453     50218.233      36.893836      36.893836      36.893836    
    387000   0.18005302    -8.3111552     -8.0410795     -0.46621551     50218.233      36.893836      36.893836      36.893836    
    388000   0.17985008    -8.3109801     -8.0412088     -0.46276597     50218.233      36.893836      36.893836      36.893836    
    389000   0.18003108    -8.3131586     -8.0431158     -0.48119359     50218.233      36.893836      36.893836      36.893836    
    390000   0.18051985    -8.3108061     -8.0400302     -0.46470628     50218.233      36.893836      36.893836      36.893836    
    391000   0.18100389    -8.3112258     -8.0397238     -0.46910287     50218.233      36.893836      36.893836      36.893836    
    392000   0.18051598    -8.3099727     -8.0392026     -0.46233216     50218.233      36.893836      36.893836      36.893836    
    393000   0.1802713     -8.3128949     -8.0424918     -0.48377552     50218.233      36.893836      36.893836      36.893836    
    394000   0.17954481    -8.3115396     -8.0422262     -0.47396033     50218.233      36.893836      36.893836      36.893836    
    395000   0.18085212    -8.3132731     -8.0419988     -0.47651995     50218.233      36.893836      36.893836      36.893836    
    396000   0.17968174    -8.311826      -8.0423072     -0.47079538     50218.233      36.893836      36.893836      36.893836    
    397000   0.18061972    -8.3129141     -8.0419884     -0.4825309      50218.233      36.893836      36.893836      36.893836    
    398000   0.18018766    -8.3117188     -8.0414411     -0.47619674     50218.233      36.893836      36.893836      36.893836    
    399000   0.17938341    -8.3107489     -8.0416776     -0.4682188      50218.233      36.893836      36.893836      36.893836    
    400000   0.17993049    -8.3107175     -8.0408256     -0.46241878     50218.233      36.893836      36.893836      36.893836    
    401000   0.17939538    -8.3133098     -8.0442206     -0.4845701      50218.233      36.893836      36.893836      36.893836    
    402000   0.18020846    -8.3109445     -8.0406357     -0.46542611     50218.233      36.893836      36.893836      36.893836    
    403000   0.18048098    -8.3132449     -8.0425273     -0.48520293     50218.233      36.893836      36.893836      36.893836    
    404000   0.18021917    -8.310954      -8.0406291     -0.46583183     50218.233      36.893836      36.893836      36.893836    
    405000   0.18104839    -8.3109564     -8.0393877     -0.46558017     50218.233      36.893836      36.893836      36.893836    
    406000   0.17932872    -8.3105621     -8.0415729     -0.47503328     50218.233      36.893836      36.893836      36.893836    
    407000   0.1786924     -8.3112407     -8.0432059     -0.46333568     50218.233      36.893836      36.893836      36.893836    
    408000   0.18023589    -8.311391      -8.041041      -0.4719686      50218.233      36.893836      36.893836      36.893836    
    409000   0.18003158    -8.3105465     -8.040503      -0.45985154     50218.233      36.893836      36.893836      36.893836    
    410000   0.18074346    -8.3101258     -8.0390144     -0.46344052     50218.233      36.893836      36.893836      36.893836    
    411000   0.17991645    -8.308749      -8.0388782     -0.44934727     50218.233      36.893836      36.893836      36.893836    
    412000   0.18062266    -8.3118668     -8.0409366     -0.47061454     50218.233      36.893836      36.893836      36.893836    
    413000   0.17987728    -8.3113576     -8.0415455     -0.46875041     50218.233      36.893836      36.893836      36.893836    
    414000   0.17967035    -8.3119323     -8.0424306     -0.47890371     50218.233      36.893836      36.893836      36.893836    
    415000   0.17909791    -8.3098292     -8.0411861     -0.46425264     50218.233      36.893836      36.893836      36.893836    
    416000   0.18028031    -8.3108103     -8.0403937     -0.46596714     50218.233      36.893836      36.893836      36.893836    
    417000   0.17887303    -8.3101897     -8.041884      -0.46853033     50218.233      36.893836      36.893836      36.893836    
    418000   0.18005256    -8.3088985     -8.0388235     -0.4430763      50218.233      36.893836      36.893836      36.893836    
    419000   0.18001045    -8.3114415     -8.0414296     -0.46986964     50218.233      36.893836      36.893836      36.893836    
    420000   0.17996008    -8.3090281     -8.0390919     -0.45806011     50218.233      36.893836      36.893836      36.893836    
    421000   0.17999213    -8.3099764     -8.039992      -0.45849415     50218.233      36.893836      36.893836      36.893836    
    422000   0.17972353    -8.3099234     -8.0403419     -0.4577269      50218.233      36.893836      36.893836      36.893836    
    423000   0.17943508    -8.3107262     -8.0415774     -0.46860483     50218.233      36.893836      36.893836      36.893836    
    424000   0.17925173    -8.3101153     -8.0412415     -0.4572563      50218.233      36.893836      36.893836      36.893836    
    425000   0.17962947    -8.3099992     -8.0405589     -0.46257745     50218.233      36.893836      36.893836      36.893836    
    426000   0.17991087    -8.3107628     -8.0409003     -0.46489348     50218.233      36.893836      36.893836      36.893836    
    427000   0.18045451    -8.3099074     -8.0392295     -0.46021378     50218.233      36.893836      36.893836      36.893836    
    428000   0.18090902    -8.3102411     -8.0388814     -0.45903539     50218.233      36.893836      36.893836      36.893836    
    429000   0.18056742    -8.3106515     -8.0398043     -0.46550518     50218.233      36.893836      36.893836      36.893836    
    430000   0.18085035    -8.3092085     -8.0379368     -0.45416895     50218.233      36.893836      36.893836      36.893836    
    431000   0.18063122    -8.3090689     -8.038126      -0.44482504     50218.233      36.893836      36.893836      36.893836    
    432000   0.17934781    -8.3106768     -8.0416589     -0.4692577      50218.233      36.893836      36.893836      36.893836    
    433000   0.18009068    -8.3121362     -8.042004      -0.4700288      50218.233      36.893836      36.893836      36.893836    
    434000   0.17955321    -8.3107028     -8.0413768     -0.46906188     50218.233      36.893836      36.893836      36.893836    
    435000   0.18057011    -8.312894      -8.0420427     -0.4768064      50218.233      36.893836      36.893836      36.893836    
    436000   0.18000788    -8.3116655     -8.0416575     -0.4690927      50218.233      36.893836      36.893836      36.893836    
    437000   0.17931975    -8.3101576     -8.0411818     -0.46067311     50218.233      36.893836      36.893836      36.893836    
    438000   0.180331      -8.3115786     -8.041086      -0.46951466     50218.233      36.893836      36.893836      36.893836    
    439000   0.18045193    -8.3106225     -8.0399485     -0.46977606     50218.233      36.893836      36.893836      36.893836    
    440000   0.17963876    -8.3108573     -8.041403      -0.46662272     50218.233      36.893836      36.893836      36.893836    
    441000   0.18044606    -8.3109812     -8.040316      -0.46796857     50218.233      36.893836      36.893836      36.893836    
    442000   0.17951707    -8.3113564     -8.0420846     -0.47512309     50218.233      36.893836      36.893836      36.893836    
    443000   0.18110187    -8.3116982     -8.0400493     -0.47282856     50218.233      36.893836      36.893836      36.893836    
    444000   0.17962768    -8.3118159     -8.0423782     -0.47703677     50218.233      36.893836      36.893836      36.893836    
    445000   0.17994238    -8.3106501     -8.0407403     -0.46584996     50218.233      36.893836      36.893836      36.893836    
    446000   0.18004509    -8.3115139     -8.0414501     -0.46969753     50218.233      36.893836      36.893836      36.893836    
    447000   0.17879954    -8.3108864     -8.0426909     -0.46625331     50218.233      36.893836      36.893836      36.893836    
    448000   0.1792163     -8.3113222     -8.0425016     -0.47545289     50218.233      36.893836      36.893836      36.893836    
    449000   0.17995097    -8.3110163     -8.0410937     -0.4632223      50218.233      36.893836      36.893836      36.893836    
    450000   0.18104694    -8.3103557     -8.0387891     -0.46296055     50218.233      36.893836      36.893836      36.893836    
    451000   0.18034546    -8.3106407     -8.0401264     -0.46391823     50218.233      36.893836      36.893836      36.893836    
    452000   0.18048976    -8.3105569     -8.0398261     -0.45924584     50218.233      36.893836      36.893836      36.893836    
    453000   0.18027576    -8.3113691     -8.0409593     -0.46713992     50218.233      36.893836      36.893836      36.893836    
    454000   0.17964426    -8.3122169     -8.0427543     -0.46945271     50218.233      36.893836      36.893836      36.893836    
    455000   0.17911898    -8.3121182     -8.0434436     -0.48563825     50218.233      36.893836      36.893836      36.893836    
    456000   0.18001166    -8.3102643     -8.0402506     -0.46113165     50218.233      36.893836      36.893836      36.893836    
    457000   0.18020482    -8.3113828     -8.0410794     -0.47300907     50218.233      36.893836      36.893836      36.893836    
    458000   0.18031295    -8.3119397     -8.0414742     -0.47029192     50218.233      36.893836      36.893836      36.893836    
    459000   0.17984066    -8.3120221     -8.0422649     -0.48027005     50218.233      36.893836      36.893836      36.893836    
    460000   0.18040757    -8.3108952     -8.0402877     -0.47096012     50218.233      36.893836      36.893836      36.893836    
    461000   0.18000303    -8.3117996     -8.0417989     -0.4767794      50218.233      36.893836      36.893836      36.893836    
    462000   0.18014017    -8.3113269     -8.0411205     -0.46964365     50218.233      36.893836      36.893836      36.893836    
    463000   0.18069539    -8.3109521     -8.0399129     -0.46429959     50218.233      36.893836      36.893836      36.893836    
    464000   0.18066       -8.3107174     -8.0397312     -0.46374239     50218.233      36.893836      36.893836      36.893836    
    465000   0.17939222    -8.3115113     -8.0424268     -0.47640248     50218.233      36.893836      36.893836      36.893836    
    466000   0.17952792    -8.3109583     -8.0416702     -0.46467042     50218.233      36.893836      36.893836      36.893836    
    467000   0.18038494    -8.3113191     -8.0407456     -0.47018357     50218.233      36.893836      36.893836      36.893836    
    468000   0.18038665    -8.3109485     -8.0403723     -0.47122338     50218.233      36.893836      36.893836      36.893836    
    469000   0.18032173    -8.3109287     -8.0404499     -0.46851786     50218.233      36.893836      36.893836      36.893836    
    470000   0.17968675    -8.3101344     -8.0406081     -0.46665505     50218.233      36.893836      36.893836      36.893836    
    471000   0.17941809    -8.3112317     -8.0421084     -0.46569345     50218.233      36.893836      36.893836      36.893836    
    472000   0.17921408    -8.3105319     -8.0417146     -0.46837077     50218.233      36.893836      36.893836      36.893836    
    473000   0.17987489    -8.3097714     -8.0399629     -0.45555394     50218.233      36.893836      36.893836      36.893836    
    474000   0.17916731    -8.3096986     -8.0409515     -0.46083025     50218.233      36.893836      36.893836      36.893836    
    475000   0.18095422    -8.3112113     -8.0397838     -0.46735537     50218.233      36.893836      36.893836      36.893836    
    476000   0.17975303    -8.3098992     -8.0402735     -0.4596167      50218.233      36.893836      36.893836      36.893836    
    477000   0.17951053    -8.3107535     -8.0414915     -0.46136462     50218.233      36.893836      36.893836      36.893836    
    478000   0.18108986    -8.3101209     -8.0384899     -0.45499183     50218.233      36.893836      36.893836      36.893836    
    479000   0.17984209    -8.3109268     -8.0411675     -0.47032938     50218.233      36.893836      36.893836      36.893836    
    480000   0.18011133    -8.3110773     -8.0409142     -0.46547206     50218.233      36.893836      36.893836      36.893836    
    481000   0.18128005    -8.3105881     -8.0386719     -0.46045261     50218.233      36.893836      36.893836      36.893836    
    482000   0.17930507    -8.3107717     -8.0418179     -0.46440865     50218.233      36.893836      36.893836      36.893836    
    483000   0.17938578    -8.3102786     -8.0412037     -0.4626651      50218.233      36.893836      36.893836      36.893836    
    484000   0.18045552    -8.3113948     -8.0407154     -0.46620231     50218.233      36.893836      36.893836      36.893836    
    485000   0.18009407    -8.3113966     -8.0412593     -0.46739988     50218.233      36.893836      36.893836      36.893836    
    486000   0.17919571    -8.312376      -8.0435862     -0.47565543     50218.233      36.893836      36.893836      36.893836    
    487000   0.17960367    -8.3115895     -8.0421878     -0.47498783     50218.233      36.893836      36.893836      36.893836    
    488000   0.18012016    -8.3108439     -8.0406675     -0.46783758     50218.233      36.893836      36.893836      36.893836    
    489000   0.18134891    -8.3111137     -8.0390942     -0.46808331     50218.233      36.893836      36.893836      36.893836    
    490000   0.17897815    -8.3110808     -8.0426174     -0.47717705     50218.233      36.893836      36.893836      36.893836    
    491000   0.17856767    -8.3107135     -8.0428658     -0.4668762      50218.233      36.893836      36.893836      36.893836    
    492000   0.17979346    -8.3099254     -8.040239      -0.46043276     50218.233      36.893836      36.893836      36.893836    
    493000   0.17932922    -8.3104259     -8.0414359     -0.46384846     50218.233      36.893836      36.893836      36.893836    
    494000   0.17974037    -8.3126073     -8.0430005     -0.48440394     50218.233      36.893836      36.893836      36.893836    
    495000   0.18080224    -8.3106207     -8.0394212     -0.46441499     50218.233      36.893836      36.893836      36.893836    
    496000   0.18099195    -8.3120857     -8.0406016     -0.47970815     50218.233      36.893836      36.893836      36.893836    
    497000   0.17881402    -8.3136185     -8.0454013     -0.49127043     50218.233      36.893836      36.893836      36.893836    
    498000   0.17978113    -8.3118528     -8.0421849     -0.46892002     50218.233      36.893836      36.893836      36.893836    
    499000   0.17965137    -8.3111625     -8.0416892     -0.47814489     50218.233      36.893836      36.893836      36.893836    
    500000   0.17995612    -8.3114245     -8.0414942     -0.47000922     50218.233      36.893836      36.893836      36.893836    
    501000   0.18026401    -8.3124021     -8.04201       -0.4803377      50218.233      36.893836      36.893836      36.893836    
    502000   0.1804841     -8.3119961     -8.0412738     -0.47668882     50218.233      36.893836      36.893836      36.893836    
    503000   0.18046161    -8.3123721     -8.0416836     -0.48092552     50218.233      36.893836      36.893836      36.893836    
    504000   0.18053759    -8.3121412     -8.0413387     -0.47549242     50218.233      36.893836      36.893836      36.893836    
    505000   0.17958285    -8.3101417     -8.0407713     -0.46406735     50218.233      36.893836      36.893836      36.893836    
    506000   0.18007264    -8.3118186     -8.0417134     -0.47126407     50218.233      36.893836      36.893836      36.893836    
    507000   0.17983332    -8.3115201     -8.0417739     -0.47603555     50218.233      36.893836      36.893836      36.893836    
    508000   0.18034753    -8.3120632     -8.0415458     -0.47344461     50218.233      36.893836      36.893836      36.893836    
    509000   0.1802689     -8.3109684     -8.0405689     -0.46293943     50218.233      36.893836      36.893836      36.893836    
    510000   0.18023407    -8.3123004     -8.0419531     -0.47615031     50218.233      36.893836      36.893836      36.893836    
    511000   0.18044685    -8.3110487     -8.0403823     -0.47062287     50218.233      36.893836      36.893836      36.893836    
    512000   0.17884687    -8.3114805     -8.043214      -0.47388325     50218.233      36.893836      36.893836      36.893836    
    513000   0.18081009    -8.3105904     -8.0393792     -0.4561933      50218.233      36.893836      36.893836      36.893836    
    514000   0.17954173    -8.3099388     -8.04063       -0.4607136      50218.233      36.893836      36.893836      36.893836    
    515000   0.18021043    -8.3122811     -8.0419693     -0.47830257     50218.233      36.893836      36.893836      36.893836    
    516000   0.17994316    -8.3116327     -8.0417218     -0.4753872      50218.233      36.893836      36.893836      36.893836    
    517000   0.18026746    -8.3092056     -8.0388083     -0.4604281      50218.233      36.893836      36.893836      36.893836    
    518000   0.17988934    -8.3094916     -8.0396615     -0.45285854     50218.233      36.893836      36.893836      36.893836    
    519000   0.17911208    -8.3112264     -8.0425621     -0.47348968     50218.233      36.893836      36.893836      36.893836    
    520000   0.17959246    -8.310479      -8.0410941     -0.46644944     50218.233      36.893836      36.893836      36.893836    
    521000   0.17989804    -8.3110585     -8.0412153     -0.47173537     50218.233      36.893836      36.893836      36.893836    
    522000   0.1794902     -8.3091021     -8.0398706     -0.4554667      50218.233      36.893836      36.893836      36.893836    
    523000   0.18087287    -8.3116717     -8.0403662     -0.46743785     50218.233      36.893836      36.893836      36.893836    
    524000   0.18001248    -8.3103494     -8.0403345     -0.45869566     50218.233      36.893836      36.893836      36.893836    
    525000   0.18018792    -8.3103113     -8.0400332     -0.46151751     50218.233      36.893836      36.893836      36.893836    
    526000   0.17945637    -8.3093437     -8.040163      -0.45202488     50218.233      36.893836      36.893836      36.893836    
    527000   0.18073357    -8.309042      -8.0379455     -0.45371392     50218.233      36.893836      36.893836      36.893836    
    528000   0.18007655    -8.3116273     -8.0415163     -0.47568589     50218.233      36.893836      36.893836      36.893836    
    529000   0.18045769    -8.3094973     -8.0388146     -0.45803439     50218.233      36.893836      36.893836      36.893836    
    530000   0.18059594    -8.3101445     -8.0392545     -0.46021067     50218.233      36.893836      36.893836      36.893836    
    531000   0.1800409     -8.3107307     -8.0406732     -0.45837314     50218.233      36.893836      36.893836      36.893836    
    532000   0.18036073    -8.3119926     -8.0414554     -0.46964375     50218.233      36.893836      36.893836      36.893836    
    533000   0.17991216    -8.3109284     -8.041064      -0.46679391     50218.233      36.893836      36.893836      36.893836    
    534000   0.17850121    -8.309453      -8.041705      -0.45474577     50218.233      36.893836      36.893836      36.893836    
    535000   0.17927143    -8.3102451     -8.0413418     -0.46425393     50218.233      36.893836      36.893836      36.893836    
    536000   0.17966416    -8.3101963     -8.0407039     -0.46006367     50218.233      36.893836      36.893836      36.893836    
    537000   0.17937898    -8.3111686     -8.0421039     -0.46473834     50218.233      36.893836      36.893836      36.893836    
    538000   0.17986225    -8.3110788     -8.0412893     -0.46937121     50218.233      36.893836      36.893836      36.893836    
    539000   0.17992879    -8.3096463     -8.039757      -0.45891209     50218.233      36.893836      36.893836      36.893836    
    540000   0.1801151     -8.311737      -8.0415682     -0.46878083     50218.233      36.893836      36.893836      36.893836    
    541000   0.18002537    -8.3102379     -8.0402037     -0.46347783     50218.233      36.893836      36.893836      36.893836    
    542000   0.17955176    -8.3098261     -8.0405023     -0.45947034     50218.233      36.893836      36.893836      36.893836    
    543000   0.18087226    -8.3125951     -8.0412906     -0.48839032     50218.233      36.893836      36.893836      36.893836    
    544000   0.18046622    -8.3122849     -8.0415894     -0.476927       50218.233      36.893836      36.893836      36.893836    
    545000   0.18001312    -8.3125255     -8.0425097     -0.47736183     50218.233      36.893836      36.893836      36.893836    
    546000   0.17883618    -8.3134332     -8.0451827     -0.49048021     50218.233      36.893836      36.893836      36.893836    
    547000   0.18035072    -8.3127973     -8.0422751     -0.48570019     50218.233      36.893836      36.893836      36.893836    
    548000   0.17943302    -8.3113791     -8.0422334     -0.46966063     50218.233      36.893836      36.893836      36.893836    
    549000   0.18084606    -8.3113591     -8.0400939     -0.46500695     50218.233      36.893836      36.893836      36.893836    
    550000   0.1796531     -8.3113706     -8.0418948     -0.47515667     50218.233      36.893836      36.893836      36.893836    
    551000   0.18048566    -8.3109852     -8.0402605     -0.46704307     50218.233      36.893836      36.893836      36.893836    
    552000   0.17930051    -8.3113447     -8.0423978     -0.47553715     50218.233      36.893836      36.893836      36.893836    
    553000   0.17997111    -8.3123689     -8.042416      -0.4790077      50218.233      36.893836      36.893836      36.893836    
    554000   0.18012899    -8.3109843     -8.0407946     -0.46380363     50218.233      36.893836      36.893836      36.893836    
    555000   0.17983468    -8.3126258     -8.0428776     -0.47780699     50218.233      36.893836      36.893836      36.893836    
    556000   0.17975612    -8.3115018     -8.0418715     -0.47044372     50218.233      36.893836      36.893836      36.893836    
    557000   0.18028764    -8.3105356     -8.040108      -0.46576201     50218.233      36.893836      36.893836      36.893836    
    558000   0.18021849    -8.3118951     -8.0415712     -0.47926942     50218.233      36.893836      36.893836      36.893836    
    559000   0.18051889    -8.310278      -8.0395035     -0.45631191     50218.233      36.893836      36.893836      36.893836    
    560000   0.17943148    -8.3125502     -8.0434068     -0.47960459     50218.233      36.893836      36.893836      36.893836    
    561000   0.18042721    -8.3111511     -8.0405141     -0.46899524     50218.233      36.893836      36.893836      36.893836    
    562000   0.18028723    -8.3094194     -8.0389924     -0.44960109     50218.233      36.893836      36.893836      36.893836    
    563000   0.18016306    -8.3119942     -8.0417535     -0.47113983     50218.233      36.893836      36.893836      36.893836    
    564000   0.17956581    -8.3110795     -8.0417346     -0.47069934     50218.233      36.893836      36.893836      36.893836    
    565000   0.18062291    -8.3120587     -8.0411281     -0.47740396     50218.233      36.893836      36.893836      36.893836    
    566000   0.18065806    -8.3090454     -8.0380621     -0.4515381      50218.233      36.893836      36.893836      36.893836    
    567000   0.1796203     -8.3102509     -8.0408242     -0.45795325     50218.233      36.893836      36.893836      36.893836    
    568000   0.17924035    -8.3097315     -8.0408748     -0.45822383     50218.233      36.893836      36.893836      36.893836    
    569000   0.17978835    -8.3101826     -8.0405039     -0.45499962     50218.233      36.893836      36.893836      36.893836    
    570000   0.18134909    -8.3112033     -8.0391835     -0.46835105     50218.233      36.893836      36.893836      36.893836    
    571000   0.18020728    -8.3092925     -8.0389854     -0.45675154     50218.233      36.893836      36.893836      36.893836    
    572000   0.17991322    -8.310188      -8.040322      -0.46660058     50218.233      36.893836      36.893836      36.893836    
    573000   0.17979016    -8.3089119     -8.0392305     -0.44991828     50218.233      36.893836      36.893836      36.893836    
    574000   0.17995164    -8.3093044     -8.0393808     -0.4557694      50218.233      36.893836      36.893836      36.893836    
    575000   0.18030213    -8.3099193     -8.03947       -0.46382659     50218.233      36.893836      36.893836      36.893836    
    576000   0.17966128    -8.3116504     -8.0421623     -0.47120025     50218.233      36.893836      36.893836      36.893836    
    577000   0.18031131    -8.3106349     -8.0401718     -0.46079419     50218.233      36.893836      36.893836      36.893836    
    578000   0.17989137    -8.3109675     -8.0411342     -0.46739922     50218.233      36.893836      36.893836      36.893836    
    579000   0.17951114    -8.3092001     -8.0399372     -0.44912372     50218.233      36.893836      36.893836      36.893836    
    580000   0.18000855    -8.3096992     -8.0396902     -0.45368409     50218.233      36.893836      36.893836      36.893836    
    581000   0.17977477    -8.3108213     -8.0411629     -0.46627634     50218.233      36.893836      36.893836      36.893836    
    582000   0.17921062    -8.3118391     -8.043027      -0.47576617     50218.233      36.893836      36.893836      36.893836    
    583000   0.18076373    -8.311182      -8.0400403     -0.46397029     50218.233      36.893836      36.893836      36.893836    
    584000   0.18017513    -8.3090512     -8.0387923     -0.45653651     50218.233      36.893836      36.893836      36.893836    
    585000   0.17985017    -8.3123491     -8.0425777     -0.47752167     50218.233      36.893836      36.893836      36.893836    
    586000   0.17934004    -8.3105547     -8.0415485     -0.4648526      50218.233      36.893836      36.893836      36.893836    
    587000   0.17988271    -8.3104499     -8.0406297     -0.45890096     50218.233      36.893836      36.893836      36.893836    
    588000   0.17957926    -8.3119813     -8.0426162     -0.47802622     50218.233      36.893836      36.893836      36.893836    
    589000   0.18027953    -8.3125909     -8.0421754     -0.48208812     50218.233      36.893836      36.893836      36.893836    
    590000   0.18047716    -8.3104387     -8.0397268     -0.4609331      50218.233      36.893836      36.893836      36.893836    
    591000   0.18016143    -8.3113176     -8.0410793     -0.46543368     50218.233      36.893836      36.893836      36.893836    
    592000   0.18029871    -8.3124877     -8.0420435     -0.48185013     50218.233      36.893836      36.893836      36.893836    
    593000   0.18003778    -8.3104362     -8.0403834     -0.47323783     50218.233      36.893836      36.893836      36.893836    
    594000   0.17968278    -8.3111379     -8.0416176     -0.47008559     50218.233      36.893836      36.893836      36.893836    
    595000   0.17979464    -8.310774      -8.0410859     -0.47268482     50218.233      36.893836      36.893836      36.893836    
    596000   0.17986511    -8.3117304     -8.0419366     -0.46954376     50218.233      36.893836      36.893836      36.893836    
    597000   0.18021785    -8.3108996     -8.0405767     -0.46563213     50218.233      36.893836      36.893836      36.893836    
    598000   0.17938966    -8.3113891     -8.0423084     -0.46529648     50218.233      36.893836      36.893836      36.893836    
    599000   0.17914548    -8.3122528     -8.0435384     -0.47969223     50218.233      36.893836      36.893836      36.893836    
    600000   0.18019116    -8.3110656     -8.0407827     -0.47300342     50218.233      36.893836      36.893836      36.893836    
    601000   0.18103649    -8.3126868     -8.041136      -0.48031362     50218.233      36.893836      36.893836      36.893836    
    602000   0.1794082     -8.3129115     -8.0438031     -0.48251114     50218.233      36.893836      36.893836      36.893836    
    603000   0.17985567    -8.3122702     -8.0424905     -0.48061895     50218.233      36.893836      36.893836      36.893836    
    604000   0.17984231    -8.3119754     -8.0422157     -0.47939197     50218.233      36.893836      36.893836      36.893836    
    605000   0.17923577    -8.3117636     -8.0429138     -0.47060336     50218.233      36.893836      36.893836      36.893836    
    606000   0.18146795    -8.3120967     -8.0398986     -0.47345211     50218.233      36.893836      36.893836      36.893836    
    607000   0.18011677    -8.3118457     -8.0416744     -0.47245304     50218.233      36.893836      36.893836      36.893836    
    608000   0.18058191    -8.3107032     -8.0398342     -0.46291651     50218.233      36.893836      36.893836      36.893836    
    609000   0.18054439    -8.3118459     -8.0410332     -0.47684301     50218.233      36.893836      36.893836      36.893836    
    610000   0.18036109    -8.3117981     -8.0412603     -0.4752342      50218.233      36.893836      36.893836      36.893836    
    611000   0.17932224    -8.3109746     -8.041995      -0.46647984     50218.233      36.893836      36.893836      36.893836    
    612000   0.18036533    -8.3112868     -8.0407426     -0.46681787     50218.233      36.893836      36.893836      36.893836    
    613000   0.17954226    -8.310583      -8.0412734     -0.46532172     50218.233      36.893836      36.893836      36.893836    
    614000   0.18008489    -8.3117091     -8.0415856     -0.47276976     50218.233      36.893836      36.893836      36.893836    
    615000   0.18073572    -8.3103772     -8.0392774     -0.46211911     50218.233      36.893836      36.893836      36.893836    
    616000   0.17851916    -8.310006      -8.042231      -0.46472303     50218.233      36.893836      36.893836      36.893836    
    617000   0.17968188    -8.3111727     -8.0416537     -0.46221427     50218.233      36.893836      36.893836      36.893836    
    618000   0.18019064    -8.3103158     -8.0400336     -0.46061415     50218.233      36.893836      36.893836      36.893836    
    619000   0.18079795    -8.3106369     -8.0394438     -0.46203732     50218.233      36.893836      36.893836      36.893836    
    620000   0.18000183    -8.3109515     -8.0409526     -0.46726055     50218.233      36.893836      36.893836      36.893836    
    621000   0.1795305     -8.3105249     -8.041233      -0.46484734     50218.233      36.893836      36.893836      36.893836    
    622000   0.18048721    -8.3113141     -8.0405872     -0.46158281     50218.233      36.893836      36.893836      36.893836    
    623000   0.17845212    -8.3105151     -8.0428408     -0.46058893     50218.233      36.893836      36.893836      36.893836    
    624000   0.18047748    -8.3101006     -8.0393882     -0.46358566     50218.233      36.893836      36.893836      36.893836    
    625000   0.17919494    -8.3097544     -8.0409659     -0.45495812     50218.233      36.893836      36.893836      36.893836    
    626000   0.18072547    -8.3099327     -8.0388483     -0.46525641     50218.233      36.893836      36.893836      36.893836    
    627000   0.18017915    -8.3117198     -8.0414549     -0.46904317     50218.233      36.893836      36.893836      36.893836    
    628000   0.18066837    -8.3111244     -8.0401257     -0.46765423     50218.233      36.893836      36.893836      36.893836    
    629000   0.1806853     -8.3105521     -8.039528      -0.46464641     50218.233      36.893836      36.893836      36.893836    
    630000   0.18062311    -8.3103136     -8.0393828     -0.46377951     50218.233      36.893836      36.893836      36.893836    
    631000   0.18055357    -8.3110584     -8.0402319     -0.4642983      50218.233      36.893836      36.893836      36.893836    
    632000   0.1802529     -8.3113365     -8.040961      -0.47202112     50218.233      36.893836      36.893836      36.893836    
    633000   0.1809549     -8.3106361     -8.0392076     -0.45708635     50218.233      36.893836      36.893836      36.893836    
    634000   0.18092601    -8.3107176     -8.0393324     -0.46254904     50218.233      36.893836      36.893836      36.893836    
    635000   0.18021814    -8.311133      -8.0408097     -0.46850775     50218.233      36.893836      36.893836      36.893836    
    636000   0.17982817    -8.3103415     -8.0406031     -0.46326422     50218.233      36.893836      36.893836      36.893836    
    637000   0.18015607    -8.3092533     -8.039023      -0.45170809     50218.233      36.893836      36.893836      36.893836    
    638000   0.1798663     -8.3111903     -8.0413947     -0.4682896      50218.233      36.893836      36.893836      36.893836    
    639000   0.1798367     -8.311591      -8.0418398     -0.46675104     50218.233      36.893836      36.893836      36.893836    
    640000   0.18013393    -8.3114885     -8.0412914     -0.47339399     50218.233      36.893836      36.893836      36.893836    
    641000   0.18082581    -8.3114738     -8.040239      -0.46402889     50218.233      36.893836      36.893836      36.893836    
    642000   0.18059232    -8.3109934     -8.0401087     -0.46483781     50218.233      36.893836      36.893836      36.893836    
    643000   0.180088      -8.311357      -8.0412288     -0.47032366     50218.233      36.893836      36.893836      36.893836    
    644000   0.18098177    -8.312492      -8.0410232     -0.47684835     50218.233      36.893836      36.893836      36.893836    
    645000   0.179421      -8.3130845     -8.0439569     -0.48289969     50218.233      36.893836      36.893836      36.893836    
    646000   0.18031053    -8.3121738     -8.0417119     -0.4791528      50218.233      36.893836      36.893836      36.893836    
    647000   0.17968685    -8.3113834     -8.0418569     -0.47072521     50218.233      36.893836      36.893836      36.893836    
    648000   0.18086973    -8.3125291     -8.0412283     -0.47673054     50218.233      36.893836      36.893836      36.893836    
    649000   0.1797976     -8.3123585     -8.0426659     -0.47536827     50218.233      36.893836      36.893836      36.893836    
    650000   0.18135642    -8.3113239     -8.0392932     -0.47065158     50218.233      36.893836      36.893836      36.893836    
    651000   0.18013133    -8.3134006     -8.0432074     -0.48554795     50218.233      36.893836      36.893836      36.893836    
    652000   0.18051081    -8.3110532     -8.0402909     -0.46404333     50218.233      36.893836      36.893836      36.893836    
    653000   0.17997813    -8.3123468     -8.0423835     -0.47767462     50218.233      36.893836      36.893836      36.893836    
    654000   0.17951672    -8.3108166     -8.0415454     -0.46617206     50218.233      36.893836      36.893836      36.893836    
    655000   0.17954817    -8.3122254     -8.042907      -0.47844916     50218.233      36.893836      36.893836      36.893836    
    656000   0.17951085    -8.3123089     -8.0430464     -0.47414737     50218.233      36.893836      36.893836      36.893836    
    657000   0.18004812    -8.3123182     -8.0422498     -0.48013592     50218.233      36.893836      36.893836      36.893836    
    658000   0.18011075    -8.3110389     -8.0408766     -0.4715916      50218.233      36.893836      36.893836      36.893836    
    659000   0.17904557    -8.3097841     -8.0412195     -0.46243559     50218.233      36.893836      36.893836      36.893836    
    660000   0.17960152    -8.3115511     -8.0421526     -0.47550424     50218.233      36.893836      36.893836      36.893836    
    661000   0.17942654    -8.309391      -8.040255      -0.45801688     50218.233      36.893836      36.893836      36.893836    
    662000   0.18065912    -8.3107954     -8.0398106     -0.47411971     50218.233      36.893836      36.893836      36.893836    
    663000   0.17979387    -8.3098704     -8.0401834     -0.46299379     50218.233      36.893836      36.893836      36.893836    
    664000   0.17962305    -8.3107982     -8.0413675     -0.46781589     50218.233      36.893836      36.893836      36.893836    
    665000   0.17959209    -8.3107476     -8.0413633     -0.47300712     50218.233      36.893836      36.893836      36.893836    
    666000   0.17994046    -8.3094119     -8.039505      -0.46030895     50218.233      36.893836      36.893836      36.893836    
    667000   0.18141958    -8.3095494     -8.0374239     -0.45507782     50218.233      36.893836      36.893836      36.893836    
    668000   0.17994666    -8.3095514     -8.0396353     -0.45558039     50218.233      36.893836      36.893836      36.893836    
    669000   0.17969026    -8.312009      -8.0424774     -0.47594149     50218.233      36.893836      36.893836      36.893836    
    670000   0.17908506    -8.3103681     -8.0417443     -0.46678634     50218.233      36.893836      36.893836      36.893836    
    671000   0.17976786    -8.3108244     -8.0411764     -0.4713855      50218.233      36.893836      36.893836      36.893836    
    672000   0.1795053     -8.3111017     -8.0418476     -0.46772171     50218.233      36.893836      36.893836      36.893836    
    673000   0.18063747    -8.3107293     -8.0397769     -0.46080099     50218.233      36.893836      36.893836      36.893836    
    674000   0.18067216    -8.3100643     -8.0390599     -0.45864661     50218.233      36.893836      36.893836      36.893836    
    675000   0.17961528    -8.3101538     -8.0407347     -0.46558538     50218.233      36.893836      36.893836      36.893836    
    676000   0.17925595    -8.3105676     -8.0416875     -0.46666342     50218.233      36.893836      36.893836      36.893836    
    677000   0.18004264    -8.3102352     -8.0401751     -0.46941699     50218.233      36.893836      36.893836      36.893836    
    678000   0.18032161    -8.3097981     -8.0393196     -0.45404104     50218.233      36.893836      36.893836      36.893836    
    679000   0.17929047    -8.3109531     -8.0420212     -0.47022205     50218.233      36.893836      36.893836      36.893836    
    680000   0.18024388    -8.3107806     -8.0404187     -0.46163545     50218.233      36.893836      36.893836      36.893836    
    681000   0.17991779    -8.3104298     -8.040557      -0.46723503     50218.233      36.893836      36.893836      36.893836    
    682000   0.18076365    -8.3113077     -8.0401661     -0.46400991     50218.233      36.893836      36.893836      36.893836    
    683000   0.18052756    -8.3104095     -8.039622      -0.46615489     50218.233      36.893836      36.893836      36.893836    
    684000   0.1786035     -8.3108166     -8.0429151     -0.47604755     50218.233      36.893836      36.893836      36.893836    
    685000   0.17956804    -8.3113958     -8.0420476     -0.47569162     50218.233      36.893836      36.893836      36.893836    
    686000   0.1796704     -8.3100557     -8.0405539     -0.46248661     50218.233      36.893836      36.893836      36.893836    
    687000   0.18090402    -8.3096121     -8.03826       -0.45239296     50218.233      36.893836      36.893836      36.893836    
    688000   0.17881141    -8.3109186     -8.0427053     -0.46173788     50218.233      36.893836      36.893836      36.893836    
    689000   0.18052968    -8.3107709     -8.0399803     -0.45971039     50218.233      36.893836      36.893836      36.893836    
    690000   0.17935155    -8.310177      -8.0411535     -0.46567364     50218.233      36.893836      36.893836      36.893836    
    691000   0.18045938    -8.3123741     -8.0416889     -0.47783833     50218.233      36.893836      36.893836      36.893836    
    692000   0.18031829    -8.3116703     -8.0411967     -0.47885136     50218.233      36.893836      36.893836      36.893836    
    693000   0.18091923    -8.3109602     -8.0395852     -0.4651178      50218.233      36.893836      36.893836      36.893836    
    694000   0.17922163    -8.3110235     -8.0421949     -0.47480217     50218.233      36.893836      36.893836      36.893836    
    695000   0.17942969    -8.3123396     -8.0431989     -0.48306386     50218.233      36.893836      36.893836      36.893836    
    696000   0.17957933    -8.3113824     -8.0420173     -0.46862835     50218.233      36.893836      36.893836      36.893836    
    697000   0.18017865    -8.3115751     -8.041311      -0.47199081     50218.233      36.893836      36.893836      36.893836    
    698000   0.18082645    -8.3114595     -8.0402237     -0.47084156     50218.233      36.893836      36.893836      36.893836    
    699000   0.17981522    -8.3111616     -8.0414426     -0.46988344     50218.233      36.893836      36.893836      36.893836    
    700000   0.1802827     -8.3129884     -8.0425682     -0.48383878     50218.233      36.893836      36.893836      36.893836    
    701000   0.17882742    -8.3132506     -8.0450133     -0.48715804     50218.233      36.893836      36.893836      36.893836    
    702000   0.17931211    -8.3143067     -8.0453424     -0.49266969     50218.233      36.893836      36.893836      36.893836    
    703000   0.18051139    -8.3127999     -8.0420367     -0.47686686     50218.233      36.893836      36.893836      36.893836    
    704000   0.17976345    -8.311955      -8.0423137     -0.47985727     50218.233      36.893836      36.893836      36.893836    
    705000   0.17973831    -8.3121848     -8.0425812     -0.48268381     50218.233      36.893836      36.893836      36.893836    
    706000   0.17951865    -8.3121922     -8.042918      -0.47601953     50218.233      36.893836      36.893836      36.893836    
    707000   0.18057593    -8.3119054     -8.0410454     -0.47099247     50218.233      36.893836      36.893836      36.893836    
    708000   0.18050354    -8.3123081     -8.0415566     -0.4805048      50218.233      36.893836      36.893836      36.893836    
    709000   0.18033521    -8.3114729     -8.0409739     -0.47055474     50218.233      36.893836      36.893836      36.893836    
    710000   0.1800261     -8.3108402     -8.0408049     -0.46995527     50218.233      36.893836      36.893836      36.893836    
    711000   0.17929171    -8.3110646     -8.0421309     -0.47008656     50218.233      36.893836      36.893836      36.893836    
    712000   0.17994529    -8.3123779     -8.0424639     -0.47594704     50218.233      36.893836      36.893836      36.893836    
    713000   0.18075875    -8.3099639     -8.0388296     -0.45653176     50218.233      36.893836      36.893836      36.893836    
    714000   0.1807704     -8.310463      -8.0393113     -0.46401041     50218.233      36.893836      36.893836      36.893836    
    715000   0.17924451    -8.3109164     -8.0420534     -0.46603803     50218.233      36.893836      36.893836      36.893836    
    716000   0.17988655    -8.3103779     -8.0405519     -0.47141648     50218.233      36.893836      36.893836      36.893836    
    717000   0.17896972    -8.309445      -8.0409942     -0.45558872     50218.233      36.893836      36.893836      36.893836    
    718000   0.18034926    -8.3118897     -8.0413697     -0.47516862     50218.233      36.893836      36.893836      36.893836    
    719000   0.18051181    -8.3088437     -8.0380799     -0.44962981     50218.233      36.893836      36.893836      36.893836    
    720000   0.18088898    -8.3095238     -8.0381942     -0.46035193     50218.233      36.893836      36.893836      36.893836    
    721000   0.1795247     -8.3101462     -8.040863      -0.46417151     50218.233      36.893836      36.893836      36.893836    
    722000   0.18045584    -8.3095754     -8.0388955     -0.45949943     50218.233      36.893836      36.893836      36.893836    
    723000   0.17906214    -8.3108278     -8.0422385     -0.46498146     50218.233      36.893836      36.893836      36.893836    
    724000   0.18057103    -8.3109918     -8.0401391     -0.4611316      50218.233      36.893836      36.893836      36.893836    
    725000   0.17943055    -8.3116356     -8.0424936     -0.46995615     50218.233      36.893836      36.893836      36.893836    
    726000   0.17928197    -8.3104832     -8.0415641     -0.46497644     50218.233      36.893836      36.893836      36.893836    
    727000   0.1803303     -8.3108839     -8.0403923     -0.46881627     50218.233      36.893836      36.893836      36.893836    
    728000   0.18069877    -8.3118391     -8.0407948     -0.46688989     50218.233      36.893836      36.893836      36.893836    
    729000   0.17962838    -8.3099861     -8.0405473     -0.46160423     50218.233      36.893836      36.893836      36.893836    
    730000   0.17934105    -8.3107939     -8.0417861     -0.46635965     50218.233      36.893836      36.893836      36.893836    
    731000   0.17967871    -8.3112086     -8.0416944     -0.4652385      50218.233      36.893836      36.893836      36.893836    
    732000   0.17973709    -8.3102567     -8.0406549     -0.46678948     50218.233      36.893836      36.893836      36.893836    
    733000   0.18048043    -8.3112067     -8.0404899     -0.46621237     50218.233      36.893836      36.893836      36.893836    
    734000   0.18025656    -8.3109964     -8.0406155     -0.46706505     50218.233      36.893836      36.893836      36.893836    
    735000   0.17930374    -8.3114077     -8.0424559     -0.46747415     50218.233      36.893836      36.893836      36.893836    
    736000   0.17944301    -8.3104099     -8.0412492     -0.45877779     50218.233      36.893836      36.893836      36.893836    
    737000   0.18024235    -8.3106287     -8.040269      -0.46016089     50218.233      36.893836      36.893836      36.893836    
    738000   0.17932028    -8.3111462     -8.0421696     -0.47230688     50218.233      36.893836      36.893836      36.893836    
    739000   0.17967422    -8.3124009     -8.0428934     -0.48557602     50218.233      36.893836      36.893836      36.893836    
    740000   0.17984861    -8.3116295     -8.0418604     -0.46843927     50218.233      36.893836      36.893836      36.893836    
    741000   0.17897427    -8.3103756     -8.041918      -0.46389097     50218.233      36.893836      36.893836      36.893836    
    742000   0.18056772    -8.3116715     -8.0408238     -0.46984935     50218.233      36.893836      36.893836      36.893836    
    743000   0.18100015    -8.3111117     -8.0396153     -0.47159802     50218.233      36.893836      36.893836      36.893836    
    744000   0.18110553    -8.3125009     -8.0408465     -0.47646676     50218.233      36.893836      36.893836      36.893836    
    745000   0.17948442    -8.3102475     -8.0410247     -0.46499961     50218.233      36.893836      36.893836      36.893836    
    746000   0.18054036    -8.311071      -8.0402644     -0.47514056     50218.233      36.893836      36.893836      36.893836    
    747000   0.17978692    -8.3116305     -8.041954      -0.47004023     50218.233      36.893836      36.893836      36.893836    
    748000   0.18000737    -8.312072      -8.0420648     -0.47655012     50218.233      36.893836      36.893836      36.893836    
    749000   0.18038729    -8.3119686     -8.0413915     -0.47291704     50218.233      36.893836      36.893836      36.893836    
    750000   0.17964391    -8.3114156     -8.0419536     -0.46889058     50218.233      36.893836      36.893836      36.893836    
    751000   0.18002092    -8.3117207     -8.0416932     -0.47469337     50218.233      36.893836      36.893836      36.893836    
    752000   0.18119565    -8.3118275     -8.0400379     -0.47747059     50218.233      36.893836      36.893836      36.893836    
    753000   0.17968892    -8.3120788     -8.0425492     -0.48024936     50218.233      36.893836      36.893836      36.893836    
    754000   0.18096566    -8.3120311     -8.0405865     -0.47389602     50218.233      36.893836      36.893836      36.893836    
    755000   0.17976935    -8.3119817     -8.0423315     -0.48113268     50218.233      36.893836      36.893836      36.893836    
    756000   0.18068284    -8.3116673     -8.0406469     -0.47543589     50218.233      36.893836      36.893836      36.893836    
    757000   0.18058077    -8.3101882     -8.0393209     -0.46597643     50218.233      36.893836      36.893836      36.893836    
    758000   0.17979296    -8.3108337     -8.0411481     -0.4623756      50218.233      36.893836      36.893836      36.893836    
    759000   0.1801479     -8.3111015     -8.0408835     -0.4725639      50218.233      36.893836      36.893836      36.893836    
    760000   0.17961574    -8.3112096     -8.0417898     -0.47124616     50218.233      36.893836      36.893836      36.893836    
    761000   0.1791161     -8.3100414     -8.0413711     -0.46303789     50218.233      36.893836      36.893836      36.893836    
    762000   0.18042229    -8.3111945     -8.0405649     -0.47406629     50218.233      36.893836      36.893836      36.893836    
    763000   0.17900125    -8.310207      -8.041709      -0.46263618     50218.233      36.893836      36.893836      36.893836    
    764000   0.17998894    -8.3093393     -8.0393597     -0.45635971     50218.233      36.893836      36.893836      36.893836    
    765000   0.17986398    -8.3119217     -8.0421296     -0.48030039     50218.233      36.893836      36.893836      36.893836    
    766000   0.18082372    -8.3105081     -8.0392763     -0.46341134     50218.233      36.893836      36.893836      36.893836    
    767000   0.18064524    -8.3112603     -8.0402963     -0.47094077     50218.233      36.893836      36.893836      36.893836    
    768000   0.18013398    -8.3099741     -8.039777      -0.45650974     50218.233      36.893836      36.893836      36.893836    
    769000   0.17975645    -8.3105104     -8.0408796     -0.46270514     50218.233      36.893836      36.893836      36.893836    
    770000   0.17997392    -8.3103013     -8.0403442     -0.46379768     50218.233      36.893836      36.893836      36.893836    
    771000   0.17997034    -8.3105622     -8.0406106     -0.46946569     50218.233      36.893836      36.893836      36.893836    
    772000   0.17977882    -8.3105094     -8.040845      -0.46347907     50218.233      36.893836      36.893836      36.893836    
    773000   0.18036557    -8.3096841     -8.0391396     -0.45921327     50218.233      36.893836      36.893836      36.893836    
    774000   0.17973736    -8.310325      -8.0407228     -0.46241134     50218.233      36.893836      36.893836      36.893836    
    775000   0.18119185    -8.3133129     -8.041529      -0.48258641     50218.233      36.893836      36.893836      36.893836    
    776000   0.1795485     -8.3098861     -8.0405671     -0.46855548     50218.233      36.893836      36.893836      36.893836    
    777000   0.18028692    -8.3097101     -8.0392836     -0.46036162     50218.233      36.893836      36.893836      36.893836    
    778000   0.17988202    -8.310553      -8.0407338     -0.46853866     50218.233      36.893836      36.893836      36.893836    
    779000   0.18009493    -8.310913      -8.0407745     -0.45893191     50218.233      36.893836      36.893836      36.893836    
    780000   0.17927397    -8.3106962     -8.0417891     -0.46271733     50218.233      36.893836      36.893836      36.893836    
    781000   0.17937951    -8.3113134     -8.0422479     -0.46749727     50218.233      36.893836      36.893836      36.893836    
    782000   0.18084113    -8.3113331     -8.0400752     -0.47002619     50218.233      36.893836      36.893836      36.893836    
    783000   0.17983092    -8.3102314     -8.0404889     -0.45741108     50218.233      36.893836      36.893836      36.893836    
    784000   0.18022122    -8.3099886     -8.0396606     -0.46688039     50218.233      36.893836      36.893836      36.893836    
    785000   0.18014854    -8.3114928     -8.0412738     -0.46744326     50218.233      36.893836      36.893836      36.893836    
    786000   0.17996021    -8.3105435     -8.0406071     -0.45054557     50218.233      36.893836      36.893836      36.893836    
    787000   0.18045836    -8.3105121     -8.0398284     -0.46535228     50218.233      36.893836      36.893836      36.893836    
    788000   0.18003545    -8.3105148     -8.0404654     -0.46303332     50218.233      36.893836      36.893836      36.893836    
    789000   0.18030424    -8.3118705     -8.041418      -0.47317852     50218.233      36.893836      36.893836      36.893836    
    790000   0.18053882    -8.3114634     -8.040659      -0.46883475     50218.233      36.893836      36.893836      36.893836    
    791000   0.17976588    -8.3119093     -8.0422643     -0.47525852     50218.233      36.893836      36.893836      36.893836    
    792000   0.17947266    -8.3111354     -8.0419302     -0.46558043     50218.233      36.893836      36.893836      36.893836    
    793000   0.18016141    -8.3111889     -8.0409506     -0.46814234     50218.233      36.893836      36.893836      36.893836    
    794000   0.18044039    -8.311457      -8.0408003     -0.47230911     50218.233      36.893836      36.893836      36.893836    
    795000   0.17983418    -8.3124855     -8.042738      -0.47516062     50218.233      36.893836      36.893836      36.893836    
    796000   0.17970527    -8.3109731     -8.041419      -0.47233929     50218.233      36.893836      36.893836      36.893836    
    797000   0.18031223    -8.3120337     -8.0415692     -0.47521762     50218.233      36.893836      36.893836      36.893836    
    798000   0.18000963    -8.311979      -8.0419684     -0.48042954     50218.233      36.893836      36.893836      36.893836    
    799000   0.18029403    -8.3104775     -8.0400403     -0.46582551     50218.233      36.893836      36.893836      36.893836    
    800000   0.17998133    -8.3120149     -8.0420468     -0.47892112     50218.233      36.893836      36.893836      36.893836    
    801000   0.17903657    -8.3115576     -8.0430065     -0.467482       50218.233      36.893836      36.893836      36.893836    
    802000   0.17962589    -8.311956      -8.042521      -0.47570036     50218.233      36.893836      36.893836      36.893836    
    803000   0.18003457    -8.3111042     -8.0410562     -0.47223738     50218.233      36.893836      36.893836      36.893836    
    804000   0.18017064    -8.3122217     -8.0419696     -0.48196926     50218.233      36.893836      36.893836      36.893836    
    805000   0.18060046    -8.3103836     -8.0394868     -0.46411999     50218.233      36.893836      36.893836      36.893836    
    806000   0.17898504    -8.3117685     -8.0432948     -0.47287986     50218.233      36.893836      36.893836      36.893836    
    807000   0.17920465    -8.3107454     -8.0419423     -0.46442191     50218.233      36.893836      36.893836      36.893836    
    808000   0.17996518    -8.3116115     -8.0416676     -0.47425637     50218.233      36.893836      36.893836      36.893836    
    809000   0.18023254    -8.311649      -8.041304      -0.47651942     50218.233      36.893836      36.893836      36.893836    
    810000   0.17952065    -8.3113185     -8.0420414     -0.46958315     50218.233      36.893836      36.893836      36.893836    
    811000   0.17991749    -8.310165      -8.0402926     -0.45872391     50218.233      36.893836      36.893836      36.893836    
    812000   0.17904396    -8.3101649     -8.0416028     -0.46080063     50218.233      36.893836      36.893836      36.893836    
    813000   0.1795307     -8.3092447     -8.0399525     -0.45545038     50218.233      36.893836      36.893836      36.893836    
    814000   0.17961441    -8.3110104     -8.0415926     -0.4690249      50218.233      36.893836      36.893836      36.893836    
    815000   0.17923181    -8.3094848     -8.0406409     -0.455241       50218.233      36.893836      36.893836      36.893836    
    816000   0.18021668    -8.3102173     -8.0398962     -0.46438847     50218.233      36.893836      36.893836      36.893836    
    817000   0.17984595    -8.3109724     -8.0412073     -0.46697728     50218.233      36.893836      36.893836      36.893836    
    818000   0.17934971    -8.310587      -8.0415663     -0.46440833     50218.233      36.893836      36.893836      36.893836    
    819000   0.17827948    -8.3124777     -8.0450623     -0.47376441     50218.233      36.893836      36.893836      36.893836    
    820000   0.17949364    -8.3093521     -8.0401155     -0.45646237     50218.233      36.893836      36.893836      36.893836    
    821000   0.18013481    -8.3089755     -8.0387771     -0.44791398     50218.233      36.893836      36.893836      36.893836    
    822000   0.18018479    -8.3094354     -8.039162      -0.46195189     50218.233      36.893836      36.893836      36.893836    
    823000   0.18101127    -8.3099217     -8.0384086     -0.45496568     50218.233      36.893836      36.893836      36.893836    
    824000   0.17900952    -8.3095215     -8.041011      -0.45912117     50218.233      36.893836      36.893836      36.893836    
    825000   0.18014084    -8.3113431     -8.0411357     -0.46362538     50218.233      36.893836      36.893836      36.893836    
    826000   0.18112134    -8.3104487     -8.0387706     -0.46274589     50218.233      36.893836      36.893836      36.893836    
    827000   0.17969406    -8.3094252     -8.039888      -0.45455617     50218.233      36.893836      36.893836      36.893836    
    828000   0.17993132    -8.3099304     -8.0400372     -0.45635668     50218.233      36.893836      36.893836      36.893836    
    829000   0.17984138    -8.3104173     -8.0406591     -0.46127964     50218.233      36.893836      36.893836      36.893836    
    830000   0.17895319    -8.3105553     -8.0421294     -0.46856157     50218.233      36.893836      36.893836      36.893836    
    831000   0.18058316    -8.3093428     -8.0384719     -0.45462345     50218.233      36.893836      36.893836      36.893836    
    832000   0.17977456    -8.3108849     -8.0412269     -0.46284824     50218.233      36.893836      36.893836      36.893836    
    833000   0.17920536    -8.3097805     -8.0409763     -0.463011       50218.233      36.893836      36.893836      36.893836    
    834000   0.18046597    -8.3126552     -8.0419601     -0.48078769     50218.233      36.893836      36.893836      36.893836    
    835000   0.17999228    -8.3097208     -8.0397362     -0.46297464     50218.233      36.893836      36.893836      36.893836    
    836000   0.18110638    -8.3121276     -8.0404719     -0.47461333     50218.233      36.893836      36.893836      36.893836    
    837000   0.17999338    -8.3101367     -8.0401504     -0.45643428     50218.233      36.893836      36.893836      36.893836    
    838000   0.17998148    -8.3109697     -8.0410014     -0.46748082     50218.233      36.893836      36.893836      36.893836    
    839000   0.17929511    -8.3111336     -8.0421948     -0.4683616      50218.233      36.893836      36.893836      36.893836    
    840000   0.1796139     -8.3115122     -8.0420952     -0.46992636     50218.233      36.893836      36.893836      36.893836    
    841000   0.17982027    -8.3122363     -8.0425097     -0.47793575     50218.233      36.893836      36.893836      36.893836    
    842000   0.18011886    -8.3127258     -8.0425513     -0.47789852     50218.233      36.893836      36.893836      36.893836    
    843000   0.17994403    -8.3121047     -8.0421925     -0.47709355     50218.233      36.893836      36.893836      36.893836    
    844000   0.18003559    -8.3113614     -8.0413119     -0.47061587     50218.233      36.893836      36.893836      36.893836    
    845000   0.18020496    -8.3122206     -8.0419171     -0.48370816     50218.233      36.893836      36.893836      36.893836    
    846000   0.17962891    -8.3123121     -8.0428726     -0.47993505     50218.233      36.893836      36.893836      36.893836    
    847000   0.18039702    -8.3119125     -8.0413208     -0.47414955     50218.233      36.893836      36.893836      36.893836    
    848000   0.1789463     -8.3112224     -8.0428067     -0.4677676      50218.233      36.893836      36.893836      36.893836    
    849000   0.18081015    -8.3125769     -8.0413656     -0.47189961     50218.233      36.893836      36.893836      36.893836    
    850000   0.17986749    -8.3131296     -8.0433322     -0.48299825     50218.233      36.893836      36.893836      36.893836    
    851000   0.17972863    -8.3111019     -8.0415128     -0.46712895     50218.233      36.893836      36.893836      36.893836    
    852000   0.1804397     -8.3103141     -8.0396584     -0.4601171      50218.233      36.893836      36.893836      36.893836    
    853000   0.17926241    -8.3118839     -8.0429941     -0.47244526     50218.233      36.893836      36.893836      36.893836    
    854000   0.17984363    -8.3108319     -8.0410703     -0.46929385     50218.233      36.893836      36.893836      36.893836    
    855000   0.17907368    -8.3110282     -8.0424215     -0.47081398     50218.233      36.893836      36.893836      36.893836    
    856000   0.17927674    -8.3123001     -8.0433888     -0.48220648     50218.233      36.893836      36.893836      36.893836    
    857000   0.18006217    -8.3125257     -8.0424363     -0.4761149      50218.233      36.893836      36.893836      36.893836    
    858000   0.1792392     -8.3117635     -8.0429085     -0.47309673     50218.233      36.893836      36.893836      36.893836    
    859000   0.17895746    -8.3103314     -8.0418991     -0.47300583     50218.233      36.893836      36.893836      36.893836    
    860000   0.18093407    -8.3107466     -8.0393494     -0.46816101     50218.233      36.893836      36.893836      36.893836    
    861000   0.18003345    -8.3113091     -8.0412627     -0.46280212     50218.233      36.893836      36.893836      36.893836    
    862000   0.17998092    -8.3126876     -8.0427201     -0.48214979     50218.233      36.893836      36.893836      36.893836    
    863000   0.17987484    -8.3115757     -8.0417673     -0.47365133     50218.233      36.893836      36.893836      36.893836    
    864000   0.1796998     -8.311217      -8.0416711     -0.47058033     50218.233      36.893836      36.893836      36.893836    
    865000   0.18013289    -8.3101952     -8.0399997     -0.46041998     50218.233      36.893836      36.893836      36.893836    
    866000   0.18026951    -8.3108855     -8.0404851     -0.46391894     50218.233      36.893836      36.893836      36.893836    
    867000   0.17909732    -8.3104226     -8.0417805     -0.47049545     50218.233      36.893836      36.893836      36.893836    
    868000   0.17926077    -8.3101415     -8.0412542     -0.46583577     50218.233      36.893836      36.893836      36.893836    
    869000   0.18061732    -8.310648      -8.0397258     -0.46988791     50218.233      36.893836      36.893836      36.893836    
    870000   0.17931801    -8.3113308     -8.0423576     -0.47357917     50218.233      36.893836      36.893836      36.893836    
    871000   0.1803619     -8.3094922     -8.0389532     -0.45924754     50218.233      36.893836      36.893836      36.893836    
    872000   0.1802565     -8.3105213     -8.0401404     -0.4661749      50218.233      36.893836      36.893836      36.893836    
    873000   0.17919018    -8.3110922     -8.0423107     -0.46905441     50218.233      36.893836      36.893836      36.893836    
    874000   0.17981063    -8.310036      -8.0403239     -0.46226049     50218.233      36.893836      36.893836      36.893836    
    875000   0.1804564     -8.3102433     -8.0395626     -0.46384025     50218.233      36.893836      36.893836      36.893836    
    876000   0.18037775    -8.310096      -8.0395332     -0.46013623     50218.233      36.893836      36.893836      36.893836    
    877000   0.1798269     -8.3093347     -8.0395982     -0.45735275     50218.233      36.893836      36.893836      36.893836    
    878000   0.17988131    -8.3115868     -8.0417686     -0.47207322     50218.233      36.893836      36.893836      36.893836    
    879000   0.18037247    -8.3099661     -8.0394112     -0.46629079     50218.233      36.893836      36.893836      36.893836    
    880000   0.18036887    -8.3097973     -8.0392478     -0.46318046     50218.233      36.893836      36.893836      36.893836    
    881000   0.18002907    -8.3111932     -8.0411535     -0.45974354     50218.233      36.893836      36.893836      36.893836    
    882000   0.17946978    -8.3107803     -8.0415795     -0.46783152     50218.233      36.893836      36.893836      36.893836    
    883000   0.17908933    -8.3101647     -8.0415345     -0.46800454     50218.233      36.893836      36.893836      36.893836    
    884000   0.18064575    -8.3118187     -8.0408539     -0.47211172     50218.233      36.893836      36.893836      36.893836    
    885000   0.17897949    -8.3111447     -8.0426793     -0.46659113     50218.233      36.893836      36.893836      36.893836    
    886000   0.18070986    -8.3103607     -8.0392998     -0.46656932     50218.233      36.893836      36.893836      36.893836    
    887000   0.17956502    -8.3109039     -8.0415602     -0.47417524     50218.233      36.893836      36.893836      36.893836    
    888000   0.179686      -8.3107481     -8.0412229     -0.46636166     50218.233      36.893836      36.893836      36.893836    
    889000   0.18084123    -8.3106773     -8.0394193     -0.47538039     50218.233      36.893836      36.893836      36.893836    
    890000   0.17939272    -8.3125408     -8.0434555     -0.47807513     50218.233      36.893836      36.893836      36.893836    
    891000   0.18005033    -8.3111112     -8.0410396     -0.47490386     50218.233      36.893836      36.893836      36.893836    
    892000   0.17967012    -8.3125225     -8.0430212     -0.48110182     50218.233      36.893836      36.893836      36.893836    
    893000   0.18083365    -8.3114357     -8.040189      -0.47755732     50218.233      36.893836      36.893836      36.893836    
    894000   0.1799006     -8.3131295     -8.0432825     -0.48661068     50218.233      36.893836      36.893836      36.893836    
    895000   0.17912208    -8.3116683     -8.042989      -0.46973552     50218.233      36.893836      36.893836      36.893836    
    896000   0.18070886    -8.3105509     -8.0394915     -0.46124349     50218.233      36.893836      36.893836      36.893836    
    897000   0.18018634    -8.3135065     -8.0432308     -0.48450281     50218.233      36.893836      36.893836      36.893836    
    898000   0.17996723    -8.3113571     -8.0414101     -0.46801625     50218.233      36.893836      36.893836      36.893836    
    899000   0.18041598    -8.310753      -8.0401328     -0.46435698     50218.233      36.893836      36.893836      36.893836    
    900000   0.18119764    -8.3116253     -8.0398327     -0.47011042     50218.233      36.893836      36.893836      36.893836    
    901000   0.18044985    -8.3103814     -8.0397105     -0.46130617     50218.233      36.893836      36.893836      36.893836    
    902000   0.18034661    -8.3116199     -8.0411039     -0.47232215     50218.233      36.893836      36.893836      36.893836    
    903000   0.18080026    -8.3116788     -8.0404822     -0.47143016     50218.233      36.893836      36.893836      36.893836    
    904000   0.18093584    -8.3112671     -8.0398672     -0.47376358     50218.233      36.893836      36.893836      36.893836    
    905000   0.18064089    -8.3127721     -8.0418146     -0.4804225      50218.233      36.893836      36.893836      36.893836    
    906000   0.17922444    -8.3133104     -8.0444776     -0.48530991     50218.233      36.893836      36.893836      36.893836    
    907000   0.17964762    -8.3105963     -8.0411287     -0.47398986     50218.233      36.893836      36.893836      36.893836    
    908000   0.17921057    -8.3129778     -8.0441658     -0.4851413      50218.233      36.893836      36.893836      36.893836    
    909000   0.17936139    -8.3108509     -8.0418126     -0.46479401     50218.233      36.893836      36.893836      36.893836    
    910000   0.18047962    -8.3118894     -8.0411738     -0.47111553     50218.233      36.893836      36.893836      36.893836    
    911000   0.17981171    -8.3118467     -8.042133      -0.48362393     50218.233      36.893836      36.893836      36.893836    
    912000   0.18007635    -8.311497      -8.0413864     -0.47488392     50218.233      36.893836      36.893836      36.893836    
    913000   0.1811254     -8.3107173     -8.0390331     -0.46151102     50218.233      36.893836      36.893836      36.893836    
    914000   0.18085457    -8.3104957     -8.0392178     -0.4609817      50218.233      36.893836      36.893836      36.893836    
    915000   0.18034081    -8.3110448     -8.0405374     -0.47223226     50218.233      36.893836      36.893836      36.893836    
    916000   0.18004122    -8.3098225     -8.0397646     -0.45813265     50218.233      36.893836      36.893836      36.893836    
    917000   0.17909791    -8.3104515     -8.0418085     -0.46543388     50218.233      36.893836      36.893836      36.893836    
    918000   0.17967917    -8.3097927     -8.0402778     -0.45442097     50218.233      36.893836      36.893836      36.893836    
    919000   0.18051821    -8.310189      -8.0394156     -0.46412569     50218.233      36.893836      36.893836      36.893836    
    920000   0.17942466    -8.3107464     -8.0416132     -0.4634425      50218.233      36.893836      36.893836      36.893836    
    921000   0.17859426    -8.3117842     -8.0438966     -0.47443144     50218.233      36.893836      36.893836      36.893836    
    922000   0.18098978    -8.3116208     -8.04014       -0.46881394     50218.233      36.893836      36.893836      36.893836    
    923000   0.18054093    -8.3105525     -8.0397449     -0.45927254     50218.233      36.893836      36.893836      36.893836    
    924000   0.1807084     -8.3118299     -8.0407711     -0.47519333     50218.233      36.893836      36.893836      36.893836    
    925000   0.17859291    -8.3095842     -8.0416987     -0.45806277     50218.233      36.893836      36.893836      36.893836    
    926000   0.17999765    -8.3112942     -8.0413015     -0.46525551     50218.233      36.893836      36.893836      36.893836    
    927000   0.1801483     -8.3107767     -8.0405581     -0.46948143     50218.233      36.893836      36.893836      36.893836    
    928000   0.17848334    -8.3106099     -8.0428887     -0.46361119     50218.233      36.893836      36.893836      36.893836    
    929000   0.18033928    -8.3085454     -8.0380404     -0.44618107     50218.233      36.893836      36.893836      36.893836    
    930000   0.17926267    -8.3106525     -8.0417623     -0.46403507     50218.233      36.893836      36.893836      36.893836    
    931000   0.18036216    -8.3107413     -8.0402019     -0.46589476     50218.233      36.893836      36.893836      36.893836    
    932000   0.17922783    -8.3103267     -8.0414887     -0.45697488     50218.233      36.893836      36.893836      36.893836    
    933000   0.17967275    -8.3112599     -8.0417546     -0.46765506     50218.233      36.893836      36.893836      36.893836    
    934000   0.17990184    -8.3105295     -8.0406806     -0.46395223     50218.233      36.893836      36.893836      36.893836    
    935000   0.17967605    -8.311572      -8.0420618     -0.47458692     50218.233      36.893836      36.893836      36.893836    
    936000   0.1797311     -8.3105386     -8.0409458     -0.46390244     50218.233      36.893836      36.893836      36.893836    
    937000   0.17935441    -8.3105662     -8.0415384     -0.46264355     50218.233      36.893836      36.893836      36.893836    
    938000   0.18023591    -8.3117177     -8.0413676     -0.47498705     50218.233      36.893836      36.893836      36.893836    
    939000   0.17989469    -8.3127174     -8.0428792     -0.48587251     50218.233      36.893836      36.893836      36.893836    
    940000   0.18013301    -8.3106824     -8.0404867     -0.46179097     50218.233      36.893836      36.893836      36.893836    
    941000   0.18013788    -8.3105474     -8.0403445     -0.46101667     50218.233      36.893836      36.893836      36.893836    
    942000   0.18045869    -8.3114322     -8.040748      -0.47260253     50218.233      36.893836      36.893836      36.893836    
    943000   0.18006938    -8.3114692     -8.041369      -0.46784114     50218.233      36.893836      36.893836      36.893836    
    944000   0.17911215    -8.3116837     -8.0430193     -0.47409821     50218.233      36.893836      36.893836      36.893836    
    945000   0.18014849    -8.3118186     -8.0415997     -0.47553529     50218.233      36.893836      36.893836      36.893836    
    946000   0.18015296    -8.3114356     -8.04121       -0.47316612     50218.233      36.893836      36.893836      36.893836    
    947000   0.18108857    -8.3122801     -8.0406511     -0.47409885     50218.233      36.893836      36.893836      36.893836    
    948000   0.18002355    -8.3112094     -8.041178      -0.46621871     50218.233      36.893836      36.893836      36.893836    
    949000   0.18123796    -8.3129662     -8.0411131     -0.48255831     50218.233      36.893836      36.893836      36.893836    
    950000   0.17912567    -8.3133296     -8.0446449     -0.48815551     50218.233      36.893836      36.893836      36.893836    
    951000   0.17991901    -8.3122843     -8.0424096     -0.48322739     50218.233      36.893836      36.893836      36.893836    
    952000   0.17937492    -8.311601      -8.0425425     -0.47723691     50218.233      36.893836      36.893836      36.893836    
    953000   0.18021777    -8.3114127     -8.0410899     -0.46695701     50218.233      36.893836      36.893836      36.893836    
    954000   0.18028942    -8.3107        -8.0402697     -0.46355129     50218.233      36.893836      36.893836      36.893836    
    955000   0.17975543    -8.3116537     -8.0420244     -0.47637758     50218.233      36.893836      36.893836      36.893836    
    956000   0.17979477    -8.3110876     -8.0413993     -0.46525713     50218.233      36.893836      36.893836      36.893836    
    957000   0.17907523    -8.3122012     -8.0435922     -0.47899155     50218.233      36.893836      36.893836      36.893836    
    958000   0.18102036    -8.3118558     -8.0403291     -0.46813871     50218.233      36.893836      36.893836      36.893836    
    959000   0.18069851    -8.312816      -8.0417721     -0.47444629     50218.233      36.893836      36.893836      36.893836    
    960000   0.18016647    -8.3120122     -8.0417663     -0.4679731      50218.233      36.893836      36.893836      36.893836    
    961000   0.17980838    -8.3108635     -8.0411547     -0.46468507     50218.233      36.893836      36.893836      36.893836    
    962000   0.18039743    -8.3104361     -8.0398438     -0.46237505     50218.233      36.893836      36.893836      36.893836    
    963000   0.18042218    -8.3109337     -8.0403043     -0.46251979     50218.233      36.893836      36.893836      36.893836    
    964000   0.18039255    -8.3114786     -8.0408936     -0.46794188     50218.233      36.893836      36.893836      36.893836    
    965000   0.17921835    -8.3101343     -8.0413106     -0.4587922      50218.233      36.893836      36.893836      36.893836    
    966000   0.18052612    -8.3115551     -8.0407697     -0.47644479     50218.233      36.893836      36.893836      36.893836    
    967000   0.18030366    -8.312585      -8.0421334     -0.47819522     50218.233      36.893836      36.893836      36.893836    
    968000   0.17972686    -8.3109003     -8.0413138     -0.46530928     50218.233      36.893836      36.893836      36.893836    
    969000   0.18052899    -8.3095892     -8.0387995     -0.45554137     50218.233      36.893836      36.893836      36.893836    
    970000   0.18041629    -8.3109548     -8.0403343     -0.4708064      50218.233      36.893836      36.893836      36.893836    
    971000   0.17998536    -8.3107689     -8.0407947     -0.46595417     50218.233      36.893836      36.893836      36.893836    
    972000   0.18016474    -8.3100742     -8.039831      -0.4617215      50218.233      36.893836      36.893836      36.893836    
    973000   0.18075249    -8.3110796     -8.0399547     -0.46627464     50218.233      36.893836      36.893836      36.893836    
    974000   0.18045488    -8.3119963     -8.0413178     -0.47658119     50218.233      36.893836      36.893836      36.893836    
    975000   0.17884392    -8.3106152     -8.0423532     -0.46768808     50218.233      36.893836      36.893836      36.893836    
    976000   0.17966581    -8.3103136     -8.0408188     -0.4671339      50218.233      36.893836      36.893836      36.893836    
    977000   0.18060848    -8.3112521     -8.0403433     -0.46907489     50218.233      36.893836      36.893836      36.893836    
    978000   0.18016972    -8.3100459     -8.0397951     -0.45553548     50218.233      36.893836      36.893836      36.893836    
    979000   0.18012813    -8.3108851     -8.0406968     -0.46710528     50218.233      36.893836      36.893836      36.893836    
    980000   0.18028179    -8.3092881     -8.0388693     -0.45608072     50218.233      36.893836      36.893836      36.893836    
    981000   0.1793822     -8.3093642     -8.0402947     -0.45345827     50218.233      36.893836      36.893836      36.893836    
    982000   0.18065804    -8.3102096     -8.0392264     -0.46314868     50218.233      36.893836      36.893836      36.893836    
    983000   0.17985571    -8.3104456     -8.0406658     -0.4576057      50218.233      36.893836      36.893836      36.893836    
    984000   0.17969888    -8.3107079     -8.0411634     -0.47004093     50218.233      36.893836      36.893836      36.893836    
    985000   0.17992179    -8.3100239     -8.040145      -0.46046619     50218.233      36.893836      36.893836      36.893836    
    986000   0.18032439    -8.3122203     -8.0417375     -0.47422145     50218.233      36.893836      36.893836      36.893836    
    987000   0.17937941    -8.3115435     -8.0424782     -0.46991902     50218.233      36.893836      36.893836      36.893836    
    988000   0.17924891    -8.3130458     -8.0441762     -0.48745189     50218.233      36.893836      36.893836      36.893836    
    989000   0.18056876    -8.3112218     -8.0403726     -0.46836024     50218.233      36.893836      36.893836      36.893836    
    990000   0.17900989    -8.3115991     -8.0430881     -0.47278187     50218.233      36.893836      36.893836      36.893836    
    991000   0.17937598    -8.3113515     -8.0422913     -0.46328772     50218.233      36.893836      36.893836      36.893836    
    992000   0.17977421    -8.3127043     -8.0430468     -0.48077638     50218.233      36.893836      36.893836      36.893836    
    993000   0.18030056    -8.3101275     -8.0396805     -0.46153331     50218.233      36.893836      36.893836      36.893836    
    994000   0.18009615    -8.3114922     -8.0413518     -0.46505634     50218.233      36.893836      36.893836      36.893836    
    995000   0.1791507     -8.3114258     -8.0427036     -0.47185232     50218.233      36.893836      36.893836      36.893836    
    996000   0.18059904    -8.3115648     -8.0406701     -0.47279952     50218.233      36.893836      36.893836      36.893836    
    997000   0.18037508    -8.3126086     -8.0420498     -0.47922181     50218.233      36.893836      36.893836      36.893836    
    998000   0.18014527    -8.3113611     -8.041147      -0.47213776     50218.233      36.893836      36.893836      36.893836    
    999000   0.18068846    -8.311244      -8.0402151     -0.47927388     50218.233      36.893836      36.893836      36.893836    
   1000000   0.17994158    -8.3113912     -8.0414827     -0.47058405     50218.233      36.893836      36.893836      36.893836    
Loop time of 1472.75 on 4 procs for 1000000 steps with 70304 atoms

Performance: 586657.632 tau/day, 679.002 timesteps/s, 47.737 Matom-step/s
95.2% CPU use with 4 MPI tasks x 1 OpenMP threads

MPI task timing breakdown:
Section |  min time  |  avg time  |  max time  |%varavg| %total
---------------------------------------------------------------
Pair    | 410.49     | 501.85     | 596.54     | 298.4 | 34.08
Neigh   | 3.8105     | 3.8872     | 3.935      |   2.4 |  0.26
Comm    | 200.22     | 202.1      | 203.74     |  10.3 | 13.72
Output  | 0.19921    | 0.20781    | 0.22583    |   2.3 |  0.01
Modify  | 591.49     | 687.35     | 777.86     | 255.4 | 46.67
Other   |            | 77.35      |            |       |  5.25

Nlocal:          17576 ave       17651 max       17538 min
Histogram: 1 1 1 0 0 0 0 0 0 1
Nghost:        16831.2 ave       16857 max       16803 min
Histogram: 1 1 0 0 0 0 0 0 0 2
Neighs:              0 ave           0 max           0 min
Histogram: 4 0 0 0 0 0 0 0 0 0

Total # of neighbors = 0
Ave neighs/atom = 0
Neighbor list builds = 124890
Dangerous builds = 0
clear
OMP_NUM_THREADS environment is not set. Defaulting to 1 thread. (src/comm.cpp:98)
  using 1 OpenMP thread(s) per MPI task
package gpu 0
jump dms160.lmp

variable T equal 160
# T = 1000* (temp in LJ unit)
variable f equal 1000
log log.${T}
log log.160
