variable TLJ equal (${T}/1000)
variable TLJ equal (340/1000)
variable NCyle equal 10
variable iStep equal (${f})
variable iStep equal (1000)
variable dumpStep equal (${f}*100)
variable dumpStep equal (1000*100)
variable runStep equal (${f}*100*${NCyle})
variable runStep equal (1000*100*${NCyle})
variable runStep equal (1000*100*10)

units       lj
atom_style  atomic
dimension 3
boundary     p p p
pair_style  lj/cut 2.5
read_data  ../data/T${T}.dat
read_data  ../data/T340.dat
Reading data file ...
  orthogonal box = (0.97250269 0.97250269 0.97250269) to (37.866338 37.866338 37.866338)
  1 by 2 by 2 MPI processor grid
  reading atoms ...
  70304 atoms
  reading velocities ...
  70304 velocities
  read_data CPU = 0.189 seconds
change_box all triclinic
Changing box ...
  triclinic box = (0.97250269 0.97250269 0.97250269) to (37.866338 37.866338 37.866338) with tilt (0 0 0)
mass 1 1
mass 2 1
pair_modify shift yes
pair_coeff  1 1 1 1
pair_coeff  1 2 1.5 0.8
pair_coeff  2 2 0.5 0.88


timestep 0.01
thermo ${iStep}
thermo 1000
reset_timestep 0
thermo_style custom step temp pe etotal press vol lx ly lz
fix             1 all nvt temp ${TLJ}  ${TLJ}  0.1
fix             1 all nvt temp 0.34  ${TLJ}  0.1
fix             1 all nvt temp 0.34  0.34  0.1
thermo_modify flush yes

fix dsf all deform 1 xy  wiggle 0.5  ${f}   units box
fix dsf all deform 1 xy  wiggle 0.5  1000   units box
fix ps1 all ave/time 1 1 ${iStep} c_thermo_press[1] c_thermo_press[2]  c_thermo_press[3] c_thermo_press[4]  c_thermo_press[5] c_thermo_press[6]  file  stress.${T}
fix ps1 all ave/time 1 1 1000 c_thermo_press[1] c_thermo_press[2]  c_thermo_press[3] c_thermo_press[4]  c_thermo_press[5] c_thermo_press[6]  file  stress.${T}
fix ps1 all ave/time 1 1 1000 c_thermo_press[1] c_thermo_press[2]  c_thermo_press[3] c_thermo_press[4]  c_thermo_press[5] c_thermo_press[6]  file  stress.340
dump            1 all custom ${dumpStep} dump.${T} id type x y z
dump            1 all custom 100000 dump.${T} id type x y z
dump            1 all custom 100000 dump.340 id type x y z
dump_modify 1 sort id
fix nodrift all momentum 1  linear 1 1 1
fix com_seed all recenter INIT INIT INIT shift all
run ${runStep}
run 1000000
Generated 0 of 1 mixed pair_coeff terms from geometric mixing rule
Per MPI rank memory allocation (min/avg/max) = 8.609 | 8.613 | 8.615 Mbytes
   Step          Temp          PotEng         TotEng         Press          Volume           Lx             Ly             Lz      
         0   0.33992576    -8.0851126     -7.5752312      1.4377135      50218.233      36.893836      36.893836      36.893836    
      1000   0.34069177    -8.0829686     -7.5719383      1.4534229      50218.233      36.893836      36.893836      36.893836    
      2000   0.34038745    -8.0780773     -7.5675033      1.4874657      50218.233      36.893836      36.893836      36.893836    
      3000   0.33950237    -8.0775792     -7.5683329      1.4871593      50218.233      36.893836      36.893836      36.893836    
      4000   0.34130373    -8.0795945     -7.5676462      1.4709055      50218.233      36.893836      36.893836      36.893836    
      5000   0.33870494    -8.0790574     -7.5710072      1.4720473      50218.233      36.893836      36.893836      36.893836    
      6000   0.3408874     -8.0763931     -7.5650693      1.5083397      50218.233      36.893836      36.893836      36.893836    
      7000   0.34133959    -8.0775784     -7.5655763      1.4910041      50218.233      36.893836      36.893836      36.893836    
      8000   0.33831146    -8.0780611     -7.5706011      1.4900812      50218.233      36.893836      36.893836      36.893836    
      9000   0.34026192    -8.0748748     -7.5644892      1.5140122      50218.233      36.893836      36.893836      36.893836    
     10000   0.34135904    -8.0788914     -7.5668602      1.480491       50218.233      36.893836      36.893836      36.893836    
     11000   0.34071159    -8.0782419     -7.5671818      1.4948289      50218.233      36.893836      36.893836      36.893836    
     12000   0.33940019    -8.0769696     -7.5678766      1.4911095      50218.233      36.893836      36.893836      36.893836    
     13000   0.33971169    -8.0757707     -7.5662104      1.5043069      50218.233      36.893836      36.893836      36.893836    
     14000   0.34036042    -8.0754471     -7.5649137      1.5067347      50218.233      36.893836      36.893836      36.893836    
     15000   0.33942887    -8.0785869     -7.5694508      1.4885224      50218.233      36.893836      36.893836      36.893836    
     16000   0.33920775    -8.0755092     -7.5667048      1.5104699      50218.233      36.893836      36.893836      36.893836    
     17000   0.33865327    -8.0751393     -7.5671667      1.508686       50218.233      36.893836      36.893836      36.893836    
     18000   0.33926011    -8.0780174     -7.5691345      1.4835855      50218.233      36.893836      36.893836      36.893836    
     19000   0.34008378    -8.0767935     -7.5666751      1.5017145      50218.233      36.893836      36.893836      36.893836    
     20000   0.34000064    -8.0766856     -7.5666919      1.4990417      50218.233      36.893836      36.893836      36.893836    
     21000   0.33983942    -8.0763182     -7.5665663      1.5061581      50218.233      36.893836      36.893836      36.893836    
     22000   0.34019057    -8.0739126     -7.563634       1.5126484      50218.233      36.893836      36.893836      36.893836    
     23000   0.34179299    -8.0778407     -7.5651585      1.5015066      50218.233      36.893836      36.893836      36.893836    
     24000   0.33988671    -8.0802716     -7.5704488      1.4761751      50218.233      36.893836      36.893836      36.893836    
     25000   0.34009681    -8.0768643     -7.5667263      1.5018209      50218.233      36.893836      36.893836      36.893836    
     26000   0.3380727     -8.0789875     -7.5718857      1.4750867      50218.233      36.893836      36.893836      36.893836    
     27000   0.33943359    -8.0744867     -7.5653436      1.5156271      50218.233      36.893836      36.893836      36.893836    
     28000   0.33940113    -8.0796404     -7.5705459      1.4733995      50218.233      36.893836      36.893836      36.893836    
     29000   0.34103303    -8.0802943     -7.568752       1.4779756      50218.233      36.893836      36.893836      36.893836    
     30000   0.33771633    -8.0781205     -7.5715532      1.4830666      50218.233      36.893836      36.893836      36.893836    
     31000   0.33917391    -8.0756259     -7.5668723      1.5079375      50218.233      36.893836      36.893836      36.893836    
     32000   0.34086124    -8.0771611     -7.5658765      1.4909997      50218.233      36.893836      36.893836      36.893836    
     33000   0.33899781    -8.0769247     -7.5684352      1.4894356      50218.233      36.893836      36.893836      36.893836    
     34000   0.34039135    -8.075889      -7.5653092      1.5062657      50218.233      36.893836      36.893836      36.893836    
     35000   0.34019656    -8.0749391     -7.5646515      1.5119553      50218.233      36.893836      36.893836      36.893836    
     36000   0.34171305    -8.0764592     -7.5638969      1.5082533      50218.233      36.893836      36.893836      36.893836    
     37000   0.3404671     -8.076656      -7.5659626      1.5005592      50218.233      36.893836      36.893836      36.893836    
     38000   0.34134188    -8.0779334     -7.5659278      1.4825441      50218.233      36.893836      36.893836      36.893836    
     39000   0.33884166    -8.0774176     -7.5691624      1.4868416      50218.233      36.893836      36.893836      36.893836    
     40000   0.34013912    -8.0783713     -7.5681699      1.4937985      50218.233      36.893836      36.893836      36.893836    
     41000   0.34021205    -8.0775348     -7.567224       1.494699       50218.233      36.893836      36.893836      36.893836    
     42000   0.34079672    -8.0784783     -7.5672905      1.4884338      50218.233      36.893836      36.893836      36.893836    
     43000   0.3400933     -8.076916      -7.5667833      1.4938964      50218.233      36.893836      36.893836      36.893836    
     44000   0.33926394    -8.0745838     -7.5656951      1.5064382      50218.233      36.893836      36.893836      36.893836    
     45000   0.33861182    -8.079723      -7.5718125      1.471905       50218.233      36.893836      36.893836      36.893836    
     46000   0.33827519    -8.0806237     -7.5732182      1.4698048      50218.233      36.893836      36.893836      36.893836    
     47000   0.33896653    -8.0780086     -7.5695661      1.4874393      50218.233      36.893836      36.893836      36.893836    
     48000   0.3393233     -8.0764848     -7.5675071      1.5031729      50218.233      36.893836      36.893836      36.893836    
     49000   0.33979266    -8.0799404     -7.5702587      1.4737272      50218.233      36.893836      36.893836      36.893836    
     50000   0.33859837    -8.0798385     -7.5719482      1.4687303      50218.233      36.893836      36.893836      36.893836    
     51000   0.34090864    -8.0763238     -7.5649681      1.4976181      50218.233      36.893836      36.893836      36.893836    
     52000   0.33976136    -8.0768803     -7.5672455      1.4915498      50218.233      36.893836      36.893836      36.893836    
     53000   0.33898631    -8.0793229     -7.5708507      1.4849613      50218.233      36.893836      36.893836      36.893836    
     54000   0.33868946    -8.0782521     -7.5702251      1.4875379      50218.233      36.893836      36.893836      36.893836    
     55000   0.33995669    -8.0782368     -7.568309       1.4893176      50218.233      36.893836      36.893836      36.893836    
     56000   0.34304813    -8.0752069     -7.5606421      1.5125208      50218.233      36.893836      36.893836      36.893836    
     57000   0.3409274     -8.0778768     -7.566493       1.4979835      50218.233      36.893836      36.893836      36.893836    
     58000   0.33891033    -8.0797112     -7.5713529      1.4724089      50218.233      36.893836      36.893836      36.893836    
     59000   0.33980536    -8.0734629     -7.5637621      1.529788       50218.233      36.893836      36.893836      36.893836    
     60000   0.33856427    -8.078558      -7.5707188      1.4841234      50218.233      36.893836      36.893836      36.893836    
     61000   0.34046913    -8.0793146     -7.5686182      1.4817261      50218.233      36.893836      36.893836      36.893836    
     62000   0.33946796    -8.0759701     -7.5667754      1.5153285      50218.233      36.893836      36.893836      36.893836    
     63000   0.33896976    -8.0763984     -7.567951       1.5056357      50218.233      36.893836      36.893836      36.893836    
     64000   0.34054297    -8.0767304     -7.5659232      1.5008993      50218.233      36.893836      36.893836      36.893836    
     65000   0.33974305    -8.0754508     -7.5658435      1.5093495      50218.233      36.893836      36.893836      36.893836    
     66000   0.3398064     -8.079969      -7.5702667      1.4786558      50218.233      36.893836      36.893836      36.893836    
     67000   0.34158914    -8.0801225     -7.567746       1.4794002      50218.233      36.893836      36.893836      36.893836    
     68000   0.3384668     -8.0807041     -7.5730111      1.4669742      50218.233      36.893836      36.893836      36.893836    
     69000   0.34141778    -8.0787998     -7.5666804      1.4923553      50218.233      36.893836      36.893836      36.893836    
     70000   0.33941968    -8.0784569     -7.5693346      1.4906744      50218.233      36.893836      36.893836      36.893836    
     71000   0.33985903    -8.0764531     -7.5666718      1.4996287      50218.233      36.893836      36.893836      36.893836    
     72000   0.33934285    -8.0746498     -7.5656428      1.5154331      50218.233      36.893836      36.893836      36.893836    
     73000   0.33996623    -8.0760282     -7.5660861      1.4990266      50218.233      36.893836      36.893836      36.893836    
     74000   0.3405744     -8.0759113     -7.565057       1.5014462      50218.233      36.893836      36.893836      36.893836    
     75000   0.33870612    -8.0774685     -7.5694166      1.4989193      50218.233      36.893836      36.893836      36.893836    
     76000   0.34060261    -8.0761324     -7.5652358      1.5095257      50218.233      36.893836      36.893836      36.893836    
     77000   0.34091376    -8.0747197     -7.5633563      1.5129058      50218.233      36.893836      36.893836      36.893836    
     78000   0.33892508    -8.0771546     -7.5687742      1.4974784      50218.233      36.893836      36.893836      36.893836    
     79000   0.33994414    -8.0764294     -7.5665204      1.4966183      50218.233      36.893836      36.893836      36.893836    
     80000   0.34015553    -8.0761493     -7.5659233      1.5039776      50218.233      36.893836      36.893836      36.893836    
     81000   0.33989373    -8.0762229     -7.5663895      1.5003193      50218.233      36.893836      36.893836      36.893836    
     82000   0.34084789    -8.0820815     -7.5708169      1.4631905      50218.233      36.893836      36.893836      36.893836    
     83000   0.34049958    -8.0757986     -7.5650565      1.4986885      50218.233      36.893836      36.893836      36.893836    
     84000   0.33808948    -8.0769847     -7.5698577      1.495613       50218.233      36.893836      36.893836      36.893836    
     85000   0.34067956    -8.0786603     -7.5676482      1.481365       50218.233      36.893836      36.893836      36.893836    
     86000   0.33977399    -8.0772643     -7.5676105      1.4913557      50218.233      36.893836      36.893836      36.893836    
     87000   0.33974366    -8.0777534     -7.5681452      1.4926712      50218.233      36.893836      36.893836      36.893836    
     88000   0.34011848    -8.0762236     -7.5660531      1.4948052      50218.233      36.893836      36.893836      36.893836    
     89000   0.33893366    -8.0804029     -7.5720096      1.4755327      50218.233      36.893836      36.893836      36.893836    
     90000   0.33929951    -8.0797152     -7.5707731      1.4691478      50218.233      36.893836      36.893836      36.893836    
     91000   0.34021916    -8.0773013     -7.5669798      1.4891568      50218.233      36.893836      36.893836      36.893836    
     92000   0.33956217    -8.0766743     -7.5673383      1.4895403      50218.233      36.893836      36.893836      36.893836    
     93000   0.33814217    -8.0792731     -7.572067       1.4770286      50218.233      36.893836      36.893836      36.893836    
     94000   0.33999859    -8.078989      -7.5689983      1.4860474      50218.233      36.893836      36.893836      36.893836    
     95000   0.33973833    -8.0756403     -7.56604        1.5069348      50218.233      36.893836      36.893836      36.893836    
     96000   0.3391111     -8.0782656     -7.5696062      1.4840235      50218.233      36.893836      36.893836      36.893836    
     97000   0.33833476    -8.0788439     -7.571349       1.4772633      50218.233      36.893836      36.893836      36.893836    
     98000   0.34209777    -8.07665       -7.5635107      1.4943671      50218.233      36.893836      36.893836      36.893836    
     99000   0.33967172    -8.0783516     -7.5688513      1.4824825      50218.233      36.893836      36.893836      36.893836    
    100000   0.34088515    -8.0821319     -7.5708115      1.452934       50218.233      36.893836      36.893836      36.893836    
    101000   0.33945385    -8.0775111     -7.5683376      1.494923       50218.233      36.893836      36.893836      36.893836    
    102000   0.33845961    -8.0790184     -7.5713362      1.4721159      50218.233      36.893836      36.893836      36.893836    
    103000   0.34083708    -8.0767633     -7.5655149      1.5004524      50218.233      36.893836      36.893836      36.893836    
    104000   0.34205164    -8.0809683     -7.5678982      1.4715041      50218.233      36.893836      36.893836      36.893836    
    105000   0.34002767    -8.0769955     -7.5669612      1.4975347      50218.233      36.893836      36.893836      36.893836    
    106000   0.33853462    -8.0760174     -7.5682226      1.5033203      50218.233      36.893836      36.893836      36.893836    
    107000   0.34129566    -8.0774729     -7.5655366      1.4965152      50218.233      36.893836      36.893836      36.893836    
    108000   0.33987593    -8.0772303     -7.5674237      1.4851158      50218.233      36.893836      36.893836      36.893836    
    109000   0.3390259     -8.0794147     -7.5708831      1.4690635      50218.233      36.893836      36.893836      36.893836    
    110000   0.34044802    -8.0788178     -7.5681531      1.489111       50218.233      36.893836      36.893836      36.893836    
    111000   0.33884789    -8.0772727     -7.5690081      1.4944672      50218.233      36.893836      36.893836      36.893836    
    112000   0.3405404     -8.078336      -7.5675326      1.4845058      50218.233      36.893836      36.893836      36.893836    
    113000   0.33965699    -8.0772712     -7.5677929      1.4970358      50218.233      36.893836      36.893836      36.893836    
    114000   0.34069286    -8.0770151     -7.5659831      1.5029838      50218.233      36.893836      36.893836      36.893836    
    115000   0.34059119    -8.0776168     -7.5667373      1.4975794      50218.233      36.893836      36.893836      36.893836    
    116000   0.33878337    -8.0787729     -7.570605       1.4783578      50218.233      36.893836      36.893836      36.893836    
    117000   0.33888627    -8.0812343     -7.5729121      1.470126       50218.233      36.893836      36.893836      36.893836    
    118000   0.34160744    -8.078469      -7.5660652      1.4922563      50218.233      36.893836      36.893836      36.893836    
    119000   0.33992043    -8.0774182     -7.5675448      1.4837745      50218.233      36.893836      36.893836      36.893836    
    120000   0.34129657    -8.0757827     -7.5638452      1.5068483      50218.233      36.893836      36.893836      36.893836    
    121000   0.33785833    -8.080511      -7.5737307      1.4666504      50218.233      36.893836      36.893836      36.893836    
    122000   0.34063955    -8.0755609     -7.5646089      1.5080405      50218.233      36.893836      36.893836      36.893836    
    123000   0.342439      -8.076657      -7.5630058      1.5120599      50218.233      36.893836      36.893836      36.893836    
    124000   0.34004769    -8.0768089     -7.5667446      1.4955699      50218.233      36.893836      36.893836      36.893836    
    125000   0.33881771    -8.0765174     -7.568298       1.4938038      50218.233      36.893836      36.893836      36.893836    
    126000   0.34046508    -8.0773649     -7.5666745      1.4988204      50218.233      36.893836      36.893836      36.893836    
    127000   0.3399345     -8.0783538     -7.5684593      1.4836903      50218.233      36.893836      36.893836      36.893836    
    128000   0.33911485    -8.0777487     -7.5690837      1.4960517      50218.233      36.893836      36.893836      36.893836    
    129000   0.33925345    -8.0781809     -7.5693079      1.4809963      50218.233      36.893836      36.893836      36.893836    
    130000   0.33929594    -8.0764505     -7.5675139      1.4924941      50218.233      36.893836      36.893836      36.893836    
    131000   0.3398717     -8.0755667     -7.5657664      1.5121588      50218.233      36.893836      36.893836      36.893836    
    132000   0.3403218     -8.0792565     -7.568781       1.4799692      50218.233      36.893836      36.893836      36.893836    
    133000   0.33767548    -8.0796114     -7.5731054      1.4740245      50218.233      36.893836      36.893836      36.893836    
    134000   0.33947618    -8.08042       -7.5712129      1.4722654      50218.233      36.893836      36.893836      36.893836    
    135000   0.33971272    -8.0785066     -7.5689447      1.4798475      50218.233      36.893836      36.893836      36.893836    
    136000   0.34080214    -8.0754971     -7.5643012      1.5143512      50218.233      36.893836      36.893836      36.893836    
    137000   0.34028918    -8.0764103     -7.5659837      1.4967907      50218.233      36.893836      36.893836      36.893836    
    138000   0.34106493    -8.0780413     -7.5664512      1.4909424      50218.233      36.893836      36.893836      36.893836    
    139000   0.34024293    -8.0803476     -7.5699904      1.4876049      50218.233      36.893836      36.893836      36.893836    
    140000   0.33961781    -8.0767978     -7.5673783      1.4986288      50218.233      36.893836      36.893836      36.893836    
    141000   0.34004518    -8.0809201     -7.5708596      1.4546014      50218.233      36.893836      36.893836      36.893836    
    142000   0.34134556    -8.0774674     -7.5654563      1.4980406      50218.233      36.893836      36.893836      36.893836    
    143000   0.33958699    -8.0779459     -7.5685727      1.4925368      50218.233      36.893836      36.893836      36.893836    
    144000   0.33936811    -8.0787695     -7.5697246      1.484578       50218.233      36.893836      36.893836      36.893836    
    145000   0.33935109    -8.0767686     -7.5677492      1.4904061      50218.233      36.893836      36.893836      36.893836    
    146000   0.33992295    -8.076681      -7.5668038      1.494995       50218.233      36.893836      36.893836      36.893836    
    147000   0.33914999    -8.0765996     -7.5678819      1.501266       50218.233      36.893836      36.893836      36.893836    
    148000   0.33874186    -8.0772573     -7.5691517      1.4885604      50218.233      36.893836      36.893836      36.893836    
    149000   0.33998026    -8.0788311     -7.568868       1.4820333      50218.233      36.893836      36.893836      36.893836    
    150000   0.33982534    -8.0779636     -7.5682329      1.4878267      50218.233      36.893836      36.893836      36.893836    
    151000   0.34081927    -8.0778843     -7.5666627      1.4930934      50218.233      36.893836      36.893836      36.893836    
    152000   0.341616      -8.0777105     -7.5652938      1.4928384      50218.233      36.893836      36.893836      36.893836    
    153000   0.33999271    -8.0792927     -7.5693109      1.4849446      50218.233      36.893836      36.893836      36.893836    
    154000   0.33692976    -8.0790314     -7.573644       1.469886       50218.233      36.893836      36.893836      36.893836    
    155000   0.33938444    -8.0767701     -7.5677007      1.4936581      50218.233      36.893836      36.893836      36.893836    
    156000   0.34127641    -8.0774203     -7.565513       1.5000874      50218.233      36.893836      36.893836      36.893836    
    157000   0.33900167    -8.0771348     -7.5686396      1.4938463      50218.233      36.893836      36.893836      36.893836    
    158000   0.34011768    -8.0782695     -7.5681002      1.493115       50218.233      36.893836      36.893836      36.893836    
    159000   0.34166964    -8.0761671     -7.5636699      1.5020312      50218.233      36.893836      36.893836      36.893836    
    160000   0.3406834     -8.0800312     -7.5690134      1.4760588      50218.233      36.893836      36.893836      36.893836    
    161000   0.34100011    -8.0739912     -7.5624984      1.5075778      50218.233      36.893836      36.893836      36.893836    
    162000   0.33972922    -8.0773213     -7.5677348      1.4963523      50218.233      36.893836      36.893836      36.893836    
    163000   0.33967336    -8.0764569     -7.5669541      1.496068       50218.233      36.893836      36.893836      36.893836    
    164000   0.33978935    -8.0762755     -7.5665987      1.494807       50218.233      36.893836      36.893836      36.893836    
    165000   0.33892232    -8.0772287     -7.5688525      1.4864864      50218.233      36.893836      36.893836      36.893836    
    166000   0.33899011    -8.0771736     -7.5686957      1.491236       50218.233      36.893836      36.893836      36.893836    
    167000   0.34034476    -8.074244      -7.5637341      1.5119735      50218.233      36.893836      36.893836      36.893836    
    168000   0.33997223    -8.0767647     -7.5668136      1.5000264      50218.233      36.893836      36.893836      36.893836    
    169000   0.33886905    -8.0772345     -7.5689382      1.4912863      50218.233      36.893836      36.893836      36.893836    
    170000   0.33945366    -8.078003      -7.5688297      1.4885489      50218.233      36.893836      36.893836      36.893836    
    171000   0.33972217    -8.0790381     -7.5694621      1.4785509      50218.233      36.893836      36.893836      36.893836    
    172000   0.33969598    -8.0762853     -7.5667486      1.4977997      50218.233      36.893836      36.893836      36.893836    
    173000   0.34039385    -8.0801671     -7.5695836      1.4732527      50218.233      36.893836      36.893836      36.893836    
    174000   0.33817167    -8.0784922     -7.5712419      1.4718563      50218.233      36.893836      36.893836      36.893836    
    175000   0.34177094    -8.0768916     -7.5642424      1.4887859      50218.233      36.893836      36.893836      36.893836    
    176000   0.33933427    -8.0768405     -7.5678463      1.4928981      50218.233      36.893836      36.893836      36.893836    
    177000   0.34022549    -8.0738646     -7.5635336      1.5171814      50218.233      36.893836      36.893836      36.893836    
    178000   0.33967747    -8.0768846     -7.5673757      1.49854        50218.233      36.893836      36.893836      36.893836    
    179000   0.34036892    -8.0771279     -7.5665818      1.4828741      50218.233      36.893836      36.893836      36.893836    
    180000   0.34045545    -8.0779196     -7.5672437      1.486643       50218.233      36.893836      36.893836      36.893836    
    181000   0.34171306    -8.0760224     -7.5634601      1.5061378      50218.233      36.893836      36.893836      36.893836    
    182000   0.33984859    -8.0789924     -7.5692268      1.4810077      50218.233      36.893836      36.893836      36.893836    
    183000   0.34054438    -8.0801283     -7.569319       1.4780808      50218.233      36.893836      36.893836      36.893836    
    184000   0.33976756    -8.0787357     -7.5690916      1.4773828      50218.233      36.893836      36.893836      36.893836    
    185000   0.34156592    -8.0773553     -7.5650137      1.4962709      50218.233      36.893836      36.893836      36.893836    
    186000   0.34205262    -8.0774817     -7.5644101      1.4930946      50218.233      36.893836      36.893836      36.893836    
    187000   0.33998863    -8.0759936     -7.5660179      1.5058137      50218.233      36.893836      36.893836      36.893836    
    188000   0.34096703    -8.0777455     -7.5663023      1.4930357      50218.233      36.893836      36.893836      36.893836    
    189000   0.339815      -8.0754913     -7.565776       1.511921       50218.233      36.893836      36.893836      36.893836    
    190000   0.34252653    -8.0796408     -7.5658583      1.4794871      50218.233      36.893836      36.893836      36.893836    
    191000   0.3399456     -8.0767483     -7.5668372      1.4973874      50218.233      36.893836      36.893836      36.893836    
    192000   0.33906329    -8.0762386     -7.5676509      1.4945124      50218.233      36.893836      36.893836      36.893836    
    193000   0.33997311    -8.0758213     -7.5658689      1.4969061      50218.233      36.893836      36.893836      36.893836    
    194000   0.34029065    -8.0791164     -7.5686877      1.4850383      50218.233      36.893836      36.893836      36.893836    
    195000   0.3391337     -8.0799184     -7.5712251      1.4743134      50218.233      36.893836      36.893836      36.893836    
    196000   0.34048974    -8.0802108     -7.5694834      1.4749394      50218.233      36.893836      36.893836      36.893836    
    197000   0.34128675    -8.0776021     -7.5656793      1.4945895      50218.233      36.893836      36.893836      36.893836    
    198000   0.34096383    -8.0772949     -7.5658564      1.4948597      50218.233      36.893836      36.893836      36.893836    
    199000   0.33934145    -8.0782169     -7.569212       1.4853439      50218.233      36.893836      36.893836      36.893836    
    200000   0.34031541    -8.0783354     -7.5678695      1.475558       50218.233      36.893836      36.893836      36.893836    
    201000   0.34145072    -8.0793512     -7.5671824      1.4845586      50218.233      36.893836      36.893836      36.893836    
    202000   0.34037793    -8.0774476     -7.566888       1.4912478      50218.233      36.893836      36.893836      36.893836    
    203000   0.33913323    -8.0780931     -7.5694005      1.4923226      50218.233      36.893836      36.893836      36.893836    
    204000   0.3410002     -8.079624      -7.5681309      1.4715445      50218.233      36.893836      36.893836      36.893836    
    205000   0.33952876    -8.0788021     -7.5695162      1.4826082      50218.233      36.893836      36.893836      36.893836    
    206000   0.34137917    -8.076986      -7.5649246      1.4951014      50218.233      36.893836      36.893836      36.893836    
    207000   0.34089362    -8.0790602     -7.567727       1.4836284      50218.233      36.893836      36.893836      36.893836    
    208000   0.33929139    -8.0794379     -7.5705081      1.478453       50218.233      36.893836      36.893836      36.893836    
    209000   0.3399779     -8.0773948     -7.5674352      1.487924       50218.233      36.893836      36.893836      36.893836    
    210000   0.34170262    -8.0800527     -7.5675061      1.4782481      50218.233      36.893836      36.893836      36.893836    
    211000   0.34013266    -8.0789142     -7.5687224      1.4765506      50218.233      36.893836      36.893836      36.893836    
    212000   0.33876583    -8.0792655     -7.571124       1.4771497      50218.233      36.893836      36.893836      36.893836    
    213000   0.34146253    -8.0783122     -7.5661257      1.4900187      50218.233      36.893836      36.893836      36.893836    
    214000   0.33993799    -8.0789815     -7.5690817      1.4786994      50218.233      36.893836      36.893836      36.893836    
    215000   0.34138703    -8.078079      -7.5660058      1.4925457      50218.233      36.893836      36.893836      36.893836    
    216000   0.34107722    -8.0797444     -7.5681359      1.4804908      50218.233      36.893836      36.893836      36.893836    
    217000   0.34122007    -8.0758197     -7.5639968      1.510705       50218.233      36.893836      36.893836      36.893836    
    218000   0.33928169    -8.080895      -7.5719797      1.4625454      50218.233      36.893836      36.893836      36.893836    
    219000   0.33815827    -8.0794978     -7.5722676      1.4712065      50218.233      36.893836      36.893836      36.893836    
    220000   0.34042347    -8.0733043     -7.5626763      1.5238558      50218.233      36.893836      36.893836      36.893836    
    221000   0.33977843    -8.0754008     -7.5657404      1.5018953      50218.233      36.893836      36.893836      36.893836    
    222000   0.34016726    -8.0774428     -7.5671992      1.4925319      50218.233      36.893836      36.893836      36.893836    
    223000   0.33913913    -8.0782497     -7.5695482      1.4852571      50218.233      36.893836      36.893836      36.893836    
    224000   0.33986987    -8.0770375     -7.5672399      1.4985474      50218.233      36.893836      36.893836      36.893836    
    225000   0.34112041    -8.0761882     -7.5645149      1.5029994      50218.233      36.893836      36.893836      36.893836    
    226000   0.34083773    -8.0756417     -7.5643924      1.49622        50218.233      36.893836      36.893836      36.893836    
    227000   0.34024736    -8.0806823     -7.5703185      1.4642735      50218.233      36.893836      36.893836      36.893836    
    228000   0.34003769    -8.0785685     -7.5685192      1.4862203      50218.233      36.893836      36.893836      36.893836    
    229000   0.34033097    -8.0752305     -7.5647413      1.4918159      50218.233      36.893836      36.893836      36.893836    
    230000   0.33982298    -8.076668      -7.5669408      1.494874       50218.233      36.893836      36.893836      36.893836    
    231000   0.34062046    -8.0790861     -7.5681627      1.4757953      50218.233      36.893836      36.893836      36.893836    
    232000   0.33885563    -8.0749345     -7.5666583      1.5055646      50218.233      36.893836      36.893836      36.893836    
    233000   0.33986186    -8.0775472     -7.5677616      1.4934011      50218.233      36.893836      36.893836      36.893836    
    234000   0.34009812    -8.0753375     -7.5651976      1.5016327      50218.233      36.893836      36.893836      36.893836    
    235000   0.34095012    -8.0776168     -7.5661989      1.4963617      50218.233      36.893836      36.893836      36.893836    
    236000   0.33906434    -8.0769638     -7.5683745      1.4986602      50218.233      36.893836      36.893836      36.893836    
    237000   0.34156858    -8.0780789     -7.5657334      1.4871839      50218.233      36.893836      36.893836      36.893836    
    238000   0.33965247    -8.0775464     -7.568075       1.4884652      50218.233      36.893836      36.893836      36.893836    
    239000   0.33982672    -8.0791464     -7.5694136      1.4759669      50218.233      36.893836      36.893836      36.893836    
    240000   0.33657835    -8.0784856     -7.5736253      1.4836921      50218.233      36.893836      36.893836      36.893836    
    241000   0.33921635    -8.079196      -7.5703787      1.4792545      50218.233      36.893836      36.893836      36.893836    
    242000   0.3401171     -8.0759157     -7.5657473      1.5015131      50218.233      36.893836      36.893836      36.893836    
    243000   0.33863477    -8.079351      -7.571406       1.4731669      50218.233      36.893836      36.893836      36.893836    
    244000   0.34190828    -8.0776427     -7.5647876      1.4868335      50218.233      36.893836      36.893836      36.893836    
    245000   0.33845596    -8.0813821     -7.5737053      1.4517986      50218.233      36.893836      36.893836      36.893836    
    246000   0.34069475    -8.0786648     -7.5676299      1.4824955      50218.233      36.893836      36.893836      36.893836    
    247000   0.3416697     -8.077993      -7.5654957      1.5025738      50218.233      36.893836      36.893836      36.893836    
    248000   0.34142131    -8.0790369     -7.5669123      1.4814057      50218.233      36.893836      36.893836      36.893836    
    249000   0.34015496    -8.0758463     -7.5656211      1.4981668      50218.233      36.893836      36.893836      36.893836    
    250000   0.33961265    -8.0778887     -7.5684769      1.4924172      50218.233      36.893836      36.893836      36.893836    
    251000   0.33981142    -8.0780884     -7.5683785      1.4874768      50218.233      36.893836      36.893836      36.893836    
    252000   0.33844702    -8.0781557     -7.5704924      1.4841771      50218.233      36.893836      36.893836      36.893836    
    253000   0.34117916    -8.0798392     -7.5680778      1.4806312      50218.233      36.893836      36.893836      36.893836    
    254000   0.33867212    -8.0750773     -7.5670764      1.510223       50218.233      36.893836      36.893836      36.893836    
    255000   0.34105516    -8.0798524     -7.568277       1.4701757      50218.233      36.893836      36.893836      36.893836    
    256000   0.34115016    -8.079368      -7.56765        1.475574       50218.233      36.893836      36.893836      36.893836    
    257000   0.34213562    -8.0807272     -7.5675311      1.4755163      50218.233      36.893836      36.893836      36.893836    
    258000   0.33966389    -8.0792339     -7.5697453      1.4761119      50218.233      36.893836      36.893836      36.893836    
    259000   0.34118859    -8.0787777     -7.5670021      1.4843437      50218.233      36.893836      36.893836      36.893836    
    260000   0.33752902    -8.077612      -7.5713257      1.4855313      50218.233      36.893836      36.893836      36.893836    
    261000   0.34125621    -8.0771592     -7.5652821      1.496755       50218.233      36.893836      36.893836      36.893836    
    262000   0.33933463    -8.0775989     -7.5686041      1.4909995      50218.233      36.893836      36.893836      36.893836    
    263000   0.33940268    -8.0771383     -7.5680415      1.4865646      50218.233      36.893836      36.893836      36.893836    
    264000   0.33926404    -8.0755316     -7.5666428      1.5078827      50218.233      36.893836      36.893836      36.893836    
    265000   0.34040092    -8.0768817     -7.5662876      1.4909721      50218.233      36.893836      36.893836      36.893836    
    266000   0.34036905    -8.0792091     -7.5686628      1.4736379      50218.233      36.893836      36.893836      36.893836    
    267000   0.33942705    -8.0796365     -7.5705032      1.4742415      50218.233      36.893836      36.893836      36.893836    
    268000   0.33964581    -8.0789136     -7.5694521      1.4749576      50218.233      36.893836      36.893836      36.893836    
    269000   0.33787169    -8.0780017     -7.5712014      1.4910836      50218.233      36.893836      36.893836      36.893836    
    270000   0.34075292    -8.0757935     -7.5646714      1.503755       50218.233      36.893836      36.893836      36.893836    
    271000   0.3399663     -8.0775528     -7.5676106      1.4882877      50218.233      36.893836      36.893836      36.893836    
    272000   0.33993475    -8.0790692     -7.5691743      1.4819478      50218.233      36.893836      36.893836      36.893836    
    273000   0.33881136    -8.0782028     -7.5699929      1.4822535      50218.233      36.893836      36.893836      36.893836    
    274000   0.33808237    -8.0752993     -7.5681829      1.5130902      50218.233      36.893836      36.893836      36.893836    
    275000   0.34146881    -8.0728505     -7.5606545      1.5302135      50218.233      36.893836      36.893836      36.893836    
    276000   0.3400977     -8.0777045     -7.5675652      1.486669       50218.233      36.893836      36.893836      36.893836    
    277000   0.33966128    -8.0765501     -7.5670655      1.5037513      50218.233      36.893836      36.893836      36.893836    
    278000   0.33990431    -8.0795159     -7.5696667      1.4798159      50218.233      36.893836      36.893836      36.893836    
    279000   0.33937111    -8.0777571     -7.5687077      1.4951114      50218.233      36.893836      36.893836      36.893836    
    280000   0.34102682    -8.0756176     -7.5640846      1.5040439      50218.233      36.893836      36.893836      36.893836    
    281000   0.34045783    -8.0776897     -7.5670102      1.4914885      50218.233      36.893836      36.893836      36.893836    
    282000   0.33985748    -8.0771098     -7.5673308      1.4943074      50218.233      36.893836      36.893836      36.893836    
    283000   0.33907606    -8.078078      -7.5694711      1.4755135      50218.233      36.893836      36.893836      36.893836    
    284000   0.33931156    -8.0787535     -7.5697933      1.4869858      50218.233      36.893836      36.893836      36.893836    
    285000   0.34015896    -8.0790498     -7.5688186      1.4764788      50218.233      36.893836      36.893836      36.893836    
    286000   0.34143929    -8.0765411     -7.5643895      1.5081027      50218.233      36.893836      36.893836      36.893836    
    287000   0.3403424     -8.0765908     -7.5660845      1.4947352      50218.233      36.893836      36.893836      36.893836    
    288000   0.33904836    -8.0785767     -7.5700114      1.4810995      50218.233      36.893836      36.893836      36.893836    
    289000   0.34072539    -8.0787897     -7.5677088      1.4782325      50218.233      36.893836      36.893836      36.893836    
    290000   0.34145212    -8.0770732     -7.5649023      1.4958431      50218.233      36.893836      36.893836      36.893836    
    291000   0.3402009     -8.0791165     -7.5688224      1.4849218      50218.233      36.893836      36.893836      36.893836    
    292000   0.34331487    -8.074582      -7.559617       1.511858       50218.233      36.893836      36.893836      36.893836    
    293000   0.33972713    -8.0788757     -7.5692922      1.4748853      50218.233      36.893836      36.893836      36.893836    
    294000   0.33997549    -8.0749752     -7.5650192      1.5151768      50218.233      36.893836      36.893836      36.893836    
    295000   0.34030394    -8.0791153     -7.5686667      1.4922015      50218.233      36.893836      36.893836      36.893836    
    296000   0.33985676    -8.0792424     -7.5694645      1.4788762      50218.233      36.893836      36.893836      36.893836    
    297000   0.34004313    -8.0770932     -7.5670358      1.492468       50218.233      36.893836      36.893836      36.893836    
    298000   0.34125187    -8.0805287     -7.5686582      1.4745379      50218.233      36.893836      36.893836      36.893836    
    299000   0.33878306    -8.0781508     -7.5699835      1.4831407      50218.233      36.893836      36.893836      36.893836    
    300000   0.33990385    -8.0785448     -7.5686963      1.4757933      50218.233      36.893836      36.893836      36.893836    
    301000   0.34117813    -8.0774729     -7.565713       1.4932737      50218.233      36.893836      36.893836      36.893836    
    302000   0.33861871    -8.0779488     -7.5700279      1.4818066      50218.233      36.893836      36.893836      36.893836    
    303000   0.34001715    -8.0770694     -7.5670509      1.4948224      50218.233      36.893836      36.893836      36.893836    
    304000   0.34052495    -8.0777238     -7.5669436      1.4891511      50218.233      36.893836      36.893836      36.893836    
    305000   0.33897901    -8.0793777     -7.5709164      1.4746845      50218.233      36.893836      36.893836      36.893836    
    306000   0.33872592    -8.0810564     -7.5729747      1.4548821      50218.233      36.893836      36.893836      36.893836    
    307000   0.34107062    -8.0775173     -7.5659186      1.4967412      50218.233      36.893836      36.893836      36.893836    
    308000   0.33959193    -8.0794898     -7.5701092      1.4724279      50218.233      36.893836      36.893836      36.893836    
    309000   0.33912159    -8.077071      -7.5683959      1.4862109      50218.233      36.893836      36.893836      36.893836    
    310000   0.3390135     -8.0796351     -7.571122       1.4715255      50218.233      36.893836      36.893836      36.893836    
    311000   0.34079181    -8.0785404     -7.5673599      1.4933652      50218.233      36.893836      36.893836      36.893836    
    312000   0.33955607    -8.0784868     -7.56916        1.4804315      50218.233      36.893836      36.893836      36.893836    
    313000   0.340345      -8.0775589     -7.5670487      1.4970696      50218.233      36.893836      36.893836      36.893836    
    314000   0.33681387    -8.0768488     -7.5716352      1.5006504      50218.233      36.893836      36.893836      36.893836    
    315000   0.3402503     -8.077688      -7.5673198      1.4951845      50218.233      36.893836      36.893836      36.893836    
    316000   0.34085013    -8.0797864     -7.5685185      1.4716905      50218.233      36.893836      36.893836      36.893836    
    317000   0.34132308    -8.0755428     -7.5635655      1.5069998      50218.233      36.893836      36.893836      36.893836    
    318000   0.34057347    -8.0763529     -7.5654999      1.5006076      50218.233      36.893836      36.893836      36.893836    
    319000   0.33904106    -8.0774918     -7.5689375      1.4835447      50218.233      36.893836      36.893836      36.893836    
    320000   0.33976633    -8.0777974     -7.5681552      1.4914363      50218.233      36.893836      36.893836      36.893836    
    321000   0.34374159    -8.0757967     -7.5601916      1.5066131      50218.233      36.893836      36.893836      36.893836    
    322000   0.33877683    -8.0759436     -7.5677856      1.5044005      50218.233      36.893836      36.893836      36.893836    
    323000   0.34140064    -8.0756037     -7.5635101      1.5167779      50218.233      36.893836      36.893836      36.893836    
    324000   0.33923204    -8.0767826     -7.5679418      1.4956752      50218.233      36.893836      36.893836      36.893836    
    325000   0.34042282    -8.0750064     -7.5643794      1.5142315      50218.233      36.893836      36.893836      36.893836    
    326000   0.34024496    -8.0772416     -7.5668814      1.4890629      50218.233      36.893836      36.893836      36.893836    
    327000   0.34160791    -8.0763513     -7.5639467      1.5063458      50218.233      36.893836      36.893836      36.893836    
    328000   0.34089468    -8.0776874     -7.5663527      1.4888969      50218.233      36.893836      36.893836      36.893836    
    329000   0.3398954     -8.0775452     -7.5677094      1.4979344      50218.233      36.893836      36.893836      36.893836    
    330000   0.33920006    -8.0751529     -7.5663601      1.5053297      50218.233      36.893836      36.893836      36.893836    
    331000   0.33972986    -8.0777594     -7.5681719      1.4959076      50218.233      36.893836      36.893836      36.893836    
    332000   0.33920456    -8.0789223     -7.5701227      1.4823343      50218.233      36.893836      36.893836      36.893836    
    333000   0.33976647    -8.0776182     -7.5679757      1.4984499      50218.233      36.893836      36.893836      36.893836    
    334000   0.34174482    -8.0754324     -7.5628224      1.5103095      50218.233      36.893836      36.893836      36.893836    
    335000   0.33964406    -8.0818464     -7.5723876      1.4602014      50218.233      36.893836      36.893836      36.893836    
    336000   0.34039286    -8.0750804     -7.5644984      1.5088572      50218.233      36.893836      36.893836      36.893836    
    337000   0.3400593     -8.0780199     -7.5679382      1.4782922      50218.233      36.893836      36.893836      36.893836    
    338000   0.33940672    -8.0792319     -7.5701291      1.4748708      50218.233      36.893836      36.893836      36.893836    
    339000   0.3404401     -8.0769727     -7.5663198      1.4961666      50218.233      36.893836      36.893836      36.893836    
    340000   0.34066634    -8.0799187     -7.5689264      1.4724507      50218.233      36.893836      36.893836      36.893836    
    341000   0.34112528    -8.0802431     -7.5685625      1.4696291      50218.233      36.893836      36.893836      36.893836    
    342000   0.33940888    -8.0774269     -7.5683208      1.4921094      50218.233      36.893836      36.893836      36.893836    
    343000   0.33990628    -8.0785598     -7.5687076      1.4878919      50218.233      36.893836      36.893836      36.893836    
    344000   0.34120601    -8.0795244     -7.5677226      1.4783492      50218.233      36.893836      36.893836      36.893836    
    345000   0.3397034     -8.0760625     -7.5665147      1.497628       50218.233      36.893836      36.893836      36.893836    
    346000   0.33980057    -8.0797773     -7.5700837      1.4761105      50218.233      36.893836      36.893836      36.893836    
    347000   0.3392059     -8.0769806     -7.568179       1.4944499      50218.233      36.893836      36.893836      36.893836    
    348000   0.33974457    -8.0775583     -7.5679487      1.4943878      50218.233      36.893836      36.893836      36.893836    
    349000   0.3410148     -8.0771846     -7.5656697      1.495693       50218.233      36.893836      36.893836      36.893836    
    350000   0.34046575    -8.0778158     -7.5671244      1.4856094      50218.233      36.893836      36.893836      36.893836    
    351000   0.33903733    -8.0792069     -7.5706581      1.4766003      50218.233      36.893836      36.893836      36.893836    
    352000   0.33907452    -8.0790141     -7.5704095      1.4792252      50218.233      36.893836      36.893836      36.893836    
    353000   0.33922253    -8.0747928     -7.5659663      1.5034065      50218.233      36.893836      36.893836      36.893836    
    354000   0.33956868    -8.0762994     -7.5669536      1.4976134      50218.233      36.893836      36.893836      36.893836    
    355000   0.34030495    -8.0789213     -7.5684712      1.4818564      50218.233      36.893836      36.893836      36.893836    
    356000   0.33981757    -8.0778942     -7.5681751      1.4886743      50218.233      36.893836      36.893836      36.893836    
    357000   0.33978732    -8.0791702     -7.5694964      1.4698572      50218.233      36.893836      36.893836      36.893836    
    358000   0.3392168     -8.0757814     -7.5669634      1.4979923      50218.233      36.893836      36.893836      36.893836    
    359000   0.33942587    -8.07668       -7.5675484      1.49881        50218.233      36.893836      36.893836      36.893836    
    360000   0.33874611    -8.0783592     -7.5702473      1.4789892      50218.233      36.893836      36.893836      36.893836    
    361000   0.34055876    -8.0775971     -7.5667662      1.4938948      50218.233      36.893836      36.893836      36.893836    
    362000   0.33867674    -8.0805834     -7.5725755      1.4646463      50218.233      36.893836      36.893836      36.893836    
    363000   0.33934614    -8.0785844     -7.5695724      1.4899041      50218.233      36.893836      36.893836      36.893836    
    364000   0.33834347    -8.0800002     -7.5724922      1.4682232      50218.233      36.893836      36.893836      36.893836    
    365000   0.34031186    -8.0758811     -7.5654206      1.5038442      50218.233      36.893836      36.893836      36.893836    
    366000   0.33944458    -8.0774749     -7.5683153      1.4991003      50218.233      36.893836      36.893836      36.893836    
    367000   0.34009103    -8.0778257     -7.5676964      1.4802747      50218.233      36.893836      36.893836      36.893836    
    368000   0.33989029    -8.0771592     -7.567331       1.5037848      50218.233      36.893836      36.893836      36.893836    
    369000   0.34081535    -8.0793948     -7.568179       1.4752767      50218.233      36.893836      36.893836      36.893836    
    370000   0.34002664    -8.0771094     -7.5670767      1.4962086      50218.233      36.893836      36.893836      36.893836    
    371000   0.34067955    -8.079085      -7.5680729      1.4921078      50218.233      36.893836      36.893836      36.893836    
    372000   0.3401078     -8.0788392     -7.5686848      1.4862996      50218.233      36.893836      36.893836      36.893836    
    373000   0.34052484    -8.0780386     -7.5672586      1.4831742      50218.233      36.893836      36.893836      36.893836    
    374000   0.3398363     -8.0774068     -7.5676596      1.4986223      50218.233      36.893836      36.893836      36.893836    
    375000   0.34253134    -8.0764265     -7.5626368      1.4965702      50218.233      36.893836      36.893836      36.893836    
    376000   0.33956576    -8.0760986     -7.5667572      1.5077916      50218.233      36.893836      36.893836      36.893836    
    377000   0.33910432    -8.0774463     -7.568797       1.4975818      50218.233      36.893836      36.893836      36.893836    
    378000   0.34273401    -8.0802146     -7.5661209      1.479126       50218.233      36.893836      36.893836      36.893836    
    379000   0.34031597    -8.0768666     -7.5663999      1.5021188      50218.233      36.893836      36.893836      36.893836    
    380000   0.3388458     -8.0774798     -7.5692183      1.4909833      50218.233      36.893836      36.893836      36.893836    
    381000   0.34045148    -8.0772368     -7.5665668      1.4941797      50218.233      36.893836      36.893836      36.893836    
    382000   0.34118395    -8.0789946     -7.567226       1.4849773      50218.233      36.893836      36.893836      36.893836    
    383000   0.33974976    -8.0791618     -7.5695444      1.4795354      50218.233      36.893836      36.893836      36.893836    
    384000   0.3387948     -8.0791875     -7.5710025      1.4761192      50218.233      36.893836      36.893836      36.893836    
    385000   0.33930001    -8.0763279     -7.5673851      1.4947712      50218.233      36.893836      36.893836      36.893836    
    386000   0.34036348    -8.076991      -7.5664531      1.4869806      50218.233      36.893836      36.893836      36.893836    
    387000   0.33960707    -8.0775335     -7.5681301      1.488527       50218.233      36.893836      36.893836      36.893836    
    388000   0.33946428    -8.0781091     -7.5689199      1.4832006      50218.233      36.893836      36.893836      36.893836    
    389000   0.34072564    -8.0757502     -7.5646691      1.5081482      50218.233      36.893836      36.893836      36.893836    
    390000   0.33877376    -8.0763538     -7.5682004      1.4911092      50218.233      36.893836      36.893836      36.893836    
    391000   0.34098679    -8.0784232     -7.5669503      1.4867232      50218.233      36.893836      36.893836      36.893836    
    392000   0.34046762    -8.0768826     -7.5661884      1.4936273      50218.233      36.893836      36.893836      36.893836    
    393000   0.34054546    -8.0801413     -7.5693303      1.4713506      50218.233      36.893836      36.893836      36.893836    
    394000   0.34206084    -8.0756256     -7.5625416      1.5154658      50218.233      36.893836      36.893836      36.893836    
    395000   0.34009068    -8.0776442     -7.5675154      1.4975726      50218.233      36.893836      36.893836      36.893836    
    396000   0.3406602     -8.0768811     -7.5658981      1.4984588      50218.233      36.893836      36.893836      36.893836    
    397000   0.33974783    -8.0788804     -7.5692659      1.4906683      50218.233      36.893836      36.893836      36.893836    
    398000   0.33950003    -8.0805187     -7.5712759      1.4705858      50218.233      36.893836      36.893836      36.893836    
    399000   0.33893504    -8.0775931     -7.5691978      1.485853       50218.233      36.893836      36.893836      36.893836    
    400000   0.34078735    -8.0770649     -7.5658911      1.4924729      50218.233      36.893836      36.893836      36.893836    
    401000   0.34162456    -8.0788917     -7.5664622      1.4843329      50218.233      36.893836      36.893836      36.893836    
    402000   0.34216081    -8.0788589     -7.5656249      1.4826788      50218.233      36.893836      36.893836      36.893836    
    403000   0.33981169    -8.0800988     -7.5703885      1.4764551      50218.233      36.893836      36.893836      36.893836    
    404000   0.33953217    -8.0785402     -7.5692492      1.4815496      50218.233      36.893836      36.893836      36.893836    
    405000   0.34001059    -8.0780787     -7.56807        1.4927474      50218.233      36.893836      36.893836      36.893836    
    406000   0.34068426    -8.0752188     -7.5641997      1.5111851      50218.233      36.893836      36.893836      36.893836    
    407000   0.33993924    -8.079814      -7.5699124      1.469703       50218.233      36.893836      36.893836      36.893836    
    408000   0.3411504     -8.079571      -7.5678527      1.4804724      50218.233      36.893836      36.893836      36.893836    
    409000   0.33938011    -8.0806693     -7.5716064      1.4579813      50218.233      36.893836      36.893836      36.893836    
    410000   0.33786675    -8.0774756     -7.5706827      1.4916692      50218.233      36.893836      36.893836      36.893836    
    411000   0.34081656    -8.0777952     -7.5665776      1.4790878      50218.233      36.893836      36.893836      36.893836    
    412000   0.33844232    -8.0759714     -7.5683151      1.5106923      50218.233      36.893836      36.893836      36.893836    
    413000   0.3387932     -8.0794643     -7.5712817      1.4868889      50218.233      36.893836      36.893836      36.893836    
    414000   0.33946606    -8.0773276     -7.5681357      1.4924809      50218.233      36.893836      36.893836      36.893836    
    415000   0.34067802    -8.077956      -7.5669463      1.4903049      50218.233      36.893836      36.893836      36.893836    
    416000   0.34183391    -8.0773732     -7.5646296      1.5041039      50218.233      36.893836      36.893836      36.893836    
    417000   0.33960163    -8.0776715     -7.5682763      1.4902852      50218.233      36.893836      36.893836      36.893836    
    418000   0.33968734    -8.0763127     -7.5667889      1.4915789      50218.233      36.893836      36.893836      36.893836    
    419000   0.34063108    -8.0761746     -7.5652352      1.5013188      50218.233      36.893836      36.893836      36.893836    
    420000   0.34017028    -8.0764196     -7.5661714      1.4995516      50218.233      36.893836      36.893836      36.893836    
    421000   0.33997778    -8.0782159     -7.5682564      1.4894507      50218.233      36.893836      36.893836      36.893836    
    422000   0.3413043     -8.0787967     -7.5668475      1.4777849      50218.233      36.893836      36.893836      36.893836    
    423000   0.33925093    -8.0771816     -7.5683125      1.4923339      50218.233      36.893836      36.893836      36.893836    
    424000   0.33916591    -8.0762875     -7.5675459      1.5004895      50218.233      36.893836      36.893836      36.893836    
    425000   0.34099896    -8.0764908     -7.5649996      1.5092246      50218.233      36.893836      36.893836      36.893836    
    426000   0.33931928    -8.0805645     -7.5715928      1.4654641      50218.233      36.893836      36.893836      36.893836    
    427000   0.34053195    -8.076358      -7.5655674      1.4963896      50218.233      36.893836      36.893836      36.893836    
    428000   0.33926542    -8.0774393     -7.5685484      1.4842565      50218.233      36.893836      36.893836      36.893836    
    429000   0.3388714     -8.0771076     -7.5688077      1.4920345      50218.233      36.893836      36.893836      36.893836    
    430000   0.34020574    -8.0768738     -7.5665724      1.4945597      50218.233      36.893836      36.893836      36.893836    
    431000   0.34069939    -8.0751658     -7.564124       1.5241768      50218.233      36.893836      36.893836      36.893836    
    432000   0.34183649    -8.0785676     -7.5658201      1.4847858      50218.233      36.893836      36.893836      36.893836    
    433000   0.33940417    -8.0785272     -7.5694282      1.4845368      50218.233      36.893836      36.893836      36.893836    
    434000   0.34194325    -8.0754706     -7.562563       1.51354        50218.233      36.893836      36.893836      36.893836    
    435000   0.34091768    -8.079233      -7.5678637      1.4766778      50218.233      36.893836      36.893836      36.893836    
    436000   0.34016261    -8.072341      -7.5621044      1.5221528      50218.233      36.893836      36.893836      36.893836    
    437000   0.34059641    -8.0767525     -7.5658652      1.4956655      50218.233      36.893836      36.893836      36.893836    
    438000   0.34193951    -8.076131      -7.5632291      1.503769       50218.233      36.893836      36.893836      36.893836    
    439000   0.33907197    -8.0785818     -7.5699811      1.4814101      50218.233      36.893836      36.893836      36.893836    
    440000   0.34067133    -8.0779992     -7.5669995      1.4912409      50218.233      36.893836      36.893836      36.893836    
    441000   0.34034188    -8.0775082     -7.5670027      1.4853437      50218.233      36.893836      36.893836      36.893836    
    442000   0.33958487    -8.0772784     -7.5679084      1.4827054      50218.233      36.893836      36.893836      36.893836    
    443000   0.34074039    -8.0804059     -7.5693026      1.4731742      50218.233      36.893836      36.893836      36.893836    
    444000   0.34017313    -8.0753442     -7.5650918      1.5053509      50218.233      36.893836      36.893836      36.893836    
    445000   0.33881427    -8.0796477     -7.5714335      1.473163       50218.233      36.893836      36.893836      36.893836    
    446000   0.34085714    -8.0790495     -7.5677711      1.4854741      50218.233      36.893836      36.893836      36.893836    
    447000   0.33957887    -8.0776882     -7.5683271      1.4921875      50218.233      36.893836      36.893836      36.893836    
    448000   0.33806552    -8.0802613     -7.5731702      1.4758679      50218.233      36.893836      36.893836      36.893836    
    449000   0.33980992    -8.0795575     -7.5698499      1.4764944      50218.233      36.893836      36.893836      36.893836    
    450000   0.34023852    -8.0798985     -7.569548       1.4754142      50218.233      36.893836      36.893836      36.893836    
    451000   0.33949814    -8.0795543     -7.5703143      1.4759578      50218.233      36.893836      36.893836      36.893836    
    452000   0.34024145    -8.0766636     -7.5663086      1.5067998      50218.233      36.893836      36.893836      36.893836    
    453000   0.34125518    -8.0779481     -7.5660726      1.5017228      50218.233      36.893836      36.893836      36.893836    
    454000   0.34033718    -8.0795823     -7.5690838      1.4830265      50218.233      36.893836      36.893836      36.893836    
    455000   0.33868312    -8.0793724     -7.571355       1.4744878      50218.233      36.893836      36.893836      36.893836    
    456000   0.3397146     -8.07814       -7.5685753      1.4882132      50218.233      36.893836      36.893836      36.893836    
    457000   0.34138176    -8.0797848     -7.5677194      1.4763458      50218.233      36.893836      36.893836      36.893836    
    458000   0.34115753    -8.0768094     -7.5650804      1.500697       50218.233      36.893836      36.893836      36.893836    
    459000   0.34150511    -8.0808143     -7.5685639      1.4726013      50218.233      36.893836      36.893836      36.893836    
    460000   0.33750868    -8.0797859     -7.5735301      1.4768217      50218.233      36.893836      36.893836      36.893836    
    461000   0.34060446    -8.0755586     -7.5646592      1.5024348      50218.233      36.893836      36.893836      36.893836    
    462000   0.34131781    -8.0792842     -7.5673148      1.4770024      50218.233      36.893836      36.893836      36.893836    
    463000   0.33987219    -8.0800082     -7.5702072      1.4716022      50218.233      36.893836      36.893836      36.893836    
    464000   0.33777032    -8.0787415     -7.5720933      1.4821082      50218.233      36.893836      36.893836      36.893836    
    465000   0.33722846    -8.0779875     -7.572152       1.484285       50218.233      36.893836      36.893836      36.893836    
    466000   0.33989114    -8.0779427     -7.5681133      1.4898168      50218.233      36.893836      36.893836      36.893836    
    467000   0.33991474    -8.0785773     -7.5687125      1.4852851      50218.233      36.893836      36.893836      36.893836    
    468000   0.33728068    -8.0762556     -7.5703418      1.5000072      50218.233      36.893836      36.893836      36.893836    
    469000   0.34049506    -8.0769126     -7.5661773      1.497526       50218.233      36.893836      36.893836      36.893836    
    470000   0.33963936    -8.0772972     -7.5678454      1.4945999      50218.233      36.893836      36.893836      36.893836    
    471000   0.34010738    -8.0783033     -7.5681495      1.4880855      50218.233      36.893836      36.893836      36.893836    
    472000   0.34107146    -8.075289      -7.5636891      1.5142232      50218.233      36.893836      36.893836      36.893836    
    473000   0.34058952    -8.0750375     -7.5641605      1.5024723      50218.233      36.893836      36.893836      36.893836    
    474000   0.34009885    -8.0776376     -7.5674966      1.4901981      50218.233      36.893836      36.893836      36.893836    
    475000   0.33745651    -8.0764363     -7.5702587      1.4927966      50218.233      36.893836      36.893836      36.893836    
    476000   0.34276964    -8.0784527     -7.5643056      1.48095        50218.233      36.893836      36.893836      36.893836    
    477000   0.33887596    -8.0737294     -7.5654227      1.513896       50218.233      36.893836      36.893836      36.893836    
    478000   0.34132359    -8.0767128     -7.5647347      1.510967       50218.233      36.893836      36.893836      36.893836    
    479000   0.3390569     -8.0766564     -7.5680783      1.4920652      50218.233      36.893836      36.893836      36.893836    
    480000   0.34124265    -8.0774439     -7.5655872      1.4875044      50218.233      36.893836      36.893836      36.893836    
    481000   0.3407671     -8.0812746     -7.5701312      1.4637873      50218.233      36.893836      36.893836      36.893836    
    482000   0.34041007    -8.0751441     -7.5645363      1.5100955      50218.233      36.893836      36.893836      36.893836    
    483000   0.34228079    -8.0782361     -7.5648222      1.482683       50218.233      36.893836      36.893836      36.893836    
    484000   0.33891091    -8.0780914     -7.5697323      1.4901495      50218.233      36.893836      36.893836      36.893836    
    485000   0.33935149    -8.0760126     -7.5669927      1.5013292      50218.233      36.893836      36.893836      36.893836    
    486000   0.33995782    -8.0782712     -7.5683417      1.4894267      50218.233      36.893836      36.893836      36.893836    
    487000   0.34052769    -8.0756077     -7.5648235      1.4989886      50218.233      36.893836      36.893836      36.893836    
    488000   0.34074848    -8.0749744     -7.5638589      1.516385       50218.233      36.893836      36.893836      36.893836    
    489000   0.34196523    -8.0794952     -7.5665546      1.4792501      50218.233      36.893836      36.893836      36.893836    
    490000   0.34052497    -8.077888      -7.5671079      1.4862093      50218.233      36.893836      36.893836      36.893836    
    491000   0.33980924    -8.0798748     -7.5701682      1.4701404      50218.233      36.893836      36.893836      36.893836    
    492000   0.3399016     -8.0792582     -7.569413       1.4758782      50218.233      36.893836      36.893836      36.893836    
    493000   0.33949816    -8.0777241     -7.5684841      1.4870492      50218.233      36.893836      36.893836      36.893836    
    494000   0.34075578    -8.0776782     -7.5665518      1.4893696      50218.233      36.893836      36.893836      36.893836    
    495000   0.33885853    -8.0808392     -7.5725586      1.4671883      50218.233      36.893836      36.893836      36.893836    
    496000   0.34045539    -8.0756234     -7.5649476      1.5044461      50218.233      36.893836      36.893836      36.893836    
    497000   0.34069836    -8.0789857     -7.5679455      1.4900576      50218.233      36.893836      36.893836      36.893836    
    498000   0.34086953    -8.0767832     -7.5654862      1.4996902      50218.233      36.893836      36.893836      36.893836    
    499000   0.34145418    -8.077269      -7.565095       1.4974882      50218.233      36.893836      36.893836      36.893836    
    500000   0.34169584    -8.0773715     -7.564835       1.4932597      50218.233      36.893836      36.893836      36.893836    
    501000   0.33982685    -8.0739601     -7.5642271      1.5173389      50218.233      36.893836      36.893836      36.893836    
    502000   0.33919147    -8.0783991     -7.5696192      1.4798924      50218.233      36.893836      36.893836      36.893836    
    503000   0.33877564    -8.0797852     -7.5716289      1.468334       50218.233      36.893836      36.893836      36.893836    
    504000   0.3391645     -8.0763088     -7.5675693      1.4937471      50218.233      36.893836      36.893836      36.893836    
    505000   0.33910998    -8.0807273     -7.5720696      1.461596       50218.233      36.893836      36.893836      36.893836    
    506000   0.33981548    -8.0781879     -7.5684719      1.4906171      50218.233      36.893836      36.893836      36.893836    
    507000   0.34013566    -8.0784446     -7.5682483      1.4826356      50218.233      36.893836      36.893836      36.893836    
    508000   0.33912066    -8.0797842     -7.5711104      1.4744715      50218.233      36.893836      36.893836      36.893836    
    509000   0.3408703     -8.0774236     -7.5661254      1.4903567      50218.233      36.893836      36.893836      36.893836    
    510000   0.34019852    -8.0770738     -7.5667833      1.5008776      50218.233      36.893836      36.893836      36.893836    
    511000   0.33903303    -8.0802596     -7.5717173      1.4699678      50218.233      36.893836      36.893836      36.893836    
    512000   0.33979317    -8.0786849     -7.5690024      1.4840526      50218.233      36.893836      36.893836      36.893836    
    513000   0.33715062    -8.0788737     -7.573155       1.4828653      50218.233      36.893836      36.893836      36.893836    
    514000   0.33988291    -8.0793217     -7.5695045      1.4820418      50218.233      36.893836      36.893836      36.893836    
    515000   0.33903386    -8.077114      -7.5685705      1.4889575      50218.233      36.893836      36.893836      36.893836    
    516000   0.33826517    -8.076902      -7.5695114      1.498588       50218.233      36.893836      36.893836      36.893836    
    517000   0.33992084    -8.0755257     -7.5656517      1.5077055      50218.233      36.893836      36.893836      36.893836    
    518000   0.33927072    -8.0762153     -7.5673165      1.4953154      50218.233      36.893836      36.893836      36.893836    
    519000   0.34012689    -8.0762263     -7.5660432      1.4989381      50218.233      36.893836      36.893836      36.893836    
    520000   0.34107462    -8.0772399     -7.5656352      1.4888921      50218.233      36.893836      36.893836      36.893836    
    521000   0.33980303    -8.0779995     -7.5683022      1.4866118      50218.233      36.893836      36.893836      36.893836    
    522000   0.34061313    -8.0765017     -7.5655893      1.4977308      50218.233      36.893836      36.893836      36.893836    
    523000   0.33900679    -8.0804669     -7.5719639      1.4863068      50218.233      36.893836      36.893836      36.893836    
    524000   0.34030904    -8.0766354     -7.5661791      1.5041762      50218.233      36.893836      36.893836      36.893836    
    525000   0.34006435    -8.0764388     -7.5663495      1.5080054      50218.233      36.893836      36.893836      36.893836    
    526000   0.34100645    -8.0756889     -7.5641865      1.5072291      50218.233      36.893836      36.893836      36.893836    
    527000   0.3401799     -8.0762242     -7.5659616      1.4995324      50218.233      36.893836      36.893836      36.893836    
    528000   0.3383973     -8.0738213     -7.5662326      1.5145566      50218.233      36.893836      36.893836      36.893836    
    529000   0.33996223    -8.0782424     -7.5683063      1.4882978      50218.233      36.893836      36.893836      36.893836    
    530000   0.34014935    -8.0777115     -7.5674947      1.4865255      50218.233      36.893836      36.893836      36.893836    
    531000   0.33956902    -8.0771103     -7.567764       1.4971961      50218.233      36.893836      36.893836      36.893836    
    532000   0.33962519    -8.0777053     -7.5682748      1.4956001      50218.233      36.893836      36.893836      36.893836    
    533000   0.34084239    -8.0742305     -7.5629742      1.5221471      50218.233      36.893836      36.893836      36.893836    
    534000   0.33872927    -8.0764801     -7.5683935      1.4994245      50218.233      36.893836      36.893836      36.893836    
    535000   0.33905629    -8.0773177     -7.5687405      1.4966862      50218.233      36.893836      36.893836      36.893836    
    536000   0.33888059    -8.0758175     -7.5675039      1.5031891      50218.233      36.893836      36.893836      36.893836    
    537000   0.33940032    -8.0782324     -7.5691392      1.489214       50218.233      36.893836      36.893836      36.893836    
    538000   0.33996158    -8.078216      -7.5682809      1.4831029      50218.233      36.893836      36.893836      36.893836    
    539000   0.34019676    -8.0777159     -7.567428       1.4870623      50218.233      36.893836      36.893836      36.893836    
    540000   0.3420805     -8.0756407     -7.5625272      1.5056653      50218.233      36.893836      36.893836      36.893836    
    541000   0.34151611    -8.0776719     -7.565405       1.5004191      50218.233      36.893836      36.893836      36.893836    
    542000   0.34067563    -8.0739994     -7.5629933      1.5192815      50218.233      36.893836      36.893836      36.893836    
    543000   0.33907079    -8.0748133     -7.5662143      1.509352       50218.233      36.893836      36.893836      36.893836    
    544000   0.33887919    -8.0762363     -7.5679247      1.5023778      50218.233      36.893836      36.893836      36.893836    
    545000   0.3390999     -8.0765305     -7.5678878      1.49955        50218.233      36.893836      36.893836      36.893836    
    546000   0.34004744    -8.0754787     -7.5654148      1.5039509      50218.233      36.893836      36.893836      36.893836    
    547000   0.3400817     -8.0774388     -7.5673235      1.4970039      50218.233      36.893836      36.893836      36.893836    
    548000   0.33872363    -8.0790278     -7.5709496      1.484951       50218.233      36.893836      36.893836      36.893836    
    549000   0.3409725     -8.0770202     -7.5655688      1.4982845      50218.233      36.893836      36.893836      36.893836    
    550000   0.34125607    -8.0802578     -7.5683809      1.4757464      50218.233      36.893836      36.893836      36.893836    
    551000   0.34082062    -8.075786      -7.5645624      1.5085374      50218.233      36.893836      36.893836      36.893836    
    552000   0.34253033    -8.0769783     -7.5631901      1.5103112      50218.233      36.893836      36.893836      36.893836    
    553000   0.34083856    -8.0785073     -7.5672567      1.4899559      50218.233      36.893836      36.893836      36.893836    
    554000   0.33990169    -8.0787308     -7.5688855      1.4762869      50218.233      36.893836      36.893836      36.893836    
    555000   0.34020174    -8.0784403     -7.5681449      1.4801154      50218.233      36.893836      36.893836      36.893836    
    556000   0.34100858    -8.078598      -7.5670924      1.4875303      50218.233      36.893836      36.893836      36.893836    
    557000   0.33931856    -8.0754805     -7.5665099      1.5124181      50218.233      36.893836      36.893836      36.893836    
    558000   0.3392136     -8.0777215     -7.5689084      1.4887103      50218.233      36.893836      36.893836      36.893836    
    559000   0.34024328    -8.0795488     -7.5691912      1.4730629      50218.233      36.893836      36.893836      36.893836    
    560000   0.34097754    -8.0775266     -7.5660676      1.4935814      50218.233      36.893836      36.893836      36.893836    
    561000   0.33868095    -8.0775795     -7.5695653      1.4827895      50218.233      36.893836      36.893836      36.893836    
    562000   0.33967879    -8.0788563     -7.5693453      1.4708849      50218.233      36.893836      36.893836      36.893836    
    563000   0.34026119    -8.0799999     -7.5696154      1.4710296      50218.233      36.893836      36.893836      36.893836    
    564000   0.34029851    -8.0817743     -7.5713338      1.4600482      50218.233      36.893836      36.893836      36.893836    
    565000   0.33856734    -8.0787341     -7.5708903      1.4775239      50218.233      36.893836      36.893836      36.893836    
    566000   0.34045195    -8.0752456     -7.564575       1.5088126      50218.233      36.893836      36.893836      36.893836    
    567000   0.33973875    -8.0753356     -7.5657347      1.5051393      50218.233      36.893836      36.893836      36.893836    
    568000   0.33866087    -8.080293      -7.5723089      1.4684378      50218.233      36.893836      36.893836      36.893836    
    569000   0.33997857    -8.0767122     -7.5667516      1.4990246      50218.233      36.893836      36.893836      36.893836    
    570000   0.33972656    -8.0764436     -7.5668611      1.4946342      50218.233      36.893836      36.893836      36.893836    
    571000   0.33693585    -8.0779111     -7.5725145      1.4836808      50218.233      36.893836      36.893836      36.893836    
    572000   0.34051713    -8.0770212     -7.5662527      1.4948946      50218.233      36.893836      36.893836      36.893836    
    573000   0.34126571    -8.0786059     -7.5667147      1.4894428      50218.233      36.893836      36.893836      36.893836    
    574000   0.33926666    -8.0763882     -7.5674954      1.4919124      50218.233      36.893836      36.893836      36.893836    
    575000   0.33898279    -8.0784183     -7.5699513      1.4891443      50218.233      36.893836      36.893836      36.893836    
    576000   0.34118926    -8.0743012     -7.5625245      1.5157628      50218.233      36.893836      36.893836      36.893836    
    577000   0.34067398    -8.0777198     -7.5667161      1.4828708      50218.233      36.893836      36.893836      36.893836    
    578000   0.34148147    -8.0779682     -7.5657533      1.4900014      50218.233      36.893836      36.893836      36.893836    
    579000   0.34050287    -8.075583      -7.5648359      1.5095786      50218.233      36.893836      36.893836      36.893836    
    580000   0.33891278    -8.0789671     -7.5706051      1.4852311      50218.233      36.893836      36.893836      36.893836    
    581000   0.33919411    -8.082311      -7.5735271      1.4479524      50218.233      36.893836      36.893836      36.893836    
    582000   0.34040577    -8.0753663     -7.5647649      1.5106863      50218.233      36.893836      36.893836      36.893836    
    583000   0.33767053    -8.0773495     -7.5708509      1.4927724      50218.233      36.893836      36.893836      36.893836    
    584000   0.34048926    -8.078904      -7.5681773      1.4765945      50218.233      36.893836      36.893836      36.893836    
    585000   0.34030424    -8.0778328     -7.5673837      1.4886948      50218.233      36.893836      36.893836      36.893836    
    586000   0.33898125    -8.0788079     -7.5703432      1.4798536      50218.233      36.893836      36.893836      36.893836    
    587000   0.33974142    -8.0765521     -7.5669472      1.496487       50218.233      36.893836      36.893836      36.893836    
    588000   0.34060864    -8.078422      -7.5675163      1.4840742      50218.233      36.893836      36.893836      36.893836    
    589000   0.34234234    -8.0799955     -7.5664893      1.4742342      50218.233      36.893836      36.893836      36.893836    
    590000   0.34012713    -8.076187      -7.5660036      1.5023828      50218.233      36.893836      36.893836      36.893836    
    591000   0.34066478    -8.0757708     -7.5647809      1.5118613      50218.233      36.893836      36.893836      36.893836    
    592000   0.34121926    -8.0787786     -7.5669569      1.4858219      50218.233      36.893836      36.893836      36.893836    
    593000   0.34121227    -8.0763793     -7.5645682      1.5005847      50218.233      36.893836      36.893836      36.893836    
    594000   0.33945848    -8.0755966     -7.5664161      1.5068081      50218.233      36.893836      36.893836      36.893836    
    595000   0.34136945    -8.0780452     -7.5659984      1.4968545      50218.233      36.893836      36.893836      36.893836    
    596000   0.33916743    -8.0768905     -7.5681466      1.493637       50218.233      36.893836      36.893836      36.893836    
    597000   0.33958546    -8.0777846     -7.5684137      1.4885428      50218.233      36.893836      36.893836      36.893836    
    598000   0.34140364    -8.0783306     -7.5662325      1.4770235      50218.233      36.893836      36.893836      36.893836    
    599000   0.33976562    -8.076244      -7.5666028      1.4974181      50218.233      36.893836      36.893836      36.893836    
    600000   0.33919402    -8.074804      -7.5660202      1.5132182      50218.233      36.893836      36.893836      36.893836    
    601000   0.34005602    -8.0769587     -7.5668819      1.493678       50218.233      36.893836      36.893836      36.893836    
    602000   0.33938744    -8.077722      -7.5686481      1.4858975      50218.233      36.893836      36.893836      36.893836    
    603000   0.34068144    -8.0807278     -7.5697129      1.4708385      50218.233      36.893836      36.893836      36.893836    
    604000   0.34066404    -8.0788294     -7.5678406      1.4826115      50218.233      36.893836      36.893836      36.893836    
    605000   0.33949931    -8.0800088     -7.5707671      1.4638425      50218.233      36.893836      36.893836      36.893836    
    606000   0.33911159    -8.0778933     -7.5692331      1.4865098      50218.233      36.893836      36.893836      36.893836    
    607000   0.33932248    -8.0789435     -7.569967       1.4758639      50218.233      36.893836      36.893836      36.893836    
    608000   0.33978221    -8.07971       -7.5700439      1.4641646      50218.233      36.893836      36.893836      36.893836    
    609000   0.34027074    -8.0773957     -7.5669969      1.4940011      50218.233      36.893836      36.893836      36.893836    
    610000   0.34132679    -8.0779104     -7.5659275      1.4899937      50218.233      36.893836      36.893836      36.893836    
    611000   0.34014639    -8.0817316     -7.5715193      1.4555425      50218.233      36.893836      36.893836      36.893836    
    612000   0.34036228    -8.0753035     -7.5647673      1.5216536      50218.233      36.893836      36.893836      36.893836    
    613000   0.33983704    -8.075813      -7.5660646      1.5000366      50218.233      36.893836      36.893836      36.893836    
    614000   0.33900703    -8.0810574     -7.5725541      1.4598713      50218.233      36.893836      36.893836      36.893836    
    615000   0.33962292    -8.0760011     -7.566574       1.503775       50218.233      36.893836      36.893836      36.893836    
    616000   0.34108427    -8.0781633     -7.5665441      1.4903405      50218.233      36.893836      36.893836      36.893836    
    617000   0.33955788    -8.0774845     -7.568155       1.4914405      50218.233      36.893836      36.893836      36.893836    
    618000   0.34050743    -8.0794513     -7.5686974      1.4817871      50218.233      36.893836      36.893836      36.893836    
    619000   0.34068058    -8.0735492     -7.5625356      1.5230125      50218.233      36.893836      36.893836      36.893836    
    620000   0.34055894    -8.0754499     -7.5646187      1.5115841      50218.233      36.893836      36.893836      36.893836    
    621000   0.34115417    -8.0755924     -7.5638684      1.510946       50218.233      36.893836      36.893836      36.893836    
    622000   0.34053985    -8.0788461     -7.5680436      1.4798805      50218.233      36.893836      36.893836      36.893836    
    623000   0.33975989    -8.0747975     -7.5651649      1.5113607      50218.233      36.893836      36.893836      36.893836    
    624000   0.33948362    -8.0770819     -7.5678637      1.4977515      50218.233      36.893836      36.893836      36.893836    
    625000   0.34057025    -8.0795014     -7.5686533      1.483446       50218.233      36.893836      36.893836      36.893836    
    626000   0.34059791    -8.0771526     -7.566263       1.4903182      50218.233      36.893836      36.893836      36.893836    
    627000   0.34137561    -8.0750619     -7.5630058      1.5082211      50218.233      36.893836      36.893836      36.893836    
    628000   0.34329214    -8.0797578     -7.5648269      1.4905769      50218.233      36.893836      36.893836      36.893836    
    629000   0.34083374    -8.0771839     -7.5659405      1.4931395      50218.233      36.893836      36.893836      36.893836    
    630000   0.34113023    -8.0760832     -7.5643951      1.504442       50218.233      36.893836      36.893836      36.893836    
    631000   0.3373423     -8.0790964     -7.5730902      1.4769663      50218.233      36.893836      36.893836      36.893836    
    632000   0.33911717    -8.078298      -7.5696295      1.4788647      50218.233      36.893836      36.893836      36.893836    
    633000   0.34067729    -8.0757895     -7.5647809      1.5126263      50218.233      36.893836      36.893836      36.893836    
    634000   0.34025052    -8.0778517     -7.5674832      1.499659       50218.233      36.893836      36.893836      36.893836    
    635000   0.33825879    -8.0777551     -7.5703741      1.4880293      50218.233      36.893836      36.893836      36.893836    
    636000   0.3410491     -8.0767465     -7.5651802      1.503455       50218.233      36.893836      36.893836      36.893836    
    637000   0.3397707     -8.0782417     -7.5685929      1.4892701      50218.233      36.893836      36.893836      36.893836    
    638000   0.34038079    -8.077552      -7.566988       1.4845742      50218.233      36.893836      36.893836      36.893836    
    639000   0.3400261     -8.0782297     -7.5681978      1.4895491      50218.233      36.893836      36.893836      36.893836    
    640000   0.34017824    -8.0745996     -7.5643395      1.5165973      50218.233      36.893836      36.893836      36.893836    
    641000   0.33988511    -8.0824656     -7.5726452      1.4534128      50218.233      36.893836      36.893836      36.893836    
    642000   0.33907855    -8.0788062     -7.5701956      1.4806249      50218.233      36.893836      36.893836      36.893836    
    643000   0.34022876    -8.0764582     -7.5661224      1.501009       50218.233      36.893836      36.893836      36.893836    
    644000   0.33934141    -8.0777696     -7.5687648      1.4903996      50218.233      36.893836      36.893836      36.893836    
    645000   0.34096269    -8.0797408     -7.5683041      1.4733025      50218.233      36.893836      36.893836      36.893836    
    646000   0.33816057    -8.0779052     -7.5706716      1.4897205      50218.233      36.893836      36.893836      36.893836    
    647000   0.3409271     -8.0815868     -7.5702034      1.4619716      50218.233      36.893836      36.893836      36.893836    
    648000   0.34035615    -8.0784389     -7.5679119      1.4898121      50218.233      36.893836      36.893836      36.893836    
    649000   0.34059568    -8.0791633     -7.568277       1.4893901      50218.233      36.893836      36.893836      36.893836    
    650000   0.33981571    -8.0792426     -7.5695263      1.4747259      50218.233      36.893836      36.893836      36.893836    
    651000   0.34066636    -8.0778508     -7.5668585      1.4895336      50218.233      36.893836      36.893836      36.893836    
    652000   0.33996965    -8.0774482     -7.567501       1.4889537      50218.233      36.893836      36.893836      36.893836    
    653000   0.33954268    -8.0778673     -7.5685605      1.4933672      50218.233      36.893836      36.893836      36.893836    
    654000   0.33952878    -8.0760792     -7.5667933      1.4928562      50218.233      36.893836      36.893836      36.893836    
    655000   0.34030452    -8.0775875     -7.567138       1.4893842      50218.233      36.893836      36.893836      36.893836    
    656000   0.34096431    -8.0776579     -7.5662187      1.4874194      50218.233      36.893836      36.893836      36.893836    
    657000   0.34012858    -8.08008       -7.5698943      1.4712172      50218.233      36.893836      36.893836      36.893836    
    658000   0.33998255    -8.0785183     -7.5685517      1.4811995      50218.233      36.893836      36.893836      36.893836    
    659000   0.34084362    -8.0796763     -7.5684182      1.474747       50218.233      36.893836      36.893836      36.893836    
    660000   0.34036119    -8.0791861     -7.5686516      1.4772154      50218.233      36.893836      36.893836      36.893836    
    661000   0.34076301    -8.0782719     -7.5671347      1.4869497      50218.233      36.893836      36.893836      36.893836    
    662000   0.34054378    -8.0787813     -7.5679729      1.4831387      50218.233      36.893836      36.893836      36.893836    
    663000   0.34067377    -8.0790183     -7.5680149      1.4794124      50218.233      36.893836      36.893836      36.893836    
    664000   0.33958347    -8.0760511     -7.5666831      1.5019765      50218.233      36.893836      36.893836      36.893836    
    665000   0.33921205    -8.079538      -7.5707271      1.4756788      50218.233      36.893836      36.893836      36.893836    
    666000   0.33781491    -8.0761713     -7.5694562      1.5024808      50218.233      36.893836      36.893836      36.893836    
    667000   0.34083671    -8.0778368     -7.566589       1.4867628      50218.233      36.893836      36.893836      36.893836    
    668000   0.3402426     -8.0790226     -7.5686659      1.4786085      50218.233      36.893836      36.893836      36.893836    
    669000   0.34078425    -8.0772629     -7.5660938      1.4962652      50218.233      36.893836      36.893836      36.893836    
    670000   0.34260846    -8.0805872     -7.5666818      1.4745264      50218.233      36.893836      36.893836      36.893836    
    671000   0.3389124     -8.077063      -7.5687016      1.4847553      50218.233      36.893836      36.893836      36.893836    
    672000   0.33922479    -8.0740208     -7.5651909      1.5204078      50218.233      36.893836      36.893836      36.893836    
    673000   0.34075787    -8.0777634     -7.5666339      1.498238       50218.233      36.893836      36.893836      36.893836    
    674000   0.33930068    -8.0786009     -7.5696571      1.4815851      50218.233      36.893836      36.893836      36.893836    
    675000   0.33928236    -8.0737818     -7.5648655      1.5229275      50218.233      36.893836      36.893836      36.893836    
    676000   0.34018162    -8.0747273     -7.5644622      1.506024       50218.233      36.893836      36.893836      36.893836    
    677000   0.34023685    -8.0771238     -7.5667757      1.4954493      50218.233      36.893836      36.893836      36.893836    
    678000   0.3402572     -8.0784708     -7.5680922      1.4861852      50218.233      36.893836      36.893836      36.893836    
    679000   0.33894767    -8.0758362     -7.5674219      1.503242       50218.233      36.893836      36.893836      36.893836    
    680000   0.34004292    -8.0791464     -7.5690892      1.4868194      50218.233      36.893836      36.893836      36.893836    
    681000   0.34085597    -8.0752584     -7.5639817      1.5172324      50218.233      36.893836      36.893836      36.893836    
    682000   0.33896308    -8.0732698     -7.5648324      1.5191192      50218.233      36.893836      36.893836      36.893836    
    683000   0.34122715    -8.0773074     -7.565474       1.4988019      50218.233      36.893836      36.893836      36.893836    
    684000   0.34005088    -8.0806038     -7.5705347      1.4642826      50218.233      36.893836      36.893836      36.893836    
    685000   0.33781075    -8.0772389     -7.57053        1.495713       50218.233      36.893836      36.893836      36.893836    
    686000   0.33924652    -8.0766824     -7.5678198      1.4953214      50218.233      36.893836      36.893836      36.893836    
    687000   0.34084655    -8.0780021     -7.5667395      1.5003222      50218.233      36.893836      36.893836      36.893836    
    688000   0.33932369    -8.077245      -7.5682667      1.4929851      50218.233      36.893836      36.893836      36.893836    
    689000   0.339836      -8.079613      -7.5698663      1.4769141      50218.233      36.893836      36.893836      36.893836    
    690000   0.34137069    -8.0755984     -7.5635497      1.5188852      50218.233      36.893836      36.893836      36.893836    
    691000   0.33988708    -8.0772053     -7.5673819      1.494436       50218.233      36.893836      36.893836      36.893836    
    692000   0.34133364    -8.0765193     -7.5645261      1.4960791      50218.233      36.893836      36.893836      36.893836    
    693000   0.34110199    -8.0754028     -7.5637571      1.5153033      50218.233      36.893836      36.893836      36.893836    
    694000   0.34099119    -8.0787065     -7.567227       1.4830101      50218.233      36.893836      36.893836      36.893836    
    695000   0.34064522    -8.0811198     -7.5701592      1.4561734      50218.233      36.893836      36.893836      36.893836    
    696000   0.34002927    -8.0773436     -7.5673069      1.5041935      50218.233      36.893836      36.893836      36.893836    
    697000   0.33879631    -8.0784084     -7.5702211      1.4871884      50218.233      36.893836      36.893836      36.893836    
    698000   0.33971789    -8.0780074     -7.5684378      1.4878674      50218.233      36.893836      36.893836      36.893836    
    699000   0.3397263     -8.0752693     -7.5656871      1.511771       50218.233      36.893836      36.893836      36.893836    
    700000   0.34119004    -8.0793802     -7.5676025      1.4868449      50218.233      36.893836      36.893836      36.893836    
    701000   0.33979697    -8.0789996     -7.5693114      1.4780142      50218.233      36.893836      36.893836      36.893836    
    702000   0.3406433     -8.0802907     -7.569333       1.4690439      50218.233      36.893836      36.893836      36.893836    
    703000   0.34270612    -8.0803002     -7.5662483      1.4741385      50218.233      36.893836      36.893836      36.893836    
    704000   0.34086064    -8.0800565     -7.5687728      1.4793641      50218.233      36.893836      36.893836      36.893836    
    705000   0.34108001    -8.0804644     -7.5688516      1.4702766      50218.233      36.893836      36.893836      36.893836    
    706000   0.33873668    -8.0777686     -7.5696709      1.4820071      50218.233      36.893836      36.893836      36.893836    
    707000   0.33895911    -8.0776402     -7.5692088      1.483695       50218.233      36.893836      36.893836      36.893836    
    708000   0.34007208    -8.080729      -7.5706281      1.4667122      50218.233      36.893836      36.893836      36.893836    
    709000   0.34040613    -8.0799138     -7.5693118      1.4688304      50218.233      36.893836      36.893836      36.893836    
    710000   0.34114214    -8.0783431     -7.5666372      1.4838908      50218.233      36.893836      36.893836      36.893836    
    711000   0.33848503    -8.0761513     -7.568431       1.494424       50218.233      36.893836      36.893836      36.893836    
    712000   0.3404013     -8.0746512     -7.5640565      1.5215391      50218.233      36.893836      36.893836      36.893836    
    713000   0.33972029    -8.0757904     -7.5662172      1.5021717      50218.233      36.893836      36.893836      36.893836    
    714000   0.3381658     -8.0786799     -7.5714384      1.4785094      50218.233      36.893836      36.893836      36.893836    
    715000   0.34128354    -8.0780431     -7.566125       1.4900598      50218.233      36.893836      36.893836      36.893836    
    716000   0.34223158    -8.0785431     -7.565203       1.4941207      50218.233      36.893836      36.893836      36.893836    
    717000   0.34036222    -8.0726731     -7.5621371      1.5383635      50218.233      36.893836      36.893836      36.893836    
    718000   0.34039869    -8.0781383     -7.5675475      1.4861805      50218.233      36.893836      36.893836      36.893836    
    719000   0.34076528    -8.0784068     -7.5672661      1.4879811      50218.233      36.893836      36.893836      36.893836    
    720000   0.34072214    -8.0765647     -7.5654888      1.5032142      50218.233      36.893836      36.893836      36.893836    
    721000   0.34039701    -8.0764002     -7.5658119      1.5070527      50218.233      36.893836      36.893836      36.893836    
    722000   0.3418027     -8.0764849     -7.5637882      1.4996973      50218.233      36.893836      36.893836      36.893836    
    723000   0.33888169    -8.0771852     -7.5688699      1.4915955      50218.233      36.893836      36.893836      36.893836    
    724000   0.33930655    -8.0793609     -7.5704083      1.4779172      50218.233      36.893836      36.893836      36.893836    
    725000   0.33974021    -8.07934       -7.5697369      1.4739561      50218.233      36.893836      36.893836      36.893836    
    726000   0.34166815    -8.075938      -7.5634431      1.4997957      50218.233      36.893836      36.893836      36.893836    
    727000   0.3404983     -8.0772615     -7.5665214      1.4901562      50218.233      36.893836      36.893836      36.893836    
    728000   0.33830645    -8.0760753     -7.5686228      1.5011386      50218.233      36.893836      36.893836      36.893836    
    729000   0.33938656    -8.0756141     -7.5665415      1.5105524      50218.233      36.893836      36.893836      36.893836    
    730000   0.33965018    -8.0779003     -7.5684323      1.4920703      50218.233      36.893836      36.893836      36.893836    
    731000   0.33903314    -8.0779424     -7.5693999      1.4939836      50218.233      36.893836      36.893836      36.893836    
    732000   0.33855684    -8.0784052     -7.5705772      1.4853145      50218.233      36.893836      36.893836      36.893836    
    733000   0.33958708    -8.0762383     -7.566865       1.5064878      50218.233      36.893836      36.893836      36.893836    
    734000   0.34307793    -8.079701      -7.5650914      1.4821481      50218.233      36.893836      36.893836      36.893836    
    735000   0.33977725    -8.0793482     -7.5696896      1.4759086      50218.233      36.893836      36.893836      36.893836    
    736000   0.3397322     -8.0772344     -7.5676434      1.4841433      50218.233      36.893836      36.893836      36.893836    
    737000   0.33967945    -8.0777154     -7.5682034      1.488137       50218.233      36.893836      36.893836      36.893836    
    738000   0.33879873    -8.0790168     -7.5708259      1.4816579      50218.233      36.893836      36.893836      36.893836    
    739000   0.34057894    -8.0769448     -7.5660836      1.4972422      50218.233      36.893836      36.893836      36.893836    
    740000   0.33965714    -8.078575      -7.5690965      1.4888327      50218.233      36.893836      36.893836      36.893836    
    741000   0.34105       -8.0802074     -7.5686397      1.4791679      50218.233      36.893836      36.893836      36.893836    
    742000   0.33985622    -8.0775181     -7.567741       1.4938754      50218.233      36.893836      36.893836      36.893836    
    743000   0.33918734    -8.0800024     -7.5712287      1.477815       50218.233      36.893836      36.893836      36.893836    
    744000   0.33923283    -8.0766627     -7.5678207      1.4971139      50218.233      36.893836      36.893836      36.893836    
    745000   0.34028919    -8.0796598     -7.5692333      1.4772854      50218.233      36.893836      36.893836      36.893836    
    746000   0.34039719    -8.0783303     -7.5677418      1.4820292      50218.233      36.893836      36.893836      36.893836    
    747000   0.33988572    -8.0743143     -7.5644929      1.518616       50218.233      36.893836      36.893836      36.893836    
    748000   0.34059443    -8.0782817     -7.5673973      1.48684        50218.233      36.893836      36.893836      36.893836    
    749000   0.33941451    -8.0775787     -7.5684642      1.4891318      50218.233      36.893836      36.893836      36.893836    
    750000   0.34030616    -8.0771033     -7.5666513      1.5002901      50218.233      36.893836      36.893836      36.893836    
    751000   0.34110486    -8.0777271     -7.566077       1.4901601      50218.233      36.893836      36.893836      36.893836    
    752000   0.34031242    -8.0810591     -7.5705977      1.4550123      50218.233      36.893836      36.893836      36.893836    
    753000   0.34128082    -8.0793802     -7.5674663      1.4681227      50218.233      36.893836      36.893836      36.893836    
    754000   0.33855077    -8.0806383     -7.5728193      1.4610572      50218.233      36.893836      36.893836      36.893836    
    755000   0.34064844    -8.0785501     -7.5675847      1.4903522      50218.233      36.893836      36.893836      36.893836    
    756000   0.34090557    -8.0784932     -7.5671421      1.4822078      50218.233      36.893836      36.893836      36.893836    
    757000   0.33934511    -8.0805695     -7.5715591      1.4634891      50218.233      36.893836      36.893836      36.893836    
    758000   0.34026407    -8.0811876     -7.5707987      1.4627568      50218.233      36.893836      36.893836      36.893836    
    759000   0.33922152    -8.0763574     -7.5675324      1.5010745      50218.233      36.893836      36.893836      36.893836    
    760000   0.33979997    -8.0796272     -7.5699345      1.4722535      50218.233      36.893836      36.893836      36.893836    
    761000   0.33843581    -8.0781773     -7.5705308      1.4810016      50218.233      36.893836      36.893836      36.893836    
    762000   0.3420283     -8.0749918     -7.5619567      1.5099932      50218.233      36.893836      36.893836      36.893836    
    763000   0.34132155    -8.0786933     -7.5667182      1.4769874      50218.233      36.893836      36.893836      36.893836    
    764000   0.33923953    -8.0794617     -7.5706097      1.4745473      50218.233      36.893836      36.893836      36.893836    
    765000   0.34156399    -8.0763032     -7.5639645      1.4990244      50218.233      36.893836      36.893836      36.893836    
    766000   0.33787727    -8.0773681     -7.5705594      1.488036       50218.233      36.893836      36.893836      36.893836    
    767000   0.34015453    -8.0782861     -7.5680615      1.4833609      50218.233      36.893836      36.893836      36.893836    
    768000   0.34025923    -8.0781723     -7.5677907      1.4945355      50218.233      36.893836      36.893836      36.893836    
    769000   0.33958252    -8.0784416     -7.5690751      1.4807468      50218.233      36.893836      36.893836      36.893836    
    770000   0.34022655    -8.0740718     -7.5637393      1.5204993      50218.233      36.893836      36.893836      36.893836    
    771000   0.34039448    -8.0761096     -7.5655252      1.4981671      50218.233      36.893836      36.893836      36.893836    
    772000   0.33784591    -8.0735386     -7.566777       1.5108981      50218.233      36.893836      36.893836      36.893836    
    773000   0.34140631    -8.0817437     -7.5696415      1.4600961      50218.233      36.893836      36.893836      36.893836    
    774000   0.34051479    -8.0789804     -7.5682155      1.4756217      50218.233      36.893836      36.893836      36.893836    
    775000   0.34326642    -8.0751394     -7.5602471      1.5190068      50218.233      36.893836      36.893836      36.893836    
    776000   0.34082349    -8.0754796     -7.5642517      1.5070655      50218.233      36.893836      36.893836      36.893836    
    777000   0.33903553    -8.0774495     -7.5689034      1.4930941      50218.233      36.893836      36.893836      36.893836    
    778000   0.34047145    -8.0751379     -7.564438       1.5110901      50218.233      36.893836      36.893836      36.893836    
    779000   0.34159519    -8.0787572     -7.5663717      1.4898639      50218.233      36.893836      36.893836      36.893836    
    780000   0.33934507    -8.0782323     -7.569222       1.4793583      50218.233      36.893836      36.893836      36.893836    
    781000   0.34058047    -8.0750191     -7.5641557      1.5073703      50218.233      36.893836      36.893836      36.893836    
    782000   0.33843124    -8.0760626     -7.568423       1.4952731      50218.233      36.893836      36.893836      36.893836    
    783000   0.34222594    -8.0773698     -7.5640382      1.4898396      50218.233      36.893836      36.893836      36.893836    
    784000   0.34034078    -8.0787383     -7.5682344      1.4808501      50218.233      36.893836      36.893836      36.893836    
    785000   0.34052914    -8.0766265     -7.5658401      1.4942886      50218.233      36.893836      36.893836      36.893836    
    786000   0.33921996    -8.0797576     -7.5709349      1.4653812      50218.233      36.893836      36.893836      36.893836    
    787000   0.34092164    -8.0748473     -7.5634721      1.5089547      50218.233      36.893836      36.893836      36.893836    
    788000   0.33795324    -8.0788132     -7.5718906      1.4792861      50218.233      36.893836      36.893836      36.893836    
    789000   0.33954296    -8.0785233     -7.5692161      1.4898726      50218.233      36.893836      36.893836      36.893836    
    790000   0.33811336    -8.0761561     -7.5689932      1.4948049      50218.233      36.893836      36.893836      36.893836    
    791000   0.33857902    -8.0805828     -7.5727215      1.4630779      50218.233      36.893836      36.893836      36.893836    
    792000   0.34068962    -8.0800389     -7.5690118      1.477839       50218.233      36.893836      36.893836      36.893836    
    793000   0.34033356    -8.0795815     -7.5690884      1.4717181      50218.233      36.893836      36.893836      36.893836    
    794000   0.34187695    -8.0778565     -7.5650483      1.4843248      50218.233      36.893836      36.893836      36.893836    
    795000   0.34116983    -8.0813161     -7.5695687      1.4653611      50218.233      36.893836      36.893836      36.893836    
    796000   0.34055507    -8.0797613     -7.568936       1.4736161      50218.233      36.893836      36.893836      36.893836    
    797000   0.3403501     -8.0803267     -7.5698088      1.4719326      50218.233      36.893836      36.893836      36.893836    
    798000   0.3411789     -8.0761125     -7.5643514      1.506059       50218.233      36.893836      36.893836      36.893836    
    799000   0.34051069    -8.0764479     -7.5656891      1.4990897      50218.233      36.893836      36.893836      36.893836    
    800000   0.33849771    -8.0775387     -7.5697994      1.4873583      50218.233      36.893836      36.893836      36.893836    
    801000   0.33911277    -8.0774077     -7.5687458      1.4968181      50218.233      36.893836      36.893836      36.893836    
    802000   0.3396865     -8.0789377     -7.5694152      1.4736649      50218.233      36.893836      36.893836      36.893836    
    803000   0.34028798    -8.0758959     -7.5654712      1.5075074      50218.233      36.893836      36.893836      36.893836    
    804000   0.33933875    -8.0796415     -7.5706406      1.4715287      50218.233      36.893836      36.893836      36.893836    
    805000   0.33927961    -8.0785467     -7.5696345      1.4841744      50218.233      36.893836      36.893836      36.893836    
    806000   0.33892495    -8.0755501     -7.5671699      1.5122777      50218.233      36.893836      36.893836      36.893836    
    807000   0.33839168    -8.0786014     -7.5710211      1.4811651      50218.233      36.893836      36.893836      36.893836    
    808000   0.33995453    -8.0789047     -7.5689802      1.4777715      50218.233      36.893836      36.893836      36.893836    
    809000   0.33944793    -8.0771501     -7.5679855      1.4988352      50218.233      36.893836      36.893836      36.893836    
    810000   0.3404122     -8.0792322     -7.5686211      1.4816429      50218.233      36.893836      36.893836      36.893836    
    811000   0.34062584    -8.0771878     -7.5662563      1.4937902      50218.233      36.893836      36.893836      36.893836    
    812000   0.34113268    -8.0787746     -7.5670828      1.4830886      50218.233      36.893836      36.893836      36.893836    
    813000   0.33916079    -8.0765311     -7.5677971      1.4965642      50218.233      36.893836      36.893836      36.893836    
    814000   0.3401068     -8.0780769     -7.5679239      1.4897637      50218.233      36.893836      36.893836      36.893836    
    815000   0.34236809    -8.0755908     -7.562046       1.5076605      50218.233      36.893836      36.893836      36.893836    
    816000   0.34081102    -8.0782318     -7.5670226      1.4905982      50218.233      36.893836      36.893836      36.893836    
    817000   0.33870217    -8.076951      -7.568905       1.502351       50218.233      36.893836      36.893836      36.893836    
    818000   0.34157246    -8.07518       -7.5628286      1.5179838      50218.233      36.893836      36.893836      36.893836    
    819000   0.341982      -8.078942      -7.5659763      1.4870958      50218.233      36.893836      36.893836      36.893836    
    820000   0.34003238    -8.0777643     -7.567723       1.4895182      50218.233      36.893836      36.893836      36.893836    
    821000   0.34037239    -8.0776804     -7.5671291      1.4846767      50218.233      36.893836      36.893836      36.893836    
    822000   0.34096374    -8.0772586     -7.5658203      1.4885032      50218.233      36.893836      36.893836      36.893836    
    823000   0.34171886    -8.0755995     -7.5630285      1.5086416      50218.233      36.893836      36.893836      36.893836    
    824000   0.34015009    -8.076289      -7.5660711      1.4974137      50218.233      36.893836      36.893836      36.893836    
    825000   0.34119482    -8.0772977     -7.5655128      1.4939294      50218.233      36.893836      36.893836      36.893836    
    826000   0.34014845    -8.0812115     -7.5709961      1.4680392      50218.233      36.893836      36.893836      36.893836    
    827000   0.34192384    -8.0775444     -7.5646659      1.4946775      50218.233      36.893836      36.893836      36.893836    
    828000   0.34178485    -8.0755732     -7.5629032      1.5103708      50218.233      36.893836      36.893836      36.893836    
    829000   0.34056292    -8.0769913     -7.5661542      1.4920581      50218.233      36.893836      36.893836      36.893836    
    830000   0.34001028    -8.0790166     -7.5690084      1.477947       50218.233      36.893836      36.893836      36.893836    
    831000   0.34103079    -8.0749038     -7.5633649      1.5207852      50218.233      36.893836      36.893836      36.893836    
    832000   0.3408407     -8.0778582     -7.5666044      1.494152       50218.233      36.893836      36.893836      36.893836    
    833000   0.34092279    -8.0767787     -7.5654018      1.4925884      50218.233      36.893836      36.893836      36.893836    
    834000   0.34159232    -8.07985       -7.5674688      1.4786844      50218.233      36.893836      36.893836      36.893836    
    835000   0.3399567     -8.076149      -7.5662212      1.5047059      50218.233      36.893836      36.893836      36.893836    
    836000   0.34019617    -8.0773571     -7.5670701      1.4941946      50218.233      36.893836      36.893836      36.893836    
    837000   0.33985156    -8.0764203     -7.5666502      1.501739       50218.233      36.893836      36.893836      36.893836    
    838000   0.34204683    -8.0792628     -7.5661999      1.4821354      50218.233      36.893836      36.893836      36.893836    
    839000   0.34010579    -8.0795796     -7.5694282      1.4777334      50218.233      36.893836      36.893836      36.893836    
    840000   0.33989573    -8.0751208     -7.5652844      1.5091263      50218.233      36.893836      36.893836      36.893836    
    841000   0.33943545    -8.0821183     -7.5729724      1.4595633      50218.233      36.893836      36.893836      36.893836    
    842000   0.3395222     -8.0764152     -7.5671391      1.4932143      50218.233      36.893836      36.893836      36.893836    
    843000   0.34070223    -8.0771982     -7.5661521      1.4873788      50218.233      36.893836      36.893836      36.893836    
    844000   0.3400386     -8.0781772     -7.5681265      1.4884128      50218.233      36.893836      36.893836      36.893836    
    845000   0.33822516    -8.0808322     -7.5735017      1.466248       50218.233      36.893836      36.893836      36.893836    
    846000   0.33879914    -8.0774276     -7.5692361      1.4899355      50218.233      36.893836      36.893836      36.893836    
    847000   0.34101275    -8.0789317     -7.5674198      1.4813632      50218.233      36.893836      36.893836      36.893836    
    848000   0.3414833     -8.0763235     -7.5641059      1.4977524      50218.233      36.893836      36.893836      36.893836    
    849000   0.34048526    -8.0778139     -7.5670932      1.4958396      50218.233      36.893836      36.893836      36.893836    
    850000   0.34018396    -8.0774496     -7.5671809      1.4934702      50218.233      36.893836      36.893836      36.893836    
    851000   0.34156116    -8.0783846     -7.5660501      1.4850273      50218.233      36.893836      36.893836      36.893836    
    852000   0.34076743    -8.0766228     -7.5654789      1.4929134      50218.233      36.893836      36.893836      36.893836    
    853000   0.33956698    -8.0788534     -7.5695102      1.4770016      50218.233      36.893836      36.893836      36.893836    
    854000   0.34104441    -8.0782284     -7.566669       1.4905599      50218.233      36.893836      36.893836      36.893836    
    855000   0.34219344    -8.0784563     -7.5651734      1.4955481      50218.233      36.893836      36.893836      36.893836    
    856000   0.33971138    -8.0767114     -7.5671516      1.5010597      50218.233      36.893836      36.893836      36.893836    
    857000   0.33947619    -8.0798139     -7.5706069      1.47871        50218.233      36.893836      36.893836      36.893836    
    858000   0.3398491     -8.0799795     -7.5702131      1.4735841      50218.233      36.893836      36.893836      36.893836    
    859000   0.33811298    -8.0781485     -7.5709862      1.4835953      50218.233      36.893836      36.893836      36.893836    
    860000   0.34211502    -8.0772812     -7.564116       1.4960421      50218.233      36.893836      36.893836      36.893836    
    861000   0.33966463    -8.0810902     -7.5716005      1.4571612      50218.233      36.893836      36.893836      36.893836    
    862000   0.34020481    -8.0777138     -7.5674138      1.4965133      50218.233      36.893836      36.893836      36.893836    
    863000   0.33938501    -8.0759344     -7.5668641      1.5001357      50218.233      36.893836      36.893836      36.893836    
    864000   0.3394098     -8.0763782     -7.5672707      1.4939506      50218.233      36.893836      36.893836      36.893836    
    865000   0.33928764    -8.078946      -7.5700218      1.4833221      50218.233      36.893836      36.893836      36.893836    
    866000   0.33967827    -8.0765935     -7.5670833      1.4956323      50218.233      36.893836      36.893836      36.893836    
    867000   0.34084474    -8.0768427     -7.5655829      1.4896943      50218.233      36.893836      36.893836      36.893836    
    868000   0.33985752    -8.0763511     -7.5665721      1.5023706      50218.233      36.893836      36.893836      36.893836    
    869000   0.3395742     -8.0760342     -7.5666801      1.4976373      50218.233      36.893836      36.893836      36.893836    
    870000   0.34031611    -8.0771821     -7.5667152      1.4967747      50218.233      36.893836      36.893836      36.893836    
    871000   0.33850182    -8.0749017     -7.5671562      1.5092007      50218.233      36.893836      36.893836      36.893836    
    872000   0.34046242    -8.0783116     -7.5676253      1.4770744      50218.233      36.893836      36.893836      36.893836    
    873000   0.34112989    -8.0745858     -7.5628982      1.5185903      50218.233      36.893836      36.893836      36.893836    
    874000   0.34079189    -8.0771861     -7.5660055      1.5025207      50218.233      36.893836      36.893836      36.893836    
    875000   0.34007624    -8.0766963     -7.5665892      1.4971068      50218.233      36.893836      36.893836      36.893836    
    876000   0.3378438     -8.0765865     -7.569828       1.4955446      50218.233      36.893836      36.893836      36.893836    
    877000   0.3392872     -8.0774075     -7.5684839      1.4936986      50218.233      36.893836      36.893836      36.893836    
    878000   0.33872033    -8.0768821     -7.5688089      1.4930476      50218.233      36.893836      36.893836      36.893836    
    879000   0.33917457    -8.0777161     -7.5689615      1.4852604      50218.233      36.893836      36.893836      36.893836    
    880000   0.34075352    -8.0796286     -7.5685056      1.4746626      50218.233      36.893836      36.893836      36.893836    
    881000   0.33884412    -8.0757263     -7.5674673      1.5173746      50218.233      36.893836      36.893836      36.893836    
    882000   0.3399175     -8.079139      -7.56927        1.4811967      50218.233      36.893836      36.893836      36.893836    
    883000   0.33961598    -8.077616      -7.5681993      1.4927652      50218.233      36.893836      36.893836      36.893836    
    884000   0.34058362    -8.075106      -7.5642378      1.5066964      50218.233      36.893836      36.893836      36.893836    
    885000   0.34121554    -8.0775203     -7.5657042      1.5008858      50218.233      36.893836      36.893836      36.893836    
    886000   0.34207592    -8.0757832     -7.5626766      1.5055765      50218.233      36.893836      36.893836      36.893836    
    887000   0.33992369    -8.0787656     -7.5688873      1.4792173      50218.233      36.893836      36.893836      36.893836    
    888000   0.34058901    -8.0757364     -7.5648602      1.5018754      50218.233      36.893836      36.893836      36.893836    
    889000   0.34036676    -8.0778225     -7.5672797      1.4889379      50218.233      36.893836      36.893836      36.893836    
    890000   0.33969073    -8.077916      -7.5683872      1.480616       50218.233      36.893836      36.893836      36.893836    
    891000   0.34045814    -8.0784949     -7.567815       1.4913927      50218.233      36.893836      36.893836      36.893836    
    892000   0.34058158    -8.0801436     -7.5692785      1.4706393      50218.233      36.893836      36.893836      36.893836    
    893000   0.34003577    -8.0783492     -7.5683028      1.4817029      50218.233      36.893836      36.893836      36.893836    
    894000   0.33825161    -8.0789466     -7.5715764      1.4776992      50218.233      36.893836      36.893836      36.893836    
    895000   0.33800125    -8.0784818     -7.5714871      1.4764255      50218.233      36.893836      36.893836      36.893836    
    896000   0.33900476    -8.0782262     -7.5697262      1.4783855      50218.233      36.893836      36.893836      36.893836    
    897000   0.34079884    -8.0785904     -7.5673994      1.4814371      50218.233      36.893836      36.893836      36.893836    
    898000   0.33964041    -8.0797933     -7.5703399      1.4741206      50218.233      36.893836      36.893836      36.893836    
    899000   0.34029471    -8.0783136     -7.5678788      1.4940546      50218.233      36.893836      36.893836      36.893836    
    900000   0.34043508    -8.0782168     -7.5675714      1.4898432      50218.233      36.893836      36.893836      36.893836    
    901000   0.34047266    -8.0790827     -7.568381       1.4900799      50218.233      36.893836      36.893836      36.893836    
    902000   0.339672      -8.0769683     -7.5674676      1.4995872      50218.233      36.893836      36.893836      36.893836    
    903000   0.33970209    -8.0771788     -7.5676329      1.4949487      50218.233      36.893836      36.893836      36.893836    
    904000   0.33977519    -8.0789177     -7.5692622      1.4830361      50218.233      36.893836      36.893836      36.893836    
    905000   0.33883257    -8.0754563     -7.5672146      1.4992784      50218.233      36.893836      36.893836      36.893836    
    906000   0.33945542    -8.0787211     -7.5695452      1.4767358      50218.233      36.893836      36.893836      36.893836    
    907000   0.34046208    -8.0760388     -7.5653529      1.5059143      50218.233      36.893836      36.893836      36.893836    
    908000   0.33777945    -8.0788268     -7.5721649      1.4701661      50218.233      36.893836      36.893836      36.893836    
    909000   0.33996178    -8.077311      -7.5673756      1.4886051      50218.233      36.893836      36.893836      36.893836    
    910000   0.33933493    -8.0784965     -7.5695014      1.4740835      50218.233      36.893836      36.893836      36.893836    
    911000   0.34166038    -8.0763378     -7.5638545      1.4956454      50218.233      36.893836      36.893836      36.893836    
    912000   0.34041148    -8.0750969     -7.5644869      1.5121448      50218.233      36.893836      36.893836      36.893836    
    913000   0.3395775     -8.0756084     -7.5662494      1.4984697      50218.233      36.893836      36.893836      36.893836    
    914000   0.34038622    -8.0781096     -7.5675376      1.4961264      50218.233      36.893836      36.893836      36.893836    
    915000   0.33910877    -8.0779633     -7.5693073      1.4989735      50218.233      36.893836      36.893836      36.893836    
    916000   0.339498      -8.0792785     -7.5700387      1.48177        50218.233      36.893836      36.893836      36.893836    
    917000   0.3401351     -8.0764344     -7.566239       1.5068882      50218.233      36.893836      36.893836      36.893836    
    918000   0.33843427    -8.0762566     -7.5686124      1.5010798      50218.233      36.893836      36.893836      36.893836    
    919000   0.34141441    -8.0766689     -7.5645545      1.5078165      50218.233      36.893836      36.893836      36.893836    
    920000   0.33960626    -8.0779547     -7.5685526      1.4822373      50218.233      36.893836      36.893836      36.893836    
    921000   0.34018845    -8.0763825     -7.5661071      1.5006704      50218.233      36.893836      36.893836      36.893836    
    922000   0.34120798    -8.0773297     -7.565525       1.4946421      50218.233      36.893836      36.893836      36.893836    
    923000   0.33909856    -8.080255      -7.5716144      1.4707447      50218.233      36.893836      36.893836      36.893836    
    924000   0.34143354    -8.0740871     -7.5619441      1.516659       50218.233      36.893836      36.893836      36.893836    
    925000   0.34011262    -8.0771135     -7.5669518      1.4961487      50218.233      36.893836      36.893836      36.893836    
    926000   0.34114786    -8.0780155     -7.566301       1.4837133      50218.233      36.893836      36.893836      36.893836    
    927000   0.34024478    -8.0742546     -7.5638947      1.5083226      50218.233      36.893836      36.893836      36.893836    
    928000   0.34019274    -8.0767248     -7.5664429      1.5011477      50218.233      36.893836      36.893836      36.893836    
    929000   0.33739335    -8.0764867     -7.5704039      1.4950405      50218.233      36.893836      36.893836      36.893836    
    930000   0.3411604     -8.0770019     -7.5652686      1.5021771      50218.233      36.893836      36.893836      36.893836    
    931000   0.33964778    -8.0770014     -7.567537       1.4994592      50218.233      36.893836      36.893836      36.893836    
    932000   0.33966522    -8.0786061     -7.5691155      1.4862885      50218.233      36.893836      36.893836      36.893836    
    933000   0.34113022    -8.0791425     -7.5674544      1.4783095      50218.233      36.893836      36.893836      36.893836    
    934000   0.33965659    -8.0763596     -7.566882       1.5005429      50218.233      36.893836      36.893836      36.893836    
    935000   0.34134904    -8.0770454     -7.5650292      1.507724       50218.233      36.893836      36.893836      36.893836    
    936000   0.34178734    -8.0785136     -7.5658399      1.4877169      50218.233      36.893836      36.893836      36.893836    
    937000   0.34110826    -8.0752059     -7.5635508      1.5045508      50218.233      36.893836      36.893836      36.893836    
    938000   0.33860282    -8.0768016     -7.5689046      1.4974339      50218.233      36.893836      36.893836      36.893836    
    939000   0.34046787    -8.0796711     -7.5689765      1.4723089      50218.233      36.893836      36.893836      36.893836    
    940000   0.34025664    -8.0784532     -7.5680755      1.4825041      50218.233      36.893836      36.893836      36.893836    
    941000   0.34055206    -8.0780404     -7.5672196      1.4877729      50218.233      36.893836      36.893836      36.893836    
    942000   0.34011324    -8.0764151     -7.5662525      1.4972386      50218.233      36.893836      36.893836      36.893836    
    943000   0.34083757    -8.0801848     -7.5689357      1.4726533      50218.233      36.893836      36.893836      36.893836    
    944000   0.34013346    -8.0773504     -7.5671575      1.4867165      50218.233      36.893836      36.893836      36.893836    
    945000   0.34114575    -8.0773392     -7.5656278      1.4925271      50218.233      36.893836      36.893836      36.893836    
    946000   0.34044664    -8.0783867     -7.567724       1.4872413      50218.233      36.893836      36.893836      36.893836    
    947000   0.34064885    -8.0773835     -7.5664175      1.4909496      50218.233      36.893836      36.893836      36.893836    
    948000   0.3394002     -8.0794322     -7.5703391      1.4758724      50218.233      36.893836      36.893836      36.893836    
    949000   0.34039458    -8.0787334     -7.5681488      1.4882978      50218.233      36.893836      36.893836      36.893836    
    950000   0.33920488    -8.0767573     -7.5679572      1.5043039      50218.233      36.893836      36.893836      36.893836    
    951000   0.34014421    -8.0776216     -7.5674125      1.4844225      50218.233      36.893836      36.893836      36.893836    
    952000   0.34007053    -8.0777401     -7.5676416      1.4852329      50218.233      36.893836      36.893836      36.893836    
    953000   0.33917799    -8.0736528     -7.564893       1.5101759      50218.233      36.893836      36.893836      36.893836    
    954000   0.34060371    -8.0758785     -7.5649802      1.5020931      50218.233      36.893836      36.893836      36.893836    
    955000   0.34034017    -8.0775787     -7.5670757      1.4875406      50218.233      36.893836      36.893836      36.893836    
    956000   0.33854048    -8.0775643     -7.5697608      1.486671       50218.233      36.893836      36.893836      36.893836    
    957000   0.34191824    -8.0779116     -7.5650415      1.4884192      50218.233      36.893836      36.893836      36.893836    
    958000   0.34115307    -8.0783153     -7.5665929      1.4876893      50218.233      36.893836      36.893836      36.893836    
    959000   0.33843979    -8.0804268     -7.5727743      1.4633951      50218.233      36.893836      36.893836      36.893836    
    960000   0.33871517    -8.077877      -7.5698114      1.4864138      50218.233      36.893836      36.893836      36.893836    
    961000   0.33909211    -8.0790095     -7.5703786      1.4751316      50218.233      36.893836      36.893836      36.893836    
    962000   0.34059876    -8.0798134     -7.5689225      1.4688276      50218.233      36.893836      36.893836      36.893836    
    963000   0.33866461    -8.0792324     -7.5712427      1.4823715      50218.233      36.893836      36.893836      36.893836    
    964000   0.33868068    -8.0763285     -7.5683147      1.5073464      50218.233      36.893836      36.893836      36.893836    
    965000   0.33868625    -8.0772691     -7.5692469      1.4888561      50218.233      36.893836      36.893836      36.893836    
    966000   0.33970836    -8.0787103     -7.569155       1.4830643      50218.233      36.893836      36.893836      36.893836    
    967000   0.3395506     -8.0773941     -7.5680754      1.4871952      50218.233      36.893836      36.893836      36.893836    
    968000   0.34162691    -8.079336      -7.566903       1.4716152      50218.233      36.893836      36.893836      36.893836    
    969000   0.34036345    -8.0766445     -7.5661066      1.5022733      50218.233      36.893836      36.893836      36.893836    
    970000   0.33964541    -8.0782919     -7.568831       1.488124       50218.233      36.893836      36.893836      36.893836    
    971000   0.33977505    -8.0769518     -7.5672965      1.4998         50218.233      36.893836      36.893836      36.893836    
    972000   0.34164339    -8.0769428     -7.564485       1.5004623      50218.233      36.893836      36.893836      36.893836    
    973000   0.34063606    -8.0790167     -7.5680699      1.4775789      50218.233      36.893836      36.893836      36.893836    
    974000   0.33915808    -8.0783931     -7.5696632      1.486846       50218.233      36.893836      36.893836      36.893836    
    975000   0.33973882    -8.0757971     -7.5661961      1.5042549      50218.233      36.893836      36.893836      36.893836    
    976000   0.33972867    -8.0771156     -7.5675298      1.4860299      50218.233      36.893836      36.893836      36.893836    
    977000   0.34052108    -8.0758242     -7.5650498      1.5110233      50218.233      36.893836      36.893836      36.893836    
    978000   0.33925345    -8.0741111     -7.5652382      1.5245432      50218.233      36.893836      36.893836      36.893836    
    979000   0.34057195    -8.0756021     -7.5647515      1.5085455      50218.233      36.893836      36.893836      36.893836    
    980000   0.34156928    -8.0766157     -7.564269       1.49716        50218.233      36.893836      36.893836      36.893836    
    981000   0.33971509    -8.0765934     -7.567028       1.4924792      50218.233      36.893836      36.893836      36.893836    
    982000   0.33996186    -8.0766152     -7.5666796      1.4874836      50218.233      36.893836      36.893836      36.893836    
    983000   0.33890601    -8.0739211     -7.5655694      1.5139199      50218.233      36.893836      36.893836      36.893836    
    984000   0.33865445    -8.0764969     -7.5685224      1.4923889      50218.233      36.893836      36.893836      36.893836    
    985000   0.33938766    -8.0767234     -7.5676492      1.4883258      50218.233      36.893836      36.893836      36.893836    
    986000   0.33927035    -8.0795391     -7.5706408      1.4735271      50218.233      36.893836      36.893836      36.893836    
    987000   0.33997659    -8.0761728     -7.5662152      1.4980652      50218.233      36.893836      36.893836      36.893836    
    988000   0.33943834    -8.0759504     -7.5668001      1.5044998      50218.233      36.893836      36.893836      36.893836    
    989000   0.33793727    -8.0775626     -7.5706639      1.4989472      50218.233      36.893836      36.893836      36.893836    
    990000   0.34063105    -8.0811683     -7.5702289      1.4767348      50218.233      36.893836      36.893836      36.893836    
    991000   0.34284912    -8.0769473     -7.5626809      1.5057587      50218.233      36.893836      36.893836      36.893836    
    992000   0.33944335    -8.0798953     -7.5707375      1.4683102      50218.233      36.893836      36.893836      36.893836    
    993000   0.34006128    -8.0785545     -7.5684699      1.4803519      50218.233      36.893836      36.893836      36.893836    
    994000   0.33841418    -8.0794453     -7.5718313      1.4698745      50218.233      36.893836      36.893836      36.893836    
    995000   0.33981822    -8.0806425     -7.5709224      1.4638348      50218.233      36.893836      36.893836      36.893836    
    996000   0.34032023    -8.0764471     -7.5659741      1.492804       50218.233      36.893836      36.893836      36.893836    
    997000   0.34125827    -8.0778634     -7.5659833      1.4872179      50218.233      36.893836      36.893836      36.893836    
    998000   0.33961248    -8.0792979     -7.5698864      1.4772941      50218.233      36.893836      36.893836      36.893836    
    999000   0.34006919    -8.0765793     -7.5664828      1.4976266      50218.233      36.893836      36.893836      36.893836    
   1000000   0.33840677    -8.0798092     -7.5722062      1.4755674      50218.233      36.893836      36.893836      36.893836    
Loop time of 1568.32 on 4 procs for 1000000 steps with 70304 atoms

Performance: 550909.202 tau/day, 637.626 timesteps/s, 44.828 Matom-step/s
95.0% CPU use with 4 MPI tasks x 1 OpenMP threads

MPI task timing breakdown:
Section |  min time  |  avg time  |  max time  |%varavg| %total
---------------------------------------------------------------
Pair    | 447.89     | 540.44     | 633.49     | 305.1 | 34.46
Neigh   | 5.6332     | 5.7268     | 5.8407     |   3.7 |  0.37
Comm    | 222.58     | 224.22     | 225.49     |   7.9 | 14.30
Output  | 0.19899    | 0.20524    | 0.21557    |   1.4 |  0.01
Modify  | 620.2      | 713.45     | 804.97     | 264.7 | 45.49
Other   |            | 84.27      |            |       |  5.37

Nlocal:          17576 ave       17615 max       17548 min
Histogram: 2 0 0 0 0 0 1 0 0 1
Nghost:          16824 ave       16841 max       16808 min
Histogram: 1 0 0 1 0 0 1 0 0 1
Neighs:              0 ave           0 max           0 min
Histogram: 4 0 0 0 0 0 0 0 0 0

Total # of neighbors = 0
Ave neighs/atom = 0
Neighbor list builds = 171572
Dangerous builds = 0
clear
OMP_NUM_THREADS environment is not set. Defaulting to 1 thread. (src/comm.cpp:98)
  using 1 OpenMP thread(s) per MPI task
package gpu 0
jump dms320.lmp

variable T equal 320
# T = 1000* (temp in LJ unit)
variable f equal 1000
log log.${T}
log log.320
