variable TLJ equal (${T}/1000)
variable TLJ equal (520/1000)
variable NCyle equal 10
variable iStep equal (${f})
variable iStep equal (1000)
variable dumpStep equal (${f}*100)
variable dumpStep equal (1000*100)
variable runStep equal (${f}*100*${NCyle})
variable runStep equal (1000*100*${NCyle})
variable runStep equal (1000*100*10)

units       lj
atom_style  atomic
dimension 3
boundary     p p p
pair_style  lj/cut 2.5
read_data  ../data/T${T}.dat
read_data  ../data/T520.dat
Reading data file ...
  orthogonal box = (0.97250269 0.97250269 0.97250269) to (37.866338 37.866338 37.866338)
  1 by 2 by 2 MPI processor grid
  reading atoms ...
  70304 atoms
  reading velocities ...
  70304 velocities
  read_data CPU = 0.189 seconds
change_box all triclinic
Changing box ...
  triclinic box = (0.97250269 0.97250269 0.97250269) to (37.866338 37.866338 37.866338) with tilt (0 0 0)
mass 1 1
mass 2 1
pair_modify shift yes
pair_coeff  1 1 1 1
pair_coeff  1 2 1.5 0.8
pair_coeff  2 2 0.5 0.88


timestep 0.01
thermo ${iStep}
thermo 1000
reset_timestep 0
thermo_style custom step temp pe etotal press vol lx ly lz
fix             1 all nvt temp ${TLJ}  ${TLJ}  0.1
fix             1 all nvt temp 0.52  ${TLJ}  0.1
fix             1 all nvt temp 0.52  0.52  0.1
thermo_modify flush yes

fix dsf all deform 1 xy  wiggle 0.5  ${f}   units box
fix dsf all deform 1 xy  wiggle 0.5  1000   units box
fix ps1 all ave/time 1 1 ${iStep} c_thermo_press[1] c_thermo_press[2]  c_thermo_press[3] c_thermo_press[4]  c_thermo_press[5] c_thermo_press[6]  file  stress.${T}
fix ps1 all ave/time 1 1 1000 c_thermo_press[1] c_thermo_press[2]  c_thermo_press[3] c_thermo_press[4]  c_thermo_press[5] c_thermo_press[6]  file  stress.${T}
fix ps1 all ave/time 1 1 1000 c_thermo_press[1] c_thermo_press[2]  c_thermo_press[3] c_thermo_press[4]  c_thermo_press[5] c_thermo_press[6]  file  stress.520
dump            1 all custom ${dumpStep} dump.${T} id type x y z
dump            1 all custom 100000 dump.${T} id type x y z
dump            1 all custom 100000 dump.520 id type x y z
dump_modify 1 sort id
fix nodrift all momentum 1  linear 1 1 1
fix com_seed all recenter INIT INIT INIT shift all
run ${runStep}
run 1000000
Generated 0 of 1 mixed pair_coeff terms from geometric mixing rule
Per MPI rank memory allocation (min/avg/max) = 8.613 | 8.616 | 8.618 Mbytes
   Step          Temp          PotEng         TotEng         Press          Volume           Lx             Ly             Lz      
         0   0.52196693    -7.7815442     -6.998605       3.944713       50218.233      36.893836      36.893836      36.893836    
      1000   0.52044654    -7.7771444     -6.9964857      3.9587868      50218.233      36.893836      36.893836      36.893836    
      2000   0.5203853     -7.7717679     -6.9912011      4.0054098      50218.233      36.893836      36.893836      36.893836    
      3000   0.5207277     -7.7705312     -6.9894508      4.011962       50218.233      36.893836      36.893836      36.893836    
      4000   0.51844227    -7.7727274     -6.995075       3.9945781      50218.233      36.893836      36.893836      36.893836    
      5000   0.51930006    -7.7764707     -6.9975317      3.9590118      50218.233      36.893836      36.893836      36.893836    
      6000   0.52065783    -7.7722362     -6.9912605      4.0013689      50218.233      36.893836      36.893836      36.893836    
      7000   0.52020398    -7.7716756     -6.9913807      4.0008131      50218.233      36.893836      36.893836      36.893836    
      8000   0.51906787    -7.7738215     -6.9952308      3.9751066      50218.233      36.893836      36.893836      36.893836    
      9000   0.52249628    -7.7708108     -6.9870776      4.0153358      50218.233      36.893836      36.893836      36.893836    
     10000   0.51970034    -7.7720769     -6.9925375      3.991887       50218.233      36.893836      36.893836      36.893836    
     11000   0.51929115    -7.7718982     -6.9929725      3.9911628      50218.233      36.893836      36.893836      36.893836    
     12000   0.51843294    -7.7704955     -6.9928572      4.0133665      50218.233      36.893836      36.893836      36.893836    
     13000   0.51770974    -7.7697896     -6.993236       4.0204351      50218.233      36.893836      36.893836      36.893836    
     14000   0.51927376    -7.771099      -6.9921994      4.0120384      50218.233      36.893836      36.893836      36.893836    
     15000   0.52152216    -7.773106      -6.9908339      4.0029771      50218.233      36.893836      36.893836      36.893836    
     16000   0.51869361    -7.7702682     -6.9922389      4.0147533      50218.233      36.893836      36.893836      36.893836    
     17000   0.5189059     -7.7716971     -6.9933494      4.0157048      50218.233      36.893836      36.893836      36.893836    
     18000   0.52043272    -7.7740955     -6.9934575      3.9795664      50218.233      36.893836      36.893836      36.893836    
     19000   0.51865263    -7.770014      -6.9920461      4.0296474      50218.233      36.893836      36.893836      36.893836    
     20000   0.51968512    -7.7703843     -6.9908677      4.0172281      50218.233      36.893836      36.893836      36.893836    
     21000   0.51606844    -7.7744701     -7.0003784      3.9805549      50218.233      36.893836      36.893836      36.893836    
     22000   0.51867049    -7.7673345     -6.9893398      4.0315734      50218.233      36.893836      36.893836      36.893836    
     23000   0.52405715    -7.7726725     -6.986598       4.0062965      50218.233      36.893836      36.893836      36.893836    
     24000   0.52077113    -7.7753417     -6.9941961      3.9771647      50218.233      36.893836      36.893836      36.893836    
     25000   0.5183059     -7.7718563     -6.9944085      4.0021574      50218.233      36.893836      36.893836      36.893836    
     26000   0.52048013    -7.7716724     -6.9909633      3.9999821      50218.233      36.893836      36.893836      36.893836    
     27000   0.52015807    -7.7715154     -6.9912894      3.9975683      50218.233      36.893836      36.893836      36.893836    
     28000   0.51880986    -7.7738083     -6.9956045      3.9925175      50218.233      36.893836      36.893836      36.893836    
     29000   0.52309422    -7.7667966     -6.9821665      4.0465737      50218.233      36.893836      36.893836      36.893836    
     30000   0.51985372    -7.7720102     -6.9922407      4.0108743      50218.233      36.893836      36.893836      36.893836    
     31000   0.51714082    -7.7689906     -6.9932904      4.0142093      50218.233      36.893836      36.893836      36.893836    
     32000   0.51784861    -7.7715924     -6.9948305      3.9984549      50218.233      36.893836      36.893836      36.893836    
     33000   0.52188518    -7.7716022     -6.9887856      4.0113537      50218.233      36.893836      36.893836      36.893836    
     34000   0.52214272    -7.7751209     -6.991918       3.9715143      50218.233      36.893836      36.893836      36.893836    
     35000   0.52315416    -7.7733727     -6.9886526      3.9949456      50218.233      36.893836      36.893836      36.893836    
     36000   0.52185909    -7.7730031     -6.9902256      3.9914419      50218.233      36.893836      36.893836      36.893836    
     37000   0.51906157    -7.774422      -6.9958408      3.9732319      50218.233      36.893836      36.893836      36.893836    
     38000   0.52245879    -7.7726716     -6.9889945      4.0118029      50218.233      36.893836      36.893836      36.893836    
     39000   0.52238094    -7.7713963     -6.9878361      4.0040198      50218.233      36.893836      36.893836      36.893836    
     40000   0.52103457    -7.7719311     -6.9903904      4.0004902      50218.233      36.893836      36.893836      36.893836    
     41000   0.52019705    -7.7780711     -6.9977866      3.9528314      50218.233      36.893836      36.893836      36.893836    
     42000   0.5194093     -7.7709088     -6.991806       3.9993135      50218.233      36.893836      36.893836      36.893836    
     43000   0.52012728    -7.7704251     -6.9902453      4.0249151      50218.233      36.893836      36.893836      36.893836    
     44000   0.52075189    -7.7747809     -6.9936641      3.9883584      50218.233      36.893836      36.893836      36.893836    
     45000   0.51817513    -7.7710954     -6.9938438      4.0003078      50218.233      36.893836      36.893836      36.893836    
     46000   0.51780255    -7.7697076     -6.9930149      4.0150533      50218.233      36.893836      36.893836      36.893836    
     47000   0.51676541    -7.7771061     -7.0019691      3.9560384      50218.233      36.893836      36.893836      36.893836    
     48000   0.51947158    -7.7709494     -6.9917531      4.005522       50218.233      36.893836      36.893836      36.893836    
     49000   0.51993476    -7.7703247     -6.9904337      4.0162722      50218.233      36.893836      36.893836      36.893836    
     50000   0.52264997    -7.769601      -6.9856372      4.019549       50218.233      36.893836      36.893836      36.893836    
     51000   0.52005393    -7.7732402     -6.9931704      3.9924262      50218.233      36.893836      36.893836      36.893836    
     52000   0.52041378    -7.7705904     -6.9899809      4.0137846      50218.233      36.893836      36.893836      36.893836    
     53000   0.52206271    -7.7721167     -6.9890338      4.0033244      50218.233      36.893836      36.893836      36.893836    
     54000   0.51892276    -7.7719022     -6.9935291      3.9995318      50218.233      36.893836      36.893836      36.893836    
     55000   0.51795675    -7.772448      -6.9955239      3.9965709      50218.233      36.893836      36.893836      36.893836    
     56000   0.51799404    -7.7682466     -6.9912666      4.0250576      50218.233      36.893836      36.893836      36.893836    
     57000   0.52015452    -7.7717832     -6.9915625      4.0057966      50218.233      36.893836      36.893836      36.893836    
     58000   0.52072033    -7.7717769     -6.9907076      4.0101198      50218.233      36.893836      36.893836      36.893836    
     59000   0.51921925    -7.7715139     -6.9926961      4.0048929      50218.233      36.893836      36.893836      36.893836    
     60000   0.51834792    -7.7745707     -6.9970599      3.984383       50218.233      36.893836      36.893836      36.893836    
     61000   0.52045464    -7.7676505     -6.9869797      4.0421415      50218.233      36.893836      36.893836      36.893836    
     62000   0.52255247    -7.7676817     -6.9838642      4.0364358      50218.233      36.893836      36.893836      36.893836    
     63000   0.52105556    -7.7677516     -6.9861794      4.0306763      50218.233      36.893836      36.893836      36.893836    
     64000   0.52053545    -7.7709481     -6.9901561      4.0125424      50218.233      36.893836      36.893836      36.893836    
     65000   0.52148569    -7.7708956     -6.9886782      4.0134699      50218.233      36.893836      36.893836      36.893836    
     66000   0.52068678    -7.7672434     -6.9862243      4.052564       50218.233      36.893836      36.893836      36.893836    
     67000   0.522806      -7.7735899     -6.989392       3.9909626      50218.233      36.893836      36.893836      36.893836    
     68000   0.52236707    -7.7635264     -6.9799869      4.0784375      50218.233      36.893836      36.893836      36.893836    
     69000   0.51597017    -7.7716038     -6.9976595      3.995933       50218.233      36.893836      36.893836      36.893836    
     70000   0.52018405    -7.7680154     -6.9877504      4.029042       50218.233      36.893836      36.893836      36.893836    
     71000   0.52059345    -7.7704537     -6.9895746      4.011302       50218.233      36.893836      36.893836      36.893836    
     72000   0.52134882    -7.7692456     -6.9872335      4.0195553      50218.233      36.893836      36.893836      36.893836    
     73000   0.51865694    -7.7696252     -6.9916509      4.0174018      50218.233      36.893836      36.893836      36.893836    
     74000   0.51908589    -7.7712253     -6.9926075      4.0117585      50218.233      36.893836      36.893836      36.893836    
     75000   0.51850024    -7.7703189     -6.9925796      4.0060354      50218.233      36.893836      36.893836      36.893836    
     76000   0.52093908    -7.7682444     -6.9868469      4.038661       50218.233      36.893836      36.893836      36.893836    
     77000   0.51792119    -7.7705024     -6.9936317      4.0237884      50218.233      36.893836      36.893836      36.893836    
     78000   0.5192694     -7.7670554     -6.9881624      4.0412069      50218.233      36.893836      36.893836      36.893836    
     79000   0.51950684    -7.7717622     -6.992513       4.0021065      50218.233      36.893836      36.893836      36.893836    
     80000   0.52085748    -7.7684264     -6.9871512      4.0290036      50218.233      36.893836      36.893836      36.893836    
     81000   0.52214508    -7.7707083     -6.9875018      4.0174952      50218.233      36.893836      36.893836      36.893836    
     82000   0.52266118    -7.7722876     -6.9883069      3.9964052      50218.233      36.893836      36.893836      36.893836    
     83000   0.52182555    -7.7690322     -6.986305       4.0417136      50218.233      36.893836      36.893836      36.893836    
     84000   0.52091674    -7.7719659     -6.9906019      3.9989027      50218.233      36.893836      36.893836      36.893836    
     85000   0.52044382    -7.7692304     -6.9885757      4.018165       50218.233      36.893836      36.893836      36.893836    
     86000   0.52082237    -7.7733887     -6.9921662      3.9939972      50218.233      36.893836      36.893836      36.893836    
     87000   0.52143937    -7.7707686     -6.9886206      4.0133905      50218.233      36.893836      36.893836      36.893836    
     88000   0.52023615    -7.764137      -6.9837939      4.0589886      50218.233      36.893836      36.893836      36.893836    
     89000   0.52093087    -7.7692029     -6.9878178      4.0299199      50218.233      36.893836      36.893836      36.893836    
     90000   0.51837686    -7.7699806     -6.9924264      4.0153833      50218.233      36.893836      36.893836      36.893836    
     91000   0.52090032    -7.7700328     -6.9886935      4.0194585      50218.233      36.893836      36.893836      36.893836    
     92000   0.5190484     -7.7662902     -6.9877286      4.0478177      50218.233      36.893836      36.893836      36.893836    
     93000   0.51777513    -7.7730829     -6.9964313      3.9957814      50218.233      36.893836      36.893836      36.893836    
     94000   0.52231048    -7.7667593     -6.9833047      4.043545       50218.233      36.893836      36.893836      36.893836    
     95000   0.51866959    -7.7710343     -6.993041       4.0029679      50218.233      36.893836      36.893836      36.893836    
     96000   0.52037158    -7.7737224     -6.9931761      3.995444       50218.233      36.893836      36.893836      36.893836    
     97000   0.52127443    -7.7737973     -6.9918967      3.9910399      50218.233      36.893836      36.893836      36.893836    
     98000   0.52080299    -7.7672818     -6.9860884      4.035286       50218.233      36.893836      36.893836      36.893836    
     99000   0.52185796    -7.7663276     -6.9835518      4.0417899      50218.233      36.893836      36.893836      36.893836    
    100000   0.51911597    -7.7658591     -6.9871962      4.0402027      50218.233      36.893836      36.893836      36.893836    
    101000   0.51860078    -7.768696      -6.9908059      4.0318124      50218.233      36.893836      36.893836      36.893836    
    102000   0.52062939    -7.7719376     -6.9910046      4.0032407      50218.233      36.893836      36.893836      36.893836    
    103000   0.52209846    -7.7650718     -6.9819353      4.0556765      50218.233      36.893836      36.893836      36.893836    
    104000   0.51786505    -7.7688276     -6.992041       4.0220387      50218.233      36.893836      36.893836      36.893836    
    105000   0.52101029    -7.7686395     -6.9871351      4.0276409      50218.233      36.893836      36.893836      36.893836    
    106000   0.51991413    -7.7702453     -6.9903852      4.0098782      50218.233      36.893836      36.893836      36.893836    
    107000   0.52081555    -7.7698364     -6.9886242      4.0153525      50218.233      36.893836      36.893836      36.893836    
    108000   0.51908825    -7.7686065     -6.9899852      4.0091822      50218.233      36.893836      36.893836      36.893836    
    109000   0.51938214    -7.7649653     -6.9859032      4.0499404      50218.233      36.893836      36.893836      36.893836    
    110000   0.5192901     -7.7715914     -6.9926673      3.9996227      50218.233      36.893836      36.893836      36.893836    
    111000   0.52066194    -7.7642751     -6.9832933      4.0654047      50218.233      36.893836      36.893836      36.893836    
    112000   0.5190227     -7.7665801     -6.9880571      4.037927       50218.233      36.893836      36.893836      36.893836    
    113000   0.51716743    -7.7690439     -6.9933038      4.0231098      50218.233      36.893836      36.893836      36.893836    
    114000   0.52140319    -7.7721251     -6.9900314      4.0049749      50218.233      36.893836      36.893836      36.893836    
    115000   0.52023743    -7.7727527     -6.9924076      4.0008635      50218.233      36.893836      36.893836      36.893836    
    116000   0.5174455     -7.7709223     -6.9947651      4.0062233      50218.233      36.893836      36.893836      36.893836    
    117000   0.52125291    -7.7704378     -6.9885696      4.0161154      50218.233      36.893836      36.893836      36.893836    
    118000   0.51692799    -7.7684701     -6.9930892      4.0229414      50218.233      36.893836      36.893836      36.893836    
    119000   0.51811586    -7.7707953     -6.9936325      4.001662       50218.233      36.893836      36.893836      36.893836    
    120000   0.51885342    -7.7715406     -6.9932716      4.0057375      50218.233      36.893836      36.893836      36.893836    
    121000   0.52000159    -7.766291      -6.9862997      4.0393335      50218.233      36.893836      36.893836      36.893836    
    122000   0.51978181    -7.7715269     -6.9918653      4.008518       50218.233      36.893836      36.893836      36.893836    
    123000   0.52112106    -7.7707679     -6.9890974      4.0025761      50218.233      36.893836      36.893836      36.893836    
    124000   0.51976697    -7.7723301     -6.9926907      3.9914861      50218.233      36.893836      36.893836      36.893836    
    125000   0.52232556    -7.768013      -6.9845358      4.0277033      50218.233      36.893836      36.893836      36.893836    
    126000   0.52176912    -7.772576      -6.9899334      4.0087693      50218.233      36.893836      36.893836      36.893836    
    127000   0.51809543    -7.7717351     -6.994603       3.9980111      50218.233      36.893836      36.893836      36.893836    
    128000   0.51614651    -7.7714917     -6.997283       4.0040016      50218.233      36.893836      36.893836      36.893836    
    129000   0.51657687    -7.7678881     -6.9930338      4.0285919      50218.233      36.893836      36.893836      36.893836    
    130000   0.52213366    -7.7729206     -6.9897313      3.998396       50218.233      36.893836      36.893836      36.893836    
    131000   0.51961879    -7.7751274     -6.9957103      3.9772043      50218.233      36.893836      36.893836      36.893836    
    132000   0.51766238    -7.7697942     -6.9933117      4.0204013      50218.233      36.893836      36.893836      36.893836    
    133000   0.52013315    -7.7725419     -6.9923532      4.0027347      50218.233      36.893836      36.893836      36.893836    
    134000   0.52126494    -7.7709944     -6.9891081      4.0030712      50218.233      36.893836      36.893836      36.893836    
    135000   0.51933368    -7.764063      -6.9850735      4.0575488      50218.233      36.893836      36.893836      36.893836    
    136000   0.51729891    -7.7707639     -6.9948266      4.0104205      50218.233      36.893836      36.893836      36.893836    
    137000   0.52045549    -7.7692444     -6.9885723      4.024061       50218.233      36.893836      36.893836      36.893836    
    138000   0.51819637    -7.7702866     -6.9930031      4.0197489      50218.233      36.893836      36.893836      36.893836    
    139000   0.52100329    -7.7703502     -6.9888564      4.027632       50218.233      36.893836      36.893836      36.893836    
    140000   0.52134513    -7.7700028     -6.9879963      4.0143838      50218.233      36.893836      36.893836      36.893836    
    141000   0.51760614    -7.7694171     -6.993019       4.0182689      50218.233      36.893836      36.893836      36.893836    
    142000   0.52109668    -7.7738386     -6.9922046      3.9924094      50218.233      36.893836      36.893836      36.893836    
    143000   0.51984223    -7.7715176     -6.9917654      4.0046347      50218.233      36.893836      36.893836      36.893836    
    144000   0.51841234    -7.7705245     -6.9929171      3.9966564      50218.233      36.893836      36.893836      36.893836    
    145000   0.51905649    -7.7678903     -6.9893166      4.0332904      50218.233      36.893836      36.893836      36.893836    
    146000   0.51963385    -7.7691692     -6.9897295      4.0235941      50218.233      36.893836      36.893836      36.893836    
    147000   0.51954423    -7.7718938     -6.9925886      4.010651       50218.233      36.893836      36.893836      36.893836    
    148000   0.52169996    -7.7712937     -6.9887549      4.0082225      50218.233      36.893836      36.893836      36.893836    
    149000   0.51903917    -7.7707608     -6.9922132      4.0078306      50218.233      36.893836      36.893836      36.893836    
    150000   0.518571      -7.7707773     -6.9929318      4.0098648      50218.233      36.893836      36.893836      36.893836    
    151000   0.51982263    -7.768807      -6.9890842      4.0312033      50218.233      36.893836      36.893836      36.893836    
    152000   0.52007484    -7.7691627     -6.9890616      4.0150127      50218.233      36.893836      36.893836      36.893836    
    153000   0.51789728    -7.770959      -6.9941241      4.0123778      50218.233      36.893836      36.893836      36.893836    
    154000   0.52101794    -7.7674338     -6.985918       4.0433598      50218.233      36.893836      36.893836      36.893836    
    155000   0.51863774    -7.7685043     -6.9905588      4.0188853      50218.233      36.893836      36.893836      36.893836    
    156000   0.51916942    -7.7726346     -6.9938916      3.9962182      50218.233      36.893836      36.893836      36.893836    
    157000   0.52106682    -7.7703568     -6.9887677      4.0174826      50218.233      36.893836      36.893836      36.893836    
    158000   0.5181388     -7.7654388     -6.9882416      4.061582       50218.233      36.893836      36.893836      36.893836    
    159000   0.52073035    -7.766974      -6.9858896      4.0459297      50218.233      36.893836      36.893836      36.893836    
    160000   0.51864353    -7.7732219     -6.9952677      3.9966659      50218.233      36.893836      36.893836      36.893836    
    161000   0.52097292    -7.7678116     -6.9863634      4.0334892      50218.233      36.893836      36.893836      36.893836    
    162000   0.51995427    -7.7692394     -6.9893191      4.0263069      50218.233      36.893836      36.893836      36.893836    
    163000   0.52280783    -7.767609      -6.9834084      4.0390794      50218.233      36.893836      36.893836      36.893836    
    164000   0.52028397    -7.7667065     -6.9862916      4.0368407      50218.233      36.893836      36.893836      36.893836    
    165000   0.52024944    -7.7690602     -6.9886971      4.0283726      50218.233      36.893836      36.893836      36.893836    
    166000   0.51973486    -7.768468      -6.9888768      4.0217016      50218.233      36.893836      36.893836      36.893836    
    167000   0.52009074    -7.7704515     -6.9903265      4.0244107      50218.233      36.893836      36.893836      36.893836    
    168000   0.52014327    -7.7678692     -6.9876654      4.0373887      50218.233      36.893836      36.893836      36.893836    
    169000   0.51944182    -7.7667009     -6.9875492      4.0384143      50218.233      36.893836      36.893836      36.893836    
    170000   0.51873049    -7.7681003     -6.9900156      4.0252021      50218.233      36.893836      36.893836      36.893836    
    171000   0.51925089    -7.7684508     -6.9895855      4.0281212      50218.233      36.893836      36.893836      36.893836    
    172000   0.51900238    -7.7662132     -6.9877207      4.0448401      50218.233      36.893836      36.893836      36.893836    
    173000   0.52016569    -7.7692019     -6.9889645      4.0277836      50218.233      36.893836      36.893836      36.893836    
    174000   0.52016563    -7.7698563     -6.9896189      4.0116398      50218.233      36.893836      36.893836      36.893836    
    175000   0.52165493    -7.7638021     -6.9813308      4.0756227      50218.233      36.893836      36.893836      36.893836    
    176000   0.52301242    -7.7722526     -6.9877452      3.9994391      50218.233      36.893836      36.893836      36.893836    
    177000   0.52241352    -7.7721309     -6.9885218      4.0081691      50218.233      36.893836      36.893836      36.893836    
    178000   0.51996659    -7.7668416     -6.9869028      4.0338569      50218.233      36.893836      36.893836      36.893836    
    179000   0.52085044    -7.7689465     -6.9876819      4.0240531      50218.233      36.893836      36.893836      36.893836    
    180000   0.52169167    -7.7709986     -6.9884722      4.0123664      50218.233      36.893836      36.893836      36.893836    
    181000   0.51813819    -7.7636581     -6.9864618      4.050782       50218.233      36.893836      36.893836      36.893836    
    182000   0.51935968    -7.7693232     -6.9902948      4.023026       50218.233      36.893836      36.893836      36.893836    
    183000   0.51957907    -7.7685666     -6.9892091      4.0206406      50218.233      36.893836      36.893836      36.893836    
    184000   0.51957646    -7.7684924     -6.9891388      4.0319168      50218.233      36.893836      36.893836      36.893836    
    185000   0.52095802    -7.7692717     -6.9878458      4.0235181      50218.233      36.893836      36.893836      36.893836    
    186000   0.52016377    -7.768928      -6.9886935      4.0292364      50218.233      36.893836      36.893836      36.893836    
    187000   0.52326043    -7.774189      -6.9893095      4.0058342      50218.233      36.893836      36.893836      36.893836    
    188000   0.52059507    -7.7687061     -6.9878246      4.0395626      50218.233      36.893836      36.893836      36.893836    
    189000   0.51681898    -7.7689807     -6.9937632      4.010801       50218.233      36.893836      36.893836      36.893836    
    190000   0.51939746    -7.7697645     -6.9906794      4.0239623      50218.233      36.893836      36.893836      36.893836    
    191000   0.51960219    -7.7715707     -6.9921785      4.0133962      50218.233      36.893836      36.893836      36.893836    
    192000   0.52240188    -7.7714258     -6.9878341      4.004079       50218.233      36.893836      36.893836      36.893836    
    193000   0.52154855    -7.7698517     -6.98754        4.0173832      50218.233      36.893836      36.893836      36.893836    
    194000   0.51879242    -7.7695917     -6.9914141      4.0237614      50218.233      36.893836      36.893836      36.893836    
    195000   0.52041808    -7.7671111     -6.9864951      4.0378052      50218.233      36.893836      36.893836      36.893836    
    196000   0.51712227    -7.7751506     -6.9994782      3.9895468      50218.233      36.893836      36.893836      36.893836    
    197000   0.52028428    -7.7712529     -6.9908376      4.0110891      50218.233      36.893836      36.893836      36.893836    
    198000   0.51722972    -7.7745142     -6.9986807      3.9747098      50218.233      36.893836      36.893836      36.893836    
    199000   0.51992306    -7.7731906     -6.9933171      3.9821274      50218.233      36.893836      36.893836      36.893836    
    200000   0.51739336    -7.7721571     -6.996078       3.9981778      50218.233      36.893836      36.893836      36.893836    
    201000   0.51729552    -7.7722701     -6.9963378      4.0016007      50218.233      36.893836      36.893836      36.893836    
    202000   0.51871312    -7.7741348     -6.9960762      3.9788419      50218.233      36.893836      36.893836      36.893836    
    203000   0.51946142    -7.7724251     -6.993244       4.0061896      50218.233      36.893836      36.893836      36.893836    
    204000   0.51914646    -7.7703915     -6.9916829      4.0208117      50218.233      36.893836      36.893836      36.893836    
    205000   0.51962416    -7.7671101     -6.9876849      4.0482499      50218.233      36.893836      36.893836      36.893836    
    206000   0.52242758    -7.7659933     -6.9823631      4.0506016      50218.233      36.893836      36.893836      36.893836    
    207000   0.5188582     -7.7727013     -6.994425       3.9973124      50218.233      36.893836      36.893836      36.893836    
    208000   0.52259421    -7.7730267     -6.9891465      4.0045053      50218.233      36.893836      36.893836      36.893836    
    209000   0.51803415    -7.7661343     -6.9890941      4.0468663      50218.233      36.893836      36.893836      36.893836    
    210000   0.52251227    -7.7704358     -6.9866786      4.0202485      50218.233      36.893836      36.893836      36.893836    
    211000   0.51890103    -7.7679239     -6.9895835      4.0259727      50218.233      36.893836      36.893836      36.893836    
    212000   0.51979575    -7.7704474     -6.9907648      4.0176046      50218.233      36.893836      36.893836      36.893836    
    213000   0.51720651    -7.7665349     -6.9907362      4.0346725      50218.233      36.893836      36.893836      36.893836    
    214000   0.522494      -7.7711825     -6.9874527      4.0262208      50218.233      36.893836      36.893836      36.893836    
    215000   0.52293165    -7.7731586     -6.9887723      4.0000288      50218.233      36.893836      36.893836      36.893836    
    216000   0.52225839    -7.7684252     -6.9850488      4.0355234      50218.233      36.893836      36.893836      36.893836    
    217000   0.51923832    -7.7654103     -6.9865639      4.0446838      50218.233      36.893836      36.893836      36.893836    
    218000   0.52042991    -7.7662031     -6.9855693      4.0498985      50218.233      36.893836      36.893836      36.893836    
    219000   0.52148298    -7.7648768     -6.9826634      4.058316       50218.233      36.893836      36.893836      36.893836    
    220000   0.51900922    -7.7706699     -6.9921672      4.0120512      50218.233      36.893836      36.893836      36.893836    
    221000   0.51720472    -7.7661829     -6.9903869      4.0405272      50218.233      36.893836      36.893836      36.893836    
    222000   0.5223143     -7.7735357     -6.9900754      4.0022018      50218.233      36.893836      36.893836      36.893836    
    223000   0.52005174    -7.7656095     -6.9855429      4.0428072      50218.233      36.893836      36.893836      36.893836    
    224000   0.51910404    -7.7733438     -6.9946989      3.9965574      50218.233      36.893836      36.893836      36.893836    
    225000   0.51901258    -7.7692113     -6.9907035      4.0200516      50218.233      36.893836      36.893836      36.893836    
    226000   0.5179069     -7.7681213     -6.991272       4.0330566      50218.233      36.893836      36.893836      36.893836    
    227000   0.5200745     -7.7664557     -6.9863551      4.0434075      50218.233      36.893836      36.893836      36.893836    
    228000   0.52048521    -7.769219      -6.9885023      4.0121109      50218.233      36.893836      36.893836      36.893836    
    229000   0.52115585    -7.7718799     -6.9901572      4.0042622      50218.233      36.893836      36.893836      36.893836    
    230000   0.51803354    -7.7684851     -6.9914458      4.0169165      50218.233      36.893836      36.893836      36.893836    
    231000   0.51844277    -7.7703423     -6.9926892      4.0058781      50218.233      36.893836      36.893836      36.893836    
    232000   0.51909722    -7.7697142     -6.9910794      4.0152963      50218.233      36.893836      36.893836      36.893836    
    233000   0.51987946    -7.7654236     -6.9856155      4.0495278      50218.233      36.893836      36.893836      36.893836    
    234000   0.52339809    -7.7697272     -6.9846412      4.019832       50218.233      36.893836      36.893836      36.893836    
    235000   0.52225207    -7.7712698     -6.9879028      4.0043671      50218.233      36.893836      36.893836      36.893836    
    236000   0.52063397    -7.7667005     -6.9857607      4.0419029      50218.233      36.893836      36.893836      36.893836    
    237000   0.52003225    -7.769752      -6.9897147      4.0082899      50218.233      36.893836      36.893836      36.893836    
    238000   0.52275805    -7.7741641     -6.9900381      3.9865982      50218.233      36.893836      36.893836      36.893836    
    239000   0.52060676    -7.7667705     -6.9858714      4.0443455      50218.233      36.893836      36.893836      36.893836    
    240000   0.51958099    -7.7683907     -6.9890303      4.0174823      50218.233      36.893836      36.893836      36.893836    
    241000   0.51812653    -7.7700922     -6.9929135      4.0220203      50218.233      36.893836      36.893836      36.893836    
    242000   0.51922916    -7.7746077     -6.995775       3.9841541      50218.233      36.893836      36.893836      36.893836    
    243000   0.52160938    -7.7688883     -6.9864854      4.0290457      50218.233      36.893836      36.893836      36.893836    
    244000   0.52002042    -7.7709442     -6.9909247      4.0124579      50218.233      36.893836      36.893836      36.893836    
    245000   0.51904822    -7.7702599     -6.9916986      4.0122926      50218.233      36.893836      36.893836      36.893836    
    246000   0.51752173    -7.7694676     -6.993196       4.0151268      50218.233      36.893836      36.893836      36.893836    
    247000   0.51947459    -7.7720011     -6.9928003      4.003989       50218.233      36.893836      36.893836      36.893836    
    248000   0.52130702    -7.7695957     -6.9876462      4.0289384      50218.233      36.893836      36.893836      36.893836    
    249000   0.52158986    -7.7723048     -6.9899312      3.9992608      50218.233      36.893836      36.893836      36.893836    
    250000   0.52120289    -7.7722078     -6.9904146      3.997698       50218.233      36.893836      36.893836      36.893836    
    251000   0.52025731    -7.768902      -6.9885272      4.0239953      50218.233      36.893836      36.893836      36.893836    
    252000   0.52248314    -7.7703263     -6.9866128      4.0175433      50218.233      36.893836      36.893836      36.893836    
    253000   0.51952664    -7.7686212     -6.9893424      4.0235882      50218.233      36.893836      36.893836      36.893836    
    254000   0.52287125    -7.7722223     -6.9879266      4.0016231      50218.233      36.893836      36.893836      36.893836    
    255000   0.51917938    -7.7728347     -6.9940767      3.9864669      50218.233      36.893836      36.893836      36.893836    
    256000   0.51862926    -7.766436      -6.9885032      4.0289783      50218.233      36.893836      36.893836      36.893836    
    257000   0.51891983    -7.7656983     -6.9873297      4.0491777      50218.233      36.893836      36.893836      36.893836    
    258000   0.51680023    -7.772254      -6.9970647      3.9837102      50218.233      36.893836      36.893836      36.893836    
    259000   0.52160997    -7.7686925     -6.9862887      4.0228542      50218.233      36.893836      36.893836      36.893836    
    260000   0.52117693    -7.7697264     -6.9879722      4.0183328      50218.233      36.893836      36.893836      36.893836    
    261000   0.5210923     -7.766185      -6.9845576      4.0425211      50218.233      36.893836      36.893836      36.893836    
    262000   0.52108117    -7.769572      -6.9879613      4.0123541      50218.233      36.893836      36.893836      36.893836    
    263000   0.51989752    -7.7685529     -6.9887177      4.0330613      50218.233      36.893836      36.893836      36.893836    
    264000   0.51952925    -7.7671769     -6.9878941      4.036903       50218.233      36.893836      36.893836      36.893836    
    265000   0.52165212    -7.7699397     -6.9874727      4.0193135      50218.233      36.893836      36.893836      36.893836    
    266000   0.52014929    -7.7656179     -6.985405       4.0572481      50218.233      36.893836      36.893836      36.893836    
    267000   0.51850784    -7.7673655     -6.9896149      4.0263906      50218.233      36.893836      36.893836      36.893836    
    268000   0.52209435    -7.7711438     -6.9880134      4.0111089      50218.233      36.893836      36.893836      36.893836    
    269000   0.52236215    -7.7707613     -6.9872292      4.0071934      50218.233      36.893836      36.893836      36.893836    
    270000   0.51854726    -7.7728814     -6.9950716      3.9902846      50218.233      36.893836      36.893836      36.893836    
    271000   0.51628253    -7.7703045     -6.9958917      4.0051163      50218.233      36.893836      36.893836      36.893836    
    272000   0.52384749    -7.7651044     -6.9793443      4.0533458      50218.233      36.893836      36.893836      36.893836    
    273000   0.51943146    -7.7683529     -6.9892168      4.0183967      50218.233      36.893836      36.893836      36.893836    
    274000   0.5196079     -7.7639882     -6.9845875      4.0558308      50218.233      36.893836      36.893836      36.893836    
    275000   0.52253915    -7.7641547     -6.9803571      4.0554991      50218.233      36.893836      36.893836      36.893836    
    276000   0.51962975    -7.7661985     -6.986765       4.0402206      50218.233      36.893836      36.893836      36.893836    
    277000   0.52163988    -7.7703457     -6.987897       4.0134545      50218.233      36.893836      36.893836      36.893836    
    278000   0.52040911    -7.7717787     -6.9911762      4.0023091      50218.233      36.893836      36.893836      36.893836    
    279000   0.51920882    -7.766954      -6.9881518      4.0299211      50218.233      36.893836      36.893836      36.893836    
    280000   0.51710147    -7.7663528     -6.9907116      4.0364278      50218.233      36.893836      36.893836      36.893836    
    281000   0.51943735    -7.766383      -6.987238       4.0349104      50218.233      36.893836      36.893836      36.893836    
    282000   0.5192102     -7.7650236     -6.9862194      4.0537813      50218.233      36.893836      36.893836      36.893836    
    283000   0.52024475    -7.7678973     -6.9875413      4.0365133      50218.233      36.893836      36.893836      36.893836    
    284000   0.52281885    -7.768825      -6.9846078      4.0436294      50218.233      36.893836      36.893836      36.893836    
    285000   0.51840146    -7.7728288     -6.9952377      3.9985385      50218.233      36.893836      36.893836      36.893836    
    286000   0.51981985    -7.7667859     -6.9870672      4.0365024      50218.233      36.893836      36.893836      36.893836    
    287000   0.52169778    -7.7704767     -6.9879411      4.0100451      50218.233      36.893836      36.893836      36.893836    
    288000   0.51911137    -7.7701612     -6.9915052      4.0162168      50218.233      36.893836      36.893836      36.893836    
    289000   0.51839476    -7.7658338     -6.9882527      4.0516765      50218.233      36.893836      36.893836      36.893836    
    290000   0.51949073    -7.7690238     -6.9897988      4.0238894      50218.233      36.893836      36.893836      36.893836    
    291000   0.52186163    -7.7681059     -6.9853246      4.039037       50218.233      36.893836      36.893836      36.893836    
    292000   0.52095851    -7.7662118     -6.9847852      4.0551161      50218.233      36.893836      36.893836      36.893836    
    293000   0.5223506     -7.7655058     -6.9819911      4.0496497      50218.233      36.893836      36.893836      36.893836    
    294000   0.52333264    -7.7684931     -6.9835053      4.0326118      50218.233      36.893836      36.893836      36.893836    
    295000   0.52071541    -7.7722472     -6.9911852      3.9996883      50218.233      36.893836      36.893836      36.893836    
    296000   0.52061115    -7.766344      -6.9854384      4.0503243      50218.233      36.893836      36.893836      36.893836    
    297000   0.52063805    -7.7685389     -6.9875929      4.0249819      50218.233      36.893836      36.893836      36.893836    
    298000   0.52086864    -7.7704749     -6.9891831      4.0136137      50218.233      36.893836      36.893836      36.893836    
    299000   0.51624052    -7.7665444     -6.9921946      4.0396602      50218.233      36.893836      36.893836      36.893836    
    300000   0.51834782    -7.7723649     -6.9948542      3.9926444      50218.233      36.893836      36.893836      36.893836    
    301000   0.52056702    -7.7727775     -6.9919381      3.9947846      50218.233      36.893836      36.893836      36.893836    
    302000   0.52100475    -7.7686971     -6.9872011      4.0190786      50218.233      36.893836      36.893836      36.893836    
    303000   0.51906014    -7.7714076     -6.9928285      4.0108158      50218.233      36.893836      36.893836      36.893836    
    304000   0.51926255    -7.7707969     -6.9919142      4.009557       50218.233      36.893836      36.893836      36.893836    
    305000   0.51813094    -7.768102      -6.9909166      4.0233607      50218.233      36.893836      36.893836      36.893836    
    306000   0.51838825    -7.7671493     -6.989578       4.0379931      50218.233      36.893836      36.893836      36.893836    
    307000   0.51795557    -7.7716751     -6.9947528      3.9963362      50218.233      36.893836      36.893836      36.893836    
    308000   0.52025753    -7.7683937     -6.9880185      4.0227913      50218.233      36.893836      36.893836      36.893836    
    309000   0.5210375     -7.766664      -6.9851189      4.0268646      50218.233      36.893836      36.893836      36.893836    
    310000   0.51783533    -7.7704742     -6.9937322      4.0077891      50218.233      36.893836      36.893836      36.893836    
    311000   0.51899105    -7.766164      -6.9876885      4.0346524      50218.233      36.893836      36.893836      36.893836    
    312000   0.52022429    -7.7610485     -6.9807231      4.0878865      50218.233      36.893836      36.893836      36.893836    
    313000   0.51985835    -7.7678937     -6.9881172      4.0357056      50218.233      36.893836      36.893836      36.893836    
    314000   0.51730851    -7.7644692     -6.9885175      4.0436455      50218.233      36.893836      36.893836      36.893836    
    315000   0.52097569    -7.7671443     -6.9856919      4.0394752      50218.233      36.893836      36.893836      36.893836    
    316000   0.52180921    -7.7700049     -6.9873022      4.0222635      50218.233      36.893836      36.893836      36.893836    
    317000   0.52072245    -7.7687367     -6.9876641      4.0206151      50218.233      36.893836      36.893836      36.893836    
    318000   0.51775887    -7.7673118     -6.9906845      4.023223       50218.233      36.893836      36.893836      36.893836    
    319000   0.51780639    -7.7687613     -6.9920628      4.0176772      50218.233      36.893836      36.893836      36.893836    
    320000   0.51991686    -7.7642807     -6.9844165      4.0484037      50218.233      36.893836      36.893836      36.893836    
    321000   0.52095954    -7.7671583     -6.9857301      4.0434023      50218.233      36.893836      36.893836      36.893836    
    322000   0.51920376    -7.76862       -6.9898254      4.0318723      50218.233      36.893836      36.893836      36.893836    
    323000   0.52093982    -7.7657474     -6.9843488      4.0528217      50218.233      36.893836      36.893836      36.893836    
    324000   0.52131331    -7.768472      -6.9865131      4.032017       50218.233      36.893836      36.893836      36.893836    
    325000   0.51905654    -7.7670183     -6.9884445      4.0389817      50218.233      36.893836      36.893836      36.893836    
    326000   0.5194308     -7.7693028     -6.9901677      4.0234978      50218.233      36.893836      36.893836      36.893836    
    327000   0.52040953    -7.7651986     -6.9845954      4.0425065      50218.233      36.893836      36.893836      36.893836    
    328000   0.52443204    -7.7643229     -6.977686       4.0634494      50218.233      36.893836      36.893836      36.893836    
    329000   0.51870038    -7.7665666     -6.9885271      4.0330235      50218.233      36.893836      36.893836      36.893836    
    330000   0.51975269    -7.7717085     -6.9920906      4.0007368      50218.233      36.893836      36.893836      36.893836    
    331000   0.51938509    -7.7689467     -6.9898802      4.0156465      50218.233      36.893836      36.893836      36.893836    
    332000   0.52074377    -7.7664755     -6.985371       4.0373604      50218.233      36.893836      36.893836      36.893836    
    333000   0.52012848    -7.762968      -6.9827864      4.0779851      50218.233      36.893836      36.893836      36.893836    
    334000   0.52066172    -7.7713301     -6.9903486      4.0032482      50218.233      36.893836      36.893836      36.893836    
    335000   0.51968319    -7.7688463     -6.9893327      4.0201852      50218.233      36.893836      36.893836      36.893836    
    336000   0.51767118    -7.7688856     -6.9923899      4.0137593      50218.233      36.893836      36.893836      36.893836    
    337000   0.51966643    -7.7665271     -6.9870385      4.0420854      50218.233      36.893836      36.893836      36.893836    
    338000   0.52021596    -7.7676497     -6.9873369      4.0297435      50218.233      36.893836      36.893836      36.893836    
    339000   0.52295358    -7.7673304     -6.9829111      4.0401199      50218.233      36.893836      36.893836      36.893836    
    340000   0.52108961    -7.7697987     -6.9881754      4.0267584      50218.233      36.893836      36.893836      36.893836    
    341000   0.5195231     -7.7663011     -6.9870275      4.0469373      50218.233      36.893836      36.893836      36.893836    
    342000   0.52070009    -7.7709273     -6.9898882      4.0096571      50218.233      36.893836      36.893836      36.893836    
    343000   0.52250842    -7.7710086     -6.9872571      4.0128959      50218.233      36.893836      36.893836      36.893836    
    344000   0.51912379    -7.7704736     -6.991799       4.0118841      50218.233      36.893836      36.893836      36.893836    
    345000   0.52109296    -7.7693814     -6.9877531      4.0119822      50218.233      36.893836      36.893836      36.893836    
    346000   0.51926744    -7.7673562     -6.9884662      4.0181514      50218.233      36.893836      36.893836      36.893836    
    347000   0.52195358    -7.7710846     -6.9881653      4.0154203      50218.233      36.893836      36.893836      36.893836    
    348000   0.52253885    -7.7673813     -6.9835842      4.0457618      50218.233      36.893836      36.893836      36.893836    
    349000   0.52247065    -7.7694472     -6.9857524      4.0226261      50218.233      36.893836      36.893836      36.893836    
    350000   0.51926884    -7.7677784     -6.9888862      4.0302453      50218.233      36.893836      36.893836      36.893836    
    351000   0.52058416    -7.7707524     -6.9898873      4.017177       50218.233      36.893836      36.893836      36.893836    
    352000   0.51983011    -7.7725876     -6.9928536      3.9973139      50218.233      36.893836      36.893836      36.893836    
    353000   0.52271184    -7.7701407     -6.9860841      4.012605       50218.233      36.893836      36.893836      36.893836    
    354000   0.51971848    -7.7675383     -6.9879717      4.0431794      50218.233      36.893836      36.893836      36.893836    
    355000   0.52121815    -7.7691616     -6.9873455      4.0213751      50218.233      36.893836      36.893836      36.893836    
    356000   0.521999      -7.7674978     -6.9845105      4.0526439      50218.233      36.893836      36.893836      36.893836    
    357000   0.52043134    -7.7718122     -6.9911763      4.0007389      50218.233      36.893836      36.893836      36.893836    
    358000   0.51801862    -7.7663044     -6.9892876      4.0510191      50218.233      36.893836      36.893836      36.893836    
    359000   0.5198425     -7.7683483     -6.9885956      4.0251705      50218.233      36.893836      36.893836      36.893836    
    360000   0.52015973    -7.7686813     -6.9884528      4.0198304      50218.233      36.893836      36.893836      36.893836    
    361000   0.52106875    -7.7657071     -6.9841151      4.0547853      50218.233      36.893836      36.893836      36.893836    
    362000   0.51992952    -7.765905      -6.9860218      4.0485269      50218.233      36.893836      36.893836      36.893836    
    363000   0.52341252    -7.7635335     -6.9784259      4.0762247      50218.233      36.893836      36.893836      36.893836    
    364000   0.51708256    -7.7669021     -6.9912893      4.0336939      50218.233      36.893836      36.893836      36.893836    
    365000   0.52046526    -7.7671721     -6.9864853      4.0264997      50218.233      36.893836      36.893836      36.893836    
    366000   0.52156644    -7.7704489     -6.9881104      4.0148065      50218.233      36.893836      36.893836      36.893836    
    367000   0.52016702    -7.7661246     -6.9858851      4.037203       50218.233      36.893836      36.893836      36.893836    
    368000   0.52040211    -7.7664829     -6.9858908      4.0449051      50218.233      36.893836      36.893836      36.893836    
    369000   0.52326354    -7.7652085     -6.9803243      4.0634789      50218.233      36.893836      36.893836      36.893836    
    370000   0.51893641    -7.7669581     -6.9885646      4.0415146      50218.233      36.893836      36.893836      36.893836    
    371000   0.51875536    -7.7685693     -6.9904473      4.032458       50218.233      36.893836      36.893836      36.893836    
    372000   0.51941035    -7.7683933     -6.9892888      4.0316205      50218.233      36.893836      36.893836      36.893836    
    373000   0.51935599    -7.7692468     -6.9902239      4.0169835      50218.233      36.893836      36.893836      36.893836    
    374000   0.51985192    -7.7708117     -6.9910449      4.0161251      50218.233      36.893836      36.893836      36.893836    
    375000   0.52139531    -7.7665135     -6.9844316      4.046979       50218.233      36.893836      36.893836      36.893836    
    376000   0.51748593    -7.7647502     -6.9885324      4.0545647      50218.233      36.893836      36.893836      36.893836    
    377000   0.52212965    -7.7661489     -6.9829656      4.0523195      50218.233      36.893836      36.893836      36.893836    
    378000   0.51915847    -7.7640003     -6.9852737      4.0638906      50218.233      36.893836      36.893836      36.893836    
    379000   0.51886163    -7.7676916     -6.9894103      4.0231236      50218.233      36.893836      36.893836      36.893836    
    380000   0.51737779    -7.7661642     -6.9901086      4.0446441      50218.233      36.893836      36.893836      36.893836    
    381000   0.51836892    -7.7708245     -6.9932822      4.0017395      50218.233      36.893836      36.893836      36.893836    
    382000   0.51827237    -7.7705048     -6.9931073      4.0026612      50218.233      36.893836      36.893836      36.893836    
    383000   0.52109107    -7.7686182     -6.9869927      4.024717       50218.233      36.893836      36.893836      36.893836    
    384000   0.52038182    -7.7694579     -6.9888963      4.0244265      50218.233      36.893836      36.893836      36.893836    
    385000   0.52023406    -7.7616184     -6.9812784      4.0800841      50218.233      36.893836      36.893836      36.893836    
    386000   0.52334935    -7.7655531     -6.9805402      4.0575733      50218.233      36.893836      36.893836      36.893836    
    387000   0.51913393    -7.763269      -6.9845792      4.0740594      50218.233      36.893836      36.893836      36.893836    
    388000   0.5209076     -7.7699609     -6.9886107      4.012912       50218.233      36.893836      36.893836      36.893836    
    389000   0.51554991    -7.7645976     -6.9912838      4.0377824      50218.233      36.893836      36.893836      36.893836    
    390000   0.51857063    -7.7676881     -6.9898432      4.0321373      50218.233      36.893836      36.893836      36.893836    
    391000   0.51832201    -7.7692216     -6.9917497      4.0287754      50218.233      36.893836      36.893836      36.893836    
    392000   0.52037665    -7.7684122     -6.9878583      4.029184       50218.233      36.893836      36.893836      36.893836    
    393000   0.51877622    -7.7688942     -6.990741       4.0231458      50218.233      36.893836      36.893836      36.893836    
    394000   0.51964914    -7.7648033     -6.9853406      4.0448389      50218.233      36.893836      36.893836      36.893836    
    395000   0.51913421    -7.7667409     -6.9880507      4.0413288      50218.233      36.893836      36.893836      36.893836    
    396000   0.5184416     -7.7622096     -6.9845582      4.0668873      50218.233      36.893836      36.893836      36.893836    
    397000   0.51932595    -7.7676466     -6.9886688      4.0343005      50218.233      36.893836      36.893836      36.893836    
    398000   0.51740203    -7.7660296     -6.9899376      4.0340421      50218.233      36.893836      36.893836      36.893836    
    399000   0.52008937    -7.7656653     -6.9855423      4.0417368      50218.233      36.893836      36.893836      36.893836    
    400000   0.5193519     -7.7663597     -6.9873429      4.0415881      50218.233      36.893836      36.893836      36.893836    
    401000   0.51867035    -7.7670729     -6.9890784      4.0239525      50218.233      36.893836      36.893836      36.893836    
    402000   0.52104484    -7.7663202     -6.9847641      4.0597295      50218.233      36.893836      36.893836      36.893836    
    403000   0.51955641    -7.767746      -6.9884224      4.0309218      50218.233      36.893836      36.893836      36.893836    
    404000   0.51833054    -7.772345      -6.9948602      3.996923       50218.233      36.893836      36.893836      36.893836    
    405000   0.52037479    -7.7673248     -6.9867737      4.0321682      50218.233      36.893836      36.893836      36.893836    
    406000   0.51949367    -7.7678049     -6.9885755      4.036032       50218.233      36.893836      36.893836      36.893836    
    407000   0.51990541    -7.7689912     -6.9891442      4.0236609      50218.233      36.893836      36.893836      36.893836    
    408000   0.51842959    -7.7645728     -6.9869395      4.0399648      50218.233      36.893836      36.893836      36.893836    
    409000   0.51854002    -7.7658249     -6.9880259      4.046334       50218.233      36.893836      36.893836      36.893836    
    410000   0.51937974    -7.7659642     -6.9869057      4.036434       50218.233      36.893836      36.893836      36.893836    
    411000   0.52142752    -7.7674202     -6.9852901      4.0379614      50218.233      36.893836      36.893836      36.893836    
    412000   0.52085524    -7.7703049     -6.9890331      4.004329       50218.233      36.893836      36.893836      36.893836    
    413000   0.51982918    -7.7702705     -6.9905379      4.0160149      50218.233      36.893836      36.893836      36.893836    
    414000   0.5191967     -7.766438      -6.9876541      4.0448112      50218.233      36.893836      36.893836      36.893836    
    415000   0.51801558    -7.7680693     -6.991057       4.0233844      50218.233      36.893836      36.893836      36.893836    
    416000   0.52004193    -7.7693152     -6.9892634      4.0132369      50218.233      36.893836      36.893836      36.893836    
    417000   0.51793358    -7.7651836     -6.9882943      4.0446497      50218.233      36.893836      36.893836      36.893836    
    418000   0.52090035    -7.7642506     -6.9829112      4.0525749      50218.233      36.893836      36.893836      36.893836    
    419000   0.52025329    -7.7683624     -6.9879935      4.0279897      50218.233      36.893836      36.893836      36.893836    
    420000   0.52088311    -7.7646974     -6.9833839      4.0625919      50218.233      36.893836      36.893836      36.893836    
    421000   0.51932494    -7.7673413     -6.988365       4.0336434      50218.233      36.893836      36.893836      36.893836    
    422000   0.51885115    -7.7675539     -6.9892882      4.023394       50218.233      36.893836      36.893836      36.893836    
    423000   0.52139925    -7.7649216     -6.9828339      4.0534441      50218.233      36.893836      36.893836      36.893836    
    424000   0.52217       -7.7671545     -6.9839106      4.041507       50218.233      36.893836      36.893836      36.893836    
    425000   0.52059877    -7.7667171     -6.9858301      4.0459892      50218.233      36.893836      36.893836      36.893836    
    426000   0.51636218    -7.7685189     -6.9939866      4.0181365      50218.233      36.893836      36.893836      36.893836    
    427000   0.51862333    -7.7659199     -6.987996       4.0424716      50218.233      36.893836      36.893836      36.893836    
    428000   0.51898834    -7.7658862     -6.9874148      4.0547714      50218.233      36.893836      36.893836      36.893836    
    429000   0.51994763    -7.7642188     -6.9843085      4.0585735      50218.233      36.893836      36.893836      36.893836    
    430000   0.52147032    -7.7639645     -6.9817701      4.0679966      50218.233      36.893836      36.893836      36.893836    
    431000   0.51870856    -7.7647582     -6.9867065      4.0528833      50218.233      36.893836      36.893836      36.893836    
    432000   0.52058365    -7.7697621     -6.9888977      4.0133283      50218.233      36.893836      36.893836      36.893836    
    433000   0.51848294    -7.767019      -6.9893057      4.0343033      50218.233      36.893836      36.893836      36.893836    
    434000   0.51988338    -7.7678424     -6.9880284      4.0329235      50218.233      36.893836      36.893836      36.893836    
    435000   0.51821345    -7.7719528     -6.9946437      3.9875748      50218.233      36.893836      36.893836      36.893836    
    436000   0.52087252    -7.7673422     -6.9860446      4.0363698      50218.233      36.893836      36.893836      36.893836    
    437000   0.51761021    -7.7668885     -6.9904842      4.0313805      50218.233      36.893836      36.893836      36.893836    
    438000   0.52173177    -7.7624498     -6.9798633      4.0796779      50218.233      36.893836      36.893836      36.893836    
    439000   0.51771388    -7.7653254     -6.9887656      4.0434953      50218.233      36.893836      36.893836      36.893836    
    440000   0.521253      -7.7655697     -6.9837013      4.057333       50218.233      36.893836      36.893836      36.893836    
    441000   0.51871467    -7.7669958     -6.9889349      4.0339849      50218.233      36.893836      36.893836      36.893836    
    442000   0.51969356    -7.7654411     -6.9859119      4.0583881      50218.233      36.893836      36.893836      36.893836    
    443000   0.52060842    -7.7692551     -6.9883536      4.0269474      50218.233      36.893836      36.893836      36.893836    
    444000   0.51903977    -7.771263      -6.9927144      4.0126212      50218.233      36.893836      36.893836      36.893836    
    445000   0.51765614    -7.7698887     -6.9934155      4.0057202      50218.233      36.893836      36.893836      36.893836    
    446000   0.52260691    -7.76611       -6.9822108      4.0580568      50218.233      36.893836      36.893836      36.893836    
    447000   0.52015454    -7.7631935     -6.9829727      4.068773       50218.233      36.893836      36.893836      36.893836    
    448000   0.51974381    -7.7659423     -6.9863376      4.0560832      50218.233      36.893836      36.893836      36.893836    
    449000   0.52130982    -7.7666967     -6.984743       4.0446884      50218.233      36.893836      36.893836      36.893836    
    450000   0.52028772    -7.7717386     -6.9913181      4.016043       50218.233      36.893836      36.893836      36.893836    
    451000   0.5196636     -7.767854      -6.9883697      4.0243384      50218.233      36.893836      36.893836      36.893836    
    452000   0.51916052    -7.7680053     -6.9892756      4.027003       50218.233      36.893836      36.893836      36.893836    
    453000   0.52184314    -7.7694594     -6.9867059      4.0243749      50218.233      36.893836      36.893836      36.893836    
    454000   0.51807906    -7.7668371     -6.9897295      4.0370262      50218.233      36.893836      36.893836      36.893836    
    455000   0.51838378    -7.7696147     -6.9920501      4.0178516      50218.233      36.893836      36.893836      36.893836    
    456000   0.5205614     -7.7664156     -6.9855846      4.0381909      50218.233      36.893836      36.893836      36.893836    
    457000   0.51947317    -7.7685943     -6.9893956      4.0248071      50218.233      36.893836      36.893836      36.893836    
    458000   0.52060006    -7.7659546     -6.9850656      4.0392519      50218.233      36.893836      36.893836      36.893836    
    459000   0.51726214    -7.7657295     -6.9898473      4.0428243      50218.233      36.893836      36.893836      36.893836    
    460000   0.51920476    -7.7645438     -6.9857477      4.0570204      50218.233      36.893836      36.893836      36.893836    
    461000   0.51914279    -7.7650706     -6.9863675      4.0360446      50218.233      36.893836      36.893836      36.893836    
    462000   0.52008136    -7.7679927     -6.9878817      4.0265013      50218.233      36.893836      36.893836      36.893836    
    463000   0.52105773    -7.7656179     -6.9840424      4.0439436      50218.233      36.893836      36.893836      36.893836    
    464000   0.52218009    -7.7679483     -6.9846893      4.03795        50218.233      36.893836      36.893836      36.893836    
    465000   0.51893373    -7.764019      -6.9856294      4.061242       50218.233      36.893836      36.893836      36.893836    
    466000   0.51944872    -7.7666005     -6.9874385      4.0364533      50218.233      36.893836      36.893836      36.893836    
    467000   0.51906807    -7.7701757     -6.9915847      4.0144295      50218.233      36.893836      36.893836      36.893836    
    468000   0.51966969    -7.7642103     -6.9847168      4.0565075      50218.233      36.893836      36.893836      36.893836    
    469000   0.52017922    -7.7630261     -6.9827684      4.0723032      50218.233      36.893836      36.893836      36.893836    
    470000   0.52034531    -7.7664653     -6.9859585      4.0367832      50218.233      36.893836      36.893836      36.893836    
    471000   0.52059451    -7.7645548     -6.9836741      4.0589651      50218.233      36.893836      36.893836      36.893836    
    472000   0.51583066    -7.7657984     -6.9920634      4.0430286      50218.233      36.893836      36.893836      36.893836    
    473000   0.51954815    -7.7701307     -6.9908196      4.0082463      50218.233      36.893836      36.893836      36.893836    
    474000   0.52033847    -7.7616027     -6.9811061      4.0847733      50218.233      36.893836      36.893836      36.893836    
    475000   0.51970933    -7.7697317     -6.9901788      4.024164       50218.233      36.893836      36.893836      36.893836    
    476000   0.51816702    -7.7719745     -6.994735       3.9829672      50218.233      36.893836      36.893836      36.893836    
    477000   0.51766968    -7.7610922     -6.9845987      4.0742672      50218.233      36.893836      36.893836      36.893836    
    478000   0.51731919    -7.765893      -6.9899252      4.0264025      50218.233      36.893836      36.893836      36.893836    
    479000   0.52077359    -7.7665634     -6.9854141      4.0478832      50218.233      36.893836      36.893836      36.893836    
    480000   0.52141271    -7.7626938     -6.9805858      4.0561248      50218.233      36.893836      36.893836      36.893836    
    481000   0.51960729    -7.7683072     -6.9889073      4.0331371      50218.233      36.893836      36.893836      36.893836    
    482000   0.5222119     -7.7705308     -6.9872241      4.0061536      50218.233      36.893836      36.893836      36.893836    
    483000   0.52152772    -7.7672402     -6.9849598      4.0485971      50218.233      36.893836      36.893836      36.893836    
    484000   0.52031709    -7.7733744     -6.9929099      3.9949173      50218.233      36.893836      36.893836      36.893836    
    485000   0.51953396    -7.7649225     -6.9856326      4.0519573      50218.233      36.893836      36.893836      36.893836    
    486000   0.51907779    -7.7724103     -6.9938046      3.9907028      50218.233      36.893836      36.893836      36.893836    
    487000   0.51801451    -7.7666179     -6.9896071      4.0408401      50218.233      36.893836      36.893836      36.893836    
    488000   0.5198301     -7.7645432     -6.9848091      4.052708       50218.233      36.893836      36.893836      36.893836    
    489000   0.52047976    -7.7668814     -6.9861729      4.030314       50218.233      36.893836      36.893836      36.893836    
    490000   0.51938499    -7.7682717     -6.9892052      4.0262371      50218.233      36.893836      36.893836      36.893836    
    491000   0.51873877    -7.7729488     -6.9948517      3.9955633      50218.233      36.893836      36.893836      36.893836    
    492000   0.52325889    -7.7689844     -6.9841073      4.0164374      50218.233      36.893836      36.893836      36.893836    
    493000   0.5202517     -7.7687724     -6.9884059      4.0210973      50218.233      36.893836      36.893836      36.893836    
    494000   0.51952175    -7.7683638     -6.9890923      4.0263503      50218.233      36.893836      36.893836      36.893836    
    495000   0.51674459    -7.769871      -6.9947652      4.0087344      50218.233      36.893836      36.893836      36.893836    
    496000   0.5203074     -7.7672617     -6.9868117      4.0408876      50218.233      36.893836      36.893836      36.893836    
    497000   0.52123986    -7.7717782     -6.9899295      4.0025561      50218.233      36.893836      36.893836      36.893836    
    498000   0.5206556     -7.7675852     -6.9866129      4.0339015      50218.233      36.893836      36.893836      36.893836    
    499000   0.52000688    -7.7678504     -6.9878511      4.0215212      50218.233      36.893836      36.893836      36.893836    
    500000   0.51706789    -7.7725629     -6.9969721      3.9892951      50218.233      36.893836      36.893836      36.893836    
    501000   0.5193855     -7.7659543     -6.9868871      4.0536463      50218.233      36.893836      36.893836      36.893836    
    502000   0.52214865    -7.7681417     -6.9849298      4.0277456      50218.233      36.893836      36.893836      36.893836    
    503000   0.51942445    -7.7669657     -6.9878401      4.031305       50218.233      36.893836      36.893836      36.893836    
    504000   0.51976672    -7.7681533     -6.9885143      4.0434788      50218.233      36.893836      36.893836      36.893836    
    505000   0.52007859    -7.7689307     -6.9888239      4.0189982      50218.233      36.893836      36.893836      36.893836    
    506000   0.51963739    -7.767312      -6.987867       4.0293846      50218.233      36.893836      36.893836      36.893836    
    507000   0.52017936    -7.7634106     -6.9831527      4.0622451      50218.233      36.893836      36.893836      36.893836    
    508000   0.51923535    -7.7720123     -6.9931704      4.0030572      50218.233      36.893836      36.893836      36.893836    
    509000   0.52280856    -7.7680584     -6.9838567      4.0334192      50218.233      36.893836      36.893836      36.893836    
    510000   0.5214821     -7.7714634     -6.9892514      4.0078831      50218.233      36.893836      36.893836      36.893836    
    511000   0.51957794    -7.7679242     -6.9885683      4.034022       50218.233      36.893836      36.893836      36.893836    
    512000   0.52241114    -7.7699487     -6.9863431      4.0197575      50218.233      36.893836      36.893836      36.893836    
    513000   0.51982666    -7.7669384     -6.9872095      4.0204221      50218.233      36.893836      36.893836      36.893836    
    514000   0.52094351    -7.770544      -6.9891399      4.0177109      50218.233      36.893836      36.893836      36.893836    
    515000   0.51925149    -7.7687168     -6.9898507      4.0201238      50218.233      36.893836      36.893836      36.893836    
    516000   0.51971107    -7.7680567     -6.9885012      4.0147609      50218.233      36.893836      36.893836      36.893836    
    517000   0.5211458     -7.7694943     -6.9877867      4.0255611      50218.233      36.893836      36.893836      36.893836    
    518000   0.51944542    -7.7684624     -6.9893054      4.0148269      50218.233      36.893836      36.893836      36.893836    
    519000   0.51951518    -7.7693333     -6.9900716      4.0141089      50218.233      36.893836      36.893836      36.893836    
    520000   0.51992703    -7.7685695     -6.9886901      4.0205331      50218.233      36.893836      36.893836      36.893836    
    521000   0.52116409    -7.768011      -6.986276       4.0301153      50218.233      36.893836      36.893836      36.893836    
    522000   0.5226578     -7.766972      -6.9829965      4.0449855      50218.233      36.893836      36.893836      36.893836    
    523000   0.51880781    -7.7680507     -6.9898501      4.0314415      50218.233      36.893836      36.893836      36.893836    
    524000   0.52030286    -7.7607707     -6.9803275      4.0837846      50218.233      36.893836      36.893836      36.893836    
    525000   0.51883033    -7.76369       -6.9854556      4.0628646      50218.233      36.893836      36.893836      36.893836    
    526000   0.5188661     -7.7627554     -6.9844673      4.0633985      50218.233      36.893836      36.893836      36.893836    
    527000   0.52021749    -7.7662426     -6.9859275      4.0419158      50218.233      36.893836      36.893836      36.893836    
    528000   0.52101402    -7.7653429     -6.983833       4.0415685      50218.233      36.893836      36.893836      36.893836    
    529000   0.51914593    -7.7659986     -6.9872908      4.0385204      50218.233      36.893836      36.893836      36.893836    
    530000   0.52160769    -7.7661273     -6.9837269      4.04485        50218.233      36.893836      36.893836      36.893836    
    531000   0.52118083    -7.7685991     -6.986839       4.028327       50218.233      36.893836      36.893836      36.893836    
    532000   0.51881861    -7.770275      -6.9920581      4.034749       50218.233      36.893836      36.893836      36.893836    
    533000   0.5207861     -7.7689281     -6.98776        4.0199148      50218.233      36.893836      36.893836      36.893836    
    534000   0.51861342    -7.7669001     -6.9889911      4.0242317      50218.233      36.893836      36.893836      36.893836    
    535000   0.52018071    -7.7675776     -6.9873176      4.0332665      50218.233      36.893836      36.893836      36.893836    
    536000   0.51945273    -7.7712429     -6.9920749      4.0044919      50218.233      36.893836      36.893836      36.893836    
    537000   0.51829758    -7.7692278     -6.9917925      4.014894       50218.233      36.893836      36.893836      36.893836    
    538000   0.51866887    -7.7715285     -6.9935362      4.006279       50218.233      36.893836      36.893836      36.893836    
    539000   0.51947045    -7.7666923     -6.9874977      4.0418887      50218.233      36.893836      36.893836      36.893836    
    540000   0.52112366    -7.7678661     -6.9861917      4.0345027      50218.233      36.893836      36.893836      36.893836    
    541000   0.52020336    -7.7712219     -6.9909279      4.0015297      50218.233      36.893836      36.893836      36.893836    
    542000   0.51907801    -7.7722668     -6.9936608      4.0003231      50218.233      36.893836      36.893836      36.893836    
    543000   0.51921176    -7.7693994     -6.9905928      4.0091337      50218.233      36.893836      36.893836      36.893836    
    544000   0.52079495    -7.7719344     -6.9907531      4.0083516      50218.233      36.893836      36.893836      36.893836    
    545000   0.52005669    -7.7710111     -6.9909372      4.0176603      50218.233      36.893836      36.893836      36.893836    
    546000   0.51841183    -7.7695569     -6.9919502      4.0120495      50218.233      36.893836      36.893836      36.893836    
    547000   0.52021387    -7.768472      -6.9881623      4.0243328      50218.233      36.893836      36.893836      36.893836    
    548000   0.51868275    -7.770778      -6.992765       4.0103085      50218.233      36.893836      36.893836      36.893836    
    549000   0.51948428    -7.771469      -6.9922537      4.0056299      50218.233      36.893836      36.893836      36.893836    
    550000   0.51684346    -7.7681128     -6.9928587      4.0304189      50218.233      36.893836      36.893836      36.893836    
    551000   0.51902214    -7.7674572     -6.9889351      4.0335859      50218.233      36.893836      36.893836      36.893836    
    552000   0.51927945    -7.7681043     -6.9891962      4.0218946      50218.233      36.893836      36.893836      36.893836    
    553000   0.52209671    -7.7673106     -6.9841767      4.0492412      50218.233      36.893836      36.893836      36.893836    
    554000   0.5217932     -7.765834      -6.9831553      4.054414       50218.233      36.893836      36.893836      36.893836    
    555000   0.52076422    -7.7723319     -6.9911967      4.0060041      50218.233      36.893836      36.893836      36.893836    
    556000   0.51690428    -7.7691364     -6.993791       4.0265737      50218.233      36.893836      36.893836      36.893836    
    557000   0.52242457    -7.7707316     -6.9871059      4.0159841      50218.233      36.893836      36.893836      36.893836    
    558000   0.51709025    -7.7657938     -6.9901694      4.0465128      50218.233      36.893836      36.893836      36.893836    
    559000   0.51692488    -7.7755442     -7.0001679      3.9668308      50218.233      36.893836      36.893836      36.893836    
    560000   0.51950317    -7.769732      -6.9904883      4.0198423      50218.233      36.893836      36.893836      36.893836    
    561000   0.52050949    -7.7723536     -6.9916004      4.0006743      50218.233      36.893836      36.893836      36.893836    
    562000   0.52010594    -7.7704095     -6.9902617      4.0244315      50218.233      36.893836      36.893836      36.893836    
    563000   0.51981024    -7.7691217     -6.9894174      4.0261321      50218.233      36.893836      36.893836      36.893836    
    564000   0.51901049    -7.7696211     -6.9911164      4.0199907      50218.233      36.893836      36.893836      36.893836    
    565000   0.51959605    -7.7724772     -6.9930942      4.0034018      50218.233      36.893836      36.893836      36.893836    
    566000   0.51777354    -7.7673691     -6.9907198      4.0214382      50218.233      36.893836      36.893836      36.893836    
    567000   0.51777323    -7.7690575     -6.9924087      4.0212455      50218.233      36.893836      36.893836      36.893836    
    568000   0.52017845    -7.7691525     -6.9888959      4.0160449      50218.233      36.893836      36.893836      36.893836    
    569000   0.52086996    -7.7643373     -6.9830435      4.0608315      50218.233      36.893836      36.893836      36.893836    
    570000   0.52193212    -7.7653385     -6.9824515      4.0546618      50218.233      36.893836      36.893836      36.893836    
    571000   0.51908718    -7.7670977     -6.988478       4.039807       50218.233      36.893836      36.893836      36.893836    
    572000   0.51874775    -7.769415      -6.9913044      4.0177039      50218.233      36.893836      36.893836      36.893836    
    573000   0.52088008    -7.7656318     -6.9843228      4.0633312      50218.233      36.893836      36.893836      36.893836    
    574000   0.52275994    -7.7689576     -6.9848289      4.0275146      50218.233      36.893836      36.893836      36.893836    
    575000   0.52036253    -7.765054      -6.9845213      4.0578137      50218.233      36.893836      36.893836      36.893836    
    576000   0.51897674    -7.7699473     -6.9914933      4.0169145      50218.233      36.893836      36.893836      36.893836    
    577000   0.51913555    -7.7658916     -6.9871993      4.0451369      50218.233      36.893836      36.893836      36.893836    
    578000   0.51761928    -7.7697869     -6.9933691      4.0209519      50218.233      36.893836      36.893836      36.893836    
    579000   0.51894982    -7.7685003     -6.9900866      4.0316082      50218.233      36.893836      36.893836      36.893836    
    580000   0.51927917    -7.7662392     -6.9873315      4.0580647      50218.233      36.893836      36.893836      36.893836    
    581000   0.52158878    -7.7731347     -6.9907627      3.9991554      50218.233      36.893836      36.893836      36.893836    
    582000   0.52142517    -7.7690264     -6.9868998      4.0354156      50218.233      36.893836      36.893836      36.893836    
    583000   0.51954614    -7.7663379     -6.9870297      4.0330397      50218.233      36.893836      36.893836      36.893836    
    584000   0.52103535    -7.7687776     -6.9872357      4.0296006      50218.233      36.893836      36.893836      36.893836    
    585000   0.52175006    -7.7683973     -6.9857834      4.0326688      50218.233      36.893836      36.893836      36.893836    
    586000   0.52182458    -7.7677839     -6.9850582      4.0341769      50218.233      36.893836      36.893836      36.893836    
    587000   0.51928049    -7.763252      -6.9843424      4.0680004      50218.233      36.893836      36.893836      36.893836    
    588000   0.52048675    -7.7713235     -6.9906045      4.0090056      50218.233      36.893836      36.893836      36.893836    
    589000   0.52179727    -7.7676338     -6.984949       4.0454613      50218.233      36.893836      36.893836      36.893836    
    590000   0.52046261    -7.7694211     -6.9887383      4.018472       50218.233      36.893836      36.893836      36.893836    
    591000   0.5179119     -7.7696        -6.9927432      4.0153569      50218.233      36.893836      36.893836      36.893836    
    592000   0.5178494     -7.7690714     -6.9923083      4.0311799      50218.233      36.893836      36.893836      36.893836    
    593000   0.51906334    -7.772659      -6.994075       3.9998936      50218.233      36.893836      36.893836      36.893836    
    594000   0.51988872    -7.7698332     -6.9900113      4.0252392      50218.233      36.893836      36.893836      36.893836    
    595000   0.52157867    -7.7654401     -6.9830832      4.0624275      50218.233      36.893836      36.893836      36.893836    
    596000   0.52162975    -7.7685593     -6.9861258      4.0264373      50218.233      36.893836      36.893836      36.893836    
    597000   0.5187157     -7.7681943     -6.9901318      4.0446758      50218.233      36.893836      36.893836      36.893836    
    598000   0.51905208    -7.7663603     -6.9877933      4.0437651      50218.233      36.893836      36.893836      36.893836    
    599000   0.51942781    -7.7741061     -6.9949755      3.9927326      50218.233      36.893836      36.893836      36.893836    
    600000   0.52410836    -7.7665404     -6.980389       4.0460248      50218.233      36.893836      36.893836      36.893836    
    601000   0.51885161    -7.7682503     -6.989984       4.0417426      50218.233      36.893836      36.893836      36.893836    
    602000   0.52073837    -7.7714378     -6.9903414      4.0084612      50218.233      36.893836      36.893836      36.893836    
    603000   0.51864873    -7.7638744     -6.9859124      4.0707014      50218.233      36.893836      36.893836      36.893836    
    604000   0.52036869    -7.7640501     -6.9835082      4.0633801      50218.233      36.893836      36.893836      36.893836    
    605000   0.51955715    -7.7720199     -6.9926953      4.0113407      50218.233      36.893836      36.893836      36.893836    
    606000   0.52213027    -7.7661421     -6.9829579      4.0546715      50218.233      36.893836      36.893836      36.893836    
    607000   0.51806125    -7.7673242     -6.9902434      4.0327175      50218.233      36.893836      36.893836      36.893836    
    608000   0.52087507    -7.7695699     -6.9882684      4.0287421      50218.233      36.893836      36.893836      36.893836    
    609000   0.52105585    -7.7705311     -6.9889584      4.0238792      50218.233      36.893836      36.893836      36.893836    
    610000   0.52043368    -7.7718537     -6.9912143      4.0031199      50218.233      36.893836      36.893836      36.893836    
    611000   0.5193347     -7.7711306     -6.9921397      4.0106105      50218.233      36.893836      36.893836      36.893836    
    612000   0.52005746    -7.7650737     -6.9849986      4.056458       50218.233      36.893836      36.893836      36.893836    
    613000   0.5204301     -7.7693974     -6.9887633      4.0218812      50218.233      36.893836      36.893836      36.893836    
    614000   0.52105327    -7.769177      -6.9876082      4.0224919      50218.233      36.893836      36.893836      36.893836    
    615000   0.52204177    -7.7674533     -6.9844018      4.0379848      50218.233      36.893836      36.893836      36.893836    
    616000   0.52296663    -7.7695894     -6.9851507      4.0268453      50218.233      36.893836      36.893836      36.893836    
    617000   0.52031415    -7.7677813     -6.9873212      4.0269301      50218.233      36.893836      36.893836      36.893836    
    618000   0.51994708    -7.769879      -6.9899695      4.0205811      50218.233      36.893836      36.893836      36.893836    
    619000   0.52152667    -7.7670295     -6.9847507      4.0465724      50218.233      36.893836      36.893836      36.893836    
    620000   0.5207731     -7.7647668     -6.9836182      4.0489207      50218.233      36.893836      36.893836      36.893836    
    621000   0.51721589    -7.7711182     -6.9953054      4.002106       50218.233      36.893836      36.893836      36.893836    
    622000   0.52002722    -7.7704541     -6.9904244      4.0139466      50218.233      36.893836      36.893836      36.893836    
    623000   0.5197355     -7.7718495     -6.9922574      4.014974       50218.233      36.893836      36.893836      36.893836    
    624000   0.5211535     -7.7682538     -6.9865346      4.0327409      50218.233      36.893836      36.893836      36.893836    
    625000   0.51983812    -7.7648566     -6.9851105      4.0578167      50218.233      36.893836      36.893836      36.893836    
    626000   0.51903597    -7.7651663     -6.9866234      4.0472042      50218.233      36.893836      36.893836      36.893836    
    627000   0.51940818    -7.7674686     -6.9883674      4.0302371      50218.233      36.893836      36.893836      36.893836    
    628000   0.52464151    -7.7685487     -6.9815976      4.0343439      50218.233      36.893836      36.893836      36.893836    
    629000   0.52007515    -7.769379      -6.9892773      4.0270098      50218.233      36.893836      36.893836      36.893836    
    630000   0.51907833    -7.7659212     -6.9873148      4.0466807      50218.233      36.893836      36.893836      36.893836    
    631000   0.52207635    -7.765927      -6.9828236      4.049053       50218.233      36.893836      36.893836      36.893836    
    632000   0.51934467    -7.7662335     -6.9872276      4.0469426      50218.233      36.893836      36.893836      36.893836    
    633000   0.51981887    -7.7658303     -6.9861131      4.0464995      50218.233      36.893836      36.893836      36.893836    
    634000   0.52112416    -7.7664303     -6.9847552      4.0550307      50218.233      36.893836      36.893836      36.893836    
    635000   0.51775837    -7.7682808     -6.9916543      4.039053       50218.233      36.893836      36.893836      36.893836    
    636000   0.51819612    -7.7673731     -6.99009        4.030488       50218.233      36.893836      36.893836      36.893836    
    637000   0.51877536    -7.7732868     -6.9951349      3.993616       50218.233      36.893836      36.893836      36.893836    
    638000   0.52038673    -7.7689874     -6.9884184      4.0345619      50218.233      36.893836      36.893836      36.893836    
    639000   0.52040578    -7.764491      -6.9838934      4.0709684      50218.233      36.893836      36.893836      36.893836    
    640000   0.51986203    -7.767314      -6.987532       4.0356537      50218.233      36.893836      36.893836      36.893836    
    641000   0.51941437    -7.7679192     -6.9888087      4.036677       50218.233      36.893836      36.893836      36.893836    
    642000   0.52156304    -7.7660807     -6.9837472      4.0493765      50218.233      36.893836      36.893836      36.893836    
    643000   0.52203297    -7.7664181     -6.9833798      4.0519076      50218.233      36.893836      36.893836      36.893836    
    644000   0.5174098     -7.7702343     -6.9941306      4.0236073      50218.233      36.893836      36.893836      36.893836    
    645000   0.51881321    -7.7650245     -6.9868157      4.0573976      50218.233      36.893836      36.893836      36.893836    
    646000   0.51865226    -7.7678924     -6.9899251      4.025319       50218.233      36.893836      36.893836      36.893836    
    647000   0.52093542    -7.7663706     -6.9849786      4.0522333      50218.233      36.893836      36.893836      36.893836    
    648000   0.52091355    -7.7644535     -6.9830943      4.070336       50218.233      36.893836      36.893836      36.893836    
    649000   0.52103312    -7.763337      -6.9817984      4.0796289      50218.233      36.893836      36.893836      36.893836    
    650000   0.52193326    -7.7684845     -6.9855957      4.0373689      50218.233      36.893836      36.893836      36.893836    
    651000   0.51843737    -7.7655356     -6.9878906      4.0524527      50218.233      36.893836      36.893836      36.893836    
    652000   0.52263843    -7.7710065     -6.98706        4.017276       50218.233      36.893836      36.893836      36.893836    
    653000   0.52287817    -7.7679871     -6.983681       4.0474795      50218.233      36.893836      36.893836      36.893836    
    654000   0.51906682    -7.7699201     -6.9913309      4.0123353      50218.233      36.893836      36.893836      36.893836    
    655000   0.51913576    -7.7661037     -6.9874111      4.0458198      50218.233      36.893836      36.893836      36.893836    
    656000   0.51892506    -7.769915      -6.9915385      4.0138059      50218.233      36.893836      36.893836      36.893836    
    657000   0.5215118     -7.7629802     -6.9807236      4.0726019      50218.233      36.893836      36.893836      36.893836    
    658000   0.51765355    -7.7665133     -6.9900441      4.04181        50218.233      36.893836      36.893836      36.893836    
    659000   0.51756759    -7.7645875     -6.9882472      4.0571783      50218.233      36.893836      36.893836      36.893836    
    660000   0.52021546    -7.7660194     -6.9857073      4.0478726      50218.233      36.893836      36.893836      36.893836    
    661000   0.52098977    -7.7647405     -6.983267       4.0613524      50218.233      36.893836      36.893836      36.893836    
    662000   0.5150485     -7.7685305     -6.9959687      4.0220851      50218.233      36.893836      36.893836      36.893836    
    663000   0.52024451    -7.766847      -6.9864913      4.0488156      50218.233      36.893836      36.893836      36.893836    
    664000   0.51999027    -7.7636125     -6.9836381      4.0731285      50218.233      36.893836      36.893836      36.893836    
    665000   0.51983306    -7.7652829     -6.9855444      4.0680897      50218.233      36.893836      36.893836      36.893836    
    666000   0.52261344    -7.7678079     -6.9838989      4.0405165      50218.233      36.893836      36.893836      36.893836    
    667000   0.52212297    -7.7677759     -6.9846026      4.0438176      50218.233      36.893836      36.893836      36.893836    
    668000   0.52232938    -7.7690535     -6.9855706      4.0198665      50218.233      36.893836      36.893836      36.893836    
    669000   0.52059441    -7.7632828     -6.9824023      4.0598565      50218.233      36.893836      36.893836      36.893836    
    670000   0.52029351    -7.7650425     -6.9846134      4.0493589      50218.233      36.893836      36.893836      36.893836    
    671000   0.52015893    -7.7646735     -6.9844462      4.0559356      50218.233      36.893836      36.893836      36.893836    
    672000   0.52432302    -7.7636157     -6.9771424      4.0801725      50218.233      36.893836      36.893836      36.893836    
    673000   0.5177713     -7.7686931     -6.9920472      4.0241532      50218.233      36.893836      36.893836      36.893836    
    674000   0.52004033    -7.7677616     -6.9877122      4.0295702      50218.233      36.893836      36.893836      36.893836    
    675000   0.52181484    -7.7710025     -6.9882914      4.014592       50218.233      36.893836      36.893836      36.893836    
    676000   0.52071756    -7.7641525     -6.9830872      4.0596635      50218.233      36.893836      36.893836      36.893836    
    677000   0.51994045    -7.7622907     -6.9823911      4.0706633      50218.233      36.893836      36.893836      36.893836    
    678000   0.51827631    -7.7667912     -6.9893878      4.0371997      50218.233      36.893836      36.893836      36.893836    
    679000   0.51817527    -7.7612236     -6.9839718      4.0864616      50218.233      36.893836      36.893836      36.893836    
    680000   0.52023259    -7.7658257     -6.9854879      4.0487789      50218.233      36.893836      36.893836      36.893836    
    681000   0.52187082    -7.7666408     -6.9838457      4.0416402      50218.233      36.893836      36.893836      36.893836    
    682000   0.52058769    -7.7669864     -6.986116       4.0412788      50218.233      36.893836      36.893836      36.893836    
    683000   0.52040337    -7.7686541     -6.9880601      4.036557       50218.233      36.893836      36.893836      36.893836    
    684000   0.51950488    -7.7653214     -6.9860751      4.0523071      50218.233      36.893836      36.893836      36.893836    
    685000   0.5180215     -7.7654801     -6.9884589      4.0539261      50218.233      36.893836      36.893836      36.893836    
    686000   0.51807186    -7.7592641     -6.9821673      4.0947963      50218.233      36.893836      36.893836      36.893836    
    687000   0.52298432    -7.7663286     -6.9818633      4.0428243      50218.233      36.893836      36.893836      36.893836    
    688000   0.520586      -7.7686088     -6.9877409      4.0452006      50218.233      36.893836      36.893836      36.893836    
    689000   0.52126678    -7.7657363     -6.9838473      4.0512316      50218.233      36.893836      36.893836      36.893836    
    690000   0.51916263    -7.7653545     -6.9866216      4.0446664      50218.233      36.893836      36.893836      36.893836    
    691000   0.51791671    -7.7656773     -6.9888133      4.0409139      50218.233      36.893836      36.893836      36.893836    
    692000   0.5216769     -7.7606198     -6.9781156      4.0831054      50218.233      36.893836      36.893836      36.893836    
    693000   0.52091039    -7.7693996     -6.9880452      4.024034       50218.233      36.893836      36.893836      36.893836    
    694000   0.5196097     -7.7687471     -6.9893436      4.0323177      50218.233      36.893836      36.893836      36.893836    
    695000   0.51949869    -7.7687225     -6.9894856      4.0269406      50218.233      36.893836      36.893836      36.893836    
    696000   0.51739576    -7.7677397     -6.9916571      4.0354591      50218.233      36.893836      36.893836      36.893836    
    697000   0.52251959    -7.7700416     -6.9862734      4.027327       50218.233      36.893836      36.893836      36.893836    
    698000   0.5182483     -7.7643485     -6.9869871      4.0556804      50218.233      36.893836      36.893836      36.893836    
    699000   0.51873778    -7.7691019     -6.9910063      4.0227124      50218.233      36.893836      36.893836      36.893836    
    700000   0.52217592    -7.7635209     -6.9802682      4.075591       50218.233      36.893836      36.893836      36.893836    
    701000   0.51966375    -7.7654994     -6.9860149      4.0565859      50218.233      36.893836      36.893836      36.893836    
    702000   0.5226659     -7.7669414     -6.9829537      4.0453502      50218.233      36.893836      36.893836      36.893836    
    703000   0.51886066    -7.767069      -6.9887891      4.0383747      50218.233      36.893836      36.893836      36.893836    
    704000   0.51720614    -7.7711501     -6.9953519      4.0071826      50218.233      36.893836      36.893836      36.893836    
    705000   0.51762424    -7.7626365     -6.9862112      4.0698975      50218.233      36.893836      36.893836      36.893836    
    706000   0.5183708     -7.7669131     -6.989368       4.0465718      50218.233      36.893836      36.893836      36.893836    
    707000   0.5176659     -7.7655201     -6.9890323      4.0440472      50218.233      36.893836      36.893836      36.893836    
    708000   0.52052373    -7.7655504     -6.9847759      4.0470556      50218.233      36.893836      36.893836      36.893836    
    709000   0.5211463     -7.7709081     -6.9891998      4.004911       50218.233      36.893836      36.893836      36.893836    
    710000   0.52096991    -7.7651311     -6.9836874      4.0525516      50218.233      36.893836      36.893836      36.893836    
    711000   0.52263069    -7.7653021     -6.9813672      4.0564567      50218.233      36.893836      36.893836      36.893836    
    712000   0.51960062    -7.765137      -6.9857471      4.0477975      50218.233      36.893836      36.893836      36.893836    
    713000   0.52084412    -7.7693051     -6.9880501      4.0224982      50218.233      36.893836      36.893836      36.893836    
    714000   0.51798213    -7.7688817     -6.9919195      4.0247147      50218.233      36.893836      36.893836      36.893836    
    715000   0.52395525    -7.766881      -6.9809593      4.0435349      50218.233      36.893836      36.893836      36.893836    
    716000   0.51814691    -7.7665683     -6.989359       4.0403985      50218.233      36.893836      36.893836      36.893836    
    717000   0.51919633    -7.7676261     -6.9888426      4.0300054      50218.233      36.893836      36.893836      36.893836    
    718000   0.51921356    -7.7705343     -6.9917251      4.0143109      50218.233      36.893836      36.893836      36.893836    
    719000   0.51949378    -7.7703356     -6.991106       4.0192039      50218.233      36.893836      36.893836      36.893836    
    720000   0.52034231    -7.7664173     -6.985915       4.0410682      50218.233      36.893836      36.893836      36.893836    
    721000   0.5203606     -7.7624803     -6.9819505      4.0698729      50218.233      36.893836      36.893836      36.893836    
    722000   0.51864571    -7.770045      -6.9920875      4.0103267      50218.233      36.893836      36.893836      36.893836    
    723000   0.51706257    -7.7709806     -6.9953978      4.0183863      50218.233      36.893836      36.893836      36.893836    
    724000   0.52069545    -7.7635984     -6.9825664      4.0702875      50218.233      36.893836      36.893836      36.893836    
    725000   0.52031677    -7.7667255     -6.9862615      4.0485459      50218.233      36.893836      36.893836      36.893836    
    726000   0.51936294    -7.7660601     -6.9870268      4.0528223      50218.233      36.893836      36.893836      36.893836    
    727000   0.51963741    -7.7668409     -6.9873959      4.037518       50218.233      36.893836      36.893836      36.893836    
    728000   0.52162913    -7.761518      -6.9790855      4.0798609      50218.233      36.893836      36.893836      36.893836    
    729000   0.52152441    -7.7644355     -6.98216        4.0641709      50218.233      36.893836      36.893836      36.893836    
    730000   0.52006702    -7.7651401     -6.9850507      4.054985       50218.233      36.893836      36.893836      36.893836    
    731000   0.51743517    -7.7660722     -6.9899305      4.0388357      50218.233      36.893836      36.893836      36.893836    
    732000   0.51812929    -7.7661513     -6.9889685      4.0465837      50218.233      36.893836      36.893836      36.893836    
    733000   0.52143078    -7.765039      -6.982904       4.0594386      50218.233      36.893836      36.893836      36.893836    
    734000   0.51899651    -7.7652329     -6.9867492      4.059481       50218.233      36.893836      36.893836      36.893836    
    735000   0.52323261    -7.7661285     -6.9812907      4.0505728      50218.233      36.893836      36.893836      36.893836    
    736000   0.51888798    -7.7669573     -6.9886364      4.0325921      50218.233      36.893836      36.893836      36.893836    
    737000   0.518984      -7.7644522     -6.9859873      4.0573959      50218.233      36.893836      36.893836      36.893836    
    738000   0.52029882    -7.7691835     -6.9887464      4.021659       50218.233      36.893836      36.893836      36.893836    
    739000   0.51992242    -7.7651671     -6.9852945      4.0462825      50218.233      36.893836      36.893836      36.893836    
    740000   0.51643698    -7.7711576     -6.9965132      3.9997027      50218.233      36.893836      36.893836      36.893836    
    741000   0.51872316    -7.7654256     -6.9873519      4.0410888      50218.233      36.893836      36.893836      36.893836    
    742000   0.51880148    -7.7694802     -6.991289       4.0224783      50218.233      36.893836      36.893836      36.893836    
    743000   0.51946907    -7.763579      -6.9843864      4.0518029      50218.233      36.893836      36.893836      36.893836    
    744000   0.52002716    -7.7697227     -6.9896931      4.0172428      50218.233      36.893836      36.893836      36.893836    
    745000   0.51886141    -7.7685766     -6.9902955      4.0209943      50218.233      36.893836      36.893836      36.893836    
    746000   0.51790527    -7.7678736     -6.9910267      4.0339528      50218.233      36.893836      36.893836      36.893836    
    747000   0.51868502    -7.7701194     -6.9921029      4.0096641      50218.233      36.893836      36.893836      36.893836    
    748000   0.51793953    -7.77003       -6.9931318      4.0192525      50218.233      36.893836      36.893836      36.893836    
    749000   0.52078005    -7.7681801     -6.9870212      4.0299209      50218.233      36.893836      36.893836      36.893836    
    750000   0.51771659    -7.773488      -6.9969242      3.9839239      50218.233      36.893836      36.893836      36.893836    
    751000   0.51953664    -7.7698481     -6.9905543      4.0269692      50218.233      36.893836      36.893836      36.893836    
    752000   0.51989299    -7.770795      -6.9909666      4.0119947      50218.233      36.893836      36.893836      36.893836    
    753000   0.52035927    -7.7688731     -6.9883453      4.0233846      50218.233      36.893836      36.893836      36.893836    
    754000   0.52029051    -7.7683898     -6.9879652      4.0253329      50218.233      36.893836      36.893836      36.893836    
    755000   0.52268461    -7.7652548     -6.981239       4.0562281      50218.233      36.893836      36.893836      36.893836    
    756000   0.52135463    -7.7677824     -6.9857616      4.042346       50218.233      36.893836      36.893836      36.893836    
    757000   0.52194529    -7.7662036     -6.9832968      4.034143       50218.233      36.893836      36.893836      36.893836    
    758000   0.51686314    -7.7670552     -6.9917715      4.0310246      50218.233      36.893836      36.893836      36.893836    
    759000   0.5214711     -7.7711197     -6.9889242      4.0222329      50218.233      36.893836      36.893836      36.893836    
    760000   0.5195775     -7.7683261     -6.988971       4.0292863      50218.233      36.893836      36.893836      36.893836    
    761000   0.51853545    -7.7652309     -6.9874388      4.0474681      50218.233      36.893836      36.893836      36.893836    
    762000   0.52077424    -7.7688649     -6.9877146      4.028935       50218.233      36.893836      36.893836      36.893836    
    763000   0.52077458    -7.7639398     -6.982789       4.0556424      50218.233      36.893836      36.893836      36.893836    
    764000   0.52027418    -7.7700991     -6.9896989      4.0120139      50218.233      36.893836      36.893836      36.893836    
    765000   0.52057257    -7.7655914     -6.9847436      4.0494834      50218.233      36.893836      36.893836      36.893836    
    766000   0.52353629    -7.7620152     -6.976722       4.074735       50218.233      36.893836      36.893836      36.893836    
    767000   0.52131182    -7.7657182     -6.9837616      4.0435727      50218.233      36.893836      36.893836      36.893836    
    768000   0.52384303    -7.7628826     -6.9771292      4.0685513      50218.233      36.893836      36.893836      36.893836    
    769000   0.51835765    -7.7657602     -6.9882348      4.0361051      50218.233      36.893836      36.893836      36.893836    
    770000   0.5191458     -7.7641816     -6.985474       4.0584143      50218.233      36.893836      36.893836      36.893836    
    771000   0.51878172    -7.7724445     -6.994283       4.0030397      50218.233      36.893836      36.893836      36.893836    
    772000   0.51918471    -7.763698      -6.984932       4.0571157      50218.233      36.893836      36.893836      36.893836    
    773000   0.51885657    -7.76169       -6.9834162      4.0767801      50218.233      36.893836      36.893836      36.893836    
    774000   0.51880539    -7.7639919     -6.9857949      4.0616271      50218.233      36.893836      36.893836      36.893836    
    775000   0.51936107    -7.7660318     -6.9870013      4.0533351      50218.233      36.893836      36.893836      36.893836    
    776000   0.52330914    -7.7651617     -6.9802091      4.0448833      50218.233      36.893836      36.893836      36.893836    
    777000   0.52084522    -7.7644382     -6.9831815      4.0604282      50218.233      36.893836      36.893836      36.893836    
    778000   0.5199586     -7.7666708     -6.9867439      4.0386257      50218.233      36.893836      36.893836      36.893836    
    779000   0.52245227    -7.7698769     -6.9862097      4.0245104      50218.233      36.893836      36.893836      36.893836    
    780000   0.52004961    -7.7651977     -6.9851344      4.0443761      50218.233      36.893836      36.893836      36.893836    
    781000   0.51994812    -7.764327      -6.9844159      4.0630422      50218.233      36.893836      36.893836      36.893836    
    782000   0.52118644    -7.7665545     -6.9847859      4.0381032      50218.233      36.893836      36.893836      36.893836    
    783000   0.52088123    -7.7654923     -6.9841815      4.0517453      50218.233      36.893836      36.893836      36.893836    
    784000   0.51796198    -7.7654918     -6.9885599      4.0590002      50218.233      36.893836      36.893836      36.893836    
    785000   0.51931045    -7.7660666     -6.987112       4.0446182      50218.233      36.893836      36.893836      36.893836    
    786000   0.5198098     -7.7675921     -6.9878884      4.0270358      50218.233      36.893836      36.893836      36.893836    
    787000   0.52117078    -7.7723163     -6.9905712      4.0048269      50218.233      36.893836      36.893836      36.893836    
    788000   0.5203289     -7.7633986     -6.9829163      4.0698329      50218.233      36.893836      36.893836      36.893836    
    789000   0.51942632    -7.7666284     -6.9875         4.041875       50218.233      36.893836      36.893836      36.893836    
    790000   0.52260085    -7.7628277     -6.9789376      4.0668801      50218.233      36.893836      36.893836      36.893836    
    791000   0.51741716    -7.76768       -6.9915653      4.0273698      50218.233      36.893836      36.893836      36.893836    
    792000   0.52122489    -7.7694112     -6.987585       4.0289052      50218.233      36.893836      36.893836      36.893836    
    793000   0.51720785    -7.7635679     -6.9877671      4.0459633      50218.233      36.893836      36.893836      36.893836    
    794000   0.51788306    -7.7707105     -6.993897       4.0008477      50218.233      36.893836      36.893836      36.893836    
    795000   0.52154484    -7.7694337     -6.9871276      4.0235039      50218.233      36.893836      36.893836      36.893836    
    796000   0.5211321     -7.7673982     -6.9857112      4.0337987      50218.233      36.893836      36.893836      36.893836    
    797000   0.51961353    -7.7652406     -6.9858314      4.0452449      50218.233      36.893836      36.893836      36.893836    
    798000   0.51545798    -7.7600434     -6.9868674      4.0769948      50218.233      36.893836      36.893836      36.893836    
    799000   0.51925276    -7.7652256     -6.9863576      4.0516506      50218.233      36.893836      36.893836      36.893836    
    800000   0.51991373    -7.7695633     -6.9897038      4.0107666      50218.233      36.893836      36.893836      36.893836    
    801000   0.52180419    -7.769751      -6.9870558      4.0195801      50218.233      36.893836      36.893836      36.893836    
    802000   0.52071407    -7.7695782     -6.9885182      4.011345       50218.233      36.893836      36.893836      36.893836    
    803000   0.52117596    -7.7712986     -6.9895458      4.0215092      50218.233      36.893836      36.893836      36.893836    
    804000   0.51892199    -7.7656667     -6.9872948      4.0427707      50218.233      36.893836      36.893836      36.893836    
    805000   0.52136117    -7.7655777     -6.9835471      4.0375082      50218.233      36.893836      36.893836      36.893836    
    806000   0.51936467    -7.7710607     -6.9920248      3.998643       50218.233      36.893836      36.893836      36.893836    
    807000   0.51883432    -7.7671952     -6.9889548      4.0297889      50218.233      36.893836      36.893836      36.893836    
    808000   0.51775622    -7.7706642     -6.9940409      4.0093349      50218.233      36.893836      36.893836      36.893836    
    809000   0.51646727    -7.7662529     -6.991563       4.0396205      50218.233      36.893836      36.893836      36.893836    
    810000   0.51901134    -7.7683227     -6.9898168      4.0323279      50218.233      36.893836      36.893836      36.893836    
    811000   0.52132397    -7.7681557     -6.9861809      4.0321298      50218.233      36.893836      36.893836      36.893836    
    812000   0.52265227    -7.7637026     -6.9797354      4.0634382      50218.233      36.893836      36.893836      36.893836    
    813000   0.51916665    -7.76706       -6.9883211      4.0364047      50218.233      36.893836      36.893836      36.893836    
    814000   0.51831012    -7.7633158     -6.9858617      4.0705788      50218.233      36.893836      36.893836      36.893836    
    815000   0.51672079    -7.7652566     -6.9901864      4.0375037      50218.233      36.893836      36.893836      36.893836    
    816000   0.52042882    -7.7668109     -6.9861787      4.0354904      50218.233      36.893836      36.893836      36.893836    
    817000   0.52305754    -7.7653601     -6.980785       4.0535428      50218.233      36.893836      36.893836      36.893836    
    818000   0.51703764    -7.7671322     -6.9915867      4.0205251      50218.233      36.893836      36.893836      36.893836    
    819000   0.51692865    -7.7639596     -6.9885776      4.0547766      50218.233      36.893836      36.893836      36.893836    
    820000   0.51881006    -7.762566      -6.984362       4.0688654      50218.233      36.893836      36.893836      36.893836    
    821000   0.51972305    -7.7625471     -6.9829737      4.070876       50218.233      36.893836      36.893836      36.893836    
    822000   0.51825624    -7.7679177     -6.9905444      4.0315648      50218.233      36.893836      36.893836      36.893836    
    823000   0.51961907    -7.7667131     -6.9872956      4.0458511      50218.233      36.893836      36.893836      36.893836    
    824000   0.52111799    -7.7640722     -6.9824063      4.0521475      50218.233      36.893836      36.893836      36.893836    
    825000   0.5183461     -7.7659372     -6.9884291      4.0410784      50218.233      36.893836      36.893836      36.893836    
    826000   0.51626058    -7.7679848     -6.9936049      4.0241866      50218.233      36.893836      36.893836      36.893836    
    827000   0.52167871    -7.7617821     -6.9792752      4.0786457      50218.233      36.893836      36.893836      36.893836    
    828000   0.51730191    -7.764177      -6.9882352      4.058276       50218.233      36.893836      36.893836      36.893836    
    829000   0.51875915    -7.7666648     -6.9885371      4.0372599      50218.233      36.893836      36.893836      36.893836    
    830000   0.52195669    -7.7664761     -6.9835522      4.0391668      50218.233      36.893836      36.893836      36.893836    
    831000   0.51916397    -7.7645042     -6.9857693      4.0512022      50218.233      36.893836      36.893836      36.893836    
    832000   0.52025853    -7.7675861     -6.9872094      4.0440827      50218.233      36.893836      36.893836      36.893836    
    833000   0.51924018    -7.7712086     -6.9923595      4.0057029      50218.233      36.893836      36.893836      36.893836    
    834000   0.51589302    -7.7656403     -6.9918117      4.0360341      50218.233      36.893836      36.893836      36.893836    
    835000   0.52045374    -7.7642944     -6.9836249      4.0705698      50218.233      36.893836      36.893836      36.893836    
    836000   0.52146904    -7.7688471     -6.9866547      4.031738       50218.233      36.893836      36.893836      36.893836    
    837000   0.51872174    -7.760792      -6.9827204      4.0823838      50218.233      36.893836      36.893836      36.893836    
    838000   0.52273511    -7.7680398     -6.9839483      4.0258705      50218.233      36.893836      36.893836      36.893836    
    839000   0.51812919    -7.7702873     -6.9931046      4.0115385      50218.233      36.893836      36.893836      36.893836    
    840000   0.52058405    -7.7708164     -6.9899515      4.0113954      50218.233      36.893836      36.893836      36.893836    
    841000   0.51845566    -7.7689064     -6.991234       4.0099747      50218.233      36.893836      36.893836      36.893836    
    842000   0.52042482    -7.7649561     -6.9843299      4.0492784      50218.233      36.893836      36.893836      36.893836    
    843000   0.51792834    -7.7626386     -6.9857572      4.0630155      50218.233      36.893836      36.893836      36.893836    
    844000   0.51776606    -7.7635861     -6.9869481      4.0482971      50218.233      36.893836      36.893836      36.893836    
    845000   0.51781991    -7.7712261     -6.9945073      4.0014839      50218.233      36.893836      36.893836      36.893836    
    846000   0.51902674    -7.766667      -6.988138       4.0449544      50218.233      36.893836      36.893836      36.893836    
    847000   0.52002308    -7.7644867     -6.9844632      4.0625228      50218.233      36.893836      36.893836      36.893836    
    848000   0.52071797    -7.7656338     -6.9845679      4.0463896      50218.233      36.893836      36.893836      36.893836    
    849000   0.51967495    -7.7678419     -6.9883406      4.0221739      50218.233      36.893836      36.893836      36.893836    
    850000   0.5223386     -7.7660435     -6.9825468      4.0415321      50218.233      36.893836      36.893836      36.893836    
    851000   0.52015676    -7.7670161     -6.9867921      4.0240229      50218.233      36.893836      36.893836      36.893836    
    852000   0.51981555    -7.7666631     -6.9869509      4.041435       50218.233      36.893836      36.893836      36.893836    
    853000   0.52408982    -7.7663262     -6.9802027      4.0463569      50218.233      36.893836      36.893836      36.893836    
    854000   0.52127213    -7.76431       -6.9824129      4.0548527      50218.233      36.893836      36.893836      36.893836    
    855000   0.52150694    -7.7702793     -6.98803        4.0161829      50218.233      36.893836      36.893836      36.893836    
    856000   0.51792457    -7.7644176     -6.9875418      4.0568896      50218.233      36.893836      36.893836      36.893836    
    857000   0.52095003    -7.7685047     -6.9870908      4.0276245      50218.233      36.893836      36.893836      36.893836    
    858000   0.519468      -7.7662285     -6.9870376      4.035707       50218.233      36.893836      36.893836      36.893836    
    859000   0.52332949    -7.7643065     -6.9793234      4.0519515      50218.233      36.893836      36.893836      36.893836    
    860000   0.52158162    -7.7670201     -6.9846588      4.0284501      50218.233      36.893836      36.893836      36.893836    
    861000   0.52171713    -7.766927      -6.9843624      4.0412331      50218.233      36.893836      36.893836      36.893836    
    862000   0.52268944    -7.7648403     -6.9808173      4.0545411      50218.233      36.893836      36.893836      36.893836    
    863000   0.51939229    -7.764675      -6.9855977      4.0571769      50218.233      36.893836      36.893836      36.893836    
    864000   0.51960071    -7.7663082     -6.9869182      4.0345233      50218.233      36.893836      36.893836      36.893836    
    865000   0.51704578    -7.7693549     -6.9937972      4.0202483      50218.233      36.893836      36.893836      36.893836    
    866000   0.51842249    -7.7664753     -6.9888526      4.0372708      50218.233      36.893836      36.893836      36.893836    
    867000   0.51808324    -7.768933      -6.9918192      4.0125668      50218.233      36.893836      36.893836      36.893836    
    868000   0.52005666    -7.7653286     -6.9852547      4.0523445      50218.233      36.893836      36.893836      36.893836    
    869000   0.5225116     -7.7651432     -6.9813869      4.0448821      50218.233      36.893836      36.893836      36.893836    
    870000   0.52055251    -7.7661226     -6.9853049      4.0566938      50218.233      36.893836      36.893836      36.893836    
    871000   0.51785395    -7.7664745     -6.9897046      4.0290942      50218.233      36.893836      36.893836      36.893836    
    872000   0.51881696    -7.765329      -6.9871146      4.0482968      50218.233      36.893836      36.893836      36.893836    
    873000   0.52138606    -7.7628389     -6.980771       4.0593892      50218.233      36.893836      36.893836      36.893836    
    874000   0.52085448    -7.7630857     -6.9818151      4.0638621      50218.233      36.893836      36.893836      36.893836    
    875000   0.52006929    -7.7584942     -6.9784014      4.0967951      50218.233      36.893836      36.893836      36.893836    
    876000   0.51911768    -7.7609505     -6.9822851      4.0891942      50218.233      36.893836      36.893836      36.893836    
    877000   0.52095716    -7.7675809     -6.9861563      4.0245826      50218.233      36.893836      36.893836      36.893836    
    878000   0.52380036    -7.7661019     -6.9804125      4.0503147      50218.233      36.893836      36.893836      36.893836    
    879000   0.52134006    -7.7662716     -6.9842726      4.0506097      50218.233      36.893836      36.893836      36.893836    
    880000   0.52124891    -7.7649955     -6.9831333      4.0594224      50218.233      36.893836      36.893836      36.893836    
    881000   0.51979477    -7.7692983     -6.9896172      4.0091213      50218.233      36.893836      36.893836      36.893836    
    882000   0.52223952    -7.7667365     -6.9833884      4.0521187      50218.233      36.893836      36.893836      36.893836    
    883000   0.51874189    -7.7618885     -6.9837867      4.0732504      50218.233      36.893836      36.893836      36.893836    
    884000   0.51880654    -7.7689004     -6.9907017      4.0271118      50218.233      36.893836      36.893836      36.893836    
    885000   0.51953014    -7.7668718     -6.9875876      4.0360215      50218.233      36.893836      36.893836      36.893836    
    886000   0.51924366    -7.7632754     -6.984421       4.0568157      50218.233      36.893836      36.893836      36.893836    
    887000   0.52108369    -7.7644374     -6.982823       4.050742       50218.233      36.893836      36.893836      36.893836    
    888000   0.52104576    -7.7680897     -6.9865322      4.0353704      50218.233      36.893836      36.893836      36.893836    
    889000   0.51964728    -7.7652263     -6.9857665      4.0522028      50218.233      36.893836      36.893836      36.893836    
    890000   0.51858109    -7.7657463     -6.9878857      4.0366936      50218.233      36.893836      36.893836      36.893836    
    891000   0.51912185    -7.7663431     -6.9876714      4.0474729      50218.233      36.893836      36.893836      36.893836    
    892000   0.52072251    -7.7623934     -6.9813207      4.0769081      50218.233      36.893836      36.893836      36.893836    
    893000   0.52040195    -7.7690534     -6.9884616      4.0267621      50218.233      36.893836      36.893836      36.893836    
    894000   0.52086757    -7.7625021     -6.9812119      4.0686313      50218.233      36.893836      36.893836      36.893836    
    895000   0.51823699    -7.7657091     -6.9883647      4.0453461      50218.233      36.893836      36.893836      36.893836    
    896000   0.51999785    -7.765913      -6.9859274      4.0394984      50218.233      36.893836      36.893836      36.893836    
    897000   0.52016464    -7.7647811     -6.9845452      4.050314       50218.233      36.893836      36.893836      36.893836    
    898000   0.5191761     -7.7648381     -6.986085       4.0478812      50218.233      36.893836      36.893836      36.893836    
    899000   0.51815659    -7.7646262     -6.9874023      4.0494604      50218.233      36.893836      36.893836      36.893836    
    900000   0.51757161    -7.7619896     -6.9856432      4.0763031      50218.233      36.893836      36.893836      36.893836    
    901000   0.5211632     -7.766662      -6.9849283      4.0307306      50218.233      36.893836      36.893836      36.893836    
    902000   0.52270027    -7.7688542     -6.984815       4.0281919      50218.233      36.893836      36.893836      36.893836    
    903000   0.52275465    -7.7637976     -6.9796767      4.05612        50218.233      36.893836      36.893836      36.893836    
    904000   0.52100449    -7.7614619     -6.9799663      4.0679513      50218.233      36.893836      36.893836      36.893836    
    905000   0.52112003    -7.7674946     -6.9858257      4.030217       50218.233      36.893836      36.893836      36.893836    
    906000   0.52154795    -7.762825      -6.9805142      4.0724217      50218.233      36.893836      36.893836      36.893836    
    907000   0.52233438    -7.7657719     -6.9822814      4.0460374      50218.233      36.893836      36.893836      36.893836    
    908000   0.51834272    -7.7709125     -6.9934095      4.0008447      50218.233      36.893836      36.893836      36.893836    
    909000   0.51697379    -7.7636402     -6.9881906      4.062767       50218.233      36.893836      36.893836      36.893836    
    910000   0.52137309    -7.7639343     -6.9818858      4.063565       50218.233      36.893836      36.893836      36.893836    
    911000   0.51969158    -7.7618799     -6.9823536      4.0734661      50218.233      36.893836      36.893836      36.893836    
    912000   0.51984248    -7.76626       -6.9865074      4.0527986      50218.233      36.893836      36.893836      36.893836    
    913000   0.52166122    -7.770382      -6.9879013      4.0214263      50218.233      36.893836      36.893836      36.893836    
    914000   0.52135031    -7.7657518     -6.9837374      4.0613109      50218.233      36.893836      36.893836      36.893836    
    915000   0.5227726     -7.7686808     -6.9845331      4.0239991      50218.233      36.893836      36.893836      36.893836    
    916000   0.51776461    -7.7645634     -6.9879275      4.05464        50218.233      36.893836      36.893836      36.893836    
    917000   0.51614942    -7.7639199     -6.9897067      4.0498575      50218.233      36.893836      36.893836      36.893836    
    918000   0.52151042    -7.7677587     -6.9855042      4.0468962      50218.233      36.893836      36.893836      36.893836    
    919000   0.51672605    -7.7650772     -6.9899992      4.0446861      50218.233      36.893836      36.893836      36.893836    
    920000   0.52069572    -7.7647457     -6.9837132      4.0628302      50218.233      36.893836      36.893836      36.893836    
    921000   0.51920533    -7.7656464     -6.9868495      4.0529662      50218.233      36.893836      36.893836      36.893836    
    922000   0.51765591    -7.768323      -6.9918501      4.0402135      50218.233      36.893836      36.893836      36.893836    
    923000   0.51883923    -7.7637215     -6.9854737      4.0622684      50218.233      36.893836      36.893836      36.893836    
    924000   0.5213179     -7.7613074     -6.9793416      4.0809186      50218.233      36.893836      36.893836      36.893836    
    925000   0.52080069    -7.7702953     -6.9891053      4.0058934      50218.233      36.893836      36.893836      36.893836    
    926000   0.51775282    -7.7661808     -6.9895626      4.0421318      50218.233      36.893836      36.893836      36.893836    
    927000   0.51660625    -7.7644585     -6.9895601      4.0530903      50218.233      36.893836      36.893836      36.893836    
    928000   0.52039628    -7.7621795     -6.9815962      4.0742296      50218.233      36.893836      36.893836      36.893836    
    929000   0.52125973    -7.7707084     -6.9888299      4.0116921      50218.233      36.893836      36.893836      36.893836    
    930000   0.52039365    -7.7657302     -6.9851508      4.0486732      50218.233      36.893836      36.893836      36.893836    
    931000   0.52057001    -7.762321      -6.9814771      4.0719657      50218.233      36.893836      36.893836      36.893836    
    932000   0.52055358    -7.7641024     -6.9832832      4.0620608      50218.233      36.893836      36.893836      36.893836    
    933000   0.52071387    -7.7648069     -6.9837472      4.050187       50218.233      36.893836      36.893836      36.893836    
    934000   0.5236689     -7.7690029     -6.9835107      4.0280454      50218.233      36.893836      36.893836      36.893836    
    935000   0.52078344    -7.7657427     -6.9845787      4.0471004      50218.233      36.893836      36.893836      36.893836    
    936000   0.51828574    -7.7625049     -6.9850874      4.0638831      50218.233      36.893836      36.893836      36.893836    
    937000   0.51916846    -7.7675506     -6.988809       4.0333717      50218.233      36.893836      36.893836      36.893836    
    938000   0.51929927    -7.7660402     -6.9871023      4.0471462      50218.233      36.893836      36.893836      36.893836    
    939000   0.51961986    -7.7655436     -6.9861249      4.0637034      50218.233      36.893836      36.893836      36.893836    
    940000   0.5184379     -7.7669852     -6.9893394      4.0319389      50218.233      36.893836      36.893836      36.893836    
    941000   0.51919705    -7.7620985     -6.983314       4.0728041      50218.233      36.893836      36.893836      36.893836    
    942000   0.52083104    -7.7680325     -6.986797       4.0370683      50218.233      36.893836      36.893836      36.893836    
    943000   0.51572081    -7.7634811     -6.9899109      4.0615416      50218.233      36.893836      36.893836      36.893836    
    944000   0.52026036    -7.7632132     -6.9828338      4.0768573      50218.233      36.893836      36.893836      36.893836    
    945000   0.52153532    -7.7644591     -6.9821672      4.0691933      50218.233      36.893836      36.893836      36.893836    
    946000   0.52023849    -7.7674813     -6.9871346      4.0447892      50218.233      36.893836      36.893836      36.893836    
    947000   0.51961095    -7.7676269     -6.9882215      4.0319935      50218.233      36.893836      36.893836      36.893836    
    948000   0.51883437    -7.762526      -6.9842856      4.0807849      50218.233      36.893836      36.893836      36.893836    
    949000   0.51803241    -7.7645343     -6.9874967      4.055447       50218.233      36.893836      36.893836      36.893836    
    950000   0.52070768    -7.764294      -6.9832436      4.0475652      50218.233      36.893836      36.893836      36.893836    
    951000   0.51829849    -7.7660287     -6.988592       4.0382622      50218.233      36.893836      36.893836      36.893836    
    952000   0.52216391    -7.7648164     -6.9815816      4.0605727      50218.233      36.893836      36.893836      36.893836    
    953000   0.51896132    -7.7676043     -6.9891734      4.024676       50218.233      36.893836      36.893836      36.893836    
    954000   0.51890975    -7.763506      -6.9851524      4.0767915      50218.233      36.893836      36.893836      36.893836    
    955000   0.52059497    -7.7650259     -6.9841446      4.0599951      50218.233      36.893836      36.893836      36.893836    
    956000   0.51994993    -7.7636506     -6.9837368      4.0554865      50218.233      36.893836      36.893836      36.893836    
    957000   0.51898936    -7.7657802     -6.9873073      4.0504726      50218.233      36.893836      36.893836      36.893836    
    958000   0.52029638    -7.7671398     -6.9867064      4.0403065      50218.233      36.893836      36.893836      36.893836    
    959000   0.52101314    -7.7674134     -6.9859048      4.0447515      50218.233      36.893836      36.893836      36.893836    
    960000   0.52022388    -7.7660856     -6.9857609      4.0506997      50218.233      36.893836      36.893836      36.893836    
    961000   0.5188546     -7.7622142     -6.9839434      4.0807609      50218.233      36.893836      36.893836      36.893836    
    962000   0.52310749    -7.7635439     -6.9788938      4.0727229      50218.233      36.893836      36.893836      36.893836    
    963000   0.51976206    -7.7665194     -6.9868875      4.0411461      50218.233      36.893836      36.893836      36.893836    
    964000   0.51836078    -7.7612103     -6.9836802      4.0841831      50218.233      36.893836      36.893836      36.893836    
    965000   0.51857972    -7.766562      -6.9887034      4.0380661      50218.233      36.893836      36.893836      36.893836    
    966000   0.52028319    -7.7644257     -6.9840121      4.0539702      50218.233      36.893836      36.893836      36.893836    
    967000   0.52113255    -7.7579382     -6.9762505      4.1110662      50218.233      36.893836      36.893836      36.893836    
    968000   0.52287697    -7.7622681     -6.9779638      4.0853094      50218.233      36.893836      36.893836      36.893836    
    969000   0.51950464    -7.7642802     -6.9850343      4.0658857      50218.233      36.893836      36.893836      36.893836    
    970000   0.51992158    -7.7653233     -6.985452       4.0548529      50218.233      36.893836      36.893836      36.893836    
    971000   0.52088178    -7.7628977     -6.9815862      4.0680572      50218.233      36.893836      36.893836      36.893836    
    972000   0.520735      -7.7629305     -6.9818391      4.0756274      50218.233      36.893836      36.893836      36.893836    
    973000   0.51740778    -7.7603709     -6.9842703      4.0870816      50218.233      36.893836      36.893836      36.893836    
    974000   0.52005328    -7.7603402     -6.9802713      4.0886857      50218.233      36.893836      36.893836      36.893836    
    975000   0.51959711    -7.7614091     -6.9820245      4.0810504      50218.233      36.893836      36.893836      36.893836    
    976000   0.51911142    -7.761364      -6.982708       4.0850805      50218.233      36.893836      36.893836      36.893836    
    977000   0.522846      -7.7664627     -6.9822049      4.0458584      50218.233      36.893836      36.893836      36.893836    
    978000   0.5210642     -7.759611      -6.9780259      4.0860475      50218.233      36.893836      36.893836      36.893836    
    979000   0.51714947    -7.7645208     -6.9888076      4.0568318      50218.233      36.893836      36.893836      36.893836    
    980000   0.51995827    -7.7662126     -6.9862863      4.0433036      50218.233      36.893836      36.893836      36.893836    
    981000   0.5180818     -7.7676324     -6.9905207      4.0327853      50218.233      36.893836      36.893836      36.893836    
    982000   0.52146376    -7.761977      -6.9797924      4.0814439      50218.233      36.893836      36.893836      36.893836    
    983000   0.51926421    -7.7596958     -6.9808106      4.0907532      50218.233      36.893836      36.893836      36.893836    
    984000   0.52031997    -7.7624197     -6.9819508      4.0693449      50218.233      36.893836      36.893836      36.893836    
    985000   0.52191246    -7.7626105     -6.9797529      4.0759794      50218.233      36.893836      36.893836      36.893836    
    986000   0.5200713     -7.7640388     -6.9839429      4.0561422      50218.233      36.893836      36.893836      36.893836    
    987000   0.51999217    -7.7641477     -6.9841705      4.0729275      50218.233      36.893836      36.893836      36.893836    
    988000   0.52003231    -7.7608781     -6.9808407      4.0879552      50218.233      36.893836      36.893836      36.893836    
    989000   0.5184228     -7.7645722     -6.9869491      4.0631501      50218.233      36.893836      36.893836      36.893836    
    990000   0.51671576    -7.7621168     -6.9870541      4.0690894      50218.233      36.893836      36.893836      36.893836    
    991000   0.52005028    -7.7652184     -6.9851541      4.0635217      50218.233      36.893836      36.893836      36.893836    
    992000   0.52001108    -7.7693215     -6.989316       4.0307974      50218.233      36.893836      36.893836      36.893836    
    993000   0.51888187    -7.7680345     -6.9897227      4.0377009      50218.233      36.893836      36.893836      36.893836    
    994000   0.52019719    -7.7686378     -6.9883532      4.0381171      50218.233      36.893836      36.893836      36.893836    
    995000   0.52211347    -7.7624141     -6.979255       4.0766461      50218.233      36.893836      36.893836      36.893836    
    996000   0.52119768    -7.7648931     -6.9831077      4.0614633      50218.233      36.893836      36.893836      36.893836    
    997000   0.51809784    -7.7663062     -6.9891705      4.0519546      50218.233      36.893836      36.893836      36.893836    
    998000   0.51956612    -7.7665411     -6.987203       4.0549946      50218.233      36.893836      36.893836      36.893836    
    999000   0.52036912    -7.7622127     -6.9816701      4.0844198      50218.233      36.893836      36.893836      36.893836    
   1000000   0.51939399    -7.7626111     -6.9835312      4.0684207      50218.233      36.893836      36.893836      36.893836    
Loop time of 1648.4 on 4 procs for 1000000 steps with 70304 atoms

Performance: 524143.652 tau/day, 606.648 timesteps/s, 42.650 Matom-step/s
95.1% CPU use with 4 MPI tasks x 1 OpenMP threads

MPI task timing breakdown:
Section |  min time  |  avg time  |  max time  |%varavg| %total
---------------------------------------------------------------
Pair    | 527.12     | 592.74     | 678.52     | 261.2 | 35.96
Neigh   | 6.4216     | 6.9272     | 7.6727     |  18.5 |  0.42
Comm    | 241.51     | 244.38     | 247.5      |  18.1 | 14.83
Output  | 0.19963    | 0.20961    | 0.23044    |   2.7 |  0.01
Modify  | 632.15     | 717.35     | 782.3      | 232.1 | 43.52
Other   |            | 86.79      |            |       |  5.27

Nlocal:          17576 ave       17638 max       17537 min
Histogram: 1 0 1 1 0 0 0 0 0 1
Nghost:        16830.8 ave       16869 max       16775 min
Histogram: 1 0 0 0 0 0 1 1 0 1
Neighs:              0 ave           0 max           0 min
Histogram: 4 0 0 0 0 0 0 0 0 0

Total # of neighbors = 0
Ave neighs/atom = 0
Neighbor list builds = 207821
Dangerous builds = 0
clear
OMP_NUM_THREADS environment is not set. Defaulting to 1 thread. (src/comm.cpp:98)
  using 1 OpenMP thread(s) per MPI task
package gpu 0
jump dms500.lmp

variable T equal 500
# T = 1000* (temp in LJ unit)
variable f equal 1000
log log.${T}
log log.500
