variable TLJ equal (${T}/1000)
variable TLJ equal (580/1000)
variable NCyle equal 10
variable iStep equal (${f})
variable iStep equal (1000)
variable dumpStep equal (${f}*100)
variable dumpStep equal (1000*100)
variable runStep equal (${f}*100*${NCyle})
variable runStep equal (1000*100*${NCyle})
variable runStep equal (1000*100*10)

units       lj
atom_style  atomic
dimension 3
boundary     p p p
pair_style  lj/cut 2.5
read_data  ../data/T${T}.dat
read_data  ../data/T580.dat
Reading data file ...
  orthogonal box = (0.97250269 0.97250269 0.97250269) to (37.866338 37.866338 37.866338)
  1 by 2 by 2 MPI processor grid
  reading atoms ...
  70304 atoms
  reading velocities ...
  70304 velocities
  read_data CPU = 0.189 seconds
change_box all triclinic
Changing box ...
  triclinic box = (0.97250269 0.97250269 0.97250269) to (37.866338 37.866338 37.866338) with tilt (0 0 0)
mass 1 1
mass 2 1
pair_modify shift yes
pair_coeff  1 1 1 1
pair_coeff  1 2 1.5 0.8
pair_coeff  2 2 0.5 0.88


timestep 0.01
thermo ${iStep}
thermo 1000
reset_timestep 0
thermo_style custom step temp pe etotal press vol lx ly lz
fix             1 all nvt temp ${TLJ}  ${TLJ}  0.1
fix             1 all nvt temp 0.58  ${TLJ}  0.1
fix             1 all nvt temp 0.58  0.58  0.1
thermo_modify flush yes

fix dsf all deform 1 xy  wiggle 0.5  ${f}   units box
fix dsf all deform 1 xy  wiggle 0.5  1000   units box
fix ps1 all ave/time 1 1 ${iStep} c_thermo_press[1] c_thermo_press[2]  c_thermo_press[3] c_thermo_press[4]  c_thermo_press[5] c_thermo_press[6]  file  stress.${T}
fix ps1 all ave/time 1 1 1000 c_thermo_press[1] c_thermo_press[2]  c_thermo_press[3] c_thermo_press[4]  c_thermo_press[5] c_thermo_press[6]  file  stress.${T}
fix ps1 all ave/time 1 1 1000 c_thermo_press[1] c_thermo_press[2]  c_thermo_press[3] c_thermo_press[4]  c_thermo_press[5] c_thermo_press[6]  file  stress.580
dump            1 all custom ${dumpStep} dump.${T} id type x y z
dump            1 all custom 100000 dump.${T} id type x y z
dump            1 all custom 100000 dump.580 id type x y z
dump_modify 1 sort id
fix nodrift all momentum 1  linear 1 1 1
fix com_seed all recenter INIT INIT INIT shift all
run ${runStep}
run 1000000
Generated 0 of 1 mixed pair_coeff terms from geometric mixing rule
Per MPI rank memory allocation (min/avg/max) = 8.613 | 8.616 | 8.62 Mbytes
   Step          Temp          PotEng         TotEng         Press          Volume           Lx             Ly             Lz      
         0   0.578947      -7.6543028     -6.7858946      4.9611572      50218.233      36.893836      36.893836      36.893836    
      1000   0.58159715    -7.6431279     -6.7707446      5.0401091      50218.233      36.893836      36.893836      36.893836    
      2000   0.58240801    -7.6388308     -6.7652312      5.0719353      50218.233      36.893836      36.893836      36.893836    
      3000   0.5819023     -7.6415382     -6.7686972      5.0607206      50218.233      36.893836      36.893836      36.893836    
      4000   0.58223561    -7.6430548     -6.7697138      5.0511094      50218.233      36.893836      36.893836      36.893836    
      5000   0.57812888    -7.6408        -6.773619       5.0414453      50218.233      36.893836      36.893836      36.893836    
      6000   0.5805365     -7.6434739     -6.7726815      5.0379603      50218.233      36.893836      36.893836      36.893836    
      7000   0.57969632    -7.6386911     -6.769159       5.0669344      50218.233      36.893836      36.893836      36.893836    
      8000   0.58151332    -7.636121      -6.7638634      5.0930053      50218.233      36.893836      36.893836      36.893836    
      9000   0.58069398    -7.6419684     -6.7709398      5.0512215      50218.233      36.893836      36.893836      36.893836    
     10000   0.57935721    -7.6397208     -6.7706973      5.0680048      50218.233      36.893836      36.893836      36.893836    
     11000   0.58140229    -7.6385277     -6.7664367      5.054101       50218.233      36.893836      36.893836      36.893836    
     12000   0.57754132    -7.6361845     -6.7698848      5.0858876      50218.233      36.893836      36.893836      36.893836    
     13000   0.57992505    -7.6411114     -6.7712362      5.0451627      50218.233      36.893836      36.893836      36.893836    
     14000   0.57864297    -7.6385208     -6.7705687      5.072668       50218.233      36.893836      36.893836      36.893836    
     15000   0.57998747    -7.6389311     -6.7689623      5.0682592      50218.233      36.893836      36.893836      36.893836    
     16000   0.5794209     -7.6368356     -6.7677166      5.0805738      50218.233      36.893836      36.893836      36.893836    
     17000   0.57715527    -7.6396717     -6.7739511      5.06224        50218.233      36.893836      36.893836      36.893836    
     18000   0.5812073     -7.6381696     -6.766371       5.076902       50218.233      36.893836      36.893836      36.893836    
     19000   0.58035428    -7.6396273     -6.7691083      5.0679542      50218.233      36.893836      36.893836      36.893836    
     20000   0.57827529    -7.6367848     -6.7693842      5.0997102      50218.233      36.893836      36.893836      36.893836    
     21000   0.57839865    -7.6420131     -6.7744275      5.048297       50218.233      36.893836      36.893836      36.893836    
     22000   0.58154366    -7.6437562     -6.7714531      5.0450496      50218.233      36.893836      36.893836      36.893836    
     23000   0.58126116    -7.6434095     -6.7715301      5.0436311      50218.233      36.893836      36.893836      36.893836    
     24000   0.57837729    -7.6354455     -6.7678919      5.1040974      50218.233      36.893836      36.893836      36.893836    
     25000   0.57940791    -7.6369636     -6.7678641      5.0881765      50218.233      36.893836      36.893836      36.893836    
     26000   0.5827453     -7.6381413     -6.7640358      5.0946702      50218.233      36.893836      36.893836      36.893836    
     27000   0.58160776    -7.6388425     -6.7664433      5.0780106      50218.233      36.893836      36.893836      36.893836    
     28000   0.57989127    -7.6408991     -6.7710746      5.0630656      50218.233      36.893836      36.893836      36.893836    
     29000   0.58100768    -7.6389625     -6.7674634      5.0735114      50218.233      36.893836      36.893836      36.893836    
     30000   0.58021826    -7.6421922     -6.7718772      5.0416443      50218.233      36.893836      36.893836      36.893836    
     31000   0.57702079    -7.644466      -6.7789471      5.033524       50218.233      36.893836      36.893836      36.893836    
     32000   0.57974584    -7.6435139     -6.7739075      5.0446845      50218.233      36.893836      36.893836      36.893836    
     33000   0.58295958    -7.6374625     -6.7630355      5.0888347      50218.233      36.893836      36.893836      36.893836    
     34000   0.57967163    -7.6441353     -6.7746402      5.039001       50218.233      36.893836      36.893836      36.893836    
     35000   0.5826617     -7.6428838     -6.7689037      5.0473063      50218.233      36.893836      36.893836      36.893836    
     36000   0.58079691    -7.6380269     -6.766844       5.065879       50218.233      36.893836      36.893836      36.893836    
     37000   0.57927204    -7.6371777     -6.768282       5.0717271      50218.233      36.893836      36.893836      36.893836    
     38000   0.58007753    -7.639205      -6.7691011      5.0749604      50218.233      36.893836      36.893836      36.893836    
     39000   0.58074736    -7.6404147     -6.769306       5.0681034      50218.233      36.893836      36.893836      36.893836    
     40000   0.57599913    -7.6433089     -6.7793225      5.0398782      50218.233      36.893836      36.893836      36.893836    
     41000   0.57910618    -7.6377508     -6.7691039      5.0692266      50218.233      36.893836      36.893836      36.893836    
     42000   0.58142857    -7.6376493     -6.7655189      5.0787235      50218.233      36.893836      36.893836      36.893836    
     43000   0.57937717    -7.638088      -6.7690346      5.0754173      50218.233      36.893836      36.893836      36.893836    
     44000   0.58163937    -7.6366058     -6.7641592      5.08629        50218.233      36.893836      36.893836      36.893836    
     45000   0.57598866    -7.6439847     -6.780014       5.0275852      50218.233      36.893836      36.893836      36.893836    
     46000   0.5762405     -7.6424037     -6.7780553      5.0343469      50218.233      36.893836      36.893836      36.893836    
     47000   0.5811348     -7.6392352     -6.7675454      5.0508751      50218.233      36.893836      36.893836      36.893836    
     48000   0.57750586    -7.6343566     -6.7681102      5.09977        50218.233      36.893836      36.893836      36.893836    
     49000   0.58188277    -7.6379762     -6.7651644      5.0878871      50218.233      36.893836      36.893836      36.893836    
     50000   0.57940525    -7.6355041     -6.7664086      5.0902539      50218.233      36.893836      36.893836      36.893836    
     51000   0.57893604    -7.6371603     -6.7687686      5.0792484      50218.233      36.893836      36.893836      36.893836    
     52000   0.58153717    -7.6376304     -6.7653371      5.0751456      50218.233      36.893836      36.893836      36.893836    
     53000   0.58169796    -7.6336227     -6.7610882      5.1115946      50218.233      36.893836      36.893836      36.893836    
     54000   0.580039      -7.6374606     -6.7674145      5.0796476      50218.233      36.893836      36.893836      36.893836    
     55000   0.5830842     -7.6394667     -6.7648529      5.0720312      50218.233      36.893836      36.893836      36.893836    
     56000   0.57908595    -7.63874       -6.7701235      5.0738415      50218.233      36.893836      36.893836      36.893836    
     57000   0.57907176    -7.6369151     -6.7683198      5.0846171      50218.233      36.893836      36.893836      36.893836    
     58000   0.57833702    -7.634654      -6.7671609      5.0952201      50218.233      36.893836      36.893836      36.893836    
     59000   0.58218537    -7.6363784     -6.7631128      5.0754381      50218.233      36.893836      36.893836      36.893836    
     60000   0.57924365    -7.6338973     -6.7650442      5.0934202      50218.233      36.893836      36.893836      36.893836    
     61000   0.57834088    -7.6364304     -6.7689314      5.0904778      50218.233      36.893836      36.893836      36.893836    
     62000   0.58003821    -7.6378425     -6.7677976      5.0784457      50218.233      36.893836      36.893836      36.893836    
     63000   0.57878177    -7.6393227     -6.7711624      5.0672985      50218.233      36.893836      36.893836      36.893836    
     64000   0.58013333    -7.6358411     -6.7656535      5.0863474      50218.233      36.893836      36.893836      36.893836    
     65000   0.58030096    -7.6375414     -6.7671024      5.0725257      50218.233      36.893836      36.893836      36.893836    
     66000   0.57635145    -7.6385401     -6.7740252      5.0655738      50218.233      36.893836      36.893836      36.893836    
     67000   0.5756383     -7.6343173     -6.7708721      5.1016218      50218.233      36.893836      36.893836      36.893836    
     68000   0.58108149    -7.6351153     -6.7635054      5.0910629      50218.233      36.893836      36.893836      36.893836    
     69000   0.58219104    -7.6347679     -6.7614937      5.0914425      50218.233      36.893836      36.893836      36.893836    
     70000   0.58373529    -7.6381132     -6.7625228      5.0746342      50218.233      36.893836      36.893836      36.893836    
     71000   0.58013596    -7.637453      -6.7672615      5.0783242      50218.233      36.893836      36.893836      36.893836    
     72000   0.58198061    -7.6327807     -6.7598222      5.1134286      50218.233      36.893836      36.893836      36.893836    
     73000   0.57813312    -7.6321462     -6.7649589      5.1129897      50218.233      36.893836      36.893836      36.893836    
     74000   0.58107807    -7.6329394     -6.7613347      5.1142967      50218.233      36.893836      36.893836      36.893836    
     75000   0.58120597    -7.6355183     -6.7637217      5.0920839      50218.233      36.893836      36.893836      36.893836    
     76000   0.58058935    -7.6428734     -6.7720017      5.0384634      50218.233      36.893836      36.893836      36.893836    
     77000   0.5778602     -7.6363614     -6.7695835      5.0770289      50218.233      36.893836      36.893836      36.893836    
     78000   0.58092109    -7.6369562     -6.765587       5.0847479      50218.233      36.893836      36.893836      36.893836    
     79000   0.58121525    -7.6374876     -6.7656771      5.0762551      50218.233      36.893836      36.893836      36.893836    
     80000   0.58064059    -7.6385152     -6.7675667      5.06974        50218.233      36.893836      36.893836      36.893836    
     81000   0.57665289    -7.6339484     -6.7689814      5.0901343      50218.233      36.893836      36.893836      36.893836    
     82000   0.58058609    -7.6396718     -6.7688051      5.0468465      50218.233      36.893836      36.893836      36.893836    
     83000   0.57734283    -7.6413318     -6.7753299      5.0473639      50218.233      36.893836      36.893836      36.893836    
     84000   0.57627259    -7.6342701     -6.7698735      5.0968752      50218.233      36.893836      36.893836      36.893836    
     85000   0.58118417    -7.6414192     -6.7696554      5.0502231      50218.233      36.893836      36.893836      36.893836    
     86000   0.57876155    -7.6408934     -6.7727634      5.0477093      50218.233      36.893836      36.893836      36.893836    
     87000   0.58119358    -7.6343264     -6.7625484      5.0979639      50218.233      36.893836      36.893836      36.893836    
     88000   0.58286622    -7.637867      -6.7635801      5.0689408      50218.233      36.893836      36.893836      36.893836    
     89000   0.58063788    -7.6420066     -6.7710622      5.0463527      50218.233      36.893836      36.893836      36.893836    
     90000   0.57896554    -7.6368629     -6.768427       5.0775477      50218.233      36.893836      36.893836      36.893836    
     91000   0.58060777    -7.6405917     -6.7696925      5.0466584      50218.233      36.893836      36.893836      36.893836    
     92000   0.57953604    -7.6374916     -6.7681999      5.0760359      50218.233      36.893836      36.893836      36.893836    
     93000   0.57846345    -7.6394528     -6.7717699      5.0594183      50218.233      36.893836      36.893836      36.893836    
     94000   0.58375442    -7.6360667     -6.7604475      5.09839        50218.233      36.893836      36.893836      36.893836    
     95000   0.58258773    -7.6381637     -6.7642945      5.0707767      50218.233      36.893836      36.893836      36.893836    
     96000   0.58087853    -7.6335938     -6.7622884      5.1036303      50218.233      36.893836      36.893836      36.893836    
     97000   0.57970407    -7.6333791     -6.7638353      5.0925803      50218.233      36.893836      36.893836      36.893836    
     98000   0.5774999     -7.6377749     -6.7715374      5.0774089      50218.233      36.893836      36.893836      36.893836    
     99000   0.57955191    -7.6398389     -6.7705233      5.0530506      50218.233      36.893836      36.893836      36.893836    
    100000   0.58006707    -7.6430812     -6.772993       5.0239491      50218.233      36.893836      36.893836      36.893836    
    101000   0.57694054    -7.636502      -6.7711035      5.0802408      50218.233      36.893836      36.893836      36.893836    
    102000   0.58049217    -7.6295234     -6.7587975      5.127483       50218.233      36.893836      36.893836      36.893836    
    103000   0.58057623    -7.6323114     -6.7614594      5.10842        50218.233      36.893836      36.893836      36.893836    
    104000   0.58293628    -7.6337914     -6.7593994      5.1027702      50218.233      36.893836      36.893836      36.893836    
    105000   0.57740309    -7.636144      -6.7700517      5.0698798      50218.233      36.893836      36.893836      36.893836    
    106000   0.57681946    -7.6385909     -6.773374       5.0613662      50218.233      36.893836      36.893836      36.893836    
    107000   0.57967577    -7.6330619     -6.7635606      5.1001547      50218.233      36.893836      36.893836      36.893836    
    108000   0.5785253     -7.6373172     -6.7695416      5.0720203      50218.233      36.893836      36.893836      36.893836    
    109000   0.57924697    -7.6385121     -6.769654       5.0611781      50218.233      36.893836      36.893836      36.893836    
    110000   0.57931421    -7.6367924     -6.7678335      5.0661009      50218.233      36.893836      36.893836      36.893836    
    111000   0.5805392     -7.6379472     -6.7671508      5.0742879      50218.233      36.893836      36.893836      36.893836    
    112000   0.57551422    -7.636412      -6.773153       5.0714884      50218.233      36.893836      36.893836      36.893836    
    113000   0.58040102    -7.6405669     -6.7699778      5.0539493      50218.233      36.893836      36.893836      36.893836    
    114000   0.57945326    -7.6395892     -6.7704217      5.0523773      50218.233      36.893836      36.893836      36.893836    
    115000   0.58167926    -7.6389667     -6.7664603      5.0586861      50218.233      36.893836      36.893836      36.893836    
    116000   0.58042868    -7.6335382     -6.7629075      5.1015826      50218.233      36.893836      36.893836      36.893836    
    117000   0.57854758    -7.6390533     -6.7712443      5.0483833      50218.233      36.893836      36.893836      36.893836    
    118000   0.57902222    -7.6395756     -6.7710547      5.0500529      50218.233      36.893836      36.893836      36.893836    
    119000   0.57559061    -7.632155      -6.7687814      5.1088399      50218.233      36.893836      36.893836      36.893836    
    120000   0.58309272    -7.6376762     -6.7630495      5.0755188      50218.233      36.893836      36.893836      36.893836    
    121000   0.5803758     -7.6385049     -6.7679536      5.0704943      50218.233      36.893836      36.893836      36.893836    
    122000   0.58095153    -7.6354624     -6.7640475      5.0790027      50218.233      36.893836      36.893836      36.893836    
    123000   0.58106498    -7.6415602     -6.7699751      5.0350677      50218.233      36.893836      36.893836      36.893836    
    124000   0.57912556    -7.6373134     -6.7686374      5.0607749      50218.233      36.893836      36.893836      36.893836    
    125000   0.57813421    -7.6349639     -6.7677749      5.0852541      50218.233      36.893836      36.893836      36.893836    
    126000   0.5792168     -7.6367789     -6.7679661      5.0684034      50218.233      36.893836      36.893836      36.893836    
    127000   0.5772544     -7.6417422     -6.7758729      5.0408415      50218.233      36.893836      36.893836      36.893836    
    128000   0.58289956    -7.6422119     -6.767875       5.0451645      50218.233      36.893836      36.893836      36.893836    
    129000   0.58224922    -7.6397072     -6.7663458      5.0492695      50218.233      36.893836      36.893836      36.893836    
    130000   0.58080951    -7.6396684     -6.7684665      5.0469771      50218.233      36.893836      36.893836      36.893836    
    131000   0.57884558    -7.6400789     -6.7718228      5.0623964      50218.233      36.893836      36.893836      36.893836    
    132000   0.58045853    -7.6381014     -6.767426       5.0660978      50218.233      36.893836      36.893836      36.893836    
    133000   0.57816816    -7.6388779     -6.7716379      5.0694412      50218.233      36.893836      36.893836      36.893836    
    134000   0.579989      -7.6411375     -6.7711664      5.0420832      50218.233      36.893836      36.893836      36.893836    
    135000   0.57688367    -7.640882      -6.7755688      5.0503362      50218.233      36.893836      36.893836      36.893836    
    136000   0.58066818    -7.6429369     -6.771947       5.0479693      50218.233      36.893836      36.893836      36.893836    
    137000   0.58126304    -7.6413531     -6.769471       5.0472179      50218.233      36.893836      36.893836      36.893836    
    138000   0.57946548    -7.6396886     -6.7705028      5.052418       50218.233      36.893836      36.893836      36.893836    
    139000   0.57780251    -7.636488      -6.7697965      5.0915141      50218.233      36.893836      36.893836      36.893836    
    140000   0.5771265     -7.6353294     -6.7696519      5.0846597      50218.233      36.893836      36.893836      36.893836    
    141000   0.57781114    -7.6424256     -6.7757212      5.0337948      50218.233      36.893836      36.893836      36.893836    
    142000   0.58028754    -7.6398475     -6.7694286      5.0660584      50218.233      36.893836      36.893836      36.893836    
    143000   0.57798462    -7.6415708     -6.7746062      5.0480516      50218.233      36.893836      36.893836      36.893836    
    144000   0.5773572     -7.6396302     -6.7736068      5.056407       50218.233      36.893836      36.893836      36.893836    
    145000   0.57852497    -7.6367836     -6.7690085      5.0773786      50218.233      36.893836      36.893836      36.893836    
    146000   0.57916458    -7.6373094     -6.7685748      5.0788597      50218.233      36.893836      36.893836      36.893836    
    147000   0.58116753    -7.6389193     -6.7671804      5.0638751      50218.233      36.893836      36.893836      36.893836    
    148000   0.57880619    -7.6399792     -6.7717823      5.0622125      50218.233      36.893836      36.893836      36.893836    
    149000   0.57937828    -7.6403266     -6.7712716      5.0680006      50218.233      36.893836      36.893836      36.893836    
    150000   0.58052266    -7.639779      -6.7690074      5.0658176      50218.233      36.893836      36.893836      36.893836    
    151000   0.57705125    -7.63739       -6.7718254      5.0825748      50218.233      36.893836      36.893836      36.893836    
    152000   0.58058895    -7.6382724     -6.7674014      5.0568104      50218.233      36.893836      36.893836      36.893836    
    153000   0.5802014     -7.6352735     -6.7649838      5.0996394      50218.233      36.893836      36.893836      36.893836    
    154000   0.5802523     -7.6350148     -6.7646487      5.0927813      50218.233      36.893836      36.893836      36.893836    
    155000   0.58250759    -7.6381146     -6.7643656      5.0756161      50218.233      36.893836      36.893836      36.893836    
    156000   0.5775709     -7.6371499     -6.7708058      5.0719275      50218.233      36.893836      36.893836      36.893836    
    157000   0.57861348    -7.6362302     -6.7683223      5.0853401      50218.233      36.893836      36.893836      36.893836    
    158000   0.58182808    -7.6366349     -6.7639052      5.0806578      50218.233      36.893836      36.893836      36.893836    
    159000   0.58171269    -7.6361859     -6.7636293      5.0977833      50218.233      36.893836      36.893836      36.893836    
    160000   0.57988285    -7.6341795     -6.7643676      5.1044021      50218.233      36.893836      36.893836      36.893836    
    161000   0.57933087    -7.6316361     -6.7626522      5.1049185      50218.233      36.893836      36.893836      36.893836    
    162000   0.57806214    -7.6418972     -6.7748163      5.0400102      50218.233      36.893836      36.893836      36.893836    
    163000   0.58218941    -7.6351489     -6.7618773      5.0933138      50218.233      36.893836      36.893836      36.893836    
    164000   0.58178849    -7.6411854     -6.7685151      5.0519531      50218.233      36.893836      36.893836      36.893836    
    165000   0.57872292    -7.6386941     -6.7706221      5.0703934      50218.233      36.893836      36.893836      36.893836    
    166000   0.57741557    -7.638693      -6.772582       5.0697401      50218.233      36.893836      36.893836      36.893836    
    167000   0.58034276    -7.6405309     -6.7700292      5.0538284      50218.233      36.893836      36.893836      36.893836    
    168000   0.58341143    -7.6388434     -6.7637387      5.078208       50218.233      36.893836      36.893836      36.893836    
    169000   0.57985373    -7.6374645     -6.7676963      5.0668651      50218.233      36.893836      36.893836      36.893836    
    170000   0.58127797    -7.6362346     -6.7643301      5.0780531      50218.233      36.893836      36.893836      36.893836    
    171000   0.57867172    -7.6412704     -6.7732752      5.0477331      50218.233      36.893836      36.893836      36.893836    
    172000   0.57897722    -7.6358606     -6.7674071      5.0789681      50218.233      36.893836      36.893836      36.893836    
    173000   0.5775595     -7.6411859     -6.774859       5.023419       50218.233      36.893836      36.893836      36.893836    
    174000   0.58118058    -7.6351675     -6.763409       5.0904763      50218.233      36.893836      36.893836      36.893836    
    175000   0.57747775    -7.6336881     -6.7674837      5.0887958      50218.233      36.893836      36.893836      36.893836    
    176000   0.57948939    -7.6372228     -6.7680011      5.0763983      50218.233      36.893836      36.893836      36.893836    
    177000   0.57842601    -7.6376367     -6.7700101      5.0767801      50218.233      36.893836      36.893836      36.893836    
    178000   0.57899997    -7.6425225     -6.7740349      5.0326608      50218.233      36.893836      36.893836      36.893836    
    179000   0.57945089    -7.6382247     -6.7690607      5.0605315      50218.233      36.893836      36.893836      36.893836    
    180000   0.57870757    -7.641783      -6.773734       5.0368029      50218.233      36.893836      36.893836      36.893836    
    181000   0.57937234    -7.6411861     -6.77214        5.055249       50218.233      36.893836      36.893836      36.893836    
    182000   0.57901102    -7.6381729     -6.7696687      5.0705116      50218.233      36.893836      36.893836      36.893836    
    183000   0.57928995    -7.6429842     -6.7740617      5.0182333      50218.233      36.893836      36.893836      36.893836    
    184000   0.580625      -7.64252       -6.7715949      5.029925       50218.233      36.893836      36.893836      36.893836    
    185000   0.58124051    -7.6367729     -6.7649245      5.0836254      50218.233      36.893836      36.893836      36.893836    
    186000   0.58253069    -7.6382127     -6.7644291      5.0694251      50218.233      36.893836      36.893836      36.893836    
    187000   0.57733235    -7.6428055     -6.7768193      5.0215779      50218.233      36.893836      36.893836      36.893836    
    188000   0.57771142    -7.6342808     -6.767726       5.1013127      50218.233      36.893836      36.893836      36.893836    
    189000   0.57821105    -7.6417109     -6.7744067      5.0508745      50218.233      36.893836      36.893836      36.893836    
    190000   0.58407285    -7.6360376     -6.7599407      5.0969915      50218.233      36.893836      36.893836      36.893836    
    191000   0.58219286    -7.6428362     -6.7695594      5.036344       50218.233      36.893836      36.893836      36.893836    
    192000   0.58339459    -7.6371077     -6.7620283      5.0739665      50218.233      36.893836      36.893836      36.893836    
    193000   0.57979875    -7.6428972     -6.7732114      5.0212826      50218.233      36.893836      36.893836      36.893836    
    194000   0.58060838    -7.6447816     -6.7738815      5.0245646      50218.233      36.893836      36.893836      36.893836    
    195000   0.577233      -7.6378287     -6.7719915      5.0694626      50218.233      36.893836      36.893836      36.893836    
    196000   0.57721999    -7.6373656     -6.7715479      5.0714445      50218.233      36.893836      36.893836      36.893836    
    197000   0.58079764    -7.6309165     -6.7597324      5.1082498      50218.233      36.893836      36.893836      36.893836    
    198000   0.57766206    -7.6427979     -6.7763171      5.0206314      50218.233      36.893836      36.893836      36.893836    
    199000   0.58159406    -7.636478      -6.7640993      5.0845052      50218.233      36.893836      36.893836      36.893836    
    200000   0.58015191    -7.6427565     -6.772541       5.0405101      50218.233      36.893836      36.893836      36.893836    
    201000   0.57831882    -7.6410844     -6.7736185      5.0538468      50218.233      36.893836      36.893836      36.893836    
    202000   0.57814574    -7.6379646     -6.7707583      5.0667201      50218.233      36.893836      36.893836      36.893836    
    203000   0.57988682    -7.6388668     -6.7690489      5.0713732      50218.233      36.893836      36.893836      36.893836    
    204000   0.58108508    -7.6388754     -6.7672602      5.0788232      50218.233      36.893836      36.893836      36.893836    
    205000   0.58003454    -7.6363685     -6.7663291      5.0810054      50218.233      36.893836      36.893836      36.893836    
    206000   0.58009241    -7.6375179     -6.7673916      5.0844949      50218.233      36.893836      36.893836      36.893836    
    207000   0.58054979    -7.6363391     -6.7655268      5.079944       50218.233      36.893836      36.893836      36.893836    
    208000   0.58055644    -7.6350687     -6.7642464      5.1032165      50218.233      36.893836      36.893836      36.893836    
    209000   0.57984262    -7.6366193     -6.7668677      5.0830703      50218.233      36.893836      36.893836      36.893836    
    210000   0.58047542    -7.6347385     -6.7640378      5.1006313      50218.233      36.893836      36.893836      36.893836    
    211000   0.58260724    -7.6372415     -6.7633431      5.0881905      50218.233      36.893836      36.893836      36.893836    
    212000   0.57799692    -7.6349778     -6.7679947      5.0939024      50218.233      36.893836      36.893836      36.893836    
    213000   0.5780797     -7.6325728     -6.7654656      5.1146805      50218.233      36.893836      36.893836      36.893836    
    214000   0.58083789    -7.6398878     -6.7686434      5.0667542      50218.233      36.893836      36.893836      36.893836    
    215000   0.57864258    -7.6334429     -6.7654914      5.1008309      50218.233      36.893836      36.893836      36.893836    
    216000   0.57979145    -7.6397876     -6.7701128      5.0587006      50218.233      36.893836      36.893836      36.893836    
    217000   0.58051829    -7.6397273     -6.7689623      5.0647935      50218.233      36.893836      36.893836      36.893836    
    218000   0.57820375    -7.6400693     -6.772776       5.0529802      50218.233      36.893836      36.893836      36.893836    
    219000   0.58195653    -7.6379309     -6.7650085      5.0823559      50218.233      36.893836      36.893836      36.893836    
    220000   0.57800109    -7.6353786     -6.7683893      5.0789875      50218.233      36.893836      36.893836      36.893836    
    221000   0.57980063    -7.6404361     -6.7707476      5.057613       50218.233      36.893836      36.893836      36.893836    
    222000   0.57702682    -7.6384959     -6.772968       5.0556532      50218.233      36.893836      36.893836      36.893836    
    223000   0.57917915    -7.6396438     -6.7708874      5.0594848      50218.233      36.893836      36.893836      36.893836    
    224000   0.57834427    -7.6382351     -6.770731       5.0615098      50218.233      36.893836      36.893836      36.893836    
    225000   0.57937099    -7.638749      -6.7697049      5.0678505      50218.233      36.893836      36.893836      36.893836    
    226000   0.58227486    -7.6375585     -6.7641586      5.0622583      50218.233      36.893836      36.893836      36.893836    
    227000   0.57804063    -7.6387955     -6.7717469      5.0597056      50218.233      36.893836      36.893836      36.893836    
    228000   0.57970004    -7.6355445     -6.7660068      5.102967       50218.233      36.893836      36.893836      36.893836    
    229000   0.57948715    -7.6374358     -6.7682175      5.0728857      50218.233      36.893836      36.893836      36.893836    
    230000   0.58144416    -7.6399108     -6.767757       5.0613889      50218.233      36.893836      36.893836      36.893836    
    231000   0.58162726    -7.6423934     -6.769965       5.0348179      50218.233      36.893836      36.893836      36.893836    
    232000   0.57890515    -7.6381468     -6.7698015      5.0613818      50218.233      36.893836      36.893836      36.893836    
    233000   0.57813451    -7.6372359     -6.7700464      5.0574479      50218.233      36.893836      36.893836      36.893836    
    234000   0.58134787    -7.6414899     -6.7694805      5.0440665      50218.233      36.893836      36.893836      36.893836    
    235000   0.58163632    -7.6414481     -6.769006       5.0487415      50218.233      36.893836      36.893836      36.893836    
    236000   0.57966586    -7.6432818     -6.7737954      5.0298823      50218.233      36.893836      36.893836      36.893836    
    237000   0.57947001    -7.6371478     -6.7679552      5.0753857      50218.233      36.893836      36.893836      36.893836    
    238000   0.57884903    -7.6385103     -6.7702491      5.066794       50218.233      36.893836      36.893836      36.893836    
    239000   0.57974834    -7.6441997     -6.7745896      5.0298434      50218.233      36.893836      36.893836      36.893836    
    240000   0.5837826     -7.6354353     -6.7597738      5.0958436      50218.233      36.893836      36.893836      36.893836    
    241000   0.57613094    -7.6363908     -6.7722067      5.0827559      50218.233      36.893836      36.893836      36.893836    
    242000   0.57947373    -7.6374175     -6.7682192      5.0906398      50218.233      36.893836      36.893836      36.893836    
    243000   0.57965495    -7.6365319     -6.7670618      5.0869478      50218.233      36.893836      36.893836      36.893836    
    244000   0.57706425    -7.6388109     -6.7732268      5.054035       50218.233      36.893836      36.893836      36.893836    
    245000   0.57985465    -7.6361918     -6.7664222      5.0843289      50218.233      36.893836      36.893836      36.893836    
    246000   0.57936711    -7.6366747     -6.7676364      5.079198       50218.233      36.893836      36.893836      36.893836    
    247000   0.57929173    -7.6359177     -6.7669925      5.0768816      50218.233      36.893836      36.893836      36.893836    
    248000   0.57762513    -7.6388113     -6.7723859      5.0522972      50218.233      36.893836      36.893836      36.893836    
    249000   0.57885988    -7.6351318     -6.7668543      5.0856167      50218.233      36.893836      36.893836      36.893836    
    250000   0.5817671     -7.6432165     -6.7705783      5.0435466      50218.233      36.893836      36.893836      36.893836    
    251000   0.57956408    -7.6392828     -6.769949       5.0588152      50218.233      36.893836      36.893836      36.893836    
    252000   0.58185947    -7.6352602     -6.7624834      5.1008014      50218.233      36.893836      36.893836      36.893836    
    253000   0.58234565    -7.6379201     -6.7644141      5.0736961      50218.233      36.893836      36.893836      36.893836    
    254000   0.578199      -7.6465325     -6.7792463      5.0118399      50218.233      36.893836      36.893836      36.893836    
    255000   0.58242518    -7.6435291     -6.7699037      5.0334796      50218.233      36.893836      36.893836      36.893836    
    256000   0.5818786     -7.6370809     -6.7642754      5.0931331      50218.233      36.893836      36.893836      36.893836    
    257000   0.58022089    -7.6393778     -6.7690588      5.0582581      50218.233      36.893836      36.893836      36.893836    
    258000   0.57672737    -7.6371757     -6.7720969      5.0772662      50218.233      36.893836      36.893836      36.893836    
    259000   0.57964975    -7.6376422     -6.76818        5.0714756      50218.233      36.893836      36.893836      36.893836    
    260000   0.58043618    -7.6376598     -6.7670179      5.0778097      50218.233      36.893836      36.893836      36.893836    
    261000   0.58056769    -7.6370062     -6.7661671      5.0694327      50218.233      36.893836      36.893836      36.893836    
    262000   0.57836262    -7.6367185     -6.7691869      5.0727085      50218.233      36.893836      36.893836      36.893836    
    263000   0.5789241     -7.637895      -6.7695212      5.072981       50218.233      36.893836      36.893836      36.893836    
    264000   0.58126844    -7.6408115     -6.7689213      5.0520004      50218.233      36.893836      36.893836      36.893836    
    265000   0.57702588    -7.6387423     -6.7732158      5.0665588      50218.233      36.893836      36.893836      36.893836    
    266000   0.57891876    -7.6413222     -6.7729564      5.0531183      50218.233      36.893836      36.893836      36.893836    
    267000   0.57992847    -7.6375756     -6.7676953      5.0938165      50218.233      36.893836      36.893836      36.893836    
    268000   0.5798757     -7.6377645     -6.7679633      5.0808112      50218.233      36.893836      36.893836      36.893836    
    269000   0.57831158    -7.6387159     -6.7712609      5.0728881      50218.233      36.893836      36.893836      36.893836    
    270000   0.57975204    -7.6441107     -6.774495       5.0290538      50218.233      36.893836      36.893836      36.893836    
    271000   0.5799055     -7.6387643     -6.7689184      5.0645077      50218.233      36.893836      36.893836      36.893836    
    272000   0.58032364    -7.6367052     -6.7662321      5.0931962      50218.233      36.893836      36.893836      36.893836    
    273000   0.58151341    -7.6396216     -6.7673639      5.0673095      50218.233      36.893836      36.893836      36.893836    
    274000   0.58127825    -7.6347702     -6.7628653      5.1070026      50218.233      36.893836      36.893836      36.893836    
    275000   0.5783744     -7.6303994     -6.7628502      5.1106014      50218.233      36.893836      36.893836      36.893836    
    276000   0.58316929    -7.6350231     -6.7602816      5.1009373      50218.233      36.893836      36.893836      36.893836    
    277000   0.57886267    -7.6368537     -6.768572       5.0726284      50218.233      36.893836      36.893836      36.893836    
    278000   0.57655774    -7.6401501     -6.7753258      5.0415646      50218.233      36.893836      36.893836      36.893836    
    279000   0.57917346    -7.6369652     -6.7682173      5.0807495      50218.233      36.893836      36.893836      36.893836    
    280000   0.58105258    -7.6394461     -6.7678797      5.0677488      50218.233      36.893836      36.893836      36.893836    
    281000   0.58024583    -7.6453063     -6.77495        5.0179315      50218.233      36.893836      36.893836      36.893836    
    282000   0.57893783    -7.6396142     -6.7712198      5.0604096      50218.233      36.893836      36.893836      36.893836    
    283000   0.58219432    -7.6444256     -6.7711465      5.0435716      50218.233      36.893836      36.893836      36.893836    
    284000   0.57988096    -7.635702      -6.7658929      5.0967104      50218.233      36.893836      36.893836      36.893836    
    285000   0.57982267    -7.6383127     -6.7685911      5.0758949      50218.233      36.893836      36.893836      36.893836    
    286000   0.58172405    -7.6359123     -6.7633386      5.082881       50218.233      36.893836      36.893836      36.893836    
    287000   0.58159876    -7.6427206     -6.7703348      5.0285341      50218.233      36.893836      36.893836      36.893836    
    288000   0.57921727    -7.6366828     -6.7678693      5.0787774      50218.233      36.893836      36.893836      36.893836    
    289000   0.57622315    -7.6379427     -6.7736203      5.0558291      50218.233      36.893836      36.893836      36.893836    
    290000   0.58066566    -7.6388445     -6.7678584      5.0704122      50218.233      36.893836      36.893836      36.893836    
    291000   0.5750346     -7.6362049     -6.7736653      5.070025       50218.233      36.893836      36.893836      36.893836    
    292000   0.58046144    -7.6398857     -6.7692059      5.0509477      50218.233      36.893836      36.893836      36.893836    
    293000   0.57971646    -7.6348036     -6.7652412      5.1015068      50218.233      36.893836      36.893836      36.893836    
    294000   0.578473      -7.6363818     -6.7686846      5.0762319      50218.233      36.893836      36.893836      36.893836    
    295000   0.58134429    -7.6387737     -6.7667696      5.0647563      50218.233      36.893836      36.893836      36.893836    
    296000   0.58272763    -7.6393406     -6.7652616      5.0756893      50218.233      36.893836      36.893836      36.893836    
    297000   0.58325483    -7.6387246     -6.7638548      5.0563042      50218.233      36.893836      36.893836      36.893836    
    298000   0.57910494    -7.6379987     -6.7693537      5.0701785      50218.233      36.893836      36.893836      36.893836    
    299000   0.58068303    -7.6426295     -6.7716173      5.0263108      50218.233      36.893836      36.893836      36.893836    
    300000   0.57956665    -7.6405823     -6.7712447      5.048888       50218.233      36.893836      36.893836      36.893836    
    301000   0.58525261    -7.6345283     -6.7566618      5.1081314      50218.233      36.893836      36.893836      36.893836    
    302000   0.57815264    -7.640537      -6.7733203      5.0572409      50218.233      36.893836      36.893836      36.893836    
    303000   0.57763439    -7.6375645     -6.7711253      5.0783352      50218.233      36.893836      36.893836      36.893836    
    304000   0.58213343    -7.6339804     -6.7607927      5.1075101      50218.233      36.893836      36.893836      36.893836    
    305000   0.58437964    -7.6339684     -6.7574114      5.1192984      50218.233      36.893836      36.893836      36.893836    
    306000   0.57721219    -7.6390491     -6.7732431      5.0672996      50218.233      36.893836      36.893836      36.893836    
    307000   0.58065811    -7.640963      -6.7699882      5.055294       50218.233      36.893836      36.893836      36.893836    
    308000   0.57917623    -7.6356701     -6.7669181      5.0960582      50218.233      36.893836      36.893836      36.893836    
    309000   0.58360239    -7.6373371     -6.7619459      5.0812543      50218.233      36.893836      36.893836      36.893836    
    310000   0.57889274    -7.6360172     -6.7676905      5.074316       50218.233      36.893836      36.893836      36.893836    
    311000   0.57982629    -7.6422183     -6.7724912      5.0470192      50218.233      36.893836      36.893836      36.893836    
    312000   0.5803467     -7.6408664     -6.7703587      5.0472374      50218.233      36.893836      36.893836      36.893836    
    313000   0.5831143     -7.6393822     -6.7647232      5.0721094      50218.233      36.893836      36.893836      36.893836    
    314000   0.57659412    -7.6368147     -6.7719359      5.0749865      50218.233      36.893836      36.893836      36.893836    
    315000   0.57674465    -7.6422063     -6.7771016      5.0268232      50218.233      36.893836      36.893836      36.893836    
    316000   0.58231997    -7.6406036     -6.7671361      5.0572729      50218.233      36.893836      36.893836      36.893836    
    317000   0.58054921    -7.6392519     -6.7684405      5.0650443      50218.233      36.893836      36.893836      36.893836    
    318000   0.57756167    -7.6424133     -6.7760832      5.0447968      50218.233      36.893836      36.893836      36.893836    
    319000   0.58099207    -7.6408725     -6.7693968      5.0530797      50218.233      36.893836      36.893836      36.893836    
    320000   0.58049845    -7.6395911     -6.7688558      5.0575039      50218.233      36.893836      36.893836      36.893836    
    321000   0.57976183    -7.6403003     -6.7706699      5.057167       50218.233      36.893836      36.893836      36.893836    
    322000   0.58093837    -7.6326691     -6.7612739      5.1096657      50218.233      36.893836      36.893836      36.893836    
    323000   0.578284      -7.6355485     -6.7681348      5.0849348      50218.233      36.893836      36.893836      36.893836    
    324000   0.57812489    -7.6368844     -6.7697094      5.0871977      50218.233      36.893836      36.893836      36.893836    
    325000   0.58127626    -7.6396555     -6.7677536      5.0555514      50218.233      36.893836      36.893836      36.893836    
    326000   0.58263859    -7.6374137     -6.7634682      5.0813776      50218.233      36.893836      36.893836      36.893836    
    327000   0.58166062    -7.6345706     -6.762092       5.0977185      50218.233      36.893836      36.893836      36.893836    
    328000   0.58053613    -7.6399608     -6.769169       5.0625996      50218.233      36.893836      36.893836      36.893836    
    329000   0.58039168    -7.6377116     -6.7671364      5.0847106      50218.233      36.893836      36.893836      36.893836    
    330000   0.58302421    -7.6378288     -6.7633049      5.0784288      50218.233      36.893836      36.893836      36.893836    
    331000   0.57868091    -7.6347541     -6.7667451      5.0966085      50218.233      36.893836      36.893836      36.893836    
    332000   0.58010097    -7.637471      -6.7673319      5.0919835      50218.233      36.893836      36.893836      36.893836    
    333000   0.5789096     -7.6414988     -6.7731467      5.0463728      50218.233      36.893836      36.893836      36.893836    
    334000   0.5779766     -7.6405741     -6.7736215      5.0497928      50218.233      36.893836      36.893836      36.893836    
    335000   0.57934409    -7.6344583     -6.7654545      5.0929239      50218.233      36.893836      36.893836      36.893836    
    336000   0.57927869    -7.630043      -6.7611373      5.1389301      50218.233      36.893836      36.893836      36.893836    
    337000   0.57825384    -7.6409496     -6.7735811      5.0475904      50218.233      36.893836      36.893836      36.893836    
    338000   0.58128146    -7.6430372     -6.7711274      5.0299969      50218.233      36.893836      36.893836      36.893836    
    339000   0.58101081    -7.6368315     -6.7653277      5.0717637      50218.233      36.893836      36.893836      36.893836    
    340000   0.5785662     -7.632692      -6.7648551      5.1162556      50218.233      36.893836      36.893836      36.893836    
    341000   0.58017041    -7.6296075     -6.7593643      5.1360523      50218.233      36.893836      36.893836      36.893836    
    342000   0.58302539    -7.6326422     -6.7581165      5.0977694      50218.233      36.893836      36.893836      36.893836    
    343000   0.58231663    -7.6357341     -6.7622716      5.0996088      50218.233      36.893836      36.893836      36.893836    
    344000   0.57970457    -7.6413383     -6.7717938      5.0425796      50218.233      36.893836      36.893836      36.893836    
    345000   0.57837894    -7.6394306     -6.7718745      5.0555887      50218.233      36.893836      36.893836      36.893836    
    346000   0.5813299     -7.6423272     -6.7703448      5.0422274      50218.233      36.893836      36.893836      36.893836    
    347000   0.57711495    -7.6327235     -6.7670634      5.1117365      50218.233      36.893836      36.893836      36.893836    
    348000   0.58070105    -7.6381675     -6.7671283      5.0688082      50218.233      36.893836      36.893836      36.893836    
    349000   0.58121906    -7.6369689     -6.7651527      5.0704827      50218.233      36.893836      36.893836      36.893836    
    350000   0.58176864    -7.6334445     -6.7608039      5.1074194      50218.233      36.893836      36.893836      36.893836    
    351000   0.57413298    -7.631905      -6.7707177      5.1131228      50218.233      36.893836      36.893836      36.893836    
    352000   0.58069085    -7.6317048     -6.7606809      5.1166207      50218.233      36.893836      36.893836      36.893836    
    353000   0.57879299    -7.636426      -6.7682489      5.0779407      50218.233      36.893836      36.893836      36.893836    
    354000   0.57960452    -7.6372873     -6.7678929      5.0717498      50218.233      36.893836      36.893836      36.893836    
    355000   0.58241863    -7.6372362     -6.7636207      5.0787721      50218.233      36.893836      36.893836      36.893836    
    356000   0.58051565    -7.6355207     -6.7647596      5.089661       50218.233      36.893836      36.893836      36.893836    
    357000   0.57792523    -7.6425693     -6.7756938      5.0374345      50218.233      36.893836      36.893836      36.893836    
    358000   0.57924416    -7.638113      -6.7692592      5.0721651      50218.233      36.893836      36.893836      36.893836    
    359000   0.57901863    -7.6325768     -6.7640612      5.11036        50218.233      36.893836      36.893836      36.893836    
    360000   0.57839545    -7.6404678     -6.7728869      5.0596171      50218.233      36.893836      36.893836      36.893836    
    361000   0.57791876    -7.6340734     -6.7672076      5.1024095      50218.233      36.893836      36.893836      36.893836    
    362000   0.57830757    -7.6360232     -6.7685742      5.0688806      50218.233      36.893836      36.893836      36.893836    
    363000   0.5791608     -7.6401298     -6.771401       5.0616675      50218.233      36.893836      36.893836      36.893836    
    364000   0.57776877    -7.6374525     -6.7708117      5.0748413      50218.233      36.893836      36.893836      36.893836    
    365000   0.58043957    -7.6312215     -6.7605745      5.1181904      50218.233      36.893836      36.893836      36.893836    
    366000   0.57967419    -7.6363323     -6.7668333      5.0799767      50218.233      36.893836      36.893836      36.893836    
    367000   0.58139536    -7.6308326     -6.758752       5.1321316      50218.233      36.893836      36.893836      36.893836    
    368000   0.57930291    -7.6346914     -6.7657494      5.0822738      50218.233      36.893836      36.893836      36.893836    
    369000   0.57882808    -7.6351921     -6.7669623      5.0848977      50218.233      36.893836      36.893836      36.893836    
    370000   0.57804427    -7.6397908     -6.7727367      5.0543055      50218.233      36.893836      36.893836      36.893836    
    371000   0.5820972     -7.6339103     -6.7607769      5.1077035      50218.233      36.893836      36.893836      36.893836    
    372000   0.5796889     -7.6421992     -6.7726782      5.0321833      50218.233      36.893836      36.893836      36.893836    
    373000   0.5790082     -7.6327807     -6.7642807      5.0966034      50218.233      36.893836      36.893836      36.893836    
    374000   0.58233209    -7.6413945     -6.7679088      5.0574098      50218.233      36.893836      36.893836      36.893836    
    375000   0.58127793    -7.6378394     -6.7659349      5.0648843      50218.233      36.893836      36.893836      36.893836    
    376000   0.58236304    -7.6326568     -6.7591247      5.1202878      50218.233      36.893836      36.893836      36.893836    
    377000   0.57836265    -7.6348305     -6.7672988      5.1002698      50218.233      36.893836      36.893836      36.893836    
    378000   0.57944771    -7.6404796     -6.7713204      5.0593337      50218.233      36.893836      36.893836      36.893836    
    379000   0.58206551    -7.6381285     -6.7650426      5.0741516      50218.233      36.893836      36.893836      36.893836    
    380000   0.57816964    -7.6390507     -6.7718086      5.0709507      50218.233      36.893836      36.893836      36.893836    
    381000   0.57997355    -7.6404715     -6.7705235      5.0534173      50218.233      36.893836      36.893836      36.893836    
    382000   0.5807295     -7.6372584     -6.7661765      5.0934177      50218.233      36.893836      36.893836      36.893836    
    383000   0.58091256    -7.6394758     -6.7681193      5.0555094      50218.233      36.893836      36.893836      36.893836    
    384000   0.57822652    -7.6398545     -6.772527       5.0521605      50218.233      36.893836      36.893836      36.893836    
    385000   0.57932946    -7.6386723     -6.7696905      5.0597229      50218.233      36.893836      36.893836      36.893836    
    386000   0.58089853    -7.6381572     -6.7668218      5.0539681      50218.233      36.893836      36.893836      36.893836    
    387000   0.58206636    -7.634064      -6.7609769      5.1121177      50218.233      36.893836      36.893836      36.893836    
    388000   0.57923695    -7.6361804     -6.7673373      5.0630533      50218.233      36.893836      36.893836      36.893836    
    389000   0.58246193    -7.6347251     -6.7610446      5.09268        50218.233      36.893836      36.893836      36.893836    
    390000   0.58244656    -7.6381923     -6.7645349      5.0659269      50218.233      36.893836      36.893836      36.893836    
    391000   0.579905      -7.6342783     -6.7644331      5.0903318      50218.233      36.893836      36.893836      36.893836    
    392000   0.57964997    -7.6404        -6.7709374      5.0620984      50218.233      36.893836      36.893836      36.893836    
    393000   0.58026136    -7.6339514     -6.7635718      5.1021927      50218.233      36.893836      36.893836      36.893836    
    394000   0.58149195    -7.6390546     -6.7668291      5.0600162      50218.233      36.893836      36.893836      36.893836    
    395000   0.58420852    -7.638091      -6.7617907      5.0731332      50218.233      36.893836      36.893836      36.893836    
    396000   0.58165218    -7.634279      -6.7618132      5.0995991      50218.233      36.893836      36.893836      36.893836    
    397000   0.58042864    -7.6333824     -6.7627518      5.1040624      50218.233      36.893836      36.893836      36.893836    
    398000   0.58079436    -7.636304      -6.7651248      5.0823664      50218.233      36.893836      36.893836      36.893836    
    399000   0.58136181    -7.6342497     -6.7622193      5.1065039      50218.233      36.893836      36.893836      36.893836    
    400000   0.58056551    -7.6373034     -6.7664675      5.0826844      50218.233      36.893836      36.893836      36.893836    
    401000   0.5806364     -7.6370918     -6.7661496      5.0825395      50218.233      36.893836      36.893836      36.893836    
    402000   0.57789753    -7.6394142     -6.7725802      5.0574984      50218.233      36.893836      36.893836      36.893836    
    403000   0.57943696    -7.6336329     -6.7644898      5.1166015      50218.233      36.893836      36.893836      36.893836    
    404000   0.57875733    -7.6352805     -6.7671568      5.0884484      50218.233      36.893836      36.893836      36.893836    
    405000   0.57985073    -7.6372912     -6.7675274      5.0661008      50218.233      36.893836      36.893836      36.893836    
    406000   0.58128717    -7.6352335     -6.7633151      5.0873231      50218.233      36.893836      36.893836      36.893836    
    407000   0.58028667    -7.6444362     -6.7740186      5.0243239      50218.233      36.893836      36.893836      36.893836    
    408000   0.57861312    -7.637123      -6.7692156      5.0736486      50218.233      36.893836      36.893836      36.893836    
    409000   0.58220423    -7.6360581     -6.7627642      5.0839989      50218.233      36.893836      36.893836      36.893836    
    410000   0.58171866    -7.6377295     -6.7651639      5.0855284      50218.233      36.893836      36.893836      36.893836    
    411000   0.57841496    -7.637572      -6.7699619      5.0749757      50218.233      36.893836      36.893836      36.893836    
    412000   0.57807407    -7.6403629     -6.7732641      5.060392       50218.233      36.893836      36.893836      36.893836    
    413000   0.57984293    -7.6423083     -6.7725563      5.0352557      50218.233      36.893836      36.893836      36.893836    
    414000   0.5783833     -7.6360069     -6.7684443      5.0758251      50218.233      36.893836      36.893836      36.893836    
    415000   0.57986614    -7.6359852     -6.7661983      5.0728418      50218.233      36.893836      36.893836      36.893836    
    416000   0.58268927    -7.6396827     -6.7656612      5.0541445      50218.233      36.893836      36.893836      36.893836    
    417000   0.58156346    -7.6367174     -6.7643846      5.0755599      50218.233      36.893836      36.893836      36.893836    
    418000   0.57893163    -7.6376747     -6.7692896      5.0750034      50218.233      36.893836      36.893836      36.893836    
    419000   0.58008981    -7.6357389     -6.7656165      5.0739456      50218.233      36.893836      36.893836      36.893836    
    420000   0.57946183    -7.6312319     -6.7620515      5.1215441      50218.233      36.893836      36.893836      36.893836    
    421000   0.57834754    -7.6357885     -6.7682795      5.0846015      50218.233      36.893836      36.893836      36.893836    
    422000   0.57933397    -7.6411285     -6.7721399      5.0469109      50218.233      36.893836      36.893836      36.893836    
    423000   0.58016331    -7.6362056     -6.765973       5.0829494      50218.233      36.893836      36.893836      36.893836    
    424000   0.58365358    -7.634758      -6.7592901      5.0958685      50218.233      36.893836      36.893836      36.893836    
    425000   0.58303529    -7.6396954     -6.7651549      5.0506543      50218.233      36.893836      36.893836      36.893836    
    426000   0.58026822    -7.6357153     -6.7653253      5.0768267      50218.233      36.893836      36.893836      36.893836    
    427000   0.58283217    -7.6390334     -6.7647976      5.0671718      50218.233      36.893836      36.893836      36.893836    
    428000   0.5823285     -7.638712      -6.7652317      5.0680249      50218.233      36.893836      36.893836      36.893836    
    429000   0.57918455    -7.6350078     -6.7662433      5.0877626      50218.233      36.893836      36.893836      36.893836    
    430000   0.58224881    -7.6388863     -6.7655255      5.0572909      50218.233      36.893836      36.893836      36.893836    
    431000   0.57843442    -7.6328881     -6.7652488      5.105663       50218.233      36.893836      36.893836      36.893836    
    432000   0.58014691    -7.6344282     -6.7642202      5.091094       50218.233      36.893836      36.893836      36.893836    
    433000   0.5781709     -7.6370226     -6.7697786      5.0862606      50218.233      36.893836      36.893836      36.893836    
    434000   0.58065554    -7.6282735     -6.7573026      5.1416882      50218.233      36.893836      36.893836      36.893836    
    435000   0.58213195    -7.6406317     -6.7674462      5.0534143      50218.233      36.893836      36.893836      36.893836    
    436000   0.57922963    -7.634064      -6.7652319      5.0941904      50218.233      36.893836      36.893836      36.893836    
    437000   0.58153362    -7.636151      -6.763863       5.0763601      50218.233      36.893836      36.893836      36.893836    
    438000   0.58074305    -7.6345657     -6.7634635      5.0909557      50218.233      36.893836      36.893836      36.893836    
    439000   0.57965318    -7.6362343     -6.7667669      5.0733355      50218.233      36.893836      36.893836      36.893836    
    440000   0.57710858    -7.6344686     -6.768818       5.0782437      50218.233      36.893836      36.893836      36.893836    
    441000   0.58045732    -7.6345024     -6.7638288      5.100989       50218.233      36.893836      36.893836      36.893836    
    442000   0.57764861    -7.6327056     -6.766245       5.1025957      50218.233      36.893836      36.893836      36.893836    
    443000   0.58346095    -7.6386455     -6.7634665      5.0626156      50218.233      36.893836      36.893836      36.893836    
    444000   0.57991616    -7.6352329     -6.765371       5.0805637      50218.233      36.893836      36.893836      36.893836    
    445000   0.58103824    -7.6350347     -6.7634897      5.0985374      50218.233      36.893836      36.893836      36.893836    
    446000   0.57918016    -7.6343951     -6.7656373      5.0977743      50218.233      36.893836      36.893836      36.893836    
    447000   0.57974408    -7.6346854     -6.7650817      5.0947266      50218.233      36.893836      36.893836      36.893836    
    448000   0.57934187    -7.6348689     -6.7658684      5.0796186      50218.233      36.893836      36.893836      36.893836    
    449000   0.58271128    -7.6354124     -6.761358       5.0957946      50218.233      36.893836      36.893836      36.893836    
    450000   0.58040163    -7.6370222     -6.7664321      5.0814067      50218.233      36.893836      36.893836      36.893836    
    451000   0.5823953     -7.6342788     -6.7606983      5.0969415      50218.233      36.893836      36.893836      36.893836    
    452000   0.58039189    -7.6347076     -6.7641321      5.1089066      50218.233      36.893836      36.893836      36.893836    
    453000   0.58007759    -7.6402131     -6.7701091      5.0585867      50218.233      36.893836      36.893836      36.893836    
    454000   0.57625856    -7.6405924     -6.7762169      5.0485345      50218.233      36.893836      36.893836      36.893836    
    455000   0.57864926    -7.63372       -6.7657585      5.1088203      50218.233      36.893836      36.893836      36.893836    
    456000   0.58392616    -7.635973      -6.7600962      5.091809       50218.233      36.893836      36.893836      36.893836    
    457000   0.57988824    -7.6385904     -6.7687704      5.0647997      50218.233      36.893836      36.893836      36.893836    
    458000   0.58030758    -7.6357997     -6.7653507      5.0945527      50218.233      36.893836      36.893836      36.893836    
    459000   0.57950896    -7.6342928     -6.7650417      5.0917048      50218.233      36.893836      36.893836      36.893836    
    460000   0.58050564    -7.6382974     -6.7675513      5.0769647      50218.233      36.893836      36.893836      36.893836    
    461000   0.58064689    -7.6349205     -6.7639625      5.0877185      50218.233      36.893836      36.893836      36.893836    
    462000   0.58114818    -7.635832      -6.7641221      5.0765957      50218.233      36.893836      36.893836      36.893836    
    463000   0.5792031     -7.6330051     -6.7642128      5.1017466      50218.233      36.893836      36.893836      36.893836    
    464000   0.57778782    -7.637281      -6.7706116      5.0626242      50218.233      36.893836      36.893836      36.893836    
    465000   0.58250921    -7.6379729     -6.7642215      5.0725913      50218.233      36.893836      36.893836      36.893836    
    466000   0.57720712    -7.6354273     -6.769629       5.0933782      50218.233      36.893836      36.893836      36.893836    
    467000   0.5808194     -7.6427867     -6.77157        5.0313076      50218.233      36.893836      36.893836      36.893836    
    468000   0.57863995    -7.6391653     -6.7712177      5.0540638      50218.233      36.893836      36.893836      36.893836    
    469000   0.57939414    -7.6368099     -6.767731       5.0774563      50218.233      36.893836      36.893836      36.893836    
    470000   0.5798654     -7.6411264     -6.7713407      5.0468469      50218.233      36.893836      36.893836      36.893836    
    471000   0.58008764    -7.6358647     -6.7657456      5.0804209      50218.233      36.893836      36.893836      36.893836    
    472000   0.5784175     -7.6376786     -6.7700647      5.0615725      50218.233      36.893836      36.893836      36.893836    
    473000   0.5816531     -7.639139      -6.7666717      5.0508274      50218.233      36.893836      36.893836      36.893836    
    474000   0.5782009     -7.6336345     -6.7663455      5.0996228      50218.233      36.893836      36.893836      36.893836    
    475000   0.57920177    -7.6425502     -6.7737599      5.0286941      50218.233      36.893836      36.893836      36.893836    
    476000   0.58078101    -7.6359614     -6.7648022      5.0805149      50218.233      36.893836      36.893836      36.893836    
    477000   0.58002106    -7.6395337     -6.7695145      5.0559427      50218.233      36.893836      36.893836      36.893836    
    478000   0.58068327    -7.6324165     -6.761404       5.1041264      50218.233      36.893836      36.893836      36.893836    
    479000   0.57847415    -7.6378051     -6.7701062      5.0648359      50218.233      36.893836      36.893836      36.893836    
    480000   0.58032019    -7.6344171     -6.7639492      5.1027453      50218.233      36.893836      36.893836      36.893836    
    481000   0.57871288    -7.6335411     -6.7654842      5.1014964      50218.233      36.893836      36.893836      36.893836    
    482000   0.57978232    -7.6294539     -6.7597928      5.1423497      50218.233      36.893836      36.893836      36.893836    
    483000   0.58411775    -7.6335611     -6.757397       5.1081835      50218.233      36.893836      36.893836      36.893836    
    484000   0.5829403     -7.6388425     -6.7644445      5.0708221      50218.233      36.893836      36.893836      36.893836    
    485000   0.57618982    -7.6326011     -6.7683286      5.0997498      50218.233      36.893836      36.893836      36.893836    
    486000   0.58013029    -7.6353508     -6.7651677      5.091906       50218.233      36.893836      36.893836      36.893836    
    487000   0.58194336    -7.6340772     -6.7611746      5.0954198      50218.233      36.893836      36.893836      36.893836    
    488000   0.5799        -7.6347129     -6.7648753      5.1040157      50218.233      36.893836      36.893836      36.893836    
    489000   0.57920145    -7.6340541     -6.7652643      5.087996       50218.233      36.893836      36.893836      36.893836    
    490000   0.57842152    -7.6409185     -6.7732986      5.0521926      50218.233      36.893836      36.893836      36.893836    
    491000   0.58413434    -7.6400395     -6.7638504      5.0612734      50218.233      36.893836      36.893836      36.893836    
    492000   0.57901061    -7.6364328     -6.7679293      5.0773927      50218.233      36.893836      36.893836      36.893836    
    493000   0.58264289    -7.6417721     -6.7678202      5.0559233      50218.233      36.893836      36.893836      36.893836    
    494000   0.58065333    -7.6386883     -6.7677207      5.0739982      50218.233      36.893836      36.893836      36.893836    
    495000   0.58200871    -7.6405528     -6.7675521      5.0573536      50218.233      36.893836      36.893836      36.893836    
    496000   0.57938401    -7.6364115     -6.7673479      5.084434       50218.233      36.893836      36.893836      36.893836    
    497000   0.58076289    -7.6337741     -6.7626421      5.1063424      50218.233      36.893836      36.893836      36.893836    
    498000   0.5786376     -7.6387226     -6.7707786      5.0677616      50218.233      36.893836      36.893836      36.893836    
    499000   0.58138688    -7.6354302     -6.7633622      5.095897       50218.233      36.893836      36.893836      36.893836    
    500000   0.5838755     -7.6331336     -6.7573328      5.1102193      50218.233      36.893836      36.893836      36.893836    
    501000   0.58088279    -7.6406959     -6.7693841      5.0525775      50218.233      36.893836      36.893836      36.893836    
    502000   0.57940188    -7.6373428     -6.7682523      5.0830077      50218.233      36.893836      36.893836      36.893836    
    503000   0.57873816    -7.6346292     -6.7665343      5.09613        50218.233      36.893836      36.893836      36.893836    
    504000   0.5781043     -7.6375574     -6.7704133      5.0732164      50218.233      36.893836      36.893836      36.893836    
    505000   0.57805761    -7.6326572     -6.7655831      5.0998553      50218.233      36.893836      36.893836      36.893836    
    506000   0.58018445    -7.6297469     -6.7594826      5.1366735      50218.233      36.893836      36.893836      36.893836    
    507000   0.58131092    -7.6386789     -6.7667249      5.0599977      50218.233      36.893836      36.893836      36.893836    
    508000   0.58067346    -7.6326211     -6.7616233      5.1141978      50218.233      36.893836      36.893836      36.893836    
    509000   0.57994113    -7.6382538     -6.7683544      5.0845237      50218.233      36.893836      36.893836      36.893836    
    510000   0.58170942    -7.6394878     -6.7669361      5.0722564      50218.233      36.893836      36.893836      36.893836    
    511000   0.57900304    -7.6370129     -6.7685207      5.0701279      50218.233      36.893836      36.893836      36.893836    
    512000   0.58082338    -7.6399223     -6.7686996      5.0725079      50218.233      36.893836      36.893836      36.893836    
    513000   0.57877607    -7.6330921     -6.7649404      5.1011519      50218.233      36.893836      36.893836      36.893836    
    514000   0.57824281    -7.6400398     -6.7726879      5.0569316      50218.233      36.893836      36.893836      36.893836    
    515000   0.57728055    -7.6366084     -6.7706999      5.0845236      50218.233      36.893836      36.893836      36.893836    
    516000   0.58047767    -7.6380666     -6.7673625      5.0714126      50218.233      36.893836      36.893836      36.893836    
    517000   0.57951001    -7.642733      -6.7734803      5.0352493      50218.233      36.893836      36.893836      36.893836    
    518000   0.5797644     -7.6378735     -6.7682393      5.0768458      50218.233      36.893836      36.893836      36.893836    
    519000   0.58075068    -7.6349729     -6.7638592      5.0927319      50218.233      36.893836      36.893836      36.893836    
    520000   0.58037565    -7.6388898     -6.7683388      5.0645994      50218.233      36.893836      36.893836      36.893836    
    521000   0.58200903    -7.6378369     -6.7648357      5.0752119      50218.233      36.893836      36.893836      36.893836    
    522000   0.5804923     -7.632651      -6.761925       5.1171109      50218.233      36.893836      36.893836      36.893836    
    523000   0.57801164    -7.6405606     -6.7735555      5.0431176      50218.233      36.893836      36.893836      36.893836    
    524000   0.58042731    -7.6399447     -6.7693162      5.0544345      50218.233      36.893836      36.893836      36.893836    
    525000   0.57905275    -7.6402589     -6.7716922      5.0538316      50218.233      36.893836      36.893836      36.893836    
    526000   0.57996938    -7.6391954     -6.7692537      5.0685066      50218.233      36.893836      36.893836      36.893836    
    527000   0.58091205    -7.6390486     -6.7676929      5.0581097      50218.233      36.893836      36.893836      36.893836    
    528000   0.57674508    -7.6334411     -6.7683358      5.0950135      50218.233      36.893836      36.893836      36.893836    
    529000   0.5797542     -7.6335407     -6.7639217      5.1042954      50218.233      36.893836      36.893836      36.893836    
    530000   0.57886348    -7.6396802     -6.7713973      5.0543592      50218.233      36.893836      36.893836      36.893836    
    531000   0.58056799    -7.641657      -6.7708174      5.0368634      50218.233      36.893836      36.893836      36.893836    
    532000   0.57914891    -7.6378891     -6.7691781      5.0693074      50218.233      36.893836      36.893836      36.893836    
    533000   0.57785608    -7.6379016     -6.7711298      5.0559387      50218.233      36.893836      36.893836      36.893836    
    534000   0.57773551    -7.6320906     -6.7654996      5.1118526      50218.233      36.893836      36.893836      36.893836    
    535000   0.57948179    -7.6349746     -6.7657643      5.0987294      50218.233      36.893836      36.893836      36.893836    
    536000   0.58149259    -7.6410546     -6.7688281      5.0407143      50218.233      36.893836      36.893836      36.893836    
    537000   0.5785062     -7.6377445     -6.7699976      5.0752965      50218.233      36.893836      36.893836      36.893836    
    538000   0.5800205     -7.6363648     -6.7663465      5.0782429      50218.233      36.893836      36.893836      36.893836    
    539000   0.58073768    -7.6364557     -6.7653615      5.0788752      50218.233      36.893836      36.893836      36.893836    
    540000   0.57997467    -7.6377127     -6.7677631      5.0731188      50218.233      36.893836      36.893836      36.893836    
    541000   0.57742366    -7.6345449     -6.7684217      5.0858786      50218.233      36.893836      36.893836      36.893836    
    542000   0.57817937    -7.6365869     -6.7693301      5.0892388      50218.233      36.893836      36.893836      36.893836    
    543000   0.58005847    -7.6294451     -6.7593698      5.1377505      50218.233      36.893836      36.893836      36.893836    
    544000   0.58245285    -7.6368891     -6.7632223      5.0829848      50218.233      36.893836      36.893836      36.893836    
    545000   0.58105719    -7.6361017     -6.7645284      5.1066139      50218.233      36.893836      36.893836      36.893836    
    546000   0.57950408    -7.6371317     -6.7678879      5.0837161      50218.233      36.893836      36.893836      36.893836    
    547000   0.5793761     -7.6405321     -6.7714803      5.0590567      50218.233      36.893836      36.893836      36.893836    
    548000   0.58191588    -7.6409119     -6.7680505      5.056547       50218.233      36.893836      36.893836      36.893836    
    549000   0.57888846    -7.6327847     -6.7644644      5.1181533      50218.233      36.893836      36.893836      36.893836    
    550000   0.58007566    -7.634068      -6.7639669      5.0928601      50218.233      36.893836      36.893836      36.893836    
    551000   0.57616152    -7.6325693     -6.7683393      5.1120548      50218.233      36.893836      36.893836      36.893836    
    552000   0.57967617    -7.6360536     -6.7665517      5.0899536      50218.233      36.893836      36.893836      36.893836    
    553000   0.57990576    -7.6370074     -6.7671611      5.0761536      50218.233      36.893836      36.893836      36.893836    
    554000   0.57917351    -7.6364755     -6.7677276      5.082597       50218.233      36.893836      36.893836      36.893836    
    555000   0.57940653    -7.6356287     -6.7665313      5.0970343      50218.233      36.893836      36.893836      36.893836    
    556000   0.58252738    -7.6325874     -6.7588088      5.1230342      50218.233      36.893836      36.893836      36.893836    
    557000   0.57647292    -7.6366413     -6.7719442      5.0762493      50218.233      36.893836      36.893836      36.893836    
    558000   0.58065931    -7.635197      -6.7642205      5.0939337      50218.233      36.893836      36.893836      36.893836    
    559000   0.58153695    -7.6385639     -6.7662709      5.0737469      50218.233      36.893836      36.893836      36.893836    
    560000   0.58039454    -7.6407041     -6.7701247      5.051594       50218.233      36.893836      36.893836      36.893836    
    561000   0.58104292    -7.6335431     -6.7619911      5.0992069      50218.233      36.893836      36.893836      36.893836    
    562000   0.58236548    -7.6393264     -6.7657906      5.0594514      50218.233      36.893836      36.893836      36.893836    
    563000   0.57775109    -7.6374752     -6.7708609      5.0714315      50218.233      36.893836      36.893836      36.893836    
    564000   0.5809432     -7.6415315     -6.7701291      5.0558883      50218.233      36.893836      36.893836      36.893836    
    565000   0.58052067    -7.6349348     -6.7641662      5.1008731      50218.233      36.893836      36.893836      36.893836    
    566000   0.58090762    -7.630722      -6.759373       5.1315458      50218.233      36.893836      36.893836      36.893836    
    567000   0.57981221    -7.6337594     -6.7640535      5.0961985      50218.233      36.893836      36.893836      36.893836    
    568000   0.58244331    -7.6345131     -6.7608606      5.109549       50218.233      36.893836      36.893836      36.893836    
    569000   0.58077286    -7.6391191     -6.7679722      5.0713578      50218.233      36.893836      36.893836      36.893836    
    570000   0.58006282    -7.6324455     -6.7623636      5.107297       50218.233      36.893836      36.893836      36.893836    
    571000   0.58219185    -7.6389439     -6.7656686      5.0744122      50218.233      36.893836      36.893836      36.893836    
    572000   0.57946067    -7.6397057     -6.770527       5.069287       50218.233      36.893836      36.893836      36.893836    
    573000   0.58303264    -7.6404764     -6.7659399      5.059759       50218.233      36.893836      36.893836      36.893836    
    574000   0.58029458    -7.631566      -6.7611365      5.1200065      50218.233      36.893836      36.893836      36.893836    
    575000   0.58122347    -7.6328163     -6.7609935      5.1216615      50218.233      36.893836      36.893836      36.893836    
    576000   0.58051993    -7.6384503     -6.7676828      5.0623113      50218.233      36.893836      36.893836      36.893836    
    577000   0.58067885    -7.6375195     -6.7665136      5.0704554      50218.233      36.893836      36.893836      36.893836    
    578000   0.58033351    -7.6286328     -6.758145       5.1488667      50218.233      36.893836      36.893836      36.893836    
    579000   0.5770462     -7.6311544     -6.7655974      5.1166459      50218.233      36.893836      36.893836      36.893836    
    580000   0.57755203    -7.6309616     -6.7646458      5.12246        50218.233      36.893836      36.893836      36.893836    
    581000   0.58125749    -7.630236      -6.7583622      5.124919       50218.233      36.893836      36.893836      36.893836    
    582000   0.58112586    -7.6326937     -6.7610173      5.1021254      50218.233      36.893836      36.893836      36.893836    
    583000   0.5815741     -7.6352619     -6.7629132      5.1049783      50218.233      36.893836      36.893836      36.893836    
    584000   0.57788618    -7.6352145     -6.7683975      5.084747       50218.233      36.893836      36.893836      36.893836    
    585000   0.58185589    -7.6302831     -6.7575117      5.1312038      50218.233      36.893836      36.893836      36.893836    
    586000   0.58073013    -7.6319461     -6.7608633      5.1164303      50218.233      36.893836      36.893836      36.893836    
    587000   0.57637567    -7.6342535     -6.7697023      5.0818429      50218.233      36.893836      36.893836      36.893836    
    588000   0.58086048    -7.6339245     -6.7626462      5.1049201      50218.233      36.893836      36.893836      36.893836    
    589000   0.57960275    -7.634983      -6.7655913      5.0943056      50218.233      36.893836      36.893836      36.893836    
    590000   0.58170757    -7.6377997     -6.7652508      5.0792335      50218.233      36.893836      36.893836      36.893836    
    591000   0.58010729    -7.6348853     -6.7647368      5.1040808      50218.233      36.893836      36.893836      36.893836    
    592000   0.58038169    -7.638654      -6.7680939      5.0778636      50218.233      36.893836      36.893836      36.893836    
    593000   0.57802638    -7.6376475     -6.7706203      5.0754363      50218.233      36.893836      36.893836      36.893836    
    594000   0.57983312    -7.6358133     -6.766076       5.0934215      50218.233      36.893836      36.893836      36.893836    
    595000   0.57713189    -7.6386678     -6.7729822      5.0660941      50218.233      36.893836      36.893836      36.893836    
    596000   0.57994311    -7.6318409     -6.7619386      5.119726       50218.233      36.893836      36.893836      36.893836    
    597000   0.58119674    -7.6435412     -6.7717585      5.0356764      50218.233      36.893836      36.893836      36.893836    
    598000   0.57895972    -7.6372245     -6.7687973      5.0804825      50218.233      36.893836      36.893836      36.893836    
    599000   0.5811551     -7.6369288     -6.7652085      5.0883201      50218.233      36.893836      36.893836      36.893836    
    600000   0.578455      -7.6326375     -6.7649674      5.1115256      50218.233      36.893836      36.893836      36.893836    
    601000   0.58114718    -7.6368065     -6.7650981      5.073754       50218.233      36.893836      36.893836      36.893836    
    602000   0.58025513    -7.6358106     -6.7654403      5.0861663      50218.233      36.893836      36.893836      36.893836    
    603000   0.58042738    -7.6312074     -6.7605787      5.1326834      50218.233      36.893836      36.893836      36.893836    
    604000   0.57829533    -7.6354681     -6.7680375      5.0908658      50218.233      36.893836      36.893836      36.893836    
    605000   0.57777568    -7.6382382     -6.771587       5.0624232      50218.233      36.893836      36.893836      36.893836    
    606000   0.57850668    -7.6387183     -6.7709706      5.0626535      50218.233      36.893836      36.893836      36.893836    
    607000   0.58020494    -7.6387138     -6.7684188      5.0590358      50218.233      36.893836      36.893836      36.893836    
    608000   0.58189266    -7.6370371     -6.7642106      5.0706244      50218.233      36.893836      36.893836      36.893836    
    609000   0.57927096    -7.6346954     -6.7658013      5.0884931      50218.233      36.893836      36.893836      36.893836    
    610000   0.57839932    -7.632767      -6.7651804      5.1118965      50218.233      36.893836      36.893836      36.893836    
    611000   0.58215269    -7.6333253     -6.7601087      5.1180426      50218.233      36.893836      36.893836      36.893836    
    612000   0.57842984    -7.6340555     -6.7664231      5.1135349      50218.233      36.893836      36.893836      36.893836    
    613000   0.58217322    -7.6350006     -6.7617532      5.0993062      50218.233      36.893836      36.893836      36.893836    
    614000   0.5791032     -7.6360117     -6.7673692      5.0856003      50218.233      36.893836      36.893836      36.893836    
    615000   0.57879662    -7.6325217     -6.7643391      5.1108944      50218.233      36.893836      36.893836      36.893836    
    616000   0.57883374    -7.6318902     -6.7636519      5.1198582      50218.233      36.893836      36.893836      36.893836    
    617000   0.58289459    -7.6353083     -6.7609788      5.0930583      50218.233      36.893836      36.893836      36.893836    
    618000   0.58221932    -7.636118      -6.7628015      5.0959495      50218.233      36.893836      36.893836      36.893836    
    619000   0.58034302    -7.6323273     -6.7618251      5.1130676      50218.233      36.893836      36.893836      36.893836    
    620000   0.58070119    -7.633167      -6.7621276      5.1011987      50218.233      36.893836      36.893836      36.893836    
    621000   0.5790783     -7.6338441     -6.765239       5.0992737      50218.233      36.893836      36.893836      36.893836    
    622000   0.5826292     -7.6367917     -6.7628604      5.0821006      50218.233      36.893836      36.893836      36.893836    
    623000   0.58220705    -7.6334619     -6.7601637      5.1043889      50218.233      36.893836      36.893836      36.893836    
    624000   0.58127221    -7.6352571     -6.7633612      5.1040967      50218.233      36.893836      36.893836      36.893836    
    625000   0.58272909    -7.6334496     -6.7593684      5.1122328      50218.233      36.893836      36.893836      36.893836    
    626000   0.57983891    -7.6297301     -6.7599841      5.13374        50218.233      36.893836      36.893836      36.893836    
    627000   0.57870307    -7.6350839     -6.7670416      5.0870645      50218.233      36.893836      36.893836      36.893836    
    628000   0.57808028    -7.6344399     -6.7673318      5.1035482      50218.233      36.893836      36.893836      36.893836    
    629000   0.58061701    -7.6333003     -6.7623872      5.098408       50218.233      36.893836      36.893836      36.893836    
    630000   0.57992016    -7.6362156     -6.7663477      5.0748855      50218.233      36.893836      36.893836      36.893836    
    631000   0.58107119    -7.6332527     -6.7616583      5.1044116      50218.233      36.893836      36.893836      36.893836    
    632000   0.5790404     -7.6339968     -6.7654486      5.0888329      50218.233      36.893836      36.893836      36.893836    
    633000   0.58097553    -7.63224       -6.7607891      5.1032688      50218.233      36.893836      36.893836      36.893836    
    634000   0.57856416    -7.6304224     -6.7625885      5.1372199      50218.233      36.893836      36.893836      36.893836    
    635000   0.58243776    -7.6304083     -6.7567641      5.1284145      50218.233      36.893836      36.893836      36.893836    
    636000   0.58002623    -7.634462      -6.764435       5.0978135      50218.233      36.893836      36.893836      36.893836    
    637000   0.57852237    -7.6366876     -6.7689164      5.0858063      50218.233      36.893836      36.893836      36.893836    
    638000   0.58208398    -7.6399928     -6.7668793      5.0672735      50218.233      36.893836      36.893836      36.893836    
    639000   0.57968727    -7.6305988     -6.7610802      5.1353795      50218.233      36.893836      36.893836      36.893836    
    640000   0.5783787     -7.6359105     -6.7683548      5.090365       50218.233      36.893836      36.893836      36.893836    
    641000   0.57601693    -7.6362465     -6.7722334      5.0859685      50218.233      36.893836      36.893836      36.893836    
    642000   0.58271627    -7.6311881     -6.7571261      5.1305804      50218.233      36.893836      36.893836      36.893836    
    643000   0.57850537    -7.6374738     -6.7697281      5.0701926      50218.233      36.893836      36.893836      36.893836    
    644000   0.58142043    -7.6349439     -6.7628256      5.1060195      50218.233      36.893836      36.893836      36.893836    
    645000   0.58021071    -7.634428      -6.7641243      5.0944668      50218.233      36.893836      36.893836      36.893836    
    646000   0.57902459    -7.638234      -6.7697095      5.072516       50218.233      36.893836      36.893836      36.893836    
    647000   0.58168085    -7.6338391     -6.7613302      5.1037414      50218.233      36.893836      36.893836      36.893836    
    648000   0.57812761    -7.6385573     -6.7713782      5.0615207      50218.233      36.893836      36.893836      36.893836    
    649000   0.58088575    -7.6369498     -6.7656336      5.0871499      50218.233      36.893836      36.893836      36.893836    
    650000   0.58199687    -7.6385229     -6.76554        5.0751888      50218.233      36.893836      36.893836      36.893836    
    651000   0.58068434    -7.6399456     -6.7689314      5.0671567      50218.233      36.893836      36.893836      36.893836    
    652000   0.58012568    -7.6411561     -6.77098        5.0510888      50218.233      36.893836      36.893836      36.893836    
    653000   0.58237144    -7.6346184     -6.7610737      5.1108541      50218.233      36.893836      36.893836      36.893836    
    654000   0.58170762    -7.6383174     -6.7657683      5.0762771      50218.233      36.893836      36.893836      36.893836    
    655000   0.58149577    -7.6350438     -6.7628126      5.1007839      50218.233      36.893836      36.893836      36.893836    
    656000   0.58117651    -7.6309187     -6.7591663      5.1121689      50218.233      36.893836      36.893836      36.893836    
    657000   0.58108901    -7.637814      -6.7661928      5.0707651      50218.233      36.893836      36.893836      36.893836    
    658000   0.57820679    -7.6374822     -6.7701843      5.0684174      50218.233      36.893836      36.893836      36.893836    
    659000   0.58237101    -7.6374221     -6.763878       5.0867588      50218.233      36.893836      36.893836      36.893836    
    660000   0.57955813    -7.6325105     -6.7631856      5.1171633      50218.233      36.893836      36.893836      36.893836    
    661000   0.58074447    -7.6347883     -6.7636839      5.1041899      50218.233      36.893836      36.893836      36.893836    
    662000   0.58134198    -7.6345454     -6.7625448      5.1067777      50218.233      36.893836      36.893836      36.893836    
    663000   0.57982978    -7.6357417     -6.7660094      5.0858884      50218.233      36.893836      36.893836      36.893836    
    664000   0.57949568    -7.6345437     -6.7653126      5.0969098      50218.233      36.893836      36.893836      36.893836    
    665000   0.57486281    -7.6326958     -6.7704139      5.1034422      50218.233      36.893836      36.893836      36.893836    
    666000   0.57862442    -7.641075      -6.7731508      5.0482507      50218.233      36.893836      36.893836      36.893836    
    667000   0.5817892     -7.6328528     -6.7601814      5.1213934      50218.233      36.893836      36.893836      36.893836    
    668000   0.58210733    -7.6366565     -6.7635079      5.0933123      50218.233      36.893836      36.893836      36.893836    
    669000   0.58256468    -7.6424634     -6.7686288      5.0613708      50218.233      36.893836      36.893836      36.893836    
    670000   0.57869628    -7.6350656     -6.7670335      5.1023371      50218.233      36.893836      36.893836      36.893836    
    671000   0.58141687    -7.6335786     -6.7614657      5.110431       50218.233      36.893836      36.893836      36.893836    
    672000   0.58091647    -7.6372099     -6.7658476      5.0848706      50218.233      36.893836      36.893836      36.893836    
    673000   0.58054696    -7.6350176     -6.7642095      5.101132       50218.233      36.893836      36.893836      36.893836    
    674000   0.5788589     -7.6403597     -6.7720837      5.0570836      50218.233      36.893836      36.893836      36.893836    
    675000   0.58123331    -7.641487      -6.7696495      5.0491325      50218.233      36.893836      36.893836      36.893836    
    676000   0.58174953    -7.6312372     -6.7586254      5.1257729      50218.233      36.893836      36.893836      36.893836    
    677000   0.58252701    -7.6329002     -6.7591221      5.1115331      50218.233      36.893836      36.893836      36.893836    
    678000   0.57831315    -7.6322691     -6.7648117      5.1099542      50218.233      36.893836      36.893836      36.893836    
    679000   0.58128858    -7.6387451     -6.7668246      5.0784507      50218.233      36.893836      36.893836      36.893836    
    680000   0.58190867    -7.6349461     -6.7620955      5.100165       50218.233      36.893836      36.893836      36.893836    
    681000   0.57899863    -7.63676       -6.7682744      5.0754873      50218.233      36.893836      36.893836      36.893836    
    682000   0.57973901    -7.6376008     -6.7680046      5.0697982      50218.233      36.893836      36.893836      36.893836    
    683000   0.58267846    -7.6415681     -6.7675628      5.048424       50218.233      36.893836      36.893836      36.893836    
    684000   0.57766546    -7.6397376     -6.7732518      5.06421        50218.233      36.893836      36.893836      36.893836    
    685000   0.57875583    -7.6396818     -6.7715604      5.0684692      50218.233      36.893836      36.893836      36.893836    
    686000   0.57938712    -7.6360684     -6.7670001      5.0799256      50218.233      36.893836      36.893836      36.893836    
    687000   0.58010081    -7.6367833     -6.7666444      5.0843419      50218.233      36.893836      36.893836      36.893836    
    688000   0.5788101     -7.6322645     -6.7640617      5.1229787      50218.233      36.893836      36.893836      36.893836    
    689000   0.58052327    -7.6342        -6.7634274      5.1114464      50218.233      36.893836      36.893836      36.893836    
    690000   0.57890755    -7.6354702     -6.7671213      5.1046254      50218.233      36.893836      36.893836      36.893836    
    691000   0.57949853    -7.633665      -6.7644295      5.1039275      50218.233      36.893836      36.893836      36.893836    
    692000   0.57989238    -7.6338116     -6.7639854      5.1146594      50218.233      36.893836      36.893836      36.893836    
    693000   0.57771197    -7.6352418     -6.7686862      5.1042513      50218.233      36.893836      36.893836      36.893836    
    694000   0.57892217    -7.640679      -6.7723081      5.0493388      50218.233      36.893836      36.893836      36.893836    
    695000   0.57708519    -7.6370961     -6.7714806      5.0788585      50218.233      36.893836      36.893836      36.893836    
    696000   0.57999226    -7.6353526     -6.7653765      5.0986466      50218.233      36.893836      36.893836      36.893836    
    697000   0.57786423    -7.6361545     -6.7693705      5.0895159      50218.233      36.893836      36.893836      36.893836    
    698000   0.58109786    -7.6394348     -6.7678004      5.0674708      50218.233      36.893836      36.893836      36.893836    
    699000   0.57957469    -7.6361674     -6.7668177      5.086522       50218.233      36.893836      36.893836      36.893836    
    700000   0.58362884    -7.6394646     -6.7640338      5.0730752      50218.233      36.893836      36.893836      36.893836    
    701000   0.57911837    -7.6415042     -6.772839       5.0593747      50218.233      36.893836      36.893836      36.893836    
    702000   0.5810549     -7.6365928     -6.7650228      5.0741986      50218.233      36.893836      36.893836      36.893836    
    703000   0.57729099    -7.6408527     -6.7749286      5.050322       50218.233      36.893836      36.893836      36.893836    
    704000   0.58051422    -7.6375364     -6.7667775      5.0832996      50218.233      36.893836      36.893836      36.893836    
    705000   0.58123664    -7.6392569     -6.7674143      5.0745039      50218.233      36.893836      36.893836      36.893836    
    706000   0.5797251     -7.6339307     -6.7643554      5.0950657      50218.233      36.893836      36.893836      36.893836    
    707000   0.5816411     -7.6384818     -6.7660325      5.0727472      50218.233      36.893836      36.893836      36.893836    
    708000   0.58040184    -7.6348236     -6.7642333      5.1029326      50218.233      36.893836      36.893836      36.893836    
    709000   0.57966849    -7.6395491     -6.7700587      5.053339       50218.233      36.893836      36.893836      36.893836    
    710000   0.57873851    -7.6394536     -6.7713582      5.0585446      50218.233      36.893836      36.893836      36.893836    
    711000   0.58281106    -7.6411709     -6.7669667      5.0633734      50218.233      36.893836      36.893836      36.893836    
    712000   0.58090513    -7.6388818     -6.7675365      5.0775053      50218.233      36.893836      36.893836      36.893836    
    713000   0.57951563    -7.636381      -6.7671199      5.0799587      50218.233      36.893836      36.893836      36.893836    
    714000   0.58472076    -7.6342669     -6.7571982      5.1098721      50218.233      36.893836      36.893836      36.893836    
    715000   0.57850108    -7.6342247     -6.7664855      5.0929223      50218.233      36.893836      36.893836      36.893836    
    716000   0.58139505    -7.6391842     -6.767104       5.0639593      50218.233      36.893836      36.893836      36.893836    
    717000   0.57430103    -7.6365508     -6.7751115      5.087629       50218.233      36.893836      36.893836      36.893836    
    718000   0.58435418    -7.6359315     -6.7594127      5.0997212      50218.233      36.893836      36.893836      36.893836    
    719000   0.58462332    -7.6371231     -6.7602005      5.0848111      50218.233      36.893836      36.893836      36.893836    
    720000   0.57969714    -7.6379544     -6.768421       5.0843381      50218.233      36.893836      36.893836      36.893836    
    721000   0.58060198    -7.6378663     -6.7669757      5.0818097      50218.233      36.893836      36.893836      36.893836    
    722000   0.58360601    -7.6363955     -6.760999       5.0976319      50218.233      36.893836      36.893836      36.893836    
    723000   0.5810435     -7.6344735     -6.7629206      5.1101655      50218.233      36.893836      36.893836      36.893836    
    724000   0.57935779    -7.6359728     -6.7669485      5.0871954      50218.233      36.893836      36.893836      36.893836    
    725000   0.57805236    -7.6387815     -6.7717153      5.0715651      50218.233      36.893836      36.893836      36.893836    
    726000   0.57866921    -7.6366056     -6.7686141      5.0736572      50218.233      36.893836      36.893836      36.893836    
    727000   0.5795117     -7.634971      -6.7657158      5.0915009      50218.233      36.893836      36.893836      36.893836    
    728000   0.57708973    -7.6323234     -6.7667011      5.1119108      50218.233      36.893836      36.893836      36.893836    
    729000   0.57825733    -7.6363542     -6.7689805      5.0835712      50218.233      36.893836      36.893836      36.893836    
    730000   0.58028128    -7.6367319     -6.7663224      5.0827035      50218.233      36.893836      36.893836      36.893836    
    731000   0.58140939    -7.6310457     -6.758944       5.1345979      50218.233      36.893836      36.893836      36.893836    
    732000   0.58064448    -7.6404266     -6.7694722      5.0553698      50218.233      36.893836      36.893836      36.893836    
    733000   0.57796431    -7.6343455     -6.7674113      5.0763503      50218.233      36.893836      36.893836      36.893836    
    734000   0.57993135    -7.6332979     -6.7634132      5.1150178      50218.233      36.893836      36.893836      36.893836    
    735000   0.57997746    -7.6343258     -6.764372       5.1069047      50218.233      36.893836      36.893836      36.893836    
    736000   0.58196462    -7.6354281     -6.7624936      5.0783776      50218.233      36.893836      36.893836      36.893836    
    737000   0.58027837    -7.6405784     -6.7701732      5.0564892      50218.233      36.893836      36.893836      36.893836    
    738000   0.57714444    -7.6374067     -6.7717024      5.0768149      50218.233      36.893836      36.893836      36.893836    
    739000   0.57902779    -7.6365878     -6.7680585      5.0878323      50218.233      36.893836      36.893836      36.893836    
    740000   0.58186017    -7.6353219     -6.762544       5.1051559      50218.233      36.893836      36.893836      36.893836    
    741000   0.58148795    -7.636181      -6.7639615      5.0856412      50218.233      36.893836      36.893836      36.893836    
    742000   0.58053353    -7.6334827     -6.7626948      5.1122661      50218.233      36.893836      36.893836      36.893836    
    743000   0.57933842    -7.6281446     -6.7591493      5.1458194      50218.233      36.893836      36.893836      36.893836    
    744000   0.58062021    -7.6363193     -6.7654014      5.0888948      50218.233      36.893836      36.893836      36.893836    
    745000   0.57767199    -7.6314463     -6.7649507      5.106685       50218.233      36.893836      36.893836      36.893836    
    746000   0.58483017    -7.6314261     -6.7541934      5.1390141      50218.233      36.893836      36.893836      36.893836    
    747000   0.57986527    -7.6343764     -6.7645908      5.0985029      50218.233      36.893836      36.893836      36.893836    
    748000   0.58195462    -7.6370076     -6.7640881      5.0764961      50218.233      36.893836      36.893836      36.893836    
    749000   0.58085164    -7.6346859     -6.7634208      5.1002334      50218.233      36.893836      36.893836      36.893836    
    750000   0.58295387    -7.6331571     -6.7587387      5.1234603      50218.233      36.893836      36.893836      36.893836    
    751000   0.5770527     -7.6341548     -6.768588       5.1009617      50218.233      36.893836      36.893836      36.893836    
    752000   0.58054904    -7.6296425     -6.7588314      5.1270024      50218.233      36.893836      36.893836      36.893836    
    753000   0.58291207    -7.6346707     -6.760315       5.1032227      50218.233      36.893836      36.893836      36.893836    
    754000   0.5794384     -7.6352464     -6.7661012      5.087541       50218.233      36.893836      36.893836      36.893836    
    755000   0.5812392     -7.6269833     -6.7551369      5.1547273      50218.233      36.893836      36.893836      36.893836    
    756000   0.58240217    -7.6323926     -6.7588017      5.1327682      50218.233      36.893836      36.893836      36.893836    
    757000   0.58034386    -7.6330112     -6.7625078      5.1090387      50218.233      36.893836      36.893836      36.893836    
    758000   0.58303623    -7.6344398     -6.7598979      5.101529       50218.233      36.893836      36.893836      36.893836    
    759000   0.57823013    -7.6370978     -6.7697649      5.0659144      50218.233      36.893836      36.893836      36.893836    
    760000   0.581271      -7.6341913     -6.7622972      5.098117       50218.233      36.893836      36.893836      36.893836    
    761000   0.57952493    -7.6370501     -6.7677751      5.0847382      50218.233      36.893836      36.893836      36.893836    
    762000   0.57925478    -7.6341799     -6.7653101      5.1010307      50218.233      36.893836      36.893836      36.893836    
    763000   0.57824291    -7.6308441     -6.7634921      5.1297412      50218.233      36.893836      36.893836      36.893836    
    764000   0.57886317    -7.6378183     -6.7695358      5.0777225      50218.233      36.893836      36.893836      36.893836    
    765000   0.58008514    -7.6318529     -6.7617376      5.1193503      50218.233      36.893836      36.893836      36.893836    
    766000   0.57828706    -7.6335559     -6.7661376      5.1154432      50218.233      36.893836      36.893836      36.893836    
    767000   0.57927878    -7.6350251     -6.7661193      5.0978066      50218.233      36.893836      36.893836      36.893836    
    768000   0.57639686    -7.6343138     -6.7697308      5.1049354      50218.233      36.893836      36.893836      36.893836    
    769000   0.58015654    -7.6309545     -6.7607321      5.1203904      50218.233      36.893836      36.893836      36.893836    
    770000   0.58452697    -7.6280062     -6.7512282      5.1661636      50218.233      36.893836      36.893836      36.893836    
    771000   0.57721728    -7.6309707     -6.7651571      5.129679       50218.233      36.893836      36.893836      36.893836    
    772000   0.57840838    -7.6353102     -6.7677099      5.0846738      50218.233      36.893836      36.893836      36.893836    
    773000   0.58227925    -7.6414744     -6.7680679      5.0462888      50218.233      36.893836      36.893836      36.893836    
    774000   0.58192614    -7.6333077     -6.7604309      5.1068937      50218.233      36.893836      36.893836      36.893836    
    775000   0.58022485    -7.6311743     -6.7608494      5.1385871      50218.233      36.893836      36.893836      36.893836    
    776000   0.58207058    -7.626427      -6.7533336      5.1795564      50218.233      36.893836      36.893836      36.893836    
    777000   0.57980398    -7.6382634     -6.7685698      5.0779363      50218.233      36.893836      36.893836      36.893836    
    778000   0.58001011    -7.6337968     -6.7637941      5.1046199      50218.233      36.893836      36.893836      36.893836    
    779000   0.58059377    -7.6315098     -6.7606316      5.1137678      50218.233      36.893836      36.893836      36.893836    
    780000   0.57755       -7.6342553     -6.7679427      5.0957191      50218.233      36.893836      36.893836      36.893836    
    781000   0.57764002    -7.6318931     -6.7654454      5.1091014      50218.233      36.893836      36.893836      36.893836    
    782000   0.58020556    -7.6346549     -6.764359       5.1039998      50218.233      36.893836      36.893836      36.893836    
    783000   0.58206094    -7.6377382     -6.7646592      5.0902424      50218.233      36.893836      36.893836      36.893836    
    784000   0.57785556    -7.6366485     -6.7698775      5.0816648      50218.233      36.893836      36.893836      36.893836    
    785000   0.58335263    -7.6361835     -6.761167       5.0875519      50218.233      36.893836      36.893836      36.893836    
    786000   0.57917488    -7.6376601     -6.7689102      5.067414       50218.233      36.893836      36.893836      36.893836    
    787000   0.58027311    -7.637402      -6.7670047      5.0872668      50218.233      36.893836      36.893836      36.893836    
    788000   0.58057252    -7.6365053     -6.7656589      5.090591       50218.233      36.893836      36.893836      36.893836    
    789000   0.57924812    -7.6392251     -6.7703653      5.070433       50218.233      36.893836      36.893836      36.893836    
    790000   0.57900386    -7.6343488     -6.7658554      5.104749       50218.233      36.893836      36.893836      36.893836    
    791000   0.5759075     -7.6359098     -6.7720608      5.09141        50218.233      36.893836      36.893836      36.893836    
    792000   0.58015997    -7.6369938     -6.7667663      5.0842042      50218.233      36.893836      36.893836      36.893836    
    793000   0.58267681    -7.637549      -6.7635462      5.084632       50218.233      36.893836      36.893836      36.893836    
    794000   0.58329954    -7.6400903     -6.7651534      5.0499463      50218.233      36.893836      36.893836      36.893836    
    795000   0.57885049    -7.6371856     -6.7689222      5.0695954      50218.233      36.893836      36.893836      36.893836    
    796000   0.57698115    -7.632677      -6.7672176      5.1178003      50218.233      36.893836      36.893836      36.893836    
    797000   0.57970154    -7.6305888     -6.7610489      5.1331974      50218.233      36.893836      36.893836      36.893836    
    798000   0.57979134    -7.6342958     -6.7646212      5.0972067      50218.233      36.893836      36.893836      36.893836    
    799000   0.58280036    -7.6407575     -6.7665694      5.0538859      50218.233      36.893836      36.893836      36.893836    
    800000   0.57855266    -7.6342568     -6.7664401      5.0935358      50218.233      36.893836      36.893836      36.893836    
    801000   0.5763546     -7.6347204     -6.7702008      5.0923978      50218.233      36.893836      36.893836      36.893836    
    802000   0.580399      -7.6360278     -6.7654417      5.088564       50218.233      36.893836      36.893836      36.893836    
    803000   0.57794178    -7.6331063     -6.7662059      5.1199938      50218.233      36.893836      36.893836      36.893836    
    804000   0.57951947    -7.638774      -6.7695071      5.0607018      50218.233      36.893836      36.893836      36.893836    
    805000   0.58017507    -7.6386875     -6.7684373      5.0611146      50218.233      36.893836      36.893836      36.893836    
    806000   0.57940526    -7.6342126     -6.7651171      5.1008039      50218.233      36.893836      36.893836      36.893836    
    807000   0.57738114    -7.6391031     -6.7730437      5.0656813      50218.233      36.893836      36.893836      36.893836    
    808000   0.58079864    -7.6325663     -6.7613808      5.1223762      50218.233      36.893836      36.893836      36.893836    
    809000   0.57933143    -7.6301241     -6.7611393      5.1368102      50218.233      36.893836      36.893836      36.893836    
    810000   0.58013948    -7.6356633     -6.7654665      5.1047926      50218.233      36.893836      36.893836      36.893836    
    811000   0.5796776     -7.635345      -6.765841       5.0910998      50218.233      36.893836      36.893836      36.893836    
    812000   0.58281109    -7.6329929     -6.7587887      5.1263845      50218.233      36.893836      36.893836      36.893836    
    813000   0.57753744    -7.6345991     -6.7683052      5.0900302      50218.233      36.893836      36.893836      36.893836    
    814000   0.58112654    -7.6369427     -6.7652653      5.0879516      50218.233      36.893836      36.893836      36.893836    
    815000   0.57914779    -7.6313521     -6.7626427      5.1280487      50218.233      36.893836      36.893836      36.893836    
    816000   0.57739592    -7.63362       -6.7675384      5.1100427      50218.233      36.893836      36.893836      36.893836    
    817000   0.57958573    -7.6309857     -6.7616195      5.1258897      50218.233      36.893836      36.893836      36.893836    
    818000   0.57986992    -7.6281068     -6.7583143      5.1452005      50218.233      36.893836      36.893836      36.893836    
    819000   0.58058768    -7.6312309     -6.7603617      5.1268488      50218.233      36.893836      36.893836      36.893836    
    820000   0.58150645    -7.6363465     -6.7640993      5.0794653      50218.233      36.893836      36.893836      36.893836    
    821000   0.57715468    -7.6349931     -6.7692733      5.0846307      50218.233      36.893836      36.893836      36.893836    
    822000   0.583056      -7.6364801     -6.7619086      5.0924617      50218.233      36.893836      36.893836      36.893836    
    823000   0.57930004    -7.6383719     -6.7694342      5.0665755      50218.233      36.893836      36.893836      36.893836    
    824000   0.57891754    -7.6384071     -6.7700431      5.0669595      50218.233      36.893836      36.893836      36.893836    
    825000   0.57833347    -7.6356271     -6.7681393      5.0846273      50218.233      36.893836      36.893836      36.893836    
    826000   0.57942204    -7.6327409     -6.7636202      5.1013988      50218.233      36.893836      36.893836      36.893836    
    827000   0.57947       -7.6344317     -6.765239       5.1024298      50218.233      36.893836      36.893836      36.893836    
    828000   0.58191086    -7.6357179     -6.762864       5.0823108      50218.233      36.893836      36.893836      36.893836    
    829000   0.58116082    -7.638462      -6.7667332      5.0694641      50218.233      36.893836      36.893836      36.893836    
    830000   0.57819668    -7.6400128     -6.7727302      5.0622282      50218.233      36.893836      36.893836      36.893836    
    831000   0.577179      -7.6395543     -6.7737981      5.0594111      50218.233      36.893836      36.893836      36.893836    
    832000   0.5808107     -7.6399618     -6.7687581      5.0645819      50218.233      36.893836      36.893836      36.893836    
    833000   0.57726962    -7.6384467     -6.7725546      5.0638445      50218.233      36.893836      36.893836      36.893836    
    834000   0.58135278    -7.6401486     -6.7681318      5.0669072      50218.233      36.893836      36.893836      36.893836    
    835000   0.57860336    -7.6380868     -6.7701941      5.0769803      50218.233      36.893836      36.893836      36.893836    
    836000   0.5810772     -7.6444895     -6.7728861      5.0416947      50218.233      36.893836      36.893836      36.893836    
    837000   0.58339591    -7.6376793     -6.7625979      5.0804309      50218.233      36.893836      36.893836      36.893836    
    838000   0.57910327    -7.6388477     -6.7702051      5.0689436      50218.233      36.893836      36.893836      36.893836    
    839000   0.5804912     -7.6402303     -6.7695059      5.0534437      50218.233      36.893836      36.893836      36.893836    
    840000   0.57856143    -7.6375059     -6.7696761      5.0777738      50218.233      36.893836      36.893836      36.893836    
    841000   0.57821704    -7.6382743     -6.7709611      5.0782034      50218.233      36.893836      36.893836      36.893836    
    842000   0.57861612    -7.6391154     -6.7712036      5.0706321      50218.233      36.893836      36.893836      36.893836    
    843000   0.5784711     -7.6386385     -6.7709442      5.074006       50218.233      36.893836      36.893836      36.893836    
    844000   0.5780323     -7.6380916     -6.7710555      5.080598       50218.233      36.893836      36.893836      36.893836    
    845000   0.58178799    -7.6416905     -6.7690209      5.0421243      50218.233      36.893836      36.893836      36.893836    
    846000   0.58016691    -7.6362432     -6.7660052      5.0863839      50218.233      36.893836      36.893836      36.893836    
    847000   0.58018411    -7.639427      -6.7691632      5.0729144      50218.233      36.893836      36.893836      36.893836    
    848000   0.57853097    -7.6366574     -6.7688733      5.0904666      50218.233      36.893836      36.893836      36.893836    
    849000   0.5833021     -7.6390808     -6.7641401      5.0767359      50218.233      36.893836      36.893836      36.893836    
    850000   0.58197595    -7.6371087     -6.7641572      5.0847387      50218.233      36.893836      36.893836      36.893836    
    851000   0.57951053    -7.6389548     -6.7697014      5.0576626      50218.233      36.893836      36.893836      36.893836    
    852000   0.58117843    -7.641867      -6.7701117      5.0277575      50218.233      36.893836      36.893836      36.893836    
    853000   0.5793826     -7.6380411     -6.7689796      5.0787891      50218.233      36.893836      36.893836      36.893836    
    854000   0.57782748    -7.6393575     -6.7726286      5.066841       50218.233      36.893836      36.893836      36.893836    
    855000   0.57974068    -7.6391709     -6.7695722      5.0734771      50218.233      36.893836      36.893836      36.893836    
    856000   0.57973226    -7.6412415     -6.7716555      5.0404941      50218.233      36.893836      36.893836      36.893836    
    857000   0.57890139    -7.6406732     -6.7723335      5.0429409      50218.233      36.893836      36.893836      36.893836    
    858000   0.58051833    -7.6378846     -6.7671194      5.0665955      50218.233      36.893836      36.893836      36.893836    
    859000   0.58052005    -7.63562       -6.7648523      5.0927051      50218.233      36.893836      36.893836      36.893836    
    860000   0.57936135    -7.6365838     -6.7675542      5.0783443      50218.233      36.893836      36.893836      36.893836    
    861000   0.57857801    -7.636945      -6.7690903      5.0579998      50218.233      36.893836      36.893836      36.893836    
    862000   0.57906418    -7.6369072     -6.7683233      5.0789566      50218.233      36.893836      36.893836      36.893836    
    863000   0.582253      -7.638122      -6.764755       5.0692015      50218.233      36.893836      36.893836      36.893836    
    864000   0.58131587    -7.6376371     -6.7656757      5.0837512      50218.233      36.893836      36.893836      36.893836    
    865000   0.58109302    -7.642468      -6.7708409      5.0393669      50218.233      36.893836      36.893836      36.893836    
    866000   0.57878416    -7.6349293     -6.7667655      5.0978902      50218.233      36.893836      36.893836      36.893836    
    867000   0.58020078    -7.6362332     -6.7659444      5.0837136      50218.233      36.893836      36.893836      36.893836    
    868000   0.58005324    -7.639902      -6.7698345      5.0479358      50218.233      36.893836      36.893836      36.893836    
    869000   0.57922901    -7.6366467     -6.7678156      5.0743633      50218.233      36.893836      36.893836      36.893836    
    870000   0.58043033    -7.6344931     -6.76386        5.0967887      50218.233      36.893836      36.893836      36.893836    
    871000   0.57973304    -7.6387309     -6.7691437      5.0721735      50218.233      36.893836      36.893836      36.893836    
    872000   0.57861123    -7.6360593     -6.7681548      5.0738027      50218.233      36.893836      36.893836      36.893836    
    873000   0.57839092    -7.6401671     -6.7725931      5.0526924      50218.233      36.893836      36.893836      36.893836    
    874000   0.57919537    -7.6354053     -6.7666246      5.0876342      50218.233      36.893836      36.893836      36.893836    
    875000   0.5790861     -7.6368193     -6.7682025      5.0767878      50218.233      36.893836      36.893836      36.893836    
    876000   0.58152139    -7.6381475     -6.7658778      5.0686412      50218.233      36.893836      36.893836      36.893836    
    877000   0.5810354     -7.6365167     -6.764976       5.0798233      50218.233      36.893836      36.893836      36.893836    
    878000   0.58002809    -7.640302      -6.7702722      5.0531904      50218.233      36.893836      36.893836      36.893836    
    879000   0.57656869    -7.6357543     -6.7709136      5.0935578      50218.233      36.893836      36.893836      36.893836    
    880000   0.5822848     -7.6360763     -6.7626615      5.103061       50218.233      36.893836      36.893836      36.893836    
    881000   0.57518675    -7.6367358     -6.7739679      5.0787471      50218.233      36.893836      36.893836      36.893836    
    882000   0.58189425    -7.6383387     -6.7655097      5.0741295      50218.233      36.893836      36.893836      36.893836    
    883000   0.58275719    -7.6300216     -6.7558983      5.1465606      50218.233      36.893836      36.893836      36.893836    
    884000   0.57656436    -7.6410667     -6.7762325      5.0403127      50218.233      36.893836      36.893836      36.893836    
    885000   0.58167361    -7.6389031     -6.7664051      5.0660818      50218.233      36.893836      36.893836      36.893836    
    886000   0.58178641    -7.6350087     -6.7623415      5.0956008      50218.233      36.893836      36.893836      36.893836    
    887000   0.57794157    -7.6384142     -6.7715142      5.0707654      50218.233      36.893836      36.893836      36.893836    
    888000   0.5797354     -7.6371733     -6.7675826      5.0726786      50218.233      36.893836      36.893836      36.893836    
    889000   0.57882672    -7.6378724     -6.7696446      5.0779219      50218.233      36.893836      36.893836      36.893836    
    890000   0.57952271    -7.6337609     -6.7644892      5.1022937      50218.233      36.893836      36.893836      36.893836    
    891000   0.58020115    -7.637937      -6.7676477      5.0745857      50218.233      36.893836      36.893836      36.893836    
    892000   0.5798093     -7.6380898     -6.7683883      5.0758447      50218.233      36.893836      36.893836      36.893836    
    893000   0.58149695    -7.6365956     -6.7643625      5.0899728      50218.233      36.893836      36.893836      36.893836    
    894000   0.58056231    -7.640643      -6.7698119      5.057843       50218.233      36.893836      36.893836      36.893836    
    895000   0.57799934    -7.6398314     -6.7728448      5.0688408      50218.233      36.893836      36.893836      36.893836    
    896000   0.58139102    -7.6411871     -6.769113       5.0484721      50218.233      36.893836      36.893836      36.893836    
    897000   0.57951692    -7.6422425     -6.7729794      5.0308491      50218.233      36.893836      36.893836      36.893836    
    898000   0.57792998    -7.6395599     -6.7726773      5.0626535      50218.233      36.893836      36.893836      36.893836    
    899000   0.58070987    -7.6426088     -6.7715563      5.0475515      50218.233      36.893836      36.893836      36.893836    
    900000   0.58059103    -7.6402201     -6.769346       5.0604629      50218.233      36.893836      36.893836      36.893836    
    901000   0.5812487     -7.6370235     -6.7651629      5.0935421      50218.233      36.893836      36.893836      36.893836    
    902000   0.57932107    -7.6377631     -6.7687939      5.0898615      50218.233      36.893836      36.893836      36.893836    
    903000   0.57943699    -7.6380538     -6.7689107      5.0713373      50218.233      36.893836      36.893836      36.893836    
    904000   0.57989445    -7.6381662     -6.7683369      5.0828629      50218.233      36.893836      36.893836      36.893836    
    905000   0.5799962     -7.6385755     -6.7685935      5.0618013      50218.233      36.893836      36.893836      36.893836    
    906000   0.57840195    -7.63776       -6.7701694      5.071587       50218.233      36.893836      36.893836      36.893836    
    907000   0.58372779    -7.6394628     -6.7638836      5.0613588      50218.233      36.893836      36.893836      36.893836    
    908000   0.58079067    -7.6371023     -6.7659287      5.0752698      50218.233      36.893836      36.893836      36.893836    
    909000   0.58000773    -7.6361738     -6.7661745      5.097475       50218.233      36.893836      36.893836      36.893836    
    910000   0.57697586    -7.6403996     -6.7749482      5.0481137      50218.233      36.893836      36.893836      36.893836    
    911000   0.57726414    -7.6376528     -6.7717689      5.0745306      50218.233      36.893836      36.893836      36.893836    
    912000   0.58027228    -7.638775      -6.768379       5.0666674      50218.233      36.893836      36.893836      36.893836    
    913000   0.57988763    -7.6421138     -6.7722947      5.0354029      50218.233      36.893836      36.893836      36.893836    
    914000   0.58289189    -7.6369998     -6.7626744      5.0823215      50218.233      36.893836      36.893836      36.893836    
    915000   0.5827835     -7.6401718     -6.766009       5.0594537      50218.233      36.893836      36.893836      36.893836    
    916000   0.57821098    -7.640365      -6.7730608      5.050426       50218.233      36.893836      36.893836      36.893836    
    917000   0.57808926    -7.6340735     -6.7669519      5.1002197      50218.233      36.893836      36.893836      36.893836    
    918000   0.58290491    -7.6413025     -6.7669575      5.0446755      50218.233      36.893836      36.893836      36.893836    
    919000   0.58178056    -7.6369776     -6.7643192      5.0799952      50218.233      36.893836      36.893836      36.893836    
    920000   0.58095909    -7.6362054     -6.7647792      5.0971791      50218.233      36.893836      36.893836      36.893836    
    921000   0.57806224    -7.6452278     -6.7781467      5.0073765      50218.233      36.893836      36.893836      36.893836    
    922000   0.57929103    -7.6400178     -6.7710936      5.053393       50218.233      36.893836      36.893836      36.893836    
    923000   0.58202013    -7.6420998     -6.769082       5.0430911      50218.233      36.893836      36.893836      36.893836    
    924000   0.58227559    -7.6387238     -6.7653229      5.0770539      50218.233      36.893836      36.893836      36.893836    
    925000   0.58254318    -7.6412848     -6.7674824      5.0466339      50218.233      36.893836      36.893836      36.893836    
    926000   0.58122491    -7.6383935     -6.7665686      5.059867       50218.233      36.893836      36.893836      36.893836    
    927000   0.5763916     -7.636434      -6.771859       5.0788709      50218.233      36.893836      36.893836      36.893836    
    928000   0.58164852    -7.6399773     -6.767517       5.0689623      50218.233      36.893836      36.893836      36.893836    
    929000   0.57975677    -7.6404799     -6.7708571      5.049546       50218.233      36.893836      36.893836      36.893836    
    930000   0.57909384    -7.6407409     -6.7721125      5.0449406      50218.233      36.893836      36.893836      36.893836    
    931000   0.57886241    -7.6341911     -6.7659099      5.0887794      50218.233      36.893836      36.893836      36.893836    
    932000   0.57988824    -7.6372204     -6.7674004      5.0840174      50218.233      36.893836      36.893836      36.893836    
    933000   0.58115883    -7.638542      -6.7668162      5.0659405      50218.233      36.893836      36.893836      36.893836    
    934000   0.57880207    -7.6418864     -6.7736957      5.0445836      50218.233      36.893836      36.893836      36.893836    
    935000   0.58281789    -7.6384487     -6.7642343      5.0772134      50218.233      36.893836      36.893836      36.893836    
    936000   0.5815564     -7.6365008     -6.7641786      5.0852933      50218.233      36.893836      36.893836      36.893836    
    937000   0.58000381    -7.6372132     -6.7672199      5.0695207      50218.233      36.893836      36.893836      36.893836    
    938000   0.57966243    -7.6368007     -6.7673195      5.0788118      50218.233      36.893836      36.893836      36.893836    
    939000   0.58135501    -7.635428      -6.7634079      5.0827957      50218.233      36.893836      36.893836      36.893836    
    940000   0.57916647    -7.6436767     -6.7749393      5.0252634      50218.233      36.893836      36.893836      36.893836    
    941000   0.57873844    -7.6422241     -6.7741288      5.0438107      50218.233      36.893836      36.893836      36.893836    
    942000   0.58152357    -7.6407053     -6.7684324      5.047673       50218.233      36.893836      36.893836      36.893836    
    943000   0.57997773    -7.639776      -6.7698218      5.0574264      50218.233      36.893836      36.893836      36.893836    
    944000   0.58032068    -7.6397077     -6.769239       5.0526559      50218.233      36.893836      36.893836      36.893836    
    945000   0.58006058    -7.6384235     -6.768345       5.0600216      50218.233      36.893836      36.893836      36.893836    
    946000   0.57916879    -7.6463604     -6.7776196      5.0123026      50218.233      36.893836      36.893836      36.893836    
    947000   0.58177751    -7.6364524     -6.7637986      5.0719751      50218.233      36.893836      36.893836      36.893836    
    948000   0.57888413    -7.6402041     -6.7718903      5.0625213      50218.233      36.893836      36.893836      36.893836    
    949000   0.58204203    -7.6416954     -6.7686448      5.0432394      50218.233      36.893836      36.893836      36.893836    
    950000   0.57865337    -7.6379041     -6.7699364      5.0702373      50218.233      36.893836      36.893836      36.893836    
    951000   0.5787824     -7.6436061     -6.7754448      5.0289489      50218.233      36.893836      36.893836      36.893836    
    952000   0.57943745    -7.6403407     -6.7711969      5.0634846      50218.233      36.893836      36.893836      36.893836    
    953000   0.58025704    -7.6352273     -6.7648541      5.0891389      50218.233      36.893836      36.893836      36.893836    
    954000   0.57905031    -7.6401255     -6.7715624      5.0611921      50218.233      36.893836      36.893836      36.893836    
    955000   0.58220011    -7.6421969     -6.7689092      5.0373806      50218.233      36.893836      36.893836      36.893836    
    956000   0.58179876    -7.6362596     -6.7635738      5.0916024      50218.233      36.893836      36.893836      36.893836    
    957000   0.58143989    -7.6382481     -6.7661006      5.0811379      50218.233      36.893836      36.893836      36.893836    
    958000   0.58089829    -7.6436981     -6.772363       5.0298868      50218.233      36.893836      36.893836      36.893836    
    959000   0.58569688    -7.6378624     -6.7593296      5.0908754      50218.233      36.893836      36.893836      36.893836    
    960000   0.57902308    -7.6433893     -6.7748671      5.0323884      50218.233      36.893836      36.893836      36.893836    
    961000   0.58275883    -7.6442112     -6.7700854      5.0217822      50218.233      36.893836      36.893836      36.893836    
    962000   0.57996022    -7.6402176     -6.7702896      5.0566832      50218.233      36.893836      36.893836      36.893836    
    963000   0.58106083    -7.6401588     -6.76858        5.0472037      50218.233      36.893836      36.893836      36.893836    
    964000   0.58329804    -7.6350862     -6.7601516      5.1030563      50218.233      36.893836      36.893836      36.893836    
    965000   0.57774725    -7.6398416     -6.773233       5.0484867      50218.233      36.893836      36.893836      36.893836    
    966000   0.58048461    -7.6385155     -6.767801       5.081878       50218.233      36.893836      36.893836      36.893836    
    967000   0.5806591     -7.6413211     -6.7703448      5.0544844      50218.233      36.893836      36.893836      36.893836    
    968000   0.58113373    -7.6338762     -6.7621881      5.1029418      50218.233      36.893836      36.893836      36.893836    
    969000   0.57981556    -7.6436963     -6.7739853      5.0284494      50218.233      36.893836      36.893836      36.893836    
    970000   0.57625289    -7.6400484     -6.7756814      5.0553346      50218.233      36.893836      36.893836      36.893836    
    971000   0.58025581    -7.6378939     -6.7675226      5.078124       50218.233      36.893836      36.893836      36.893836    
    972000   0.57761834    -7.6398508     -6.7734356      5.0467874      50218.233      36.893836      36.893836      36.893836    
    973000   0.58040634    -7.637728      -6.7671309      5.0722275      50218.233      36.893836      36.893836      36.893836    
    974000   0.57752714    -7.6396201     -6.7733417      5.05632        50218.233      36.893836      36.893836      36.893836    
    975000   0.57999515    -7.6389521     -6.7689717      5.0638545      50218.233      36.893836      36.893836      36.893836    
    976000   0.57847193    -7.6350958     -6.7674003      5.0897335      50218.233      36.893836      36.893836      36.893836    
    977000   0.5842722     -7.6385717     -6.7621759      5.0682744      50218.233      36.893836      36.893836      36.893836    
    978000   0.58039712    -7.6380571     -6.7674738      5.0771718      50218.233      36.893836      36.893836      36.893836    
    979000   0.57961628    -7.640303      -6.770891       5.0417316      50218.233      36.893836      36.893836      36.893836    
    980000   0.57881746    -7.6338924     -6.7656785      5.1019543      50218.233      36.893836      36.893836      36.893836    
    981000   0.57863958    -7.6358815     -6.7679345      5.0788316      50218.233      36.893836      36.893836      36.893836    
    982000   0.58361179    -7.6361077     -6.7607024      5.1037613      50218.233      36.893836      36.893836      36.893836    
    983000   0.58095108    -7.6343278     -6.7629135      5.0995387      50218.233      36.893836      36.893836      36.893836    
    984000   0.58138749    -7.6371546     -6.7650857      5.0754608      50218.233      36.893836      36.893836      36.893836    
    985000   0.57638771    -7.6395848     -6.7750156      5.0524758      50218.233      36.893836      36.893836      36.893836    
    986000   0.57993244    -7.6356988     -6.7658125      5.0929962      50218.233      36.893836      36.893836      36.893836    
    987000   0.57876377    -7.6390597     -6.7709264      5.0635916      50218.233      36.893836      36.893836      36.893836    
    988000   0.57939745    -7.635887      -6.7668032      5.0868845      50218.233      36.893836      36.893836      36.893836    
    989000   0.58130466    -7.6358511     -6.7639065      5.0942659      50218.233      36.893836      36.893836      36.893836    
    990000   0.5804952     -7.6342485     -6.7635181      5.0876425      50218.233      36.893836      36.893836      36.893836    
    991000   0.58194787    -7.6346691     -6.7617597      5.0905993      50218.233      36.893836      36.893836      36.893836    
    992000   0.58032006    -7.6319741     -6.7615064      5.1196837      50218.233      36.893836      36.893836      36.893836    
    993000   0.58293256    -7.6364812     -6.7620948      5.0856573      50218.233      36.893836      36.893836      36.893836    
    994000   0.5805585     -7.6399535     -6.7691281      5.0619076      50218.233      36.893836      36.893836      36.893836    
    995000   0.58372566    -7.6365815     -6.7610055      5.0885745      50218.233      36.893836      36.893836      36.893836    
    996000   0.58204657    -7.6384008     -6.7653434      5.070421       50218.233      36.893836      36.893836      36.893836    
    997000   0.58022779    -7.6378953     -6.767566       5.0633596      50218.233      36.893836      36.893836      36.893836    
    998000   0.58190071    -7.6379529     -6.7651143      5.0658822      50218.233      36.893836      36.893836      36.893836    
    999000   0.57868004    -7.6354247     -6.767417       5.0862788      50218.233      36.893836      36.893836      36.893836    
   1000000   0.58170528    -7.6341717     -6.7616262      5.1092527      50218.233      36.893836      36.893836      36.893836    
Loop time of 1626.89 on 4 procs for 1000000 steps with 70304 atoms

Performance: 531076.027 tau/day, 614.671 timesteps/s, 43.214 Matom-step/s
95.6% CPU use with 4 MPI tasks x 1 OpenMP threads

MPI task timing breakdown:
Section |  min time  |  avg time  |  max time  |%varavg| %total
---------------------------------------------------------------
Pair    | 496.45     | 585.56     | 671.92     | 256.5 | 35.99
Neigh   | 7.2409     | 7.4316     | 7.7023     |   6.6 |  0.46
Comm    | 247.85     | 251.22     | 255.34     |  18.2 | 15.44
Output  | 0.2005     | 0.20792    | 0.22046    |   1.7 |  0.01
Modify  | 606.94     | 692.04     | 778.82     | 231.1 | 42.54
Other   |            | 90.43      |            |       |  5.56

Nlocal:          17576 ave       17596 max       17567 min
Histogram: 2 0 1 0 0 0 0 0 0 1
Nghost:        16800.8 ave       16855 max       16765 min
Histogram: 1 1 0 0 1 0 0 0 0 1
Neighs:              0 ave           0 max           0 min
Histogram: 4 0 0 0 0 0 0 0 0 0

Total # of neighbors = 0
Ave neighs/atom = 0
Neighbor list builds = 225578
Dangerous builds = 0
clear
OMP_NUM_THREADS environment is not set. Defaulting to 1 thread. (src/comm.cpp:98)
  using 1 OpenMP thread(s) per MPI task
package gpu 0
jump dms560.lmp

variable T equal 560
# T = 1000* (temp in LJ unit)
variable f equal 1000
log log.${T}
log log.560
