variable TLJ equal (${T}/1000)
variable TLJ equal (585/1000)
variable NCyle equal 10
variable iStep equal (${f})
variable iStep equal (1000)
variable dumpStep equal (${f}*100)
variable dumpStep equal (1000*100)
variable runStep equal (${f}*100*${NCyle})
variable runStep equal (1000*100*${NCyle})
variable runStep equal (1000*100*10)

units       lj
atom_style  atomic
dimension 3
boundary     p p p
pair_style  lj/cut 2.5
read_data  ../data/T${T}.dat
read_data  ../data/T585.dat
Reading data file ...
  orthogonal box = (0.97250269 0.97250269 0.97250269) to (37.866338 37.866338 37.866338)
  1 by 1 by 1 MPI processor grid
  reading atoms ...
  70304 atoms
  reading velocities ...
  70304 velocities
  read_data CPU = 0.224 seconds
change_box all triclinic
Changing box ...
  triclinic box = (0.97250269 0.97250269 0.97250269) to (37.866338 37.866338 37.866338) with tilt (0 0 0)
mass 1 1
mass 2 1
pair_modify shift yes
pair_coeff  1 1 1 1
pair_coeff  1 2 1.5 0.8
pair_coeff  2 2 0.5 0.88


timestep 0.01
thermo ${iStep}
thermo 1000
reset_timestep 0
thermo_style custom step temp pe etotal press vol lx ly lz
fix             1 all nvt temp ${TLJ}  ${TLJ}  0.1
fix             1 all nvt temp 0.585  ${TLJ}  0.1
fix             1 all nvt temp 0.585  0.585  0.1
thermo_modify flush yes

fix dsf all deform 1 xy  wiggle 0.5  ${f}   units box
fix dsf all deform 1 xy  wiggle 0.5  1000   units box
fix ps1 all ave/time 1 1 ${iStep} c_thermo_press[1] c_thermo_press[2]  c_thermo_press[3] c_thermo_press[4]  c_thermo_press[5] c_thermo_press[6]  file  stress.${T}
fix ps1 all ave/time 1 1 1000 c_thermo_press[1] c_thermo_press[2]  c_thermo_press[3] c_thermo_press[4]  c_thermo_press[5] c_thermo_press[6]  file  stress.${T}
fix ps1 all ave/time 1 1 1000 c_thermo_press[1] c_thermo_press[2]  c_thermo_press[3] c_thermo_press[4]  c_thermo_press[5] c_thermo_press[6]  file  stress.585
dump            1 all custom ${dumpStep} dump.${T} id type x y z
dump            1 all custom 100000 dump.${T} id type x y z
dump            1 all custom 100000 dump.585 id type x y z
dump_modify 1 sort id
fix nodrift all momentum 1  linear 1 1 1
fix com_seed all recenter INIT INIT INIT shift all
run ${runStep}
run 1000000
Generated 0 of 1 mixed pair_coeff terms from geometric mixing rule
Per MPI rank memory allocation (min/avg/max) = 21.18 | 21.18 | 21.18 Mbytes
   Step          Temp          PotEng         TotEng         Press          Volume           Lx             Ly             Lz      
         0   0.58590881    -7.6403271     -6.7614764      5.0652346      50218.233      36.893836      36.893836      36.893836    
      1000   0.58531405    -7.6301494     -6.7521908      5.1319455      50218.233      36.893836      36.893836      36.893836    
      2000   0.58486764    -7.6297057     -6.7524167      5.1350569      50218.233      36.893836      36.893836      36.893836    
      3000   0.58283247    -7.6359667     -6.7617305      5.0987527      50218.233      36.893836      36.893836      36.893836    
      4000   0.58400305    -7.6321675     -6.7561754      5.1112072      50218.233      36.893836      36.893836      36.893836    
      5000   0.5824984     -7.6325971     -6.758862       5.1105219      50218.233      36.893836      36.893836      36.893836    
      6000   0.58598117    -7.6338665     -6.7549073      5.1216118      50218.233      36.893836      36.893836      36.893836    
      7000   0.58524203    -7.6307653     -6.7529147      5.1311141      50218.233      36.893836      36.893836      36.893836    
      8000   0.58512685    -7.62923       -6.7515522      5.1389865      50218.233      36.893836      36.893836      36.893836    
      9000   0.5830055     -7.6282872     -6.7537914      5.1425226      50218.233      36.893836      36.893836      36.893836    
     10000   0.5849822     -7.6257247     -6.7482639      5.1640417      50218.233      36.893836      36.893836      36.893836    
     11000   0.58525485    -7.6286969     -6.7508272      5.1515207      50218.233      36.893836      36.893836      36.893836    
     12000   0.5814645     -7.6293303     -6.7571459      5.1350623      50218.233      36.893836      36.893836      36.893836    
     13000   0.58369656    -7.6295537     -6.7540214      5.1373829      50218.233      36.893836      36.893836      36.893836    
     14000   0.58111665    -7.6331132     -6.7614506      5.1036417      50218.233      36.893836      36.893836      36.893836    
     15000   0.58255221    -7.627433      -6.7536171      5.1494837      50218.233      36.893836      36.893836      36.893836    
     16000   0.58033801    -7.6260187     -6.7555241      5.1677775      50218.233      36.893836      36.893836      36.893836    
     17000   0.5822736     -7.6277959     -6.7543979      5.1424281      50218.233      36.893836      36.893836      36.893836    
     18000   0.58322769    -7.6221168     -6.7472877      5.2000601      50218.233      36.893836      36.893836      36.893836    
     19000   0.58319053    -7.6252119     -6.7504385      5.1795626      50218.233      36.893836      36.893836      36.893836    
     20000   0.58496868    -7.6268896     -6.7494491      5.1791101      50218.233      36.893836      36.893836      36.893836    
     21000   0.58594589    -7.627099      -6.7481926      5.1773171      50218.233      36.893836      36.893836      36.893836    
     22000   0.58343861    -7.6237055     -6.74856        5.176539       50218.233      36.893836      36.893836      36.893836    
     23000   0.58495077    -7.6245234     -6.7471097      5.1865613      50218.233      36.893836      36.893836      36.893836    
     24000   0.58593258    -7.6294411     -6.7505547      5.1546646      50218.233      36.893836      36.893836      36.893836    
     25000   0.58324763    -7.6261292     -6.7512702      5.1528148      50218.233      36.893836      36.893836      36.893836    
     26000   0.5852229     -7.6268777     -6.7490558      5.1626941      50218.233      36.893836      36.893836      36.893836    
     27000   0.58525499    -7.6217683     -6.7438983      5.2104661      50218.233      36.893836      36.893836      36.893836    
     28000   0.58445606    -7.6242694     -6.7475978      5.1909768      50218.233      36.893836      36.893836      36.893836    
     29000   0.58372086    -7.6300534     -6.7544845      5.1436949      50218.233      36.893836      36.893836      36.893836    
     30000   0.5846806     -7.6289327     -6.7519243      5.1436654      50218.233      36.893836      36.893836      36.893836    
     31000   0.58262432    -7.6261582     -6.7522342      5.157273       50218.233      36.893836      36.893836      36.893836    
     32000   0.58610327    -7.6257284     -6.746586       5.1783571      50218.233      36.893836      36.893836      36.893836    
     33000   0.58412711    -7.6269996     -6.7508214      5.1710526      50218.233      36.893836      36.893836      36.893836    
     34000   0.58470217    -7.6216878     -6.744647       5.2077392      50218.233      36.893836      36.893836      36.893836    
     35000   0.58503829    -7.6270433     -6.7494984      5.1629286      50218.233      36.893836      36.893836      36.893836    
     36000   0.58477217    -7.6247452     -6.7475995      5.1654885      50218.233      36.893836      36.893836      36.893836    
     37000   0.58667319    -7.6259243     -6.745927       5.1715275      50218.233      36.893836      36.893836      36.893836    
     38000   0.58625008    -7.6240574     -6.7446948      5.1864939      50218.233      36.893836      36.893836      36.893836    
     39000   0.58617777    -7.6276235     -6.7483693      5.1635466      50218.233      36.893836      36.893836      36.893836    
     40000   0.5823406     -7.6197375     -6.7462391      5.1954738      50218.233      36.893836      36.893836      36.893836    
     41000   0.58637673    -7.6248983     -6.7453458      5.1721325      50218.233      36.893836      36.893836      36.893836    
     42000   0.58087984    -7.6290518     -6.7577445      5.1453806      50218.233      36.893836      36.893836      36.893836    
     43000   0.58532536    -7.6307491     -6.7527736      5.1237855      50218.233      36.893836      36.893836      36.893836    
     44000   0.58265029    -7.6250288     -6.7510658      5.1661005      50218.233      36.893836      36.893836      36.893836    
     45000   0.58859002    -7.6265728     -6.7437004      5.1664997      50218.233      36.893836      36.893836      36.893836    
     46000   0.58682681    -7.6262911     -6.7460634      5.1714201      50218.233      36.893836      36.893836      36.893836    
     47000   0.58478697    -7.6259055     -6.7487376      5.159153       50218.233      36.893836      36.893836      36.893836    
     48000   0.58326342    -7.6310575     -6.7561749      5.1188957      50218.233      36.893836      36.893836      36.893836    
     49000   0.58583052    -7.628111      -6.7493777      5.160206       50218.233      36.893836      36.893836      36.893836    
     50000   0.58269978    -7.6264668     -6.7524295      5.1598599      50218.233      36.893836      36.893836      36.893836    
     51000   0.58649067    -7.63075       -6.7510265      5.1360737      50218.233      36.893836      36.893836      36.893836    
     52000   0.58298126    -7.625145      -6.7506856      5.1808698      50218.233      36.893836      36.893836      36.893836    
     53000   0.58662432    -7.629094      -6.7491701      5.1479051      50218.233      36.893836      36.893836      36.893836    
     54000   0.58494844    -7.6295193     -6.7521091      5.1423947      50218.233      36.893836      36.893836      36.893836    
     55000   0.58567488    -7.6304187     -6.7519189      5.1399974      50218.233      36.893836      36.893836      36.893836    
     56000   0.58468413    -7.6258001     -6.7487864      5.1605777      50218.233      36.893836      36.893836      36.893836    
     57000   0.5840482     -7.6288054     -6.7527455      5.1446987      50218.233      36.893836      36.893836      36.893836    
     58000   0.58356345    -7.6320658     -6.7567331      5.1114659      50218.233      36.893836      36.893836      36.893836    
     59000   0.58459676    -7.6222675     -6.7453848      5.1882901      50218.233      36.893836      36.893836      36.893836    
     60000   0.58408067    -7.6293251     -6.7532165      5.144199       50218.233      36.893836      36.893836      36.893836    
     61000   0.58112293    -7.6259542     -6.7542823      5.1733801      50218.233      36.893836      36.893836      36.893836    
     62000   0.58465537    -7.6270554     -6.7500848      5.17332        50218.233      36.893836      36.893836      36.893836    
     63000   0.58665149    -7.6230669     -6.7431022      5.1968383      50218.233      36.893836      36.893836      36.893836    
     64000   0.58504035    -7.6295225     -6.7519744      5.1540138      50218.233      36.893836      36.893836      36.893836    
     65000   0.58718085    -7.6256289     -6.7448701      5.1729061      50218.233      36.893836      36.893836      36.893836    
     66000   0.584964      -7.6272621     -6.7498285      5.1637907      50218.233      36.893836      36.893836      36.893836    
     67000   0.58571015    -7.6285052     -6.7499525      5.1783535      50218.233      36.893836      36.893836      36.893836    
     68000   0.58424636    -7.6271499     -6.7507928      5.1784478      50218.233      36.893836      36.893836      36.893836    
     69000   0.58686713    -7.6275859     -6.7472977      5.1721973      50218.233      36.893836      36.893836      36.893836    
     70000   0.58578151    -7.6249209     -6.7462611      5.174282       50218.233      36.893836      36.893836      36.893836    
     71000   0.58709556    -7.620552      -6.7399211      5.2164364      50218.233      36.893836      36.893836      36.893836    
     72000   0.58316016    -7.6240097     -6.7492819      5.1894804      50218.233      36.893836      36.893836      36.893836    
     73000   0.58740109    -7.6311793     -6.7500902      5.1359576      50218.233      36.893836      36.893836      36.893836    
     74000   0.58400439    -7.6214246     -6.7454305      5.2011109      50218.233      36.893836      36.893836      36.893836    
     75000   0.58420723    -7.6266651     -6.7503667      5.1659652      50218.233      36.893836      36.893836      36.893836    
     76000   0.58682331    -7.6281462     -6.7479237      5.1676941      50218.233      36.893836      36.893836      36.893836    
     77000   0.58395125    -7.6198569     -6.7439425      5.2202872      50218.233      36.893836      36.893836      36.893836    
     78000   0.58443637    -7.6268975     -6.7502554      5.1543529      50218.233      36.893836      36.893836      36.893836    
     79000   0.58428144    -7.626251      -6.7498413      5.1614114      50218.233      36.893836      36.893836      36.893836    
     80000   0.58124915    -7.6236276     -6.7517662      5.1804195      50218.233      36.893836      36.893836      36.893836    
     81000   0.5868565     -7.6281703     -6.7478981      5.1545829      50218.233      36.893836      36.893836      36.893836    
     82000   0.58462021    -7.6241398     -6.747222       5.1916098      50218.233      36.893836      36.893836      36.893836    
     83000   0.58340965    -7.6244697     -6.7493677      5.1726146      50218.233      36.893836      36.893836      36.893836    
     84000   0.58707031    -7.6264226     -6.7458297      5.1742275      50218.233      36.893836      36.893836      36.893836    
     85000   0.5859485     -7.6230932     -6.7441829      5.1936923      50218.233      36.893836      36.893836      36.893836    
     86000   0.58164528    -7.627771      -6.7553155      5.1501562      50218.233      36.893836      36.893836      36.893836    
     87000   0.58405483    -7.62137       -6.7453002      5.19851        50218.233      36.893836      36.893836      36.893836    
     88000   0.58572106    -7.6243042     -6.7457351      5.1832641      50218.233      36.893836      36.893836      36.893836    
     89000   0.58626748    -7.6278668     -6.7484781      5.1632614      50218.233      36.893836      36.893836      36.893836    
     90000   0.5862671     -7.6220276     -6.7426395      5.1958427      50218.233      36.893836      36.893836      36.893836    
     91000   0.58352255    -7.6255131     -6.7502417      5.1722748      50218.233      36.893836      36.893836      36.893836    
     92000   0.58451679    -7.6186039     -6.7418412      5.2132278      50218.233      36.893836      36.893836      36.893836    
     93000   0.58499964    -7.6281436     -6.7506566      5.1458848      50218.233      36.893836      36.893836      36.893836    
     94000   0.58660254    -7.626081      -6.7461897      5.1772798      50218.233      36.893836      36.893836      36.893836    
     95000   0.58240786    -7.6261732     -6.7525739      5.1766658      50218.233      36.893836      36.893836      36.893836    
     96000   0.58632858    -7.6263595     -6.7468791      5.172661       50218.233      36.893836      36.893836      36.893836    
     97000   0.58524546    -7.6273082     -6.7494525      5.1570788      50218.233      36.893836      36.893836      36.893836    
     98000   0.58608044    -7.6219507     -6.7428425      5.1997592      50218.233      36.893836      36.893836      36.893836    
     99000   0.58356529    -7.6250758     -6.7497403      5.1703889      50218.233      36.893836      36.893836      36.893836    
    100000   0.58447308    -7.6216767     -6.7449795      5.1931001      50218.233      36.893836      36.893836      36.893836    
    101000   0.58646593    -7.6292723     -6.749586       5.1547664      50218.233      36.893836      36.893836      36.893836    
    102000   0.58647185    -7.6283383     -6.7486431      5.1586133      50218.233      36.893836      36.893836      36.893836    
    103000   0.58805969    -7.6203269     -6.7382499      5.207866       50218.233      36.893836      36.893836      36.893836    
    104000   0.58623409    -7.6244185     -6.7450799      5.1891076      50218.233      36.893836      36.893836      36.893836    
    105000   0.5849638     -7.6213232     -6.74389        5.2170555      50218.233      36.893836      36.893836      36.893836    
    106000   0.58665134    -7.6222066     -6.7422421      5.2030285      50218.233      36.893836      36.893836      36.893836    
    107000   0.58650696    -7.6230639     -6.7433159      5.1968195      50218.233      36.893836      36.893836      36.893836    
    108000   0.58494371    -7.6190671     -6.741664       5.2254101      50218.233      36.893836      36.893836      36.893836    
    109000   0.58425821    -7.6259658     -6.7495909      5.1789356      50218.233      36.893836      36.893836      36.893836    
    110000   0.58356761    -7.6219363     -6.7465973      5.2043818      50218.233      36.893836      36.893836      36.893836    
    111000   0.58454927    -7.6252264     -6.748415       5.1789435      50218.233      36.893836      36.893836      36.893836    
    112000   0.58997086    -7.6254189     -6.7404752      5.1829164      50218.233      36.893836      36.893836      36.893836    
    113000   0.58693765    -7.6276744     -6.7472805      5.1616974      50218.233      36.893836      36.893836      36.893836    
    114000   0.58380113    -7.6247597     -6.7490705      5.1757829      50218.233      36.893836      36.893836      36.893836    
    115000   0.58717037    -7.619485      -6.738742       5.2160441      50218.233      36.893836      36.893836      36.893836    
    116000   0.58311256    -7.6253909     -6.7507345      5.1857898      50218.233      36.893836      36.893836      36.893836    
    117000   0.5886869     -7.6305669     -6.7475491      5.1307554      50218.233      36.893836      36.893836      36.893836    
    118000   0.58418193    -7.6226889     -6.7464285      5.1894647      50218.233      36.893836      36.893836      36.893836    
    119000   0.5858708     -7.6247561     -6.7459624      5.1810667      50218.233      36.893836      36.893836      36.893836    
    120000   0.58510596    -7.6247249     -6.7470785      5.1785642      50218.233      36.893836      36.893836      36.893836    
    121000   0.58100665    -7.6282718     -6.7567742      5.1503161      50218.233      36.893836      36.893836      36.893836    
    122000   0.58516783    -7.6247898     -6.7470506      5.1743048      50218.233      36.893836      36.893836      36.893836    
    123000   0.58171939    -7.6230487     -6.7504821      5.1976675      50218.233      36.893836      36.893836      36.893836    
    124000   0.58434081    -7.6246938     -6.748195       5.1797489      50218.233      36.893836      36.893836      36.893836    
    125000   0.58351411    -7.625954      -6.7506953      5.1625909      50218.233      36.893836      36.893836      36.893836    
    126000   0.58342669    -7.6253688     -6.7502412      5.1808072      50218.233      36.893836      36.893836      36.893836    
    127000   0.58274356    -7.6270542     -6.7529513      5.1505468      50218.233      36.893836      36.893836      36.893836    
    128000   0.5851769     -7.6263616     -6.7486087      5.1676969      50218.233      36.893836      36.893836      36.893836    
    129000   0.58491735    -7.6282156     -6.750852       5.1436378      50218.233      36.893836      36.893836      36.893836    
    130000   0.58730629    -7.6255045     -6.7445576      5.1800756      50218.233      36.893836      36.893836      36.893836    
    131000   0.58400494    -7.6269643     -6.7509693      5.1637516      50218.233      36.893836      36.893836      36.893836    
    132000   0.58503412    -7.6198531     -6.7423144      5.2164159      50218.233      36.893836      36.893836      36.893836    
    133000   0.58710037    -7.6204535     -6.7398154      5.2185831      50218.233      36.893836      36.893836      36.893836    
    134000   0.58782937    -7.6211464     -6.7394149      5.2048541      50218.233      36.893836      36.893836      36.893836    
    135000   0.58553536    -7.6248494     -6.7465588      5.1746742      50218.233      36.893836      36.893836      36.893836    
    136000   0.58473895    -7.6282243     -6.7511283      5.1447592      50218.233      36.893836      36.893836      36.893836    
    137000   0.58558793    -7.6252904     -6.746921       5.1591777      50218.233      36.893836      36.893836      36.893836    
    138000   0.58543351    -7.6240083     -6.7458705      5.1775109      50218.233      36.893836      36.893836      36.893836    
    139000   0.58464356    -7.62403       -6.7470771      5.1837577      50218.233      36.893836      36.893836      36.893836    
    140000   0.58659226    -7.6244932     -6.7446174      5.1885202      50218.233      36.893836      36.893836      36.893836    
    141000   0.586875      -7.6220067     -6.7417067      5.2017413      50218.233      36.893836      36.893836      36.893836    
    142000   0.58498567    -7.6190312     -6.7415652      5.2182831      50218.233      36.893836      36.893836      36.893836    
    143000   0.58390361    -7.6214096     -6.7455667      5.1992891      50218.233      36.893836      36.893836      36.893836    
    144000   0.58279254    -7.6217021     -6.7475257      5.1903155      50218.233      36.893836      36.893836      36.893836    
    145000   0.58362238    -7.6267133     -6.7512922      5.1580341      50218.233      36.893836      36.893836      36.893836    
    146000   0.58784943    -7.6260052     -6.7442436      5.1830708      50218.233      36.893836      36.893836      36.893836    
    147000   0.58648468    -7.6263554     -6.7466409      5.1661758      50218.233      36.893836      36.893836      36.893836    
    148000   0.58352213    -7.6303482     -6.7550775      5.1189961      50218.233      36.893836      36.893836      36.893836    
    149000   0.58392568    -7.6256598     -6.7497838      5.1714341      50218.233      36.893836      36.893836      36.893836    
    150000   0.58260642    -7.6236133     -6.7497161      5.1903608      50218.233      36.893836      36.893836      36.893836    
    151000   0.58404133    -7.6223969     -6.7463474      5.2066275      50218.233      36.893836      36.893836      36.893836    
    152000   0.58632857    -7.6271593     -6.7476789      5.1634448      50218.233      36.893836      36.893836      36.893836    
    153000   0.58367021    -7.6238641     -6.7483712      5.1838927      50218.233      36.893836      36.893836      36.893836    
    154000   0.58649275    -7.6276198     -6.7478932      5.1661222      50218.233      36.893836      36.893836      36.893836    
    155000   0.58513354    -7.6267459     -6.7490581      5.1604545      50218.233      36.893836      36.893836      36.893836    
    156000   0.5856582     -7.6286639     -6.7501891      5.1462983      50218.233      36.893836      36.893836      36.893836    
    157000   0.58682098    -7.6264268     -6.7462078      5.1610272      50218.233      36.893836      36.893836      36.893836    
    158000   0.58494367    -7.6220624     -6.7446594      5.2051082      50218.233      36.893836      36.893836      36.893836    
    159000   0.58612058    -7.6254188     -6.7462504      5.1782936      50218.233      36.893836      36.893836      36.893836    
    160000   0.58720385    -7.625472      -6.7446788      5.1731084      50218.233      36.893836      36.893836      36.893836    
    161000   0.58661336    -7.6240148     -6.7441072      5.1931887      50218.233      36.893836      36.893836      36.893836    
    162000   0.58426141    -7.6281163     -6.7517366      5.1442827      50218.233      36.893836      36.893836      36.893836    
    163000   0.58236321    -7.6230717     -6.7495393      5.1960697      50218.233      36.893836      36.893836      36.893836    
    164000   0.58682896    -7.6237482     -6.7435172      5.1835601      50218.233      36.893836      36.893836      36.893836    
    165000   0.58486103    -7.6216833     -6.7444042      5.2046286      50218.233      36.893836      36.893836      36.893836    
    166000   0.58376308    -7.6309478     -6.7553157      5.1337275      50218.233      36.893836      36.893836      36.893836    
    167000   0.58862103    -7.6240714     -6.7411524      5.1915951      50218.233      36.893836      36.893836      36.893836    
    168000   0.5858091     -7.628063      -6.7493619      5.1445855      50218.233      36.893836      36.893836      36.893836    
    169000   0.58399721    -7.6261522     -6.7501689      5.1717445      50218.233      36.893836      36.893836      36.893836    
    170000   0.58513795    -7.6249866     -6.7472922      5.177073       50218.233      36.893836      36.893836      36.893836    
    171000   0.58740155    -7.6307516     -6.7496618      5.1304441      50218.233      36.893836      36.893836      36.893836    
    172000   0.5848369     -7.628604      -6.7513611      5.1438241      50218.233      36.893836      36.893836      36.893836    
    173000   0.58226418    -7.6253891     -6.7520053      5.1671973      50218.233      36.893836      36.893836      36.893836    
    174000   0.58527286    -7.6242351     -6.7463383      5.1741237      50218.233      36.893836      36.893836      36.893836    
    175000   0.58539585    -7.6248663     -6.7467851      5.1732049      50218.233      36.893836      36.893836      36.893836    
    176000   0.58429421    -7.6267074     -6.7502786      5.1569238      50218.233      36.893836      36.893836      36.893836    
    177000   0.58612392    -7.6269892     -6.7478158      5.1624423      50218.233      36.893836      36.893836      36.893836    
    178000   0.58448663    -7.6284167     -6.7516992      5.1453915      50218.233      36.893836      36.893836      36.893836    
    179000   0.58707428    -7.6249912     -6.7443923      5.1744141      50218.233      36.893836      36.893836      36.893836    
    180000   0.58253194    -7.6215448     -6.7477593      5.1983163      50218.233      36.893836      36.893836      36.893836    
    181000   0.58278847    -7.620531      -6.7463607      5.2150619      50218.233      36.893836      36.893836      36.893836    
    182000   0.58556707    -7.6228557     -6.7445176      5.1806738      50218.233      36.893836      36.893836      36.893836    
    183000   0.58600654    -7.6262389     -6.7472415      5.1666714      50218.233      36.893836      36.893836      36.893836    
    184000   0.58427604    -7.6244612     -6.7480596      5.1811438      50218.233      36.893836      36.893836      36.893836    
    185000   0.58740501    -7.6285391     -6.7474442      5.1426451      50218.233      36.893836      36.893836      36.893836    
    186000   0.58385645    -7.6234075     -6.7476353      5.1859759      50218.233      36.893836      36.893836      36.893836    
    187000   0.58503197    -7.6249793     -6.7474438      5.1653493      50218.233      36.893836      36.893836      36.893836    
    188000   0.58592302    -7.6226788     -6.7438068      5.1963613      50218.233      36.893836      36.893836      36.893836    
    189000   0.58614792    -7.620532      -6.7413226      5.2112773      50218.233      36.893836      36.893836      36.893836    
    190000   0.58639084    -7.6211058     -6.741532       5.2065283      50218.233      36.893836      36.893836      36.893836    
    191000   0.58789494    -7.6241351     -6.7423052      5.1822624      50218.233      36.893836      36.893836      36.893836    
    192000   0.58427944    -7.6245834     -6.7481767      5.1689668      50218.233      36.893836      36.893836      36.893836    
    193000   0.58379121    -7.6284572     -6.7527829      5.1415358      50218.233      36.893836      36.893836      36.893836    
    194000   0.58598664    -7.6220952     -6.7431278      5.1907624      50218.233      36.893836      36.893836      36.893836    
    195000   0.58689099    -7.6216598     -6.7413358      5.2010604      50218.233      36.893836      36.893836      36.893836    
    196000   0.58745092    -7.6194971     -6.7383333      5.2191873      50218.233      36.893836      36.893836      36.893836    
    197000   0.58355399    -7.6251303     -6.7498118      5.1658292      50218.233      36.893836      36.893836      36.893836    
    198000   0.58463188    -7.6269767     -6.7500413      5.1555647      50218.233      36.893836      36.893836      36.893836    
    199000   0.58245331    -7.6288388     -6.7551713      5.1436061      50218.233      36.893836      36.893836      36.893836    
    200000   0.58399809    -7.6270843     -6.7510997      5.1556134      50218.233      36.893836      36.893836      36.893836    
    201000   0.58251476    -7.6233953     -6.7496356      5.1809046      50218.233      36.893836      36.893836      36.893836    
    202000   0.58425886    -7.6296054     -6.7532296      5.1514345      50218.233      36.893836      36.893836      36.893836    
    203000   0.58348057    -7.6283205     -6.7531121      5.1578471      50218.233      36.893836      36.893836      36.893836    
    204000   0.58602114    -7.622294      -6.7432748      5.1850748      50218.233      36.893836      36.893836      36.893836    
    205000   0.58301849    -7.6244054     -6.7498901      5.1855773      50218.233      36.893836      36.893836      36.893836    
    206000   0.58580036    -7.6252939     -6.7466058      5.1717839      50218.233      36.893836      36.893836      36.893836    
    207000   0.58474967    -7.6293196     -6.7522076      5.1411247      50218.233      36.893836      36.893836      36.893836    
    208000   0.58468298    -7.6273591     -6.7503471      5.1595515      50218.233      36.893836      36.893836      36.893836    
    209000   0.58495421    -7.6287869     -6.7513681      5.147643       50218.233      36.893836      36.893836      36.893836    
    210000   0.58288801    -7.6250378     -6.7507182      5.1773314      50218.233      36.893836      36.893836      36.893836    
    211000   0.58352896    -7.6233372     -6.7480562      5.185672       50218.233      36.893836      36.893836      36.893836    
    212000   0.58123302    -7.6253338     -6.7534967      5.1745448      50218.233      36.893836      36.893836      36.893836    
    213000   0.58377093    -7.625998      -6.750354       5.1612467      50218.233      36.893836      36.893836      36.893836    
    214000   0.58506204    -7.6242054     -6.7466248      5.1759517      50218.233      36.893836      36.893836      36.893836    
    215000   0.58683337    -7.6243312     -6.7440936      5.1712811      50218.233      36.893836      36.893836      36.893836    
    216000   0.58571866    -7.6158477     -6.7372822      5.2355281      50218.233      36.893836      36.893836      36.893836    
    217000   0.58323858    -7.6264023     -6.7515569      5.1600549      50218.233      36.893836      36.893836      36.893836    
    218000   0.5827561     -7.6310476     -6.7569258      5.1283179      50218.233      36.893836      36.893836      36.893836    
    219000   0.58520473    -7.6259595     -6.7481648      5.1723532      50218.233      36.893836      36.893836      36.893836    
    220000   0.58742133    -7.6227746     -6.7416551      5.1831628      50218.233      36.893836      36.893836      36.893836    
    221000   0.58626202    -7.6262458     -6.7468653      5.1771554      50218.233      36.893836      36.893836      36.893836    
    222000   0.59047267    -7.6239113     -6.7382149      5.1866267      50218.233      36.893836      36.893836      36.893836    
    223000   0.58648185    -7.6271186     -6.7474083      5.1642129      50218.233      36.893836      36.893836      36.893836    
    224000   0.58335797    -7.6236859     -6.7486614      5.1970384      50218.233      36.893836      36.893836      36.893836    
    225000   0.58516314    -7.6258922     -6.74816        5.175495       50218.233      36.893836      36.893836      36.893836    
    226000   0.58321142    -7.6265762     -6.7517715      5.1726744      50218.233      36.893836      36.893836      36.893836    
    227000   0.58617822    -7.6256486     -6.7463937      5.184915       50218.233      36.893836      36.893836      36.893836    
    228000   0.58412668    -7.6284193     -6.7522417      5.1584454      50218.233      36.893836      36.893836      36.893836    
    229000   0.584088      -7.6273705     -6.7512509      5.1651868      50218.233      36.893836      36.893836      36.893836    
    230000   0.58705834    -7.6199675     -6.7393925      5.2055966      50218.233      36.893836      36.893836      36.893836    
    231000   0.58605692    -7.6264187     -6.7473458      5.1815127      50218.233      36.893836      36.893836      36.893836    
    232000   0.58756579    -7.6249172     -6.743581       5.179069       50218.233      36.893836      36.893836      36.893836    
    233000   0.58375726    -7.6269464     -6.751323       5.1625547      50218.233      36.893836      36.893836      36.893836    
    234000   0.58674164    -7.6201999     -6.7401         5.219797       50218.233      36.893836      36.893836      36.893836    
    235000   0.58553187    -7.6298092     -6.7515239      5.151594       50218.233      36.893836      36.893836      36.893836    
    236000   0.58595004    -7.6235334     -6.7446208      5.1926116      50218.233      36.893836      36.893836      36.893836    
    237000   0.58567858    -7.6241863     -6.7456809      5.1881942      50218.233      36.893836      36.893836      36.893836    
    238000   0.58337307    -7.6320497     -6.7570025      5.1199772      50218.233      36.893836      36.893836      36.893836    
    239000   0.58240205    -7.6281949     -6.7546043      5.1525972      50218.233      36.893836      36.893836      36.893836    
    240000   0.58543107    -7.6252814     -6.7471473      5.1747168      50218.233      36.893836      36.893836      36.893836    
    241000   0.58651623    -7.6244273     -6.7446655      5.1970218      50218.233      36.893836      36.893836      36.893836    
    242000   0.58591755    -7.6282486     -6.7493848      5.1445224      50218.233      36.893836      36.893836      36.893836    
    243000   0.58400549    -7.6294786     -6.7534828      5.1541445      50218.233      36.893836      36.893836      36.893836    
    244000   0.58377968    -7.6237893     -6.7481322      5.1935365      50218.233      36.893836      36.893836      36.893836    
    245000   0.58663402    -7.6255295     -6.745591       5.1739704      50218.233      36.893836      36.893836      36.893836    
    246000   0.58532214    -7.6299176     -6.7519468      5.1495608      50218.233      36.893836      36.893836      36.893836    
    247000   0.58714552    -7.6306223     -6.7499165      5.1419833      50218.233      36.893836      36.893836      36.893836    
    248000   0.58324298    -7.6255115     -6.7506595      5.1780886      50218.233      36.893836      36.893836      36.893836    
    249000   0.58615494    -7.6267982     -6.7475783      5.1778266      50218.233      36.893836      36.893836      36.893836    
    250000   0.5856223     -7.6258048     -6.7473838      5.1788747      50218.233      36.893836      36.893836      36.893836    
    251000   0.58325295    -7.6256193     -6.7507524      5.1676334      50218.233      36.893836      36.893836      36.893836    
    252000   0.58465661    -7.6291745     -6.7522021      5.1403764      50218.233      36.893836      36.893836      36.893836    
    253000   0.58451937    -7.6268195     -6.750053       5.1634705      50218.233      36.893836      36.893836      36.893836    
    254000   0.58485876    -7.6256659     -6.7483902      5.1717894      50218.233      36.893836      36.893836      36.893836    
    255000   0.58550115    -7.6236418     -6.7454025      5.1707196      50218.233      36.893836      36.893836      36.893836    
    256000   0.5839507     -7.6241004     -6.7481868      5.1841732      50218.233      36.893836      36.893836      36.893836    
    257000   0.58719756    -7.6299287     -6.7491449      5.1336748      50218.233      36.893836      36.893836      36.893836    
    258000   0.58741553    -7.6225248     -6.7414141      5.2038048      50218.233      36.893836      36.893836      36.893836    
    259000   0.58447091    -7.6237902     -6.7470963      5.1718992      50218.233      36.893836      36.893836      36.893836    
    260000   0.58443       -7.6287741     -6.7521415      5.1492213      50218.233      36.893836      36.893836      36.893836    
    261000   0.58722961    -7.6201604     -6.7393285      5.2078717      50218.233      36.893836      36.893836      36.893836    
    262000   0.58467604    -7.623618      -6.7466164      5.1929927      50218.233      36.893836      36.893836      36.893836    
    263000   0.58799536    -7.6226781     -6.7406976      5.2067786      50218.233      36.893836      36.893836      36.893836    
    264000   0.58977024    -7.6275297     -6.7428869      5.1612044      50218.233      36.893836      36.893836      36.893836    
    265000   0.58527975    -7.6199629     -6.7420557      5.2111778      50218.233      36.893836      36.893836      36.893836    
    266000   0.5899176     -7.623957      -6.7390932      5.1913747      50218.233      36.893836      36.893836      36.893836    
    267000   0.5866908     -7.6190198     -6.7389961      5.2103827      50218.233      36.893836      36.893836      36.893836    
    268000   0.5863795     -7.6281724     -6.7486157      5.1570813      50218.233      36.893836      36.893836      36.893836    
    269000   0.58495119    -7.6262267     -6.7488124      5.1742165      50218.233      36.893836      36.893836      36.893836    
    270000   0.5861933     -7.6274842     -6.7482067      5.1502933      50218.233      36.893836      36.893836      36.893836    
    271000   0.58415451    -7.6265152     -6.7502959      5.1605881      50218.233      36.893836      36.893836      36.893836    
    272000   0.58142352    -7.6301488     -6.7580259      5.1373451      50218.233      36.893836      36.893836      36.893836    
    273000   0.58371469    -7.6278021     -6.7522425      5.1560777      50218.233      36.893836      36.893836      36.893836    
    274000   0.58494927    -7.6311899     -6.7537785      5.1209158      50218.233      36.893836      36.893836      36.893836    
    275000   0.58567229    -7.6285255     -6.7500296      5.1544581      50218.233      36.893836      36.893836      36.893836    
    276000   0.5851487     -7.6298255     -6.7521149      5.1369332      50218.233      36.893836      36.893836      36.893836    
    277000   0.58472457    -7.6293889     -6.7523145      5.1284336      50218.233      36.893836      36.893836      36.893836    
    278000   0.58403697    -7.628104      -6.752061       5.1426083      50218.233      36.893836      36.893836      36.893836    
    279000   0.58460226    -7.6254925     -6.7486015      5.1664906      50218.233      36.893836      36.893836      36.893836    
    280000   0.58483116    -7.6237465     -6.7465122      5.1826315      50218.233      36.893836      36.893836      36.893836    
    281000   0.58394149    -7.6285847     -6.752685       5.1442029      50218.233      36.893836      36.893836      36.893836    
    282000   0.58461644    -7.6230511     -6.7461389      5.1854916      50218.233      36.893836      36.893836      36.893836    
    283000   0.58729171    -7.6270532     -6.7461282      5.1538623      50218.233      36.893836      36.893836      36.893836    
    284000   0.58368803    -7.6299497     -6.7544301      5.1443294      50218.233      36.893836      36.893836      36.893836    
    285000   0.58815425    -7.6279487     -6.7457299      5.1616203      50218.233      36.893836      36.893836      36.893836    
    286000   0.58661559    -7.6310577     -6.7511469      5.1362699      50218.233      36.893836      36.893836      36.893836    
    287000   0.58629517    -7.6253259     -6.7458957      5.1777839      50218.233      36.893836      36.893836      36.893836    
    288000   0.58500474    -7.6249605     -6.7474658      5.1779996      50218.233      36.893836      36.893836      36.893836    
    289000   0.58587137    -7.6258897     -6.7470952      5.161843       50218.233      36.893836      36.893836      36.893836    
    290000   0.58443468    -7.6249351     -6.7482955      5.1798837      50218.233      36.893836      36.893836      36.893836    
    291000   0.58233839    -7.628389      -6.7548938      5.1400701      50218.233      36.893836      36.893836      36.893836    
    292000   0.58877133    -7.6266198     -6.7434753      5.1625096      50218.233      36.893836      36.893836      36.893836    
    293000   0.58336751    -7.6281526     -6.7531138      5.1495771      50218.233      36.893836      36.893836      36.893836    
    294000   0.58430361    -7.6305233     -6.7540803      5.1360815      50218.233      36.893836      36.893836      36.893836    
    295000   0.58529466    -7.629265      -6.7513355      5.1412227      50218.233      36.893836      36.893836      36.893836    
    296000   0.58543001    -7.6254797     -6.7473471      5.1846383      50218.233      36.893836      36.893836      36.893836    
    297000   0.57995108    -7.6276063     -6.7576921      5.1545803      50218.233      36.893836      36.893836      36.893836    
    298000   0.58535636    -7.6245852     -6.7465632      5.1691999      50218.233      36.893836      36.893836      36.893836    
    299000   0.58287342    -7.6269622     -6.7526645      5.1530476      50218.233      36.893836      36.893836      36.893836    
    300000   0.58469599    -7.6261442     -6.7491126      5.1739841      50218.233      36.893836      36.893836      36.893836    
    301000   0.58904573    -7.6220926     -6.7385366      5.2013307      50218.233      36.893836      36.893836      36.893836    
    302000   0.58537323    -7.6244645     -6.7464171      5.1911988      50218.233      36.893836      36.893836      36.893836    
    303000   0.58652302    -7.6211724     -6.7414004      5.2018469      50218.233      36.893836      36.893836      36.893836    
    304000   0.586418      -7.6224144     -6.7427999      5.1952939      50218.233      36.893836      36.893836      36.893836    
    305000   0.58392637    -7.6283639     -6.7524868      5.1427922      50218.233      36.893836      36.893836      36.893836    
    306000   0.586228      -7.6306593     -6.7513298      5.1343486      50218.233      36.893836      36.893836      36.893836    
    307000   0.58376475    -7.6237445     -6.7481098      5.1818158      50218.233      36.893836      36.893836      36.893836    
    308000   0.58489044    -7.6225335     -6.7452103      5.197685       50218.233      36.893836      36.893836      36.893836    
    309000   0.58376251    -7.6289447     -6.7533134      5.1494819      50218.233      36.893836      36.893836      36.893836    
    310000   0.58401436    -7.6241862     -6.7481771      5.1800847      50218.233      36.893836      36.893836      36.893836    
    311000   0.5837058     -7.6298872     -6.7543409      5.1491837      50218.233      36.893836      36.893836      36.893836    
    312000   0.58496364    -7.6270913     -6.7496583      5.149766       50218.233      36.893836      36.893836      36.893836    
    313000   0.58472113    -7.6278817     -6.7508125      5.159591       50218.233      36.893836      36.893836      36.893836    
    314000   0.58510516    -7.6300085     -6.7523633      5.1285679      50218.233      36.893836      36.893836      36.893836    
    315000   0.58597486    -7.6272154     -6.7482656      5.1576312      50218.233      36.893836      36.893836      36.893836    
    316000   0.5872606     -7.6277508     -6.7468724      5.1602775      50218.233      36.893836      36.893836      36.893836    
    317000   0.58426174    -7.62532       -6.7489398      5.1691993      50218.233      36.893836      36.893836      36.893836    
    318000   0.58295193    -7.6276483     -6.7532328      5.1564767      50218.233      36.893836      36.893836      36.893836    
    319000   0.58589953    -7.6285155     -6.7496787      5.1415697      50218.233      36.893836      36.893836      36.893836    
    320000   0.58150093    -7.6319613     -6.7597223      5.1187081      50218.233      36.893836      36.893836      36.893836    
    321000   0.58284146    -7.6199696     -6.7457198      5.2086172      50218.233      36.893836      36.893836      36.893836    
    322000   0.58565593    -7.6232646     -6.7447932      5.1818378      50218.233      36.893836      36.893836      36.893836    
    323000   0.58803866    -7.6208828     -6.7388373      5.204006       50218.233      36.893836      36.893836      36.893836    
    324000   0.58532191    -7.6250632     -6.7470928      5.1679988      50218.233      36.893836      36.893836      36.893836    
    325000   0.58697431    -7.6207727     -6.7403238      5.2158075      50218.233      36.893836      36.893836      36.893836    
    326000   0.58784621    -7.6223156     -6.7405588      5.2075204      50218.233      36.893836      36.893836      36.893836    
    327000   0.58494996    -7.6297871     -6.7523746      5.1266214      50218.233      36.893836      36.893836      36.893836    
    328000   0.58718396    -7.6267274     -6.745964       5.1659811      50218.233      36.893836      36.893836      36.893836    
    329000   0.58769679    -7.6253392     -6.7438066      5.1886075      50218.233      36.893836      36.893836      36.893836    
    330000   0.58510727    -7.6225008     -6.7448524      5.1937576      50218.233      36.893836      36.893836      36.893836    
    331000   0.58412981    -7.6263821     -6.7501998      5.1739943      50218.233      36.893836      36.893836      36.893836    
    332000   0.5873467     -7.625562      -6.7445545      5.176694       50218.233      36.893836      36.893836      36.893836    
    333000   0.58511327    -7.6238162     -6.7461588      5.1813825      50218.233      36.893836      36.893836      36.893836    
    334000   0.58594196    -7.6272976     -6.7483972      5.1514565      50218.233      36.893836      36.893836      36.893836    
    335000   0.58432027    -7.6325484     -6.7560805      5.1117984      50218.233      36.893836      36.893836      36.893836    
    336000   0.58492069    -7.6227823     -6.7454138      5.1751045      50218.233      36.893836      36.893836      36.893836    
    337000   0.5854775     -7.6264459     -6.7482421      5.1616083      50218.233      36.893836      36.893836      36.893836    
    338000   0.58498174    -7.6225451     -6.745085       5.1983304      50218.233      36.893836      36.893836      36.893836    
    339000   0.58443789    -7.6249822     -6.7483378      5.1724768      50218.233      36.893836      36.893836      36.893836    
    340000   0.58543822    -7.6246686     -6.7465237      5.1820426      50218.233      36.893836      36.893836      36.893836    
    341000   0.58348462    -7.6296203     -6.7544058      5.1402747      50218.233      36.893836      36.893836      36.893836    
    342000   0.58338308    -7.6265184     -6.7514562      5.1626629      50218.233      36.893836      36.893836      36.893836    
    343000   0.58565672    -7.6273711     -6.7488985      5.146703       50218.233      36.893836      36.893836      36.893836    
    344000   0.58469933    -7.6272267     -6.7501902      5.1417237      50218.233      36.893836      36.893836      36.893836    
    345000   0.58648901    -7.6253363     -6.7456153      5.184565       50218.233      36.893836      36.893836      36.893836    
    346000   0.58512589    -7.6221916     -6.7445152      5.1941245      50218.233      36.893836      36.893836      36.893836    
    347000   0.58631053    -7.6236965     -6.7442432      5.1887629      50218.233      36.893836      36.893836      36.893836    
    348000   0.58273665    -7.6272788     -6.7531862      5.1584709      50218.233      36.893836      36.893836      36.893836    
    349000   0.58608076    -7.6243755     -6.7452669      5.1758491      50218.233      36.893836      36.893836      36.893836    
    350000   0.58465253    -7.6225747     -6.7456084      5.1742256      50218.233      36.893836      36.893836      36.893836    
    351000   0.58885146    -7.6275031     -6.7442384      5.1639044      50218.233      36.893836      36.893836      36.893836    
    352000   0.58589281    -7.6275913     -6.7487646      5.159628       50218.233      36.893836      36.893836      36.893836    
    353000   0.58290321    -7.6218861     -6.7475437      5.1941367      50218.233      36.893836      36.893836      36.893836    
    354000   0.58332058    -7.6266108     -6.7516424      5.1602227      50218.233      36.893836      36.893836      36.893836    
    355000   0.58330404    -7.6298192     -6.7548756      5.1376244      50218.233      36.893836      36.893836      36.893836    
    356000   0.5864301     -7.6304142     -6.7507815      5.129876       50218.233      36.893836      36.893836      36.893836    
    357000   0.58125222    -7.6273753     -6.7555094      5.1455484      50218.233      36.893836      36.893836      36.893836    
    358000   0.58567416    -7.6276498     -6.749151       5.1674194      50218.233      36.893836      36.893836      36.893836    
    359000   0.58574764    -7.6283451     -6.7497362      5.163564       50218.233      36.893836      36.893836      36.893836    
    360000   0.58553392    -7.6228436     -6.7445552      5.1999159      50218.233      36.893836      36.893836      36.893836    
    361000   0.58270457    -7.6287559     -6.7547115      5.1426981      50218.233      36.893836      36.893836      36.893836    
    362000   0.59048658    -7.6269118     -6.7411946      5.1813179      50218.233      36.893836      36.893836      36.893836    
    363000   0.58390731    -7.626068      -6.7502195      5.1710861      50218.233      36.893836      36.893836      36.893836    
    364000   0.58430306    -7.6273661     -6.7509239      5.1486475      50218.233      36.893836      36.893836      36.893836    
    365000   0.58512785    -7.6268357     -6.7491565      5.1709001      50218.233      36.893836      36.893836      36.893836    
    366000   0.5850128     -7.6264726     -6.7489659      5.1579575      50218.233      36.893836      36.893836      36.893836    
    367000   0.58795317    -7.6226945     -6.7407773      5.2049403      50218.233      36.893836      36.893836      36.893836    
    368000   0.58587924    -7.624936      -6.7461296      5.1716178      50218.233      36.893836      36.893836      36.893836    
    369000   0.5864472     -7.622641      -6.7429827      5.1793979      50218.233      36.893836      36.893836      36.893836    
    370000   0.58556975    -7.6264228     -6.7480807      5.1557597      50218.233      36.893836      36.893836      36.893836    
    371000   0.58489082    -7.624359      -6.7470353      5.1689316      50218.233      36.893836      36.893836      36.893836    
    372000   0.58341048    -7.6253114     -6.7502081      5.1557989      50218.233      36.893836      36.893836      36.893836    
    373000   0.58443891    -7.6295645     -6.7529186      5.139761       50218.233      36.893836      36.893836      36.893836    
    374000   0.58494976    -7.6280932     -6.7506811      5.1475004      50218.233      36.893836      36.893836      36.893836    
    375000   0.5894412     -7.6240271     -6.7398778      5.1877571      50218.233      36.893836      36.893836      36.893836    
    376000   0.58479595    -7.628734      -6.7515525      5.1422446      50218.233      36.893836      36.893836      36.893836    
    377000   0.58249626    -7.6259728     -6.7522408      5.166428       50218.233      36.893836      36.893836      36.893836    
    378000   0.58463098    -7.6239481     -6.7470141      5.1949551      50218.233      36.893836      36.893836      36.893836    
    379000   0.5858729     -7.6250639     -6.7462671      5.1740503      50218.233      36.893836      36.893836      36.893836    
    380000   0.5855303     -7.6292018     -6.7509189      5.1475371      50218.233      36.893836      36.893836      36.893836    
    381000   0.5879725     -7.6270469     -6.7451007      5.1698006      50218.233      36.893836      36.893836      36.893836    
    382000   0.58288501    -7.6290593     -6.7547443      5.152734       50218.233      36.893836      36.893836      36.893836    
    383000   0.5838478     -7.6282359     -6.7524766      5.1351612      50218.233      36.893836      36.893836      36.893836    
    384000   0.58402916    -7.6224879     -6.7464566      5.1975112      50218.233      36.893836      36.893836      36.893836    
    385000   0.58348471    -7.6250719     -6.7498572      5.1653228      50218.233      36.893836      36.893836      36.893836    
    386000   0.5849772     -7.6286209     -6.7511676      5.1454079      50218.233      36.893836      36.893836      36.893836    
    387000   0.58489034    -7.6241794     -6.7468564      5.1769227      50218.233      36.893836      36.893836      36.893836    
    388000   0.58311513    -7.6258374     -6.7511771      5.1661292      50218.233      36.893836      36.893836      36.893836    
    389000   0.58577471    -7.6267242     -6.7480746      5.1628788      50218.233      36.893836      36.893836      36.893836    
    390000   0.58387626    -7.6226393     -6.7468374      5.1954673      50218.233      36.893836      36.893836      36.893836    
    391000   0.58604523    -7.6259721     -6.7469167      5.1639713      50218.233      36.893836      36.893836      36.893836    
    392000   0.5837457     -7.6265752     -6.7509691      5.1548189      50218.233      36.893836      36.893836      36.893836    
    393000   0.58465883    -7.6242947     -6.7473189      5.1899073      50218.233      36.893836      36.893836      36.893836    
    394000   0.58534918    -7.626214      -6.7482028      5.159221       50218.233      36.893836      36.893836      36.893836    
    395000   0.58625541    -7.6221775     -6.7428069      5.2083478      50218.233      36.893836      36.893836      36.893836    
    396000   0.58272608    -7.6247123     -6.7506357      5.182713       50218.233      36.893836      36.893836      36.893836    
    397000   0.58511722    -7.6182732     -6.7406099      5.2228074      50218.233      36.893836      36.893836      36.893836    
    398000   0.58668365    -7.6197624     -6.7397495      5.2242817      50218.233      36.893836      36.893836      36.893836    
    399000   0.58605776    -7.6226413     -6.7435672      5.1906886      50218.233      36.893836      36.893836      36.893836    
    400000   0.58361975    -7.6267609     -6.7513438      5.1562674      50218.233      36.893836      36.893836      36.893836    
    401000   0.58729094    -7.6237458     -6.7428219      5.1898607      50218.233      36.893836      36.893836      36.893836    
    402000   0.58620865    -7.6250337     -6.7457332      5.1635153      50218.233      36.893836      36.893836      36.893836    
    403000   0.58481707    -7.6196421     -6.742429       5.215944       50218.233      36.893836      36.893836      36.893836    
    404000   0.58476087    -7.6220413     -6.7449124      5.1913376      50218.233      36.893836      36.893836      36.893836    
    405000   0.58356967    -7.6186062     -6.7432641      5.2069253      50218.233      36.893836      36.893836      36.893836    
    406000   0.58591139    -7.6228721     -6.7440175      5.1897313      50218.233      36.893836      36.893836      36.893836    
    407000   0.58113931    -7.6153344     -6.7436379      5.2460902      50218.233      36.893836      36.893836      36.893836    
    408000   0.58395216    -7.6227541     -6.7468383      5.186138       50218.233      36.893836      36.893836      36.893836    
    409000   0.58443779    -7.6284202     -6.751776       5.1634313      50218.233      36.893836      36.893836      36.893836    
    410000   0.5865661     -7.6216175     -6.7417808      5.2034372      50218.233      36.893836      36.893836      36.893836    
    411000   0.58603676    -7.624463      -6.7454204      5.1814002      50218.233      36.893836      36.893836      36.893836    
    412000   0.58558443    -7.6208607     -6.7424965      5.1991603      50218.233      36.893836      36.893836      36.893836    
    413000   0.58357054    -7.6209076     -6.7455643      5.2010151      50218.233      36.893836      36.893836      36.893836    
    414000   0.58567451    -7.6253425     -6.7468432      5.1789645      50218.233      36.893836      36.893836      36.893836    
    415000   0.58394943    -7.6239794     -6.7480677      5.1846518      50218.233      36.893836      36.893836      36.893836    
    416000   0.58613812    -7.6224319     -6.7432372      5.2090661      50218.233      36.893836      36.893836      36.893836    
    417000   0.58442738    -7.6221453     -6.7455167      5.1866372      50218.233      36.893836      36.893836      36.893836    
    418000   0.58616755    -7.6222255     -6.7429867      5.1921843      50218.233      36.893836      36.893836      36.893836    
    419000   0.58286435    -7.6269269     -6.7526428      5.1584908      50218.233      36.893836      36.893836      36.893836    
    420000   0.58308467    -7.6235171     -6.7489026      5.1811319      50218.233      36.893836      36.893836      36.893836    
    421000   0.58475032    -7.6263015     -6.7491885      5.1704308      50218.233      36.893836      36.893836      36.893836    
    422000   0.58224821    -7.6248511     -6.7514912      5.1831627      50218.233      36.893836      36.893836      36.893836    
    423000   0.59012674    -7.6284648     -6.7432873      5.1538441      50218.233      36.893836      36.893836      36.893836    
    424000   0.58247468    -7.6278516     -6.754152       5.1514211      50218.233      36.893836      36.893836      36.893836    
    425000   0.58685185    -7.6231831     -6.7429179      5.1863611      50218.233      36.893836      36.893836      36.893836    
    426000   0.58573453    -7.6274801     -6.7488908      5.1566194      50218.233      36.893836      36.893836      36.893836    
    427000   0.58171839    -7.6245701     -6.7520049      5.1817236      50218.233      36.893836      36.893836      36.893836    
    428000   0.58469623    -7.6279105     -6.7508786      5.1528233      50218.233      36.893836      36.893836      36.893836    
    429000   0.58526952    -7.6209319     -6.7430401      5.2049366      50218.233      36.893836      36.893836      36.893836    
    430000   0.5860603     -7.6199519     -6.7408739      5.2065531      50218.233      36.893836      36.893836      36.893836    
    431000   0.58529221    -7.6294288     -6.751503       5.1313412      50218.233      36.893836      36.893836      36.893836    
    432000   0.58591385    -7.6311676     -6.7523093      5.1338627      50218.233      36.893836      36.893836      36.893836    
    433000   0.58243852    -7.6240454     -6.7504         5.1725945      50218.233      36.893836      36.893836      36.893836    
    434000   0.58780102    -7.6232945     -6.7416055      5.185697       50218.233      36.893836      36.893836      36.893836    
    435000   0.58528878    -7.6249531     -6.7470325      5.1797168      50218.233      36.893836      36.893836      36.893836    
    436000   0.5840075     -7.623064      -6.7470653      5.1853624      50218.233      36.893836      36.893836      36.893836    
    437000   0.58234603    -7.6333618     -6.7598552      5.1134697      50218.233      36.893836      36.893836      36.893836    
    438000   0.58444704    -7.6306187     -6.7539606      5.1253376      50218.233      36.893836      36.893836      36.893836    
    439000   0.58617539    -7.6246446     -6.745394       5.1782923      50218.233      36.893836      36.893836      36.893836    
    440000   0.58504331    -7.6230828     -6.7455303      5.1785193      50218.233      36.893836      36.893836      36.893836    
    441000   0.58513254    -7.6243895     -6.7467032      5.173613       50218.233      36.893836      36.893836      36.893836    
    442000   0.58625633    -7.6216525     -6.7422805      5.2000533      50218.233      36.893836      36.893836      36.893836    
    443000   0.58440598    -7.630427      -6.7538305      5.1296964      50218.233      36.893836      36.893836      36.893836    
    444000   0.58219885    -7.6274083     -6.7541225      5.1479579      50218.233      36.893836      36.893836      36.893836    
    445000   0.58474952    -7.6272637     -6.7501519      5.1537935      50218.233      36.893836      36.893836      36.893836    
    446000   0.58603135    -7.6285973     -6.7495628      5.1454731      50218.233      36.893836      36.893836      36.893836    
    447000   0.58707274    -7.6262855     -6.7456889      5.1652653      50218.233      36.893836      36.893836      36.893836    
    448000   0.58616986    -7.6264606     -6.7472183      5.1642573      50218.233      36.893836      36.893836      36.893836    
    449000   0.58144529    -7.6206932     -6.7485377      5.1924466      50218.233      36.893836      36.893836      36.893836    
    450000   0.58507699    -7.6238918     -6.7462888      5.1769583      50218.233      36.893836      36.893836      36.893836    
    451000   0.58485954    -7.6222177     -6.7449409      5.1874657      50218.233      36.893836      36.893836      36.893836    
    452000   0.58501092    -7.6261322     -6.7486283      5.163739       50218.233      36.893836      36.893836      36.893836    
    453000   0.58106074    -7.6272849     -6.7557062      5.1556541      50218.233      36.893836      36.893836      36.893836    
    454000   0.58506435    -7.6258491     -6.748265       5.1761115      50218.233      36.893836      36.893836      36.893836    
    455000   0.58781211    -7.6274159     -6.7457103      5.1711876      50218.233      36.893836      36.893836      36.893836    
    456000   0.58213104    -7.6255792     -6.752395       5.1600223      50218.233      36.893836      36.893836      36.893836    
    457000   0.58797223    -7.6246318     -6.742686       5.1849703      50218.233      36.893836      36.893836      36.893836    
    458000   0.58914685    -7.6258582     -6.7421505      5.1787886      50218.233      36.893836      36.893836      36.893836    
    459000   0.58385029    -7.6235951     -6.7478321      5.1883582      50218.233      36.893836      36.893836      36.893836    
    460000   0.58243496    -7.6206393     -6.7469993      5.1998716      50218.233      36.893836      36.893836      36.893836    
    461000   0.58692483    -7.6258395     -6.7454647      5.1541144      50218.233      36.893836      36.893836      36.893836    
    462000   0.58243895    -7.624069      -6.750423       5.1777194      50218.233      36.893836      36.893836      36.893836    
    463000   0.58711068    -7.6236339     -6.7429804      5.174914       50218.233      36.893836      36.893836      36.893836    
    464000   0.58765664    -7.6248124     -6.7433399      5.178209       50218.233      36.893836      36.893836      36.893836    
    465000   0.58344781    -7.6258791     -6.7507199      5.1550897      50218.233      36.893836      36.893836      36.893836    
    466000   0.58548845    -7.6212786     -6.7430585      5.1924506      50218.233      36.893836      36.893836      36.893836    
    467000   0.58231902    -7.6216425     -6.7481764      5.19252        50218.233      36.893836      36.893836      36.893836    
    468000   0.58743422    -7.6216321     -6.7404933      5.2119293      50218.233      36.893836      36.893836      36.893836    
    469000   0.58450449    -7.6307084     -6.7539642      5.1455071      50218.233      36.893836      36.893836      36.893836    
    470000   0.58699911    -7.6225583     -6.7420722      5.188376       50218.233      36.893836      36.893836      36.893836    
    471000   0.5856787     -7.6182161     -6.7397106      5.2198185      50218.233      36.893836      36.893836      36.893836    
    472000   0.58805808    -7.6222305     -6.7401559      5.2051826      50218.233      36.893836      36.893836      36.893836    
    473000   0.58267842    -7.6222282     -6.7482231      5.189474       50218.233      36.893836      36.893836      36.893836    
    474000   0.5853136     -7.6243898     -6.7464319      5.1692566      50218.233      36.893836      36.893836      36.893836    
    475000   0.58370423    -7.6261671     -6.7506232      5.1648696      50218.233      36.893836      36.893836      36.893836    
    476000   0.58263765    -7.6218517     -6.7479076      5.1912801      50218.233      36.893836      36.893836      36.893836    
    477000   0.58649216    -7.6270158     -6.74729        5.1576855      50218.233      36.893836      36.893836      36.893836    
    478000   0.58313591    -7.6249        -6.7502085      5.1745248      50218.233      36.893836      36.893836      36.893836    
    479000   0.58593157    -7.623996      -6.7451111      5.1782037      50218.233      36.893836      36.893836      36.893836    
    480000   0.58478877    -7.6250317     -6.747861       5.1637615      50218.233      36.893836      36.893836      36.893836    
    481000   0.58467934    -7.6284219     -6.7514153      5.135513       50218.233      36.893836      36.893836      36.893836    
    482000   0.58204696    -7.625145      -6.752087       5.156811       50218.233      36.893836      36.893836      36.893836    
    483000   0.58219568    -7.6292148     -6.7559337      5.1488319      50218.233      36.893836      36.893836      36.893836    
    484000   0.58450272    -7.6194807     -6.7427391      5.2144261      50218.233      36.893836      36.893836      36.893836    
    485000   0.58543761    -7.6255842     -6.7474403      5.1769665      50218.233      36.893836      36.893836      36.893836    
    486000   0.58526374    -7.6286942     -6.7508111      5.1454277      50218.233      36.893836      36.893836      36.893836    
    487000   0.58248825    -7.6293896     -6.7556696      5.1408189      50218.233      36.893836      36.893836      36.893836    
    488000   0.58879392    -7.6271993     -6.7440209      5.1638383      50218.233      36.893836      36.893836      36.893836    
    489000   0.58318931    -7.6305295     -6.755758       5.1355661      50218.233      36.893836      36.893836      36.893836    
    490000   0.58371782    -7.6281906     -6.7526263      5.138625       50218.233      36.893836      36.893836      36.893836    
    491000   0.58465267    -7.631229      -6.7542625      5.1398808      50218.233      36.893836      36.893836      36.893836    
    492000   0.5856247     -7.6254227     -6.7469982      5.1704724      50218.233      36.893836      36.893836      36.893836    
    493000   0.58837285    -7.6285527     -6.746006       5.1509557      50218.233      36.893836      36.893836      36.893836    
    494000   0.58447169    -7.6244165     -6.7477214      5.1793618      50218.233      36.893836      36.893836      36.893836    
    495000   0.58374738    -7.6250486     -6.7494399      5.1635034      50218.233      36.893836      36.893836      36.893836    
    496000   0.58315781    -7.6272609     -6.7525367      5.1641281      50218.233      36.893836      36.893836      36.893836    
    497000   0.58788989    -7.6252927     -6.7434704      5.1816232      50218.233      36.893836      36.893836      36.893836    
    498000   0.58230106    -7.6278317     -6.7543926      5.1493196      50218.233      36.893836      36.893836      36.893836    
    499000   0.58425118    -7.6277553     -6.751391       5.1543158      50218.233      36.893836      36.893836      36.893836    
    500000   0.58532203    -7.625191      -6.7472205      5.1675063      50218.233      36.893836      36.893836      36.893836    
    501000   0.58527499    -7.6264828     -6.7485828      5.1489783      50218.233      36.893836      36.893836      36.893836    
    502000   0.58642338    -7.6266496     -6.747027       5.1610114      50218.233      36.893836      36.893836      36.893836    
    503000   0.58646828    -7.6319816     -6.7522917      5.1284959      50218.233      36.893836      36.893836      36.893836    
    504000   0.58336301    -7.6292034     -6.7541714      5.143693       50218.233      36.893836      36.893836      36.893836    
    505000   0.58456312    -7.6253586     -6.7485264      5.1675525      50218.233      36.893836      36.893836      36.893836    
    506000   0.57969193    -7.6222156     -6.7526901      5.1804374      50218.233      36.893836      36.893836      36.893836    
    507000   0.58403739    -7.6264433     -6.7503996      5.1565599      50218.233      36.893836      36.893836      36.893836    
    508000   0.58251514    -7.6251992     -6.7514389      5.1648746      50218.233      36.893836      36.893836      36.893836    
    509000   0.58577897    -7.6300824     -6.7514265      5.1374504      50218.233      36.893836      36.893836      36.893836    
    510000   0.58596608    -7.6270982     -6.7481616      5.1628918      50218.233      36.893836      36.893836      36.893836    
    511000   0.58584321    -7.6239043     -6.745152       5.1822037      50218.233      36.893836      36.893836      36.893836    
    512000   0.58683635    -7.6292088     -6.7489668      5.1550656      50218.233      36.893836      36.893836      36.893836    
    513000   0.58400119    -7.6261219     -6.7501325      5.1588886      50218.233      36.893836      36.893836      36.893836    
    514000   0.58506911    -7.6272276     -6.7496364      5.1468493      50218.233      36.893836      36.893836      36.893836    
    515000   0.58596496    -7.6262422     -6.7473073      5.1625907      50218.233      36.893836      36.893836      36.893836    
    516000   0.58778953    -7.6296448     -6.7479731      5.1399965      50218.233      36.893836      36.893836      36.893836    
    517000   0.58525567    -7.6166569     -6.7387859      5.2262306      50218.233      36.893836      36.893836      36.893836    
    518000   0.58825612    -7.6234297     -6.741058       5.1910764      50218.233      36.893836      36.893836      36.893836    
    519000   0.58341464    -7.6241335     -6.749024       5.1794515      50218.233      36.893836      36.893836      36.893836    
    520000   0.58311267    -7.629339      -6.7546824      5.1291858      50218.233      36.893836      36.893836      36.893836    
    521000   0.58556634    -7.6236238     -6.7452867      5.1827412      50218.233      36.893836      36.893836      36.893836    
    522000   0.58628226    -7.6215908     -6.7421799      5.195954       50218.233      36.893836      36.893836      36.893836    
    523000   0.5869563     -7.626152      -6.7457301      5.1622754      50218.233      36.893836      36.893836      36.893836    
    524000   0.58510259    -7.6261054     -6.748464       5.1716198      50218.233      36.893836      36.893836      36.893836    
    525000   0.58431644    -7.6268333     -6.7503711      5.1572564      50218.233      36.893836      36.893836      36.893836    
    526000   0.58575394    -7.6292004     -6.750582       5.1269626      50218.233      36.893836      36.893836      36.893836    
    527000   0.58441777    -7.631909      -6.7552948      5.1084899      50218.233      36.893836      36.893836      36.893836    
    528000   0.58322061    -7.6277732     -6.7529548      5.153136       50218.233      36.893836      36.893836      36.893836    
    529000   0.58301819    -7.6263801     -6.7518652      5.1579737      50218.233      36.893836      36.893836      36.893836    
    530000   0.586917      -7.6227378     -6.7423748      5.2120075      50218.233      36.893836      36.893836      36.893836    
    531000   0.58799309    -7.6252854     -6.7433083      5.1751007      50218.233      36.893836      36.893836      36.893836    
    532000   0.58645498    -7.6303771     -6.7507071      5.1452333      50218.233      36.893836      36.893836      36.893836    
    533000   0.58760617    -7.6249944     -6.7435977      5.1784074      50218.233      36.893836      36.893836      36.893836    
    534000   0.58566966    -7.6247934     -6.7463015      5.1816849      50218.233      36.893836      36.893836      36.893836    
    535000   0.58314542    -7.6262201     -6.7515144      5.1659114      50218.233      36.893836      36.893836      36.893836    
    536000   0.5835584     -7.621612      -6.7462868      5.2023381      50218.233      36.893836      36.893836      36.893836    
    537000   0.58653656    -7.6225278     -6.7427355      5.1988449      50218.233      36.893836      36.893836      36.893836    
    538000   0.58623723    -7.6320222     -6.7526788      5.127898       50218.233      36.893836      36.893836      36.893836    
    539000   0.58668608    -7.6275992     -6.7475826      5.1536449      50218.233      36.893836      36.893836      36.893836    
    540000   0.58416381    -7.6248752     -6.7486419      5.1691463      50218.233      36.893836      36.893836      36.893836    
    541000   0.58304223    -7.6274838     -6.7529329      5.1539101      50218.233      36.893836      36.893836      36.893836    
    542000   0.58474482    -7.6250103     -6.7479055      5.1873055      50218.233      36.893836      36.893836      36.893836    
    543000   0.58344035    -7.6242017     -6.7490537      5.184108       50218.233      36.893836      36.893836      36.893836    
    544000   0.5853609     -7.6268642     -6.7488354      5.1671248      50218.233      36.893836      36.893836      36.893836    
    545000   0.5848999     -7.6294291     -6.7520918      5.1440862      50218.233      36.893836      36.893836      36.893836    
    546000   0.58285069    -7.6258474     -6.7515838      5.170597       50218.233      36.893836      36.893836      36.893836    
    547000   0.58355013    -7.6213406     -6.7460279      5.1844447      50218.233      36.893836      36.893836      36.893836    
    548000   0.58677163    -7.6262404     -6.7460955      5.1679033      50218.233      36.893836      36.893836      36.893836    
    549000   0.58410342    -7.62652       -6.7503773      5.1626881      50218.233      36.893836      36.893836      36.893836    
    550000   0.58446866    -7.6229523     -6.7462618      5.1899527      50218.233      36.893836      36.893836      36.893836    
    551000   0.58425613    -7.6292187     -6.752847       5.1349266      50218.233      36.893836      36.893836      36.893836    
    552000   0.58683755    -7.6275622     -6.7473184      5.1546414      50218.233      36.893836      36.893836      36.893836    
    553000   0.58337319    -7.6241579     -6.7491105      5.178442       50218.233      36.893836      36.893836      36.893836    
    554000   0.5857076     -7.6266313     -6.7480824      5.1656103      50218.233      36.893836      36.893836      36.893836    
    555000   0.58593315    -7.6238199     -6.7449326      5.1912622      50218.233      36.893836      36.893836      36.893836    
    556000   0.58390894    -7.6220916     -6.7462406      5.1949591      50218.233      36.893836      36.893836      36.893836    
    557000   0.58646501    -7.625208      -6.745523       5.1630611      50218.233      36.893836      36.893836      36.893836    
    558000   0.58337381    -7.6267683     -6.75172        5.156833       50218.233      36.893836      36.893836      36.893836    
    559000   0.58488074    -7.6266641     -6.7493554      5.1669694      50218.233      36.893836      36.893836      36.893836    
    560000   0.58375425    -7.6262901     -6.7506712      5.1568244      50218.233      36.893836      36.893836      36.893836    
    561000   0.58749467    -7.6229992     -6.7417698      5.1877321      50218.233      36.893836      36.893836      36.893836    
    562000   0.58451108    -7.6268948     -6.7501407      5.1656405      50218.233      36.893836      36.893836      36.893836    
    563000   0.58398642    -7.6241682     -6.748201       5.1865636      50218.233      36.893836      36.893836      36.893836    
    564000   0.58765976    -7.6205931     -6.739116       5.2072291      50218.233      36.893836      36.893836      36.893836    
    565000   0.58775       -7.6314844     -6.7498719      5.1406046      50218.233      36.893836      36.893836      36.893836    
    566000   0.58368788    -7.6256683     -6.750149       5.1613786      50218.233      36.893836      36.893836      36.893836    
    567000   0.58620679    -7.6266807     -6.747383       5.1630158      50218.233      36.893836      36.893836      36.893836    
    568000   0.58223664    -7.625008      -6.7516654      5.1613884      50218.233      36.893836      36.893836      36.893836    
    569000   0.58434682    -7.6276082     -6.7511004      5.1561969      50218.233      36.893836      36.893836      36.893836    
    570000   0.58551293    -7.6279423     -6.7496854      5.1442783      50218.233      36.893836      36.893836      36.893836    
    571000   0.58538594    -7.6322435     -6.7541771      5.1292393      50218.233      36.893836      36.893836      36.893836    
    572000   0.58537713    -7.6317934     -6.7537402      5.1165762      50218.233      36.893836      36.893836      36.893836    
    573000   0.58215624    -7.6281203     -6.7548984      5.1521738      50218.233      36.893836      36.893836      36.893836    
    574000   0.58505563    -7.631266      -6.753695       5.1184485      50218.233      36.893836      36.893836      36.893836    
    575000   0.5866363     -7.6233196     -6.7433776      5.1866448      50218.233      36.893836      36.893836      36.893836    
    576000   0.58552717    -7.6347803     -6.7565021      5.0882928      50218.233      36.893836      36.893836      36.893836    
    577000   0.58375258    -7.6291824     -6.753566       5.1360846      50218.233      36.893836      36.893836      36.893836    
    578000   0.58490221    -7.6301203     -6.7527795      5.1258688      50218.233      36.893836      36.893836      36.893836    
    579000   0.58527682    -7.6316535     -6.7537508      5.1143041      50218.233      36.893836      36.893836      36.893836    
    580000   0.58485392    -7.6243984     -6.74713        5.1792679      50218.233      36.893836      36.893836      36.893836    
    581000   0.58357559    -7.629869      -6.7545181      5.1404817      50218.233      36.893836      36.893836      36.893836    
    582000   0.58544031    -7.6321045     -6.7539566      5.1088695      50218.233      36.893836      36.893836      36.893836    
    583000   0.58280538    -7.6314183     -6.7572227      5.1164783      50218.233      36.893836      36.893836      36.893836    
    584000   0.58733913    -7.628125      -6.7471288      5.1537687      50218.233      36.893836      36.893836      36.893836    
    585000   0.58827223    -7.6253755     -6.7429797      5.1735285      50218.233      36.893836      36.893836      36.893836    
    586000   0.58644333    -7.6246895     -6.745037       5.1760378      50218.233      36.893836      36.893836      36.893836    
    587000   0.58419895    -7.6272367     -6.7509507      5.1526852      50218.233      36.893836      36.893836      36.893836    
    588000   0.58530653    -7.6289736     -6.7510263      5.1475216      50218.233      36.893836      36.893836      36.893836    
    589000   0.58703168    -7.6270752     -6.7465402      5.155002       50218.233      36.893836      36.893836      36.893836    
    590000   0.58717033    -7.6339913     -6.7532483      5.1133151      50218.233      36.893836      36.893836      36.893836    
    591000   0.5865696     -7.6300792     -6.7502373      5.1269433      50218.233      36.893836      36.893836      36.893836    
    592000   0.58374551    -7.6239943     -6.7483885      5.1815783      50218.233      36.893836      36.893836      36.893836    
    593000   0.58365466    -7.6265585     -6.751089       5.1585399      50218.233      36.893836      36.893836      36.893836    
    594000   0.58296933    -7.6260625     -6.7516209      5.1426543      50218.233      36.893836      36.893836      36.893836    
    595000   0.58329237    -7.6325796     -6.7576535      5.1217369      50218.233      36.893836      36.893836      36.893836    
    596000   0.58649355    -7.6224157     -6.7426879      5.2010309      50218.233      36.893836      36.893836      36.893836    
    597000   0.58447666    -7.6270176     -6.750315       5.1704874      50218.233      36.893836      36.893836      36.893836    
    598000   0.58701779    -7.6281591     -6.747645       5.1515391      50218.233      36.893836      36.893836      36.893836    
    599000   0.58622431    -7.6300654     -6.7507414      5.1359191      50218.233      36.893836      36.893836      36.893836    
    600000   0.58596786    -7.6251619     -6.7462226      5.1661391      50218.233      36.893836      36.893836      36.893836    
    601000   0.58590539    -7.6268421     -6.7479965      5.1471658      50218.233      36.893836      36.893836      36.893836    
    602000   0.58425077    -7.6298636     -6.7534999      5.1409654      50218.233      36.893836      36.893836      36.893836    
    603000   0.58640768    -7.6225086     -6.7429096      5.1945076      50218.233      36.893836      36.893836      36.893836    
    604000   0.5824135     -7.6297533     -6.7561455      5.1411783      50218.233      36.893836      36.893836      36.893836    
    605000   0.58446735    -7.6272747     -6.7505861      5.1650812      50218.233      36.893836      36.893836      36.893836    
    606000   0.58336104    -7.6295214     -6.7544923      5.1406011      50218.233      36.893836      36.893836      36.893836    
    607000   0.58297343    -7.6357522     -6.7613045      5.0937413      50218.233      36.893836      36.893836      36.893836    
    608000   0.58712923    -7.6347499     -6.7540686      5.1062798      50218.233      36.893836      36.893836      36.893836    
    609000   0.58632528    -7.6288047     -6.7493293      5.1452462      50218.233      36.893836      36.893836      36.893836    
    610000   0.58646028    -7.6317848     -6.7521069      5.1234028      50218.233      36.893836      36.893836      36.893836    
    611000   0.58473627    -7.6291303     -6.7520383      5.1488349      50218.233      36.893836      36.893836      36.893836    
    612000   0.5834168     -7.6320527     -6.75694        5.1201657      50218.233      36.893836      36.893836      36.893836    
    613000   0.58786952    -7.6313629     -6.7495712      5.1394155      50218.233      36.893836      36.893836      36.893836    
    614000   0.58553025    -7.6333737     -6.7550908      5.1162425      50218.233      36.893836      36.893836      36.893836    
    615000   0.58580891    -7.6335934     -6.7548925      5.1168615      50218.233      36.893836      36.893836      36.893836    
    616000   0.58514802    -7.6303897     -6.7526801      5.1392458      50218.233      36.893836      36.893836      36.893836    
    617000   0.58486003    -7.6349865     -6.7577089      5.0980458      50218.233      36.893836      36.893836      36.893836    
    618000   0.58225717    -7.6356185     -6.7622452      5.0932628      50218.233      36.893836      36.893836      36.893836    
    619000   0.58771681    -7.6357948     -6.7542321      5.0883529      50218.233      36.893836      36.893836      36.893836    
    620000   0.58406961    -7.6309135     -6.7548216      5.1369982      50218.233      36.893836      36.893836      36.893836    
    621000   0.58472652    -7.6307428     -6.7536655      5.1213826      50218.233      36.893836      36.893836      36.893836    
    622000   0.5867474     -7.6307922     -6.7506836      5.1143491      50218.233      36.893836      36.893836      36.893836    
    623000   0.58706319    -7.6333193     -6.7527371      5.1148524      50218.233      36.893836      36.893836      36.893836    
    624000   0.58456686    -7.6312301     -6.7543923      5.1248411      50218.233      36.893836      36.893836      36.893836    
    625000   0.58558576    -7.6252756     -6.7469094      5.1756629      50218.233      36.893836      36.893836      36.893836    
    626000   0.58430393    -7.6215098     -6.7450664      5.1938094      50218.233      36.893836      36.893836      36.893836    
    627000   0.58496581    -7.6288799     -6.7514437      5.1581868      50218.233      36.893836      36.893836      36.893836    
    628000   0.5862661     -7.6295755     -6.7501888      5.1484995      50218.233      36.893836      36.893836      36.893836    
    629000   0.58699178    -7.6309257     -6.7504506      5.1484504      50218.233      36.893836      36.893836      36.893836    
    630000   0.58556298    -7.6244357     -6.7461037      5.1927672      50218.233      36.893836      36.893836      36.893836    
    631000   0.58668755    -7.6237543     -6.7437355      5.1844138      50218.233      36.893836      36.893836      36.893836    
    632000   0.58764966    -7.6229194     -6.7414575      5.2020981      50218.233      36.893836      36.893836      36.893836    
    633000   0.58251575    -7.6301744     -6.7564132      5.1368855      50218.233      36.893836      36.893836      36.893836    
    634000   0.58812431    -7.6257411     -6.7435672      5.1684003      50218.233      36.893836      36.893836      36.893836    
    635000   0.58495066    -7.6290445     -6.751631       5.1417671      50218.233      36.893836      36.893836      36.893836    
    636000   0.58777203    -7.6264778     -6.7448323      5.1752221      50218.233      36.893836      36.893836      36.893836    
    637000   0.58354398    -7.6256241     -6.7503205      5.1714869      50218.233      36.893836      36.893836      36.893836    
    638000   0.58357463    -7.6287569     -6.7534074      5.1455378      50218.233      36.893836      36.893836      36.893836    
    639000   0.58575775    -7.6295531     -6.750929       5.1426312      50218.233      36.893836      36.893836      36.893836    
    640000   0.58285389    -7.627716      -6.7534476      5.1501619      50218.233      36.893836      36.893836      36.893836    
    641000   0.58836742    -7.6274362     -6.7448976      5.1583903      50218.233      36.893836      36.893836      36.893836    
    642000   0.58511755    -7.6270497     -6.7493858      5.1788844      50218.233      36.893836      36.893836      36.893836    
    643000   0.58662668    -7.6264954     -6.7465679      5.1553673      50218.233      36.893836      36.893836      36.893836    
    644000   0.58546201    -7.6300186     -6.7518381      5.1448151      50218.233      36.893836      36.893836      36.893836    
    645000   0.58698034    -7.6313279     -6.7508699      5.1323606      50218.233      36.893836      36.893836      36.893836    
    646000   0.58354736    -7.6250561     -6.7497475      5.1721789      50218.233      36.893836      36.893836      36.893836    
    647000   0.58630232    -7.6256985     -6.7462575      5.1741912      50218.233      36.893836      36.893836      36.893836    
    648000   0.58484362    -7.6275043     -6.7502513      5.1645322      50218.233      36.893836      36.893836      36.893836    
    649000   0.58604401    -7.6281871     -6.7491336      5.1544164      50218.233      36.893836      36.893836      36.893836    
    650000   0.58293414    -7.6251359     -6.7507472      5.1630213      50218.233      36.893836      36.893836      36.893836    
    651000   0.58625059    -7.6253562     -6.7459928      5.1827165      50218.233      36.893836      36.893836      36.893836    
    652000   0.5858759     -7.6250744     -6.746273       5.1804786      50218.233      36.893836      36.893836      36.893836    
    653000   0.58602492    -7.627324      -6.7482991      5.1707832      50218.233      36.893836      36.893836      36.893836    
    654000   0.58392817    -7.6265493     -6.7506695      5.1593018      50218.233      36.893836      36.893836      36.893836    
    655000   0.58492433    -7.6298986     -6.7525246      5.1385961      50218.233      36.893836      36.893836      36.893836    
    656000   0.58634934    -7.6280705     -6.748559       5.1493595      50218.233      36.893836      36.893836      36.893836    
    657000   0.58410713    -7.6256318     -6.7494835      5.1680961      50218.233      36.893836      36.893836      36.893836    
    658000   0.58425524    -7.6289453     -6.7525749      5.1358314      50218.233      36.893836      36.893836      36.893836    
    659000   0.58336148    -7.6277176     -6.7526878      5.1513974      50218.233      36.893836      36.893836      36.893836    
    660000   0.58839669    -7.6240025     -6.7414201      5.1846117      50218.233      36.893836      36.893836      36.893836    
    661000   0.5855409     -7.630793      -6.7524942      5.1318295      50218.233      36.893836      36.893836      36.893836    
    662000   0.5861541     -7.6249065     -6.7456878      5.1789152      50218.233      36.893836      36.893836      36.893836    
    663000   0.5819982     -7.6228943     -6.7499094      5.1848881      50218.233      36.893836      36.893836      36.893836    
    664000   0.58554801    -7.626402      -6.7480925      5.1595109      50218.233      36.893836      36.893836      36.893836    
    665000   0.58414081    -7.6286015     -6.7524027      5.1266737      50218.233      36.893836      36.893836      36.893836    
    666000   0.58461425    -7.6273873     -6.7504784      5.1594755      50218.233      36.893836      36.893836      36.893836    
    667000   0.58444473    -7.6221916     -6.745537       5.1981113      50218.233      36.893836      36.893836      36.893836    
    668000   0.58608465    -7.6258008     -6.7466864      5.185682       50218.233      36.893836      36.893836      36.893836    
    669000   0.58333473    -7.6266055     -6.7516159      5.1720084      50218.233      36.893836      36.893836      36.893836    
    670000   0.58458528    -7.6286125     -6.751747       5.1530293      50218.233      36.893836      36.893836      36.893836    
    671000   0.5844936     -7.6214857     -6.7447578      5.2018402      50218.233      36.893836      36.893836      36.893836    
    672000   0.58809497    -7.6325139     -6.750384       5.1304385      50218.233      36.893836      36.893836      36.893836    
    673000   0.58807585    -7.6255406     -6.7434393      5.1871548      50218.233      36.893836      36.893836      36.893836    
    674000   0.58732591    -7.6222176     -6.7412413      5.1879721      50218.233      36.893836      36.893836      36.893836    
    675000   0.58668453    -7.627408      -6.7473937      5.1574007      50218.233      36.893836      36.893836      36.893836    
    676000   0.58184947    -7.6236669     -6.7509051      5.1727702      50218.233      36.893836      36.893836      36.893836    
    677000   0.58796821    -7.6254144     -6.7434747      5.1685626      50218.233      36.893836      36.893836      36.893836    
    678000   0.58590393    -7.6294823     -6.7506389      5.1459863      50218.233      36.893836      36.893836      36.893836    
    679000   0.58318328    -7.6297595     -6.754997       5.1252935      50218.233      36.893836      36.893836      36.893836    
    680000   0.58598157    -7.6265512     -6.7475913      5.1659108      50218.233      36.893836      36.893836      36.893836    
    681000   0.58278338    -7.6252298     -6.7510672      5.152074       50218.233      36.893836      36.893836      36.893836    
    682000   0.58781785    -7.6298117     -6.7480975      5.1406296      50218.233      36.893836      36.893836      36.893836    
    683000   0.58668509    -7.6281744     -6.7481593      5.1543621      50218.233      36.893836      36.893836      36.893836    
    684000   0.58554578    -7.6267972     -6.748491       5.1687651      50218.233      36.893836      36.893836      36.893836    
    685000   0.58421736    -7.6218177     -6.7455041      5.2003221      50218.233      36.893836      36.893836      36.893836    
    686000   0.58696734    -7.6256634     -6.7452249      5.1598916      50218.233      36.893836      36.893836      36.893836    
    687000   0.58563008    -7.6292717     -6.7508391      5.1437374      50218.233      36.893836      36.893836      36.893836    
    688000   0.58489565    -7.6242121     -6.7468811      5.1798324      50218.233      36.893836      36.893836      36.893836    
    689000   0.58052601    -7.6335489     -6.7627723      5.1121265      50218.233      36.893836      36.893836      36.893836    
    690000   0.58622805    -7.628003      -6.7486734      5.1557769      50218.233      36.893836      36.893836      36.893836    
    691000   0.58689417    -7.6205584     -6.7402297      5.2201915      50218.233      36.893836      36.893836      36.893836    
    692000   0.58422556    -7.6247386     -6.7484127      5.1909529      50218.233      36.893836      36.893836      36.893836    
    693000   0.58851071    -7.6274593     -6.7447058      5.1568182      50218.233      36.893836      36.893836      36.893836    
    694000   0.58530196    -7.6230181     -6.7450777      5.2015901      50218.233      36.893836      36.893836      36.893836    
    695000   0.58408686    -7.6275341     -6.7514162      5.1597343      50218.233      36.893836      36.893836      36.893836    
    696000   0.58604105    -7.6259363     -6.7468872      5.176001       50218.233      36.893836      36.893836      36.893836    
    697000   0.58478326    -7.6250481     -6.7478857      5.1698542      50218.233      36.893836      36.893836      36.893836    
    698000   0.58591744    -7.6262671     -6.7474034      5.1631317      50218.233      36.893836      36.893836      36.893836    
    699000   0.58150049    -7.6322938     -6.7600555      5.1111344      50218.233      36.893836      36.893836      36.893836    
    700000   0.58633729    -7.6277057     -6.7482123      5.1623826      50218.233      36.893836      36.893836      36.893836    
    701000   0.58657342    -7.6283187     -6.7484711      5.1567422      50218.233      36.893836      36.893836      36.893836    
    702000   0.58540024    -7.6233727     -6.7452849      5.1971464      50218.233      36.893836      36.893836      36.893836    
    703000   0.58455545    -7.6262206     -6.7493999      5.1687         50218.233      36.893836      36.893836      36.893836    
    704000   0.58357566    -7.6302698     -6.7549187      5.1230631      50218.233      36.893836      36.893836      36.893836    
    705000   0.58764816    -7.6306869     -6.7492272      5.1292105      50218.233      36.893836      36.893836      36.893836    
    706000   0.5889665     -7.6281025     -6.7446653      5.1596209      50218.233      36.893836      36.893836      36.893836    
    707000   0.58392442    -7.6238143     -6.7479401      5.1782038      50218.233      36.893836      36.893836      36.893836    
    708000   0.58358669    -7.6250746     -6.7497071      5.1737104      50218.233      36.893836      36.893836      36.893836    
    709000   0.58560137    -7.6272122     -6.7488226      5.1493987      50218.233      36.893836      36.893836      36.893836    
    710000   0.58575808    -7.6322444     -6.7536197      5.1143311      50218.233      36.893836      36.893836      36.893836    
    711000   0.58758243    -7.6244183     -6.7430571      5.1891281      50218.233      36.893836      36.893836      36.893836    
    712000   0.58261578    -7.6261736     -6.7522624      5.1624977      50218.233      36.893836      36.893836      36.893836    
    713000   0.58589431    -7.6248127     -6.7459837      5.1798035      50218.233      36.893836      36.893836      36.893836    
    714000   0.58574746    -7.6255333     -6.7469247      5.1714593      50218.233      36.893836      36.893836      36.893836    
    715000   0.58605057    -7.6311326     -6.7520692      5.1329609      50218.233      36.893836      36.893836      36.893836    
    716000   0.58794782    -7.6273174     -6.7454082      5.1615542      50218.233      36.893836      36.893836      36.893836    
    717000   0.58556714    -7.6266659     -6.7483277      5.1536315      50218.233      36.893836      36.893836      36.893836    
    718000   0.58703571    -7.6266477     -6.7461067      5.1721802      50218.233      36.893836      36.893836      36.893836    
    719000   0.58572343    -7.6196468     -6.7410742      5.2213494      50218.233      36.893836      36.893836      36.893836    
    720000   0.5881022     -7.6274699     -6.7453291      5.1690901      50218.233      36.893836      36.893836      36.893836    
    721000   0.58714688    -7.6237434     -6.7430356      5.1892155      50218.233      36.893836      36.893836      36.893836    
    722000   0.58464164    -7.622099      -6.745149       5.1998336      50218.233      36.893836      36.893836      36.893836    
    723000   0.58481686    -7.6247895     -6.7475767      5.1713835      50218.233      36.893836      36.893836      36.893836    
    724000   0.5842192     -7.6272381     -6.7509218      5.1535575      50218.233      36.893836      36.893836      36.893836    
    725000   0.58741345    -7.6284229     -6.7473153      5.1410726      50218.233      36.893836      36.893836      36.893836    
    726000   0.58501141    -7.6280394     -6.7505347      5.1588887      50218.233      36.893836      36.893836      36.893836    
    727000   0.58632439    -7.621366      -6.7418919      5.2072042      50218.233      36.893836      36.893836      36.893836    
    728000   0.58483449    -7.6261745     -6.7489353      5.161805       50218.233      36.893836      36.893836      36.893836    
    729000   0.58139634    -7.6236416     -6.7515595      5.1932416      50218.233      36.893836      36.893836      36.893836    
    730000   0.58479812    -7.6248309     -6.7476461      5.1779323      50218.233      36.893836      36.893836      36.893836    
    731000   0.58625368    -7.6239395     -6.7445715      5.189916       50218.233      36.893836      36.893836      36.893836    
    732000   0.58420044    -7.6185006     -6.7422124      5.2208425      50218.233      36.893836      36.893836      36.893836    
    733000   0.58487062    -7.6261178     -6.7488244      5.1699015      50218.233      36.893836      36.893836      36.893836    
    734000   0.58445802    -7.6276226     -6.7509481      5.1556084      50218.233      36.893836      36.893836      36.893836    
    735000   0.58512762    -7.6243623     -6.7466833      5.1635217      50218.233      36.893836      36.893836      36.893836    
    736000   0.58449627    -7.6247657     -6.7480337      5.1673518      50218.233      36.893836      36.893836      36.893836    
    737000   0.58553841    -7.6219813     -6.7436861      5.202639       50218.233      36.893836      36.893836      36.893836    
    738000   0.58365182    -7.6258201     -6.7503548      5.1678351      50218.233      36.893836      36.893836      36.893836    
    739000   0.58538402    -7.6277919     -6.7497283      5.1513638      50218.233      36.893836      36.893836      36.893836    
    740000   0.5869969     -7.6267772     -6.7462944      5.1663929      50218.233      36.893836      36.893836      36.893836    
    741000   0.58713874    -7.626894      -6.7461984      5.169094       50218.233      36.893836      36.893836      36.893836    
    742000   0.5856286     -7.6282241     -6.7497937      5.1480114      50218.233      36.893836      36.893836      36.893836    
    743000   0.58273093    -7.6256805     -6.7515965      5.1647282      50218.233      36.893836      36.893836      36.893836    
    744000   0.58360112    -7.6230768     -6.7476876      5.1943855      50218.233      36.893836      36.893836      36.893836    
    745000   0.58725758    -7.623732      -6.7428582      5.1959639      50218.233      36.893836      36.893836      36.893836    
    746000   0.58223427    -7.6287287     -6.7553897      5.1337014      50218.233      36.893836      36.893836      36.893836    
    747000   0.58493183    -7.6259187     -6.7485334      5.1618062      50218.233      36.893836      36.893836      36.893836    
    748000   0.58593116    -7.6241642     -6.74528        5.1747361      50218.233      36.893836      36.893836      36.893836    
    749000   0.58650508    -7.626322      -6.7465769      5.1677472      50218.233      36.893836      36.893836      36.893836    
    750000   0.58457396    -7.6227719     -6.7459235      5.1838014      50218.233      36.893836      36.893836      36.893836    
    751000   0.58521931    -7.6290674     -6.7512509      5.1495504      50218.233      36.893836      36.893836      36.893836    
    752000   0.58204249    -7.6272884     -6.7542371      5.156579       50218.233      36.893836      36.893836      36.893836    
    753000   0.58524776    -7.623027      -6.7451679      5.1918243      50218.233      36.893836      36.893836      36.893836    
    754000   0.58525091    -7.6230673     -6.7452035      5.1875975      50218.233      36.893836      36.893836      36.893836    
    755000   0.58358353    -7.6200863     -6.7447234      5.2167981      50218.233      36.893836      36.893836      36.893836    
    756000   0.58432822    -7.6224532     -6.7459734      5.1966882      50218.233      36.893836      36.893836      36.893836    
    757000   0.58657532    -7.6228317     -6.7429812      5.1905052      50218.233      36.893836      36.893836      36.893836    
    758000   0.58616861    -7.6254983     -6.7462579      5.1756299      50218.233      36.893836      36.893836      36.893836    
    759000   0.58589082    -7.6202423     -6.7414186      5.2239257      50218.233      36.893836      36.893836      36.893836    
    760000   0.58736929    -7.6227683     -6.7417269      5.193613       50218.233      36.893836      36.893836      36.893836    
    761000   0.58502137    -7.6225767     -6.7450572      5.1986956      50218.233      36.893836      36.893836      36.893836    
    762000   0.58484997    -7.6229885     -6.745726       5.1852814      50218.233      36.893836      36.893836      36.893836    
    763000   0.58500732    -7.6220532     -6.7445547      5.2065673      50218.233      36.893836      36.893836      36.893836    
    764000   0.58384051    -7.6243506     -6.7486023      5.1730629      50218.233      36.893836      36.893836      36.893836    
    765000   0.58014768    -7.6288476     -6.7586384      5.147873       50218.233      36.893836      36.893836      36.893836    
    766000   0.58539929    -7.6240331     -6.7459467      5.1912065      50218.233      36.893836      36.893836      36.893836    
    767000   0.58330306    -7.6204602     -6.745518       5.2043202      50218.233      36.893836      36.893836      36.893836    
    768000   0.58505431    -7.6268839     -6.749315       5.1588545      50218.233      36.893836      36.893836      36.893836    
    769000   0.5824787     -7.6270091     -6.7533035      5.1563447      50218.233      36.893836      36.893836      36.893836    
    770000   0.58329022    -7.6214674     -6.7465446      5.2022915      50218.233      36.893836      36.893836      36.893836    
    771000   0.5816858     -7.622553      -6.7500367      5.1969488      50218.233      36.893836      36.893836      36.893836    
    772000   0.58507943    -7.6229931     -6.7453864      5.1822006      50218.233      36.893836      36.893836      36.893836    
    773000   0.58480568    -7.6281661     -6.7509701      5.1518547      50218.233      36.893836      36.893836      36.893836    
    774000   0.58114747    -7.6278573     -6.7561485      5.1436191      50218.233      36.893836      36.893836      36.893836    
    775000   0.58248755    -7.6236637     -6.7499448      5.1846842      50218.233      36.893836      36.893836      36.893836    
    776000   0.58732099    -7.6230532     -6.7420842      5.1896902      50218.233      36.893836      36.893836      36.893836    
    777000   0.58548719    -7.6247934     -6.7465751      5.170307       50218.233      36.893836      36.893836      36.893836    
    778000   0.58314998    -7.6263474     -6.7516348      5.158974       50218.233      36.893836      36.893836      36.893836    
    779000   0.58562345    -7.6212372     -6.7428145      5.1993588      50218.233      36.893836      36.893836      36.893836    
    780000   0.5833504     -7.6268805     -6.7518673      5.1551156      50218.233      36.893836      36.893836      36.893836    
    781000   0.58701737    -7.625869      -6.7453555      5.158475       50218.233      36.893836      36.893836      36.893836    
    782000   0.58479356    -7.6276049     -6.7504271      5.1655049      50218.233      36.893836      36.893836      36.893836    
    783000   0.58794155    -7.6298681     -6.7479683      5.139719       50218.233      36.893836      36.893836      36.893836    
    784000   0.58420693    -7.6287468     -6.7524489      5.1481333      50218.233      36.893836      36.893836      36.893836    
    785000   0.58628496    -7.6263401     -6.7469252      5.1662185      50218.233      36.893836      36.893836      36.893836    
    786000   0.58267776    -7.6257546     -6.7517504      5.1630716      50218.233      36.893836      36.893836      36.893836    
    787000   0.58526221    -7.6310663     -6.7531855      5.1367171      50218.233      36.893836      36.893836      36.893836    
    788000   0.58783429    -7.6306782     -6.7489393      5.1468522      50218.233      36.893836      36.893836      36.893836    
    789000   0.58423164    -7.6245334     -6.7481984      5.1800027      50218.233      36.893836      36.893836      36.893836    
    790000   0.5848042     -7.624911      -6.7477172      5.1706943      50218.233      36.893836      36.893836      36.893836    
    791000   0.58444122    -7.6288148     -6.7521654      5.1469211      50218.233      36.893836      36.893836      36.893836    
    792000   0.58355465    -7.6238516     -6.748532       5.1925347      50218.233      36.893836      36.893836      36.893836    
    793000   0.58532322    -7.6251064     -6.7471341      5.1659346      50218.233      36.893836      36.893836      36.893836    
    794000   0.58382644    -7.6267515     -6.7510243      5.1745666      50218.233      36.893836      36.893836      36.893836    
    795000   0.58895683    -7.6269342     -6.7435115      5.1636894      50218.233      36.893836      36.893836      36.893836    
    796000   0.58346199    -7.6291457     -6.7539651      5.1492021      50218.233      36.893836      36.893836      36.893836    
    797000   0.58472358    -7.6275868     -6.7505139      5.1560436      50218.233      36.893836      36.893836      36.893836    
    798000   0.58568004    -7.631118      -6.7526104      5.1293589      50218.233      36.893836      36.893836      36.893836    
    799000   0.58671154    -7.6282271     -6.7481724      5.1553701      50218.233      36.893836      36.893836      36.893836    
    800000   0.58468585    -7.6253973     -6.748381       5.1670976      50218.233      36.893836      36.893836      36.893836    
    801000   0.58123566    -7.6290472     -6.7572061      5.1440434      50218.233      36.893836      36.893836      36.893836    
    802000   0.58477506    -7.6241432     -6.7469931      5.1885819      50218.233      36.893836      36.893836      36.893836    
    803000   0.58411725    -7.62496       -6.7487966      5.1821433      50218.233      36.893836      36.893836      36.893836    
    804000   0.58634833    -7.6273016     -6.7477916      5.1667787      50218.233      36.893836      36.893836      36.893836    
    805000   0.58064466    -7.6214535     -6.7504989      5.1868318      50218.233      36.893836      36.893836      36.893836    
    806000   0.58347653    -7.6258619     -6.7506596      5.1515481      50218.233      36.893836      36.893836      36.893836    
    807000   0.58653256    -7.6270302     -6.7472439      5.1722445      50218.233      36.893836      36.893836      36.893836    
    808000   0.58408456    -7.6209116     -6.7447972      5.2071663      50218.233      36.893836      36.893836      36.893836    
    809000   0.58596891    -7.6263844     -6.7474436      5.1618512      50218.233      36.893836      36.893836      36.893836    
    810000   0.58682395    -7.6258516     -6.7456282      5.1652812      50218.233      36.893836      36.893836      36.893836    
    811000   0.58691215    -7.624575      -6.7442193      5.1823164      50218.233      36.893836      36.893836      36.893836    
    812000   0.58588047    -7.6240431     -6.7452349      5.170638       50218.233      36.893836      36.893836      36.893836    
    813000   0.58369487    -7.629825      -6.7542951      5.1377197      50218.233      36.893836      36.893836      36.893836    
    814000   0.58678759    -7.6259892     -6.7458203      5.1736246      50218.233      36.893836      36.893836      36.893836    
    815000   0.58197021    -7.6240516     -6.7511087      5.1698733      50218.233      36.893836      36.893836      36.893836    
    816000   0.58720859    -7.6240839     -6.7432836      5.1885824      50218.233      36.893836      36.893836      36.893836    
    817000   0.58583025    -7.6212173     -6.7424844      5.2099215      50218.233      36.893836      36.893836      36.893836    
    818000   0.58486303    -7.6219328     -6.7446508      5.2090703      50218.233      36.893836      36.893836      36.893836    
    819000   0.58511456    -7.6256344     -6.747975       5.1685731      50218.233      36.893836      36.893836      36.893836    
    820000   0.58354546    -7.6284682     -6.7531625      5.1518368      50218.233      36.893836      36.893836      36.893836    
    821000   0.58518378    -7.6261597     -6.7483965      5.1603103      50218.233      36.893836      36.893836      36.893836    
    822000   0.5849573     -7.6266678     -6.7492443      5.1506799      50218.233      36.893836      36.893836      36.893836    
    823000   0.58315686    -7.6291533     -6.7544304      5.1353445      50218.233      36.893836      36.893836      36.893836    
    824000   0.58423388    -7.6332607     -6.7569224      5.1101802      50218.233      36.893836      36.893836      36.893836    
    825000   0.58319572    -7.6327596     -6.7579785      5.1208688      50218.233      36.893836      36.893836      36.893836    
    826000   0.58627186    -7.6296873     -6.7502921      5.1369626      50218.233      36.893836      36.893836      36.893836    
    827000   0.58590106    -7.6296885     -6.7508494      5.140818       50218.233      36.893836      36.893836      36.893836    
    828000   0.58374858    -7.6232104     -6.7476         5.1865226      50218.233      36.893836      36.893836      36.893836    
    829000   0.58248106    -7.628995      -6.7552859      5.1446705      50218.233      36.893836      36.893836      36.893836    
    830000   0.58496765    -7.6216752     -6.7442362      5.1943771      50218.233      36.893836      36.893836      36.893836    
    831000   0.58530226    -7.6256381     -6.7476972      5.1625392      50218.233      36.893836      36.893836      36.893836    
    832000   0.58678804    -7.6265892     -6.7464197      5.1659323      50218.233      36.893836      36.893836      36.893836    
    833000   0.58457912    -7.62557       -6.7487138      5.1658791      50218.233      36.893836      36.893836      36.893836    
    834000   0.58535796    -7.6296356     -6.7516111      5.141978       50218.233      36.893836      36.893836      36.893836    
    835000   0.58081904    -7.6253713     -6.7541551      5.1674665      50218.233      36.893836      36.893836      36.893836    
    836000   0.58507151    -7.6285828     -6.7509881      5.1545597      50218.233      36.893836      36.893836      36.893836    
    837000   0.58132999    -7.6270668     -6.7550842      5.1551254      50218.233      36.893836      36.893836      36.893836    
    838000   0.5866748     -7.6248432     -6.7448435      5.1807746      50218.233      36.893836      36.893836      36.893836    
    839000   0.58521393    -7.6293594     -6.751551       5.1423497      50218.233      36.893836      36.893836      36.893836    
    840000   0.58274731    -7.6246261     -6.7505176      5.1855625      50218.233      36.893836      36.893836      36.893836    
    841000   0.58590131    -7.6270875     -6.748248       5.1700165      50218.233      36.893836      36.893836      36.893836    
    842000   0.586355      -7.6283337     -6.7488137      5.1552553      50218.233      36.893836      36.893836      36.893836    
    843000   0.58554257    -7.6296073     -6.7513059      5.1456442      50218.233      36.893836      36.893836      36.893836    
    844000   0.58391143    -7.634243      -6.7583884      5.1066371      50218.233      36.893836      36.893836      36.893836    
    845000   0.58541794    -7.6273685     -6.7492541      5.1621126      50218.233      36.893836      36.893836      36.893836    
    846000   0.58671139    -7.6276906     -6.747636       5.1643353      50218.233      36.893836      36.893836      36.893836    
    847000   0.58316839    -7.6245473     -6.7498071      5.1925843      50218.233      36.893836      36.893836      36.893836    
    848000   0.58716422    -7.631452      -6.7507182      5.1411801      50218.233      36.893836      36.893836      36.893836    
    849000   0.58816415    -7.6311754     -6.7489417      5.1244193      50218.233      36.893836      36.893836      36.893836    
    850000   0.58499134    -7.6235818     -6.7461072      5.187291       50218.233      36.893836      36.893836      36.893836    
    851000   0.58791523    -7.6247583     -6.742898       5.1875182      50218.233      36.893836      36.893836      36.893836    
    852000   0.58696323    -7.6245497     -6.7441174      5.1859717      50218.233      36.893836      36.893836      36.893836    
    853000   0.58860726    -7.6260079     -6.7431096      5.1673094      50218.233      36.893836      36.893836      36.893836    
    854000   0.58690375    -7.6225605     -6.7422174      5.1838235      50218.233      36.893836      36.893836      36.893836    
    855000   0.58428033    -7.6284761     -6.7520681      5.1611933      50218.233      36.893836      36.893836      36.893836    
    856000   0.58407777    -7.6278082     -6.751704       5.1565921      50218.233      36.893836      36.893836      36.893836    
    857000   0.58684999    -7.6267795     -6.746517       5.1633977      50218.233      36.893836      36.893836      36.893836    
    858000   0.58389849    -7.6234501     -6.7476149      5.1878441      50218.233      36.893836      36.893836      36.893836    
    859000   0.58755947    -7.6223304     -6.7410037      5.1951682      50218.233      36.893836      36.893836      36.893836    
    860000   0.58473765    -7.6277607     -6.7506667      5.1621076      50218.233      36.893836      36.893836      36.893836    
    861000   0.58597932    -7.6252854     -6.7463289      5.1802595      50218.233      36.893836      36.893836      36.893836    
    862000   0.58703502    -7.6206671     -6.7401271      5.1989568      50218.233      36.893836      36.893836      36.893836    
    863000   0.58592476    -7.6311096     -6.7522349      5.1321927      50218.233      36.893836      36.893836      36.893836    
    864000   0.58562335    -7.6264819     -6.7480594      5.1731613      50218.233      36.893836      36.893836      36.893836    
    865000   0.58416981    -7.6299264     -6.7536842      5.1529948      50218.233      36.893836      36.893836      36.893836    
    866000   0.58629719    -7.6240618     -6.7446286      5.184966       50218.233      36.893836      36.893836      36.893836    
    867000   0.58538503    -7.6270413     -6.7489762      5.15743        50218.233      36.893836      36.893836      36.893836    
    868000   0.58745091    -7.6267384     -6.7455745      5.1549768      50218.233      36.893836      36.893836      36.893836    
    869000   0.58284013    -7.6271521     -6.7529044      5.1540608      50218.233      36.893836      36.893836      36.893836    
    870000   0.58494102    -7.6251956     -6.7477965      5.1770796      50218.233      36.893836      36.893836      36.893836    
    871000   0.58739451    -7.6275587     -6.7464794      5.1575965      50218.233      36.893836      36.893836      36.893836    
    872000   0.58501985    -7.6253407     -6.7478234      5.1829759      50218.233      36.893836      36.893836      36.893836    
    873000   0.58389322    -7.6315357     -6.7557083      5.1306322      50218.233      36.893836      36.893836      36.893836    
    874000   0.58118723    -7.6262646     -6.7544962      5.1638443      50218.233      36.893836      36.893836      36.893836    
    875000   0.58482941    -7.6291054     -6.7518738      5.1426035      50218.233      36.893836      36.893836      36.893836    
    876000   0.58345755    -7.6332462     -6.7580723      5.1195979      50218.233      36.893836      36.893836      36.893836    
    877000   0.5841271     -7.6254703     -6.7492921      5.174512       50218.233      36.893836      36.893836      36.893836    
    878000   0.58717229    -7.6297843     -6.7490384      5.1442985      50218.233      36.893836      36.893836      36.893836    
    879000   0.58424344    -7.6256857     -6.749333       5.1747689      50218.233      36.893836      36.893836      36.893836    
    880000   0.58598524    -7.6223868     -6.7434215      5.1930392      50218.233      36.893836      36.893836      36.893836    
    881000   0.58515498    -7.6269704     -6.7492504      5.1693513      50218.233      36.893836      36.893836      36.893836    
    882000   0.58609697    -7.6238306     -6.7446977      5.1807346      50218.233      36.893836      36.893836      36.893836    
    883000   0.58212537    -7.6248275     -6.7516518      5.1770472      50218.233      36.893836      36.893836      36.893836    
    884000   0.58301478    -7.6248279     -6.7503182      5.1781864      50218.233      36.893836      36.893836      36.893836    
    885000   0.58274905    -7.6305744     -6.7564632      5.1171839      50218.233      36.893836      36.893836      36.893836    
    886000   0.58381329    -7.6318695     -6.756162       5.1092608      50218.233      36.893836      36.893836      36.893836    
    887000   0.58558172    -7.6308587     -6.7524986      5.1380569      50218.233      36.893836      36.893836      36.893836    
    888000   0.58645281    -7.6284949     -6.7488282      5.1463803      50218.233      36.893836      36.893836      36.893836    
    889000   0.58663095    -7.6266343     -6.7467004      5.1648475      50218.233      36.893836      36.893836      36.893836    
    890000   0.58529934    -7.6283021     -6.7503656      5.1585342      50218.233      36.893836      36.893836      36.893836    
    891000   0.58804118    -7.6274624     -6.7454131      5.1641855      50218.233      36.893836      36.893836      36.893836    
    892000   0.58480614    -7.6293069     -6.7521102      5.1454048      50218.233      36.893836      36.893836      36.893836    
    893000   0.58383407    -7.6326863     -6.7569477      5.1142767      50218.233      36.893836      36.893836      36.893836    
    894000   0.58343149    -7.6360258     -6.760891       5.09454        50218.233      36.893836      36.893836      36.893836    
    895000   0.58811242    -7.6318327     -6.7496767      5.1274413      50218.233      36.893836      36.893836      36.893836    
    896000   0.58678414    -7.6294097     -6.749246       5.1353891      50218.233      36.893836      36.893836      36.893836    
    897000   0.5835367     -7.630296      -6.7550034      5.1275522      50218.233      36.893836      36.893836      36.893836    
    898000   0.58452543    -7.6313658     -6.7545902      5.1329025      50218.233      36.893836      36.893836      36.893836    
    899000   0.58582477    -7.6296207     -6.750896       5.1334526      50218.233      36.893836      36.893836      36.893836    
    900000   0.58511245    -7.6276596     -6.7500034      5.1484515      50218.233      36.893836      36.893836      36.893836    
    901000   0.58431149    -7.6357041     -6.7592494      5.1002901      50218.233      36.893836      36.893836      36.893836    
    902000   0.58376462    -7.6289687     -6.7533343      5.1482783      50218.233      36.893836      36.893836      36.893836    
    903000   0.58961698    -7.6318364     -6.7474235      5.1240515      50218.233      36.893836      36.893836      36.893836    
    904000   0.58581493    -7.6265162     -6.7478063      5.16775        50218.233      36.893836      36.893836      36.893836    
    905000   0.58700608    -7.6267588     -6.7462622      5.1642018      50218.233      36.893836      36.893836      36.893836    
    906000   0.58730589    -7.6292575     -6.7483112      5.1541498      50218.233      36.893836      36.893836      36.893836    
    907000   0.58616967    -7.6298167     -6.7505746      5.1399562      50218.233      36.893836      36.893836      36.893836    
    908000   0.58300916    -7.622226      -6.7477247      5.1983973      50218.233      36.893836      36.893836      36.893836    
    909000   0.58442615    -7.6300376     -6.7534108      5.133875       50218.233      36.893836      36.893836      36.893836    
    910000   0.5827791     -7.6325462     -6.75839        5.1102962      50218.233      36.893836      36.893836      36.893836    
    911000   0.58817343    -7.6308195     -6.7485719      5.140802       50218.233      36.893836      36.893836      36.893836    
    912000   0.58425827    -7.6331135     -6.7567385      5.1151704      50218.233      36.893836      36.893836      36.893836    
    913000   0.58256065    -7.6261591     -6.7523306      5.1613232      50218.233      36.893836      36.893836      36.893836    
    914000   0.58588431    -7.6251032     -6.7462892      5.1747964      50218.233      36.893836      36.893836      36.893836    
    915000   0.58285253    -7.629081      -6.7548146      5.1300619      50218.233      36.893836      36.893836      36.893836    
    916000   0.58582842    -7.6280776     -6.7493474      5.1568837      50218.233      36.893836      36.893836      36.893836    
    917000   0.5845328     -7.6272452     -6.7504585      5.1504565      50218.233      36.893836      36.893836      36.893836    
    918000   0.58616663    -7.6292357     -6.7499983      5.1463952      50218.233      36.893836      36.893836      36.893836    
    919000   0.58296199    -7.6333555     -6.758925       5.109224       50218.233      36.893836      36.893836      36.893836    
    920000   0.58277237    -7.6274194     -6.7532732      5.1453801      50218.233      36.893836      36.893836      36.893836    
    921000   0.58704963    -7.6280616     -6.7474997      5.1504511      50218.233      36.893836      36.893836      36.893836    
    922000   0.58465563    -7.6298174     -6.7528465      5.1326728      50218.233      36.893836      36.893836      36.893836    
    923000   0.58124023    -7.6272419     -6.755394       5.1418895      50218.233      36.893836      36.893836      36.893836    
    924000   0.58319169    -7.6312794     -6.7565043      5.1135019      50218.233      36.893836      36.893836      36.893836    
    925000   0.58561907    -7.6286821     -6.7502659      5.1452971      50218.233      36.893836      36.893836      36.893836    
    926000   0.58442222    -7.6291754     -6.7525545      5.1390249      50218.233      36.893836      36.893836      36.893836    
    927000   0.5834724     -7.6277072     -6.7525111      5.1536881      50218.233      36.893836      36.893836      36.893836    
    928000   0.58484712    -7.6247176     -6.7474594      5.1722719      50218.233      36.893836      36.893836      36.893836    
    929000   0.58652153    -7.6354306     -6.7556609      5.0739262      50218.233      36.893836      36.893836      36.893836    
    930000   0.58193298    -7.6275988     -6.7547118      5.1543141      50218.233      36.893836      36.893836      36.893836    
    931000   0.58375119    -7.6297111     -6.7540968      5.1369859      50218.233      36.893836      36.893836      36.893836    
    932000   0.58335256    -7.6300322     -6.7550158      5.1302855      50218.233      36.893836      36.893836      36.893836    
    933000   0.58874599    -7.6269018     -6.7437954      5.1575355      50218.233      36.893836      36.893836      36.893836    
    934000   0.58504021    -7.6226922     -6.7451443      5.1878148      50218.233      36.893836      36.893836      36.893836    
    935000   0.58816687    -7.6280336     -6.7457959      5.1491118      50218.233      36.893836      36.893836      36.893836    
    936000   0.58177802    -7.6327305     -6.7600758      5.1124611      50218.233      36.893836      36.893836      36.893836    
    937000   0.58635247    -7.6273482     -6.747832       5.166006       50218.233      36.893836      36.893836      36.893836    
    938000   0.58531586    -7.6301157     -6.7521544      5.1483567      50218.233      36.893836      36.893836      36.893836    
    939000   0.58559514    -7.6292636     -6.7508834      5.140648       50218.233      36.893836      36.893836      36.893836    
    940000   0.58521783    -7.6285392     -6.7507249      5.1518954      50218.233      36.893836      36.893836      36.893836    
    941000   0.5867326     -7.6266884     -6.746602       5.1674194      50218.233      36.893836      36.893836      36.893836    
    942000   0.58585175    -7.6220639     -6.7432988      5.1941007      50218.233      36.893836      36.893836      36.893836    
    943000   0.58654365    -7.626384      -6.746581       5.1570058      50218.233      36.893836      36.893836      36.893836    
    944000   0.58416634    -7.6251251     -6.7488881      5.1632149      50218.233      36.893836      36.893836      36.893836    
    945000   0.58213703    -7.6240459     -6.7508528      5.1754573      50218.233      36.893836      36.893836      36.893836    
    946000   0.58536885    -7.6269793     -6.7489385      5.1592039      50218.233      36.893836      36.893836      36.893836    
    947000   0.58366235    -7.6253798     -6.7498988      5.1724442      50218.233      36.893836      36.893836      36.893836    
    948000   0.58565844    -7.6310525     -6.7525773      5.1404909      50218.233      36.893836      36.893836      36.893836    
    949000   0.58541611    -7.6278609     -6.7497492      5.1408636      50218.233      36.893836      36.893836      36.893836    
    950000   0.581391      -7.623183      -6.7511089      5.1766534      50218.233      36.893836      36.893836      36.893836    
    951000   0.58726589    -7.6223783     -6.741492       5.2015056      50218.233      36.893836      36.893836      36.893836    
    952000   0.58707899    -7.6221552     -6.7415492      5.2051848      50218.233      36.893836      36.893836      36.893836    
    953000   0.58603363    -7.6268097     -6.7477718      5.1652287      50218.233      36.893836      36.893836      36.893836    
    954000   0.58283492    -7.628742      -6.7545021      5.1443832      50218.233      36.893836      36.893836      36.893836    
    955000   0.58346292    -7.6286978     -6.7535158      5.144314       50218.233      36.893836      36.893836      36.893836    
    956000   0.58560468    -7.6259471     -6.7475526      5.1725008      50218.233      36.893836      36.893836      36.893836    
    957000   0.58473073    -7.6264905     -6.7494069      5.1648366      50218.233      36.893836      36.893836      36.893836    
    958000   0.58250185    -7.6235276     -6.7497872      5.1775899      50218.233      36.893836      36.893836      36.893836    
    959000   0.58764239    -7.6226642     -6.7412132      5.1801766      50218.233      36.893836      36.893836      36.893836    
    960000   0.58053352    -7.6203022     -6.7495143      5.2089076      50218.233      36.893836      36.893836      36.893836    
    961000   0.58493615    -7.6243255     -6.7469338      5.174422       50218.233      36.893836      36.893836      36.893836    
    962000   0.58549153    -7.6238049     -6.74558        5.1816214      50218.233      36.893836      36.893836      36.893836    
    963000   0.58397056    -7.6261101     -6.7501668      5.1624544      50218.233      36.893836      36.893836      36.893836    
    964000   0.58273025    -7.6235242     -6.7494412      5.1677631      50218.233      36.893836      36.893836      36.893836    
    965000   0.5844311     -7.6293443     -6.7527101      5.1396309      50218.233      36.893836      36.893836      36.893836    
    966000   0.58389441    -7.6315084     -6.7556792      5.1200223      50218.233      36.893836      36.893836      36.893836    
    967000   0.58333667    -7.6280466     -6.753054       5.1549311      50218.233      36.893836      36.893836      36.893836    
    968000   0.58231502    -7.6250358     -6.7515757      5.1665016      50218.233      36.893836      36.893836      36.893836    
    969000   0.58463036    -7.6264504     -6.7495173      5.1669313      50218.233      36.893836      36.893836      36.893836    
    970000   0.58508385    -7.6260089     -6.7483957      5.174444       50218.233      36.893836      36.893836      36.893836    
    971000   0.58751675    -7.6252826     -6.74402        5.1811837      50218.233      36.893836      36.893836      36.893836    
    972000   0.58578561    -7.6212706     -6.7426046      5.2144687      50218.233      36.893836      36.893836      36.893836    
    973000   0.58830696    -7.6269657     -6.7445178      5.1665236      50218.233      36.893836      36.893836      36.893836    
    974000   0.58661249    -7.6272406     -6.7473344      5.1659626      50218.233      36.893836      36.893836      36.893836    
    975000   0.5853598     -7.6293386     -6.7513114      5.1431498      50218.233      36.893836      36.893836      36.893836    
    976000   0.58240696    -7.6260884     -6.7524903      5.165544       50218.233      36.893836      36.893836      36.893836    
    977000   0.58636609    -7.6300668     -6.7505302      5.1433687      50218.233      36.893836      36.893836      36.893836    
    978000   0.58393692    -7.6249532     -6.7490603      5.1668068      50218.233      36.893836      36.893836      36.893836    
    979000   0.58437082    -7.6266789     -6.7501351      5.1631961      50218.233      36.893836      36.893836      36.893836    
    980000   0.58727458    -7.6265307     -6.7456313      5.1715043      50218.233      36.893836      36.893836      36.893836    
    981000   0.58540147    -7.6269198     -6.7488301      5.1626725      50218.233      36.893836      36.893836      36.893836    
    982000   0.58675748    -7.6253564     -6.7452327      5.1745795      50218.233      36.893836      36.893836      36.893836    
    983000   0.58265219    -7.6262751     -6.7523093      5.1608054      50218.233      36.893836      36.893836      36.893836    
    984000   0.58760479    -7.6266539     -6.7452592      5.1786162      50218.233      36.893836      36.893836      36.893836    
    985000   0.58653403    -7.6219855     -6.742197       5.1944821      50218.233      36.893836      36.893836      36.893836    
    986000   0.58227688    -7.6297998     -6.756397       5.1329843      50218.233      36.893836      36.893836      36.893836    
    987000   0.58407178    -7.6254453     -6.7493501      5.1682077      50218.233      36.893836      36.893836      36.893836    
    988000   0.58474737    -7.6249087     -6.7478002      5.1765205      50218.233      36.893836      36.893836      36.893836    
    989000   0.5884737     -7.6244596     -6.7417616      5.1827262      50218.233      36.893836      36.893836      36.893836    
    990000   0.58740576    -7.6254428     -6.7443467      5.1806122      50218.233      36.893836      36.893836      36.893836    
    991000   0.58663372    -7.6280328     -6.7480948      5.1594113      50218.233      36.893836      36.893836      36.893836    
    992000   0.58487342    -7.6246706     -6.7473729      5.1698298      50218.233      36.893836      36.893836      36.893836    
    993000   0.58597747    -7.6275132     -6.7485595      5.1637805      50218.233      36.893836      36.893836      36.893836    
    994000   0.58498161    -7.63211       -6.7546501      5.1234775      50218.233      36.893836      36.893836      36.893836    
    995000   0.58730892    -7.6299674     -6.7490166      5.1387         50218.233      36.893836      36.893836      36.893836    
    996000   0.58627447    -7.6318916     -6.7524924      5.1363443      50218.233      36.893836      36.893836      36.893836    
    997000   0.58534626    -7.627139      -6.7491321      5.1756971      50218.233      36.893836      36.893836      36.893836    
    998000   0.58419566    -7.626133      -6.749852       5.1835602      50218.233      36.893836      36.893836      36.893836    
    999000   0.58148048    -7.6234844     -6.7512761      5.1964259      50218.233      36.893836      36.893836      36.893836    
   1000000   0.58483268    -7.62243       -6.7451935      5.1987988      50218.233      36.893836      36.893836      36.893836    
Loop time of 4359.07 on 1 procs for 1000000 steps with 70304 atoms

Performance: 198207.261 tau/day, 229.407 timesteps/s, 16.128 Matom-step/s
100.0% CPU use with 1 MPI tasks x 1 OpenMP threads

MPI task timing breakdown:
Section |  min time  |  avg time  |  max time  |%varavg| %total
---------------------------------------------------------------
Pair    | 1040.7     | 1040.7     | 1040.7     |   0.0 | 23.87
Neigh   | 40.186     | 40.186     | 40.186     |   0.0 |  0.92
Comm    | 546.27     | 546.27     | 546.27     |   0.0 | 12.53
Output  | 0.74868    | 0.74868    | 0.74868    |   0.0 |  0.02
Modify  | 2296.3     | 2296.3     | 2296.3     |   0.0 | 52.68
Other   |            | 434.9      |            |       |  9.98

Nlocal:          70304 ave       70304 max       70304 min
Histogram: 1 0 0 0 0 0 0 0 0 0
Nghost:          37153 ave       37153 max       37153 min
Histogram: 1 0 0 0 0 0 0 0 0 0
Neighs:              0 ave           0 max           0 min
Histogram: 1 0 0 0 0 0 0 0 0 0

Total # of neighbors = 0
Ave neighs/atom = 0
Neighbor list builds = 227503
Dangerous builds = 0
clear
OMP_NUM_THREADS environment is not set. Defaulting to 1 thread. (src/comm.cpp:98)
  using 1 OpenMP thread(s) per MPI task
package gpu 0
jump dms575.lmp

variable T equal 575
# T = 1000* (temp in LJ unit)
variable f equal 1000
log log.${T}
log log.575
