variable TLJ equal (${T}/1000)
variable TLJ equal (300/1000)
variable NCyle equal 10
variable iStep equal (${f})
variable iStep equal (1000)
variable dumpStep equal (${f}*100)
variable dumpStep equal (1000*100)
variable runStep equal (${f}*100*${NCyle})
variable runStep equal (1000*100*${NCyle})
variable runStep equal (1000*100*10)

units       lj
atom_style  atomic
dimension 3
boundary     p p p
pair_style  lj/cut 2.5
read_data  ../data/T${T}.dat
read_data  ../data/T300.dat
Reading data file ...
  orthogonal box = (0.97250269 0.97250269 0.97250269) to (37.866338 37.866338 37.866338)
  1 by 2 by 2 MPI processor grid
  reading atoms ...
  70304 atoms
  reading velocities ...
  70304 velocities
  read_data CPU = 0.189 seconds
change_box all triclinic
Changing box ...
  triclinic box = (0.97250269 0.97250269 0.97250269) to (37.866338 37.866338 37.866338) with tilt (0 0 0)
mass 1 1
mass 2 1
pair_modify shift yes
pair_coeff  1 1 1 1
pair_coeff  1 2 1.5 0.8
pair_coeff  2 2 0.5 0.88


timestep 0.01
thermo ${iStep}
thermo 1000
reset_timestep 0
thermo_style custom step temp pe etotal press vol lx ly lz
fix             1 all nvt temp ${TLJ}  ${TLJ}  0.1
fix             1 all nvt temp 0.3  ${TLJ}  0.1
fix             1 all nvt temp 0.3  0.3  0.1
thermo_modify flush yes

fix dsf all deform 1 xy  wiggle 0.5  ${f}   units box
fix dsf all deform 1 xy  wiggle 0.5  1000   units box
fix ps1 all ave/time 1 1 ${iStep} c_thermo_press[1] c_thermo_press[2]  c_thermo_press[3] c_thermo_press[4]  c_thermo_press[5] c_thermo_press[6]  file  stress.${T}
fix ps1 all ave/time 1 1 1000 c_thermo_press[1] c_thermo_press[2]  c_thermo_press[3] c_thermo_press[4]  c_thermo_press[5] c_thermo_press[6]  file  stress.${T}
fix ps1 all ave/time 1 1 1000 c_thermo_press[1] c_thermo_press[2]  c_thermo_press[3] c_thermo_press[4]  c_thermo_press[5] c_thermo_press[6]  file  stress.300
dump            1 all custom ${dumpStep} dump.${T} id type x y z
dump            1 all custom 100000 dump.${T} id type x y z
dump            1 all custom 100000 dump.300 id type x y z
dump_modify 1 sort id
fix nodrift all momentum 1  linear 1 1 1
fix com_seed all recenter INIT INIT INIT shift all
run ${runStep}
run 1000000
Generated 0 of 1 mixed pair_coeff terms from geometric mixing rule
Per MPI rank memory allocation (min/avg/max) = 8.611 | 8.612 | 8.614 Mbytes
   Step          Temp          PotEng         TotEng         Press          Volume           Lx             Ly             Lz      
         0   0.30034515    -8.1416212     -7.6911099      0.95878446     50218.233      36.893836      36.893836      36.893836    
      1000   0.2990729     -8.1353705     -7.6867675      1.014874       50218.233      36.893836      36.893836      36.893836    
      2000   0.2993961     -8.1373705     -7.6882827      0.99084938     50218.233      36.893836      36.893836      36.893836    
      3000   0.29947085    -8.1339543     -7.6847544      1.0040873      50218.233      36.893836      36.893836      36.893836    
      4000   0.2994078     -8.1358231     -7.6867178      1.0037977      50218.233      36.893836      36.893836      36.893836    
      5000   0.30043154    -8.1364598     -7.6858189      0.99493325     50218.233      36.893836      36.893836      36.893836    
      6000   0.30027486    -8.136386      -7.6859802      0.99096951     50218.233      36.893836      36.893836      36.893836    
      7000   0.29974986    -8.1374835     -7.6878651      0.98277026     50218.233      36.893836      36.893836      36.893836    
      8000   0.29823083    -8.1367065     -7.6893666      0.99816787     50218.233      36.893836      36.893836      36.893836    
      9000   0.29999197    -8.1355545     -7.685573       1.0074694      50218.233      36.893836      36.893836      36.893836    
     10000   0.30140685    -8.135562      -7.6834582      1.0010964      50218.233      36.893836      36.893836      36.893836    
     11000   0.29922469    -8.1363781     -7.6875474      0.99838468     50218.233      36.893836      36.893836      36.893836    
     12000   0.29984029    -8.1349479     -7.6851939      1.0126006      50218.233      36.893836      36.893836      36.893836    
     13000   0.30233449    -8.1362693     -7.682774       0.9989582      50218.233      36.893836      36.893836      36.893836    
     14000   0.30056613    -8.1361133     -7.6852706      0.99692193     50218.233      36.893836      36.893836      36.893836    
     15000   0.30041007    -8.1368896     -7.6862809      0.98454138     50218.233      36.893836      36.893836      36.893836    
     16000   0.29964186    -8.1379374     -7.688481       0.99341633     50218.233      36.893836      36.893836      36.893836    
     17000   0.29885826    -8.137084      -7.688803       0.9877748      50218.233      36.893836      36.893836      36.893836    
     18000   0.29986188    -8.1369504     -7.687164       0.98776316     50218.233      36.893836      36.893836      36.893836    
     19000   0.3016281     -8.1350322     -7.6825965      1.0079495      50218.233      36.893836      36.893836      36.893836    
     20000   0.29983535    -8.1360983     -7.6863517      0.99760648     50218.233      36.893836      36.893836      36.893836    
     21000   0.29906624    -8.1350609     -7.6864679      1.0020952      50218.233      36.893836      36.893836      36.893836    
     22000   0.29925484    -8.1345922     -7.6857163      1.0090474      50218.233      36.893836      36.893836      36.893836    
     23000   0.300009      -8.1360724     -7.6860653      1.0013623      50218.233      36.893836      36.893836      36.893836    
     24000   0.30000213    -8.1331298     -7.683133       1.0236733      50218.233      36.893836      36.893836      36.893836    
     25000   0.29965517    -8.135932      -7.6864557      1.0027769      50218.233      36.893836      36.893836      36.893836    
     26000   0.29952542    -8.1351575     -7.6858758      1.0003057      50218.233      36.893836      36.893836      36.893836    
     27000   0.30109429    -8.136178      -7.684543       0.99808137     50218.233      36.893836      36.893836      36.893836    
     28000   0.30157877    -8.1343596     -7.6819979      1.0212133      50218.233      36.893836      36.893836      36.893836    
     29000   0.29958657    -8.1342943     -7.6849209      1.0182111      50218.233      36.893836      36.893836      36.893836    
     30000   0.29994577    -8.1369506     -7.6870384      1.0023611      50218.233      36.893836      36.893836      36.893836    
     31000   0.30117314    -8.1356578     -7.6839045      1.0029219      50218.233      36.893836      36.893836      36.893836    
     32000   0.29843882    -8.1347824     -7.6871305      1.008919       50218.233      36.893836      36.893836      36.893836    
     33000   0.29893106    -8.1360622     -7.6876719      0.99912198     50218.233      36.893836      36.893836      36.893836    
     34000   0.30029338    -8.1359582     -7.6855245      0.99603442     50218.233      36.893836      36.893836      36.893836    
     35000   0.29988088    -8.135253      -7.685438       1.0050681      50218.233      36.893836      36.893836      36.893836    
     36000   0.29954153    -8.136408      -7.6871021      1.0004985      50218.233      36.893836      36.893836      36.893836    
     37000   0.29974081    -8.1339612     -7.6843564      1.0161258      50218.233      36.893836      36.893836      36.893836    
     38000   0.30026408    -8.1343431     -7.6839534      1.015234       50218.233      36.893836      36.893836      36.893836    
     39000   0.30100006    -8.134818      -7.6833244      1.0083677      50218.233      36.893836      36.893836      36.893836    
     40000   0.29961406    -8.1383893     -7.6889746      0.98682503     50218.233      36.893836      36.893836      36.893836    
     41000   0.29942158    -8.1365539     -7.6874279      0.99824161     50218.233      36.893836      36.893836      36.893836    
     42000   0.30062381    -8.1367222     -7.6857929      0.99523444     50218.233      36.893836      36.893836      36.893836    
     43000   0.29929372    -8.1341696     -7.6852354      1.0167334      50218.233      36.893836      36.893836      36.893836    
     44000   0.2994966     -8.1362729     -7.6870344      0.99485269     50218.233      36.893836      36.893836      36.893836    
     45000   0.30048932    -8.1365207     -7.6857931      0.99976916     50218.233      36.893836      36.893836      36.893836    
     46000   0.29956609    -8.1371268     -7.687784       0.98605662     50218.233      36.893836      36.893836      36.893836    
     47000   0.29811318    -8.1397384     -7.6925749      0.97250108     50218.233      36.893836      36.893836      36.893836    
     48000   0.2994825     -8.1375848     -7.6883675      0.99177956     50218.233      36.893836      36.893836      36.893836    
     49000   0.30150787    -8.136606      -7.6843506      0.99964679     50218.233      36.893836      36.893836      36.893836    
     50000   0.30057846    -8.1368858     -7.6860245      0.99557924     50218.233      36.893836      36.893836      36.893836    
     51000   0.30172136    -8.137747      -7.6851714      0.98959207     50218.233      36.893836      36.893836      36.893836    
     52000   0.29861198    -8.1379726     -7.690061       0.98192237     50218.233      36.893836      36.893836      36.893836    
     53000   0.29996867    -8.1365508     -7.6866042      0.99962513     50218.233      36.893836      36.893836      36.893836    
     54000   0.30075203    -8.1367196     -7.685598       0.99246589     50218.233      36.893836      36.893836      36.893836    
     55000   0.30070559    -8.1369375     -7.6858855      0.98845011     50218.233      36.893836      36.893836      36.893836    
     56000   0.30083655    -8.1358657     -7.6846173      1.0009299      50218.233      36.893836      36.893836      36.893836    
     57000   0.30023984    -8.1362036     -7.6858503      0.99610058     50218.233      36.893836      36.893836      36.893836    
     58000   0.30069411    -8.1359089     -7.6848742      0.99798155     50218.233      36.893836      36.893836      36.893836    
     59000   0.2991127     -8.1368546     -7.6881919      0.99720375     50218.233      36.893836      36.893836      36.893836    
     60000   0.29934138    -8.1357839     -7.6867783      0.99146324     50218.233      36.893836      36.893836      36.893836    
     61000   0.30043294    -8.1360664     -7.6854234      0.9926098      50218.233      36.893836      36.893836      36.893836    
     62000   0.30024349    -8.1371234     -7.6867646      0.99834514     50218.233      36.893836      36.893836      36.893836    
     63000   0.30100847    -8.1360311     -7.6845248      1.0114565      50218.233      36.893836      36.893836      36.893836    
     64000   0.2993596     -8.1364427     -7.6874097      0.99239426     50218.233      36.893836      36.893836      36.893836    
     65000   0.2996121     -8.1358664     -7.6864547      0.9934761      50218.233      36.893836      36.893836      36.893836    
     66000   0.29987474    -8.1359282     -7.6861225      1.0014625      50218.233      36.893836      36.893836      36.893836    
     67000   0.30113353    -8.1365034     -7.6848095      1.0011289      50218.233      36.893836      36.893836      36.893836    
     68000   0.30019075    -8.133813      -7.6835333      1.0152364      50218.233      36.893836      36.893836      36.893836    
     69000   0.3006424     -8.1363106     -7.6853535      0.99441535     50218.233      36.893836      36.893836      36.893836    
     70000   0.30085307    -8.134634      -7.6833608      1.0150098      50218.233      36.893836      36.893836      36.893836    
     71000   0.30020125    -8.1350717     -7.6847762      1.0102143      50218.233      36.893836      36.893836      36.893836    
     72000   0.29900556    -8.1363717     -7.6878697      0.99088555     50218.233      36.893836      36.893836      36.893836    
     73000   0.30119212    -8.1364135     -7.6846317      1.0001663      50218.233      36.893836      36.893836      36.893836    
     74000   0.30149084    -8.1350367     -7.6828069      1.0136383      50218.233      36.893836      36.893836      36.893836    
     75000   0.29999653    -8.1352433     -7.6852549      0.99985351     50218.233      36.893836      36.893836      36.893836    
     76000   0.30021541    -8.1349263     -7.6846096      1.0143021      50218.233      36.893836      36.893836      36.893836    
     77000   0.30100572    -8.1331623     -7.6816602      1.025402       50218.233      36.893836      36.893836      36.893836    
     78000   0.29810202    -8.1360327     -7.688886       0.99713824     50218.233      36.893836      36.893836      36.893836    
     79000   0.30168773    -8.136712      -7.6841868      0.99583276     50218.233      36.893836      36.893836      36.893836    
     80000   0.30026078    -8.1341378     -7.683753       1.0196455      50218.233      36.893836      36.893836      36.893836    
     81000   0.30030851    -8.1344239     -7.6839676      1.0202873      50218.233      36.893836      36.893836      36.893836    
     82000   0.2996654     -8.1345864     -7.6850947      1.0215227      50218.233      36.893836      36.893836      36.893836    
     83000   0.30071801    -8.1366105     -7.6855399      0.99652766     50218.233      36.893836      36.893836      36.893836    
     84000   0.30095864    -8.1355274     -7.6840959      1.0063897      50218.233      36.893836      36.893836      36.893836    
     85000   0.30000256    -8.1362225     -7.686225       1.0008077      50218.233      36.893836      36.893836      36.893836    
     86000   0.29814731    -8.1357349     -7.6885203      0.99925089     50218.233      36.893836      36.893836      36.893836    
     87000   0.30101801    -8.1364899     -7.6849693      0.99204147     50218.233      36.893836      36.893836      36.893836    
     88000   0.29918559    -8.1359464     -7.6871744      1.0028394      50218.233      36.893836      36.893836      36.893836    
     89000   0.30063732    -8.1364194     -7.6854699      0.99130076     50218.233      36.893836      36.893836      36.893836    
     90000   0.29776199    -8.1368687     -7.6902321      0.99694273     50218.233      36.893836      36.893836      36.893836    
     91000   0.30056759    -8.1370802     -7.6862352      0.98389913     50218.233      36.893836      36.893836      36.893836    
     92000   0.30076108    -8.138157      -7.6870218      0.9900146      50218.233      36.893836      36.893836      36.893836    
     93000   0.30035899    -8.1368638     -7.6863317      0.98817294     50218.233      36.893836      36.893836      36.893836    
     94000   0.29862185    -8.1343589     -7.6864325      1.0083267      50218.233      36.893836      36.893836      36.893836    
     95000   0.29897672    -8.1371521     -7.6886934      0.98642963     50218.233      36.893836      36.893836      36.893836    
     96000   0.29967067    -8.1351265     -7.6856269      1.0093973      50218.233      36.893836      36.893836      36.893836    
     97000   0.30076898    -8.136273      -7.6851259      0.99587241     50218.233      36.893836      36.893836      36.893836    
     98000   0.30165715    -8.1352195     -7.6827402      1.0063281      50218.233      36.893836      36.893836      36.893836    
     99000   0.29989171    -8.1364407     -7.6866096      1.0021228      50218.233      36.893836      36.893836      36.893836    
    100000   0.30109182    -8.1381932     -7.6865619      0.97970969     50218.233      36.893836      36.893836      36.893836    
    101000   0.29999497    -8.1361757     -7.6861896      0.99498563     50218.233      36.893836      36.893836      36.893836    
    102000   0.30002484    -8.1372868     -7.6872559      0.98920727     50218.233      36.893836      36.893836      36.893836    
    103000   0.29990327    -8.1366092     -7.6867607      0.99538256     50218.233      36.893836      36.893836      36.893836    
    104000   0.29984021    -8.1379019     -7.688148       0.9914891      50218.233      36.893836      36.893836      36.893836    
    105000   0.300086      -8.1354827     -7.6853601      1.0016753      50218.233      36.893836      36.893836      36.893836    
    106000   0.30011479    -8.1364211     -7.6862554      0.99559952     50218.233      36.893836      36.893836      36.893836    
    107000   0.29897322    -8.1399057     -7.6914523      0.97672026     50218.233      36.893836      36.893836      36.893836    
    108000   0.29965093    -8.1380418     -7.6885718      0.99067279     50218.233      36.893836      36.893836      36.893836    
    109000   0.30039122    -8.1363918     -7.6858114      0.99726007     50218.233      36.893836      36.893836      36.893836    
    110000   0.29892779    -8.1372451     -7.6888598      0.98774296     50218.233      36.893836      36.893836      36.893836    
    111000   0.30089529    -8.1366228     -7.6852863      1.0003555      50218.233      36.893836      36.893836      36.893836    
    112000   0.3014937     -8.1349604     -7.6827263      1.017995       50218.233      36.893836      36.893836      36.893836    
    113000   0.29984176    -8.1349962     -7.68524        1.0110721      50218.233      36.893836      36.893836      36.893836    
    114000   0.30121314    -8.1357979     -7.6839846      1.0067938      50218.233      36.893836      36.893836      36.893836    
    115000   0.29967355    -8.1339525     -7.6844485      1.0152224      50218.233      36.893836      36.893836      36.893836    
    116000   0.30196077    -8.135197      -7.6822623      1.0111881      50218.233      36.893836      36.893836      36.893836    
    117000   0.29870261    -8.1385496     -7.6905021      0.97662559     50218.233      36.893836      36.893836      36.893836    
    118000   0.30005985    -8.1373703     -7.6872869      0.98948431     50218.233      36.893836      36.893836      36.893836    
    119000   0.30037696    -8.1334978     -7.6829388      1.0260417      50218.233      36.893836      36.893836      36.893836    
    120000   0.30023692    -8.1356571     -7.6853082      1.0083072      50218.233      36.893836      36.893836      36.893836    
    121000   0.30028327    -8.1354829     -7.6850644      0.99599673     50218.233      36.893836      36.893836      36.893836    
    122000   0.29948397    -8.1347206     -7.6855011      1.0072991      50218.233      36.893836      36.893836      36.893836    
    123000   0.30061647    -8.1336338     -7.6827155      1.0140264      50218.233      36.893836      36.893836      36.893836    
    124000   0.30006521    -8.1363154     -7.686224       0.99925958     50218.233      36.893836      36.893836      36.893836    
    125000   0.30161275    -8.1364121     -7.6839994      0.99281223     50218.233      36.893836      36.893836      36.893836    
    126000   0.29863914    -8.1353953     -7.687443       1.0062623      50218.233      36.893836      36.893836      36.893836    
    127000   0.30131682    -8.1336833     -7.6817145      1.0180383      50218.233      36.893836      36.893836      36.893836    
    128000   0.2979145     -8.1344893     -7.6876239      1.0057296      50218.233      36.893836      36.893836      36.893836    
    129000   0.30086649    -8.1359213     -7.684628       1.0051306      50218.233      36.893836      36.893836      36.893836    
    130000   0.30027287    -8.1346406     -7.6842377      1.0084075      50218.233      36.893836      36.893836      36.893836    
    131000   0.30023354    -8.135434      -7.68509        1.015591       50218.233      36.893836      36.893836      36.893836    
    132000   0.29999031    -8.1361968     -7.6862178      0.99649655     50218.233      36.893836      36.893836      36.893836    
    133000   0.29957261    -8.1337755     -7.684423       1.0257714      50218.233      36.893836      36.893836      36.893836    
    134000   0.30123611    -8.1344736     -7.6826258      1.0171081      50218.233      36.893836      36.893836      36.893836    
    135000   0.30067655    -8.1350975     -7.6840891      1.0085051      50218.233      36.893836      36.893836      36.893836    
    136000   0.3005031     -8.1382307     -7.6874825      0.98981191     50218.233      36.893836      36.893836      36.893836    
    137000   0.30093574    -8.134821      -7.6834238      1.0102048      50218.233      36.893836      36.893836      36.893836    
    138000   0.30005959    -8.135698      -7.685615       1.0026348      50218.233      36.893836      36.893836      36.893836    
    139000   0.29976688    -8.1351389     -7.685495       1.0093254      50218.233      36.893836      36.893836      36.893836    
    140000   0.30054647    -8.1373986     -7.6865853      0.99521931     50218.233      36.893836      36.893836      36.893836    
    141000   0.30006984    -8.1362185     -7.6861202      1.0051169      50218.233      36.893836      36.893836      36.893836    
    142000   0.29975974    -8.1349778     -7.6853446      1.0031901      50218.233      36.893836      36.893836      36.893836    
    143000   0.29903897    -8.1362202     -7.6876681      1.0009297      50218.233      36.893836      36.893836      36.893836    
    144000   0.29898959    -8.1391541     -7.6906761      0.98261723     50218.233      36.893836      36.893836      36.893836    
    145000   0.300361      -8.1370112     -7.6864761      0.99065079     50218.233      36.893836      36.893836      36.893836    
    146000   0.29927714    -8.136763      -7.6878537      0.99002904     50218.233      36.893836      36.893836      36.893836    
    147000   0.299449      -8.1365213     -7.6873542      0.98719335     50218.233      36.893836      36.893836      36.893836    
    148000   0.30007631    -8.1339863     -7.6838782      1.0129746      50218.233      36.893836      36.893836      36.893836    
    149000   0.299378      -8.1363187     -7.687258       1.0012104      50218.233      36.893836      36.893836      36.893836    
    150000   0.30091304    -8.1363534     -7.6849903      1.0037457      50218.233      36.893836      36.893836      36.893836    
    151000   0.30109767    -8.1361596     -7.6845195      0.99319056     50218.233      36.893836      36.893836      36.893836    
    152000   0.30004196    -8.1361491     -7.6860926      1.0043974      50218.233      36.893836      36.893836      36.893836    
    153000   0.30252987    -8.1368382     -7.6830498      1.0006695      50218.233      36.893836      36.893836      36.893836    
    154000   0.29991046    -8.1350511     -7.6851918      1.0135053      50218.233      36.893836      36.893836      36.893836    
    155000   0.30020778    -8.1366974     -7.6863921      1.0006588      50218.233      36.893836      36.893836      36.893836    
    156000   0.30047768    -8.1387573     -7.6880472      0.9780157      50218.233      36.893836      36.893836      36.893836    
    157000   0.29799652    -8.1384038     -7.6914154      0.98269576     50218.233      36.893836      36.893836      36.893836    
    158000   0.30097463    -8.1352118     -7.6837563      1.0011455      50218.233      36.893836      36.893836      36.893836    
    159000   0.29878554    -8.1369436     -7.6887717      1.0004947      50218.233      36.893836      36.893836      36.893836    
    160000   0.30205155    -8.1367474     -7.6836766      0.99948054     50218.233      36.893836      36.893836      36.893836    
    161000   0.30116194    -8.1364065     -7.68467        1.0031383      50218.233      36.893836      36.893836      36.893836    
    162000   0.30088208    -8.1373312     -7.6860145      0.99630749     50218.233      36.893836      36.893836      36.893836    
    163000   0.30057342    -8.1367134     -7.6858597      0.99685421     50218.233      36.893836      36.893836      36.893836    
    164000   0.29955036    -8.1352529     -7.6859338      1.0068118      50218.233      36.893836      36.893836      36.893836    
    165000   0.30085229    -8.1324413     -7.6811693      1.0267458      50218.233      36.893836      36.893836      36.893836    
    166000   0.2991641     -8.1351235     -7.6863837      1.004799       50218.233      36.893836      36.893836      36.893836    
    167000   0.30003867    -8.1337818     -7.6837302      1.0216701      50218.233      36.893836      36.893836      36.893836    
    168000   0.29968449    -8.1335063     -7.6839859      1.0197525      50218.233      36.893836      36.893836      36.893836    
    169000   0.30012954    -8.1357811     -7.6855932      0.99745646     50218.233      36.893836      36.893836      36.893836    
    170000   0.30049433    -8.133033      -7.6822979      1.0278387      50218.233      36.893836      36.893836      36.893836    
    171000   0.29894147    -8.1365548     -7.6881489      0.99558377     50218.233      36.893836      36.893836      36.893836    
    172000   0.29982526    -8.1365672     -7.6868357      0.9957415      50218.233      36.893836      36.893836      36.893836    
    173000   0.29949225    -8.1330715     -7.6838395      1.0176082      50218.233      36.893836      36.893836      36.893836    
    174000   0.30066509    -8.1345205     -7.6835292      1.00413        50218.233      36.893836      36.893836      36.893836    
    175000   0.29718686    -8.1357176     -7.6899437      0.99833472     50218.233      36.893836      36.893836      36.893836    
    176000   0.29909061    -8.1344164     -7.6857869      1.0195031      50218.233      36.893836      36.893836      36.893836    
    177000   0.30027834    -8.1365749     -7.6861638      0.99642051     50218.233      36.893836      36.893836      36.893836    
    178000   0.2981601     -8.1359152     -7.6886814      1.0012934      50218.233      36.893836      36.893836      36.893836    
    179000   0.29992106    -8.1380228     -7.6881476      0.98299973     50218.233      36.893836      36.893836      36.893836    
    180000   0.2987778     -8.1348955     -7.6867352      1.0095799      50218.233      36.893836      36.893836      36.893836    
    181000   0.29901572    -8.1333376     -7.6848204      1.014661       50218.233      36.893836      36.893836      36.893836    
    182000   0.29976629    -8.1343025     -7.6846595      1.0068115      50218.233      36.893836      36.893836      36.893836    
    183000   0.29806219    -8.1357629     -7.688676       1.0008159      50218.233      36.893836      36.893836      36.893836    
    184000   0.30123548    -8.1360163     -7.6841695      1.0065301      50218.233      36.893836      36.893836      36.893836    
    185000   0.29994063    -8.1347822     -7.6848776      1.0070923      50218.233      36.893836      36.893836      36.893836    
    186000   0.29998536    -8.1399935     -7.6900218      0.97328223     50218.233      36.893836      36.893836      36.893836    
    187000   0.29932883    -8.1322941     -7.6833072      1.0262436      50218.233      36.893836      36.893836      36.893836    
    188000   0.29981169    -8.1374926     -7.6877815      0.98225036     50218.233      36.893836      36.893836      36.893836    
    189000   0.29979478    -8.1373212     -7.6876354      0.99282695     50218.233      36.893836      36.893836      36.893836    
    190000   0.2985159     -8.1370889     -7.6893214      0.99363043     50218.233      36.893836      36.893836      36.893836    
    191000   0.29771251    -8.1348915     -7.6883291      1.009146       50218.233      36.893836      36.893836      36.893836    
    192000   0.30236261    -8.1397399     -7.6862024      0.9720245      50218.233      36.893836      36.893836      36.893836    
    193000   0.29951947    -8.1361379     -7.686865       0.99425647     50218.233      36.893836      36.893836      36.893836    
    194000   0.30125222    -8.1358476     -7.6839757      1.0050527      50218.233      36.893836      36.893836      36.893836    
    195000   0.2991743     -8.1350924     -7.6863374      1.0065208      50218.233      36.893836      36.893836      36.893836    
    196000   0.30013006    -8.1350926     -7.6849039      0.99867473     50218.233      36.893836      36.893836      36.893836    
    197000   0.30036843    -8.137139      -7.6865927      0.99445474     50218.233      36.893836      36.893836      36.893836    
    198000   0.30251066    -8.1379503     -7.6841908      0.98035914     50218.233      36.893836      36.893836      36.893836    
    199000   0.29940147    -8.135724      -7.6866282      0.99998307     50218.233      36.893836      36.893836      36.893836    
    200000   0.30022535    -8.1364445     -7.6861129      0.99239476     50218.233      36.893836      36.893836      36.893836    
    201000   0.30007264    -8.1386971     -7.6885945      0.98136494     50218.233      36.893836      36.893836      36.893836    
    202000   0.3008324     -8.1372358     -7.6859936      0.99010458     50218.233      36.893836      36.893836      36.893836    
    203000   0.29956011    -8.134931      -7.6855972      1.0062277      50218.233      36.893836      36.893836      36.893836    
    204000   0.30045398    -8.1354309     -7.6847564      1.0152966      50218.233      36.893836      36.893836      36.893836    
    205000   0.30154808    -8.1377762     -7.6854605      0.98946402     50218.233      36.893836      36.893836      36.893836    
    206000   0.29915782    -8.1356408     -7.6869104      1.003655       50218.233      36.893836      36.893836      36.893836    
    207000   0.29797965    -8.1345918     -7.6876287      1.0137901      50218.233      36.893836      36.893836      36.893836    
    208000   0.29881157    -8.1365549     -7.6883439      1.0028478      50218.233      36.893836      36.893836      36.893836    
    209000   0.3005475     -8.1351507     -7.6843359      1.0051041      50218.233      36.893836      36.893836      36.893836    
    210000   0.30010602    -8.1356394     -7.6854867      1.0061259      50218.233      36.893836      36.893836      36.893836    
    211000   0.29839271    -8.1357778     -7.6881951      1.0043253      50218.233      36.893836      36.893836      36.893836    
    212000   0.30026161    -8.1357759     -7.6853899      0.9995903      50218.233      36.893836      36.893836      36.893836    
    213000   0.2992324     -8.1348397     -7.6859975      1.0062994      50218.233      36.893836      36.893836      36.893836    
    214000   0.30141489    -8.1332183     -7.6811024      1.024378       50218.233      36.893836      36.893836      36.893836    
    215000   0.30083455    -8.1341362     -7.6828908      1.0201612      50218.233      36.893836      36.893836      36.893836    
    216000   0.30026194    -8.1331347     -7.6827482      1.0280124      50218.233      36.893836      36.893836      36.893836    
    217000   0.30004502    -8.1361385     -7.6860774      0.9999749      50218.233      36.893836      36.893836      36.893836    
    218000   0.30110919    -8.1345012     -7.6828439      1.0213163      50218.233      36.893836      36.893836      36.893836    
    219000   0.30023192    -8.1351575     -7.684816       1.0071508      50218.233      36.893836      36.893836      36.893836    
    220000   0.29845029    -8.1338811     -7.6862121      1.012098       50218.233      36.893836      36.893836      36.893836    
    221000   0.29903619    -8.1317161     -7.6831682      1.0295909      50218.233      36.893836      36.893836      36.893836    
    222000   0.29978531    -8.1336371     -7.6839655      1.021631       50218.233      36.893836      36.893836      36.893836    
    223000   0.29878612    -8.1359201     -7.6877473      1.0067237      50218.233      36.893836      36.893836      36.893836    
    224000   0.29924525    -8.135643      -7.6867815      1.0021093      50218.233      36.893836      36.893836      36.893836    
    225000   0.29867352    -8.1347863     -7.6867824      1.0150599      50218.233      36.893836      36.893836      36.893836    
    226000   0.29959387    -8.136243      -7.6868586      1.0008866      50218.233      36.893836      36.893836      36.893836    
    227000   0.30038103    -8.1357661     -7.6852009      1.0048378      50218.233      36.893836      36.893836      36.893836    
    228000   0.30018185    -8.1367919     -7.6865255      0.99572335     50218.233      36.893836      36.893836      36.893836    
    229000   0.29926915    -8.1349842     -7.6860869      1.0174392      50218.233      36.893836      36.893836      36.893836    
    230000   0.30054738    -8.1342885     -7.6834738      1.0118971      50218.233      36.893836      36.893836      36.893836    
    231000   0.30084844    -8.1340136     -7.6827474      1.0179262      50218.233      36.893836      36.893836      36.893836    
    232000   0.30001482    -8.134462      -7.6844461      1.0190345      50218.233      36.893836      36.893836      36.893836    
    233000   0.30022898    -8.137804      -7.687467       0.98443807     50218.233      36.893836      36.893836      36.893836    
    234000   0.30022874    -8.1347159     -7.6843792      1.0006832      50218.233      36.893836      36.893836      36.893836    
    235000   0.30009662    -8.1319187     -7.6817802      1.0383149      50218.233      36.893836      36.893836      36.893836    
    236000   0.29995606    -8.1371047     -7.687177       0.99198867     50218.233      36.893836      36.893836      36.893836    
    237000   0.30093669    -8.1340445     -7.6826459      1.0073568      50218.233      36.893836      36.893836      36.893836    
    238000   0.29949212    -8.1360019     -7.6867701      1.0035501      50218.233      36.893836      36.893836      36.893836    
    239000   0.30022086    -8.1342477     -7.6839228      1.0173262      50218.233      36.893836      36.893836      36.893836    
    240000   0.30008259    -8.1367982     -7.6866807      0.99496476     50218.233      36.893836      36.893836      36.893836    
    241000   0.2986358     -8.1343797     -7.6864323      1.0165857      50218.233      36.893836      36.893836      36.893836    
    242000   0.30006999    -8.1323325     -7.6822339      1.0243553      50218.233      36.893836      36.893836      36.893836    
    243000   0.30088491    -8.1339709     -7.6826499      1.0188196      50218.233      36.893836      36.893836      36.893836    
    244000   0.30105305    -8.1347122     -7.683139       1.0139104      50218.233      36.893836      36.893836      36.893836    
    245000   0.30097963    -8.1359755     -7.6845125      0.99619436     50218.233      36.893836      36.893836      36.893836    
    246000   0.29857683    -8.1400693     -7.6922105      0.96042061     50218.233      36.893836      36.893836      36.893836    
    247000   0.3004595     -8.1378567     -7.6871739      0.98680978     50218.233      36.893836      36.893836      36.893836    
    248000   0.30021621    -8.1375476     -7.6872297      0.98824783     50218.233      36.893836      36.893836      36.893836    
    249000   0.29987264    -8.1348161     -7.6850136      1.0044747      50218.233      36.893836      36.893836      36.893836    
    250000   0.29969591    -8.1392005     -7.689663       0.96665225     50218.233      36.893836      36.893836      36.893836    
    251000   0.30006479    -8.1381421     -7.6880513      0.9860116      50218.233      36.893836      36.893836      36.893836    
    252000   0.30044842    -8.1357326     -7.6850664      1.0020293      50218.233      36.893836      36.893836      36.893836    
    253000   0.30012817    -8.1381161     -7.6879303      0.99316322     50218.233      36.893836      36.893836      36.893836    
    254000   0.30093422    -8.1367201     -7.6853252      0.99962819     50218.233      36.893836      36.893836      36.893836    
    255000   0.29999929    -8.1378554     -7.6878629      0.9794576      50218.233      36.893836      36.893836      36.893836    
    256000   0.30145009    -8.1388044     -7.6866357      0.97679073     50218.233      36.893836      36.893836      36.893836    
    257000   0.30152514    -8.1369316     -7.6846504      1.0001988      50218.233      36.893836      36.893836      36.893836    
    258000   0.29891328    -8.1368406     -7.6884771      0.997777       50218.233      36.893836      36.893836      36.893836    
    259000   0.29912716    -8.1356043     -7.68692        0.99817373     50218.233      36.893836      36.893836      36.893836    
    260000   0.29990345    -8.1345814     -7.6847326      1.0064448      50218.233      36.893836      36.893836      36.893836    
    261000   0.30069808    -8.1347096     -7.6836689      1.0141503      50218.233      36.893836      36.893836      36.893836    
    262000   0.29988868    -8.1342715     -7.6844449      1.0153353      50218.233      36.893836      36.893836      36.893836    
    263000   0.29955918    -8.1367296     -7.6873972      0.99159109     50218.233      36.893836      36.893836      36.893836    
    264000   0.29862281    -8.1342117     -7.6862839      1.0147992      50218.233      36.893836      36.893836      36.893836    
    265000   0.30098596    -8.1339656     -7.6824931      1.0167005      50218.233      36.893836      36.893836      36.893836    
    266000   0.29991095    -8.1340384     -7.6841784      1.0179412      50218.233      36.893836      36.893836      36.893836    
    267000   0.30010666    -8.1396494     -7.6894958      0.96769382     50218.233      36.893836      36.893836      36.893836    
    268000   0.29982782    -8.1368098     -7.6870744      0.99910855     50218.233      36.893836      36.893836      36.893836    
    269000   0.30000538    -8.1372396     -7.687238       0.99186619     50218.233      36.893836      36.893836      36.893836    
    270000   0.29793932    -8.1367564     -7.6898538      0.9893091      50218.233      36.893836      36.893836      36.893836    
    271000   0.30053784    -8.134102      -7.6833017      1.015909       50218.233      36.893836      36.893836      36.893836    
    272000   0.29925519    -8.1350276     -7.6861512      1.0021466      50218.233      36.893836      36.893836      36.893836    
    273000   0.29923399    -8.136662      -7.6878174      0.99547093     50218.233      36.893836      36.893836      36.893836    
    274000   0.30083685    -8.1330041     -7.6817553      1.015613       50218.233      36.893836      36.893836      36.893836    
    275000   0.29996812    -8.1357272     -7.6857814      0.99281605     50218.233      36.893836      36.893836      36.893836    
    276000   0.29827219    -8.1338502     -7.6864483      1.0069685      50218.233      36.893836      36.893836      36.893836    
    277000   0.30215571    -8.1361366     -7.6829095      1.0050683      50218.233      36.893836      36.893836      36.893836    
    278000   0.30049421    -8.1332646     -7.6825297      1.0191541      50218.233      36.893836      36.893836      36.893836    
    279000   0.3002193     -8.136122      -7.6857994      1.003234       50218.233      36.893836      36.893836      36.893836    
    280000   0.30114329    -8.1348056     -7.6830971      1.0135221      50218.233      36.893836      36.893836      36.893836    
    281000   0.29885156    -8.1366614     -7.6883904      0.99808476     50218.233      36.893836      36.893836      36.893836    
    282000   0.29967002    -8.1334622     -7.6839636      1.0199813      50218.233      36.893836      36.893836      36.893836    
    283000   0.29970193    -8.1360583     -7.6865118      0.99337283     50218.233      36.893836      36.893836      36.893836    
    284000   0.30134373    -8.1335568     -7.6815476      1.0242389      50218.233      36.893836      36.893836      36.893836    
    285000   0.29808853    -8.1341119     -7.6869855      1.0212469      50218.233      36.893836      36.893836      36.893836    
    286000   0.30041205    -8.1362027     -7.685591       0.99854342     50218.233      36.893836      36.893836      36.893836    
    287000   0.3004319     -8.1363739     -7.6857325      0.9951389      50218.233      36.893836      36.893836      36.893836    
    288000   0.3001831     -8.137248      -7.6869797      1.0011165      50218.233      36.893836      36.893836      36.893836    
    289000   0.30127608    -8.1373134     -7.6854057      0.98882109     50218.233      36.893836      36.893836      36.893836    
    290000   0.29826801    -8.1357037     -7.6883081      0.99879561     50218.233      36.893836      36.893836      36.893836    
    291000   0.29889144    -8.136263      -7.6879322      1.0013158      50218.233      36.893836      36.893836      36.893836    
    292000   0.3004384     -8.1344885     -7.6838373      1.0121834      50218.233      36.893836      36.893836      36.893836    
    293000   0.3004592     -8.1388529     -7.6881705      0.98132474     50218.233      36.893836      36.893836      36.893836    
    294000   0.30037717    -8.1359692     -7.6854099      1.0054487      50218.233      36.893836      36.893836      36.893836    
    295000   0.29956467    -8.1359212     -7.6865806      0.99847736     50218.233      36.893836      36.893836      36.893836    
    296000   0.29911637    -8.1369361     -7.688268       0.98757591     50218.233      36.893836      36.893836      36.893836    
    297000   0.30014226    -8.1354531     -7.6852461      1.0046517      50218.233      36.893836      36.893836      36.893836    
    298000   0.29941933    -8.1369662     -7.6878436      0.99245693     50218.233      36.893836      36.893836      36.893836    
    299000   0.29814116    -8.1352446     -7.6880392      1.0006242      50218.233      36.893836      36.893836      36.893836    
    300000   0.29876165    -8.1364459     -7.6883098      0.99819537     50218.233      36.893836      36.893836      36.893836    
    301000   0.29958166    -8.1333858     -7.6840197      1.0223227      50218.233      36.893836      36.893836      36.893836    
    302000   0.30004144    -8.1373818     -7.687326       0.98674306     50218.233      36.893836      36.893836      36.893836    
    303000   0.30042861    -8.1347785     -7.684142       1.0108365      50218.233      36.893836      36.893836      36.893836    
    304000   0.30021943    -8.1364164     -7.6860936      0.99144722     50218.233      36.893836      36.893836      36.893836    
    305000   0.29879937    -8.1343525     -7.6861599      1.0028881      50218.233      36.893836      36.893836      36.893836    
    306000   0.3001872     -8.1369233     -7.6866489      0.99856477     50218.233      36.893836      36.893836      36.893836    
    307000   0.30020823    -8.1364523     -7.6861463      0.9994532      50218.233      36.893836      36.893836      36.893836    
    308000   0.29876796    -8.1368229     -7.6886773      0.99407207     50218.233      36.893836      36.893836      36.893836    
    309000   0.29950002    -8.1363212     -7.6870775      0.99256699     50218.233      36.893836      36.893836      36.893836    
    310000   0.30107023    -8.13648       -7.6848811      0.99440937     50218.233      36.893836      36.893836      36.893836    
    311000   0.30100225    -8.1337872     -7.6822903      1.019018       50218.233      36.893836      36.893836      36.893836    
    312000   0.2996353     -8.1364643     -7.6870177      0.99137407     50218.233      36.893836      36.893836      36.893836    
    313000   0.30158044    -8.1381423     -7.6857781      0.99088874     50218.233      36.893836      36.893836      36.893836    
    314000   0.30021896    -8.1364121     -7.6860901      0.99675966     50218.233      36.893836      36.893836      36.893836    
    315000   0.30005353    -8.1351831     -7.6851092      0.99899861     50218.233      36.893836      36.893836      36.893836    
    316000   0.29965345    -8.1372791     -7.6878053      0.99398487     50218.233      36.893836      36.893836      36.893836    
    317000   0.30129313    -8.1345651     -7.6826318      1.017704       50218.233      36.893836      36.893836      36.893836    
    318000   0.30034657    -8.1360702     -7.6855567      0.99335389     50218.233      36.893836      36.893836      36.893836    
    319000   0.30019297    -8.1371684     -7.6868853      0.99636478     50218.233      36.893836      36.893836      36.893836    
    320000   0.30050829    -8.1363695     -7.6856135      1.0000194      50218.233      36.893836      36.893836      36.893836    
    321000   0.29993918    -8.1339648     -7.6840624      1.0075953      50218.233      36.893836      36.893836      36.893836    
    322000   0.29962228    -8.1349347     -7.6855077      1.0116645      50218.233      36.893836      36.893836      36.893836    
    323000   0.29830445    -8.1367563     -7.689306       0.99576152     50218.233      36.893836      36.893836      36.893836    
    324000   0.30053285    -8.1368637     -7.6860708      0.99888849     50218.233      36.893836      36.893836      36.893836    
    325000   0.30122226    -8.1362252     -7.6843983      1.0046658      50218.233      36.893836      36.893836      36.893836    
    326000   0.30008625    -8.1338127     -7.6836897      1.022095       50218.233      36.893836      36.893836      36.893836    
    327000   0.29917529    -8.1354507     -7.6866942      0.9977621      50218.233      36.893836      36.893836      36.893836    
    328000   0.2994129     -8.1354338     -7.6863208      1.0045171      50218.233      36.893836      36.893836      36.893836    
    329000   0.29989739    -8.1334646     -7.6836249      1.0208915      50218.233      36.893836      36.893836      36.893836    
    330000   0.30067159    -8.1359984     -7.6849975      1.0040403      50218.233      36.893836      36.893836      36.893836    
    331000   0.29929976    -8.134359      -7.6854158      1.0074718      50218.233      36.893836      36.893836      36.893836    
    332000   0.30127514    -8.1355804     -7.6836741      1.0080738      50218.233      36.893836      36.893836      36.893836    
    333000   0.29906661    -8.1366732     -7.6880797      0.98782266     50218.233      36.893836      36.893836      36.893836    
    334000   0.30035129    -8.1349742     -7.6844537      1.0118388      50218.233      36.893836      36.893836      36.893836    
    335000   0.2997033     -8.1360278     -7.6864792      0.99026039     50218.233      36.893836      36.893836      36.893836    
    336000   0.30110839    -8.1367846     -7.6851285      1.0008531      50218.233      36.893836      36.893836      36.893836    
    337000   0.29861689    -8.1341291     -7.6862101      1.0078464      50218.233      36.893836      36.893836      36.893836    
    338000   0.30030107    -8.1351459     -7.6847007      1.0012343      50218.233      36.893836      36.893836      36.893836    
    339000   0.30013686    -8.1362611     -7.6860622      1.0011909      50218.233      36.893836      36.893836      36.893836    
    340000   0.30129975    -8.137469      -7.6855258      0.99156706     50218.233      36.893836      36.893836      36.893836    
    341000   0.30189223    -8.1354575     -7.6826256      1.0104108      50218.233      36.893836      36.893836      36.893836    
    342000   0.30068677    -8.1390389     -7.6880152      0.98386852     50218.233      36.893836      36.893836      36.893836    
    343000   0.30027545    -8.1388656     -7.6884588      0.97707402     50218.233      36.893836      36.893836      36.893836    
    344000   0.30137922    -8.1359547     -7.6838923      1.0062181      50218.233      36.893836      36.893836      36.893836    
    345000   0.30184632    -8.136529      -7.6837659      0.99670331     50218.233      36.893836      36.893836      36.893836    
    346000   0.30059098    -8.1368678     -7.6859877      0.99977742     50218.233      36.893836      36.893836      36.893836    
    347000   0.30020494    -8.1371172     -7.6868162      0.99371804     50218.233      36.893836      36.893836      36.893836    
    348000   0.30146741    -8.1363637     -7.684169       0.99942235     50218.233      36.893836      36.893836      36.893836    
    349000   0.2985829     -8.1349263     -7.6870583      1.0147474      50218.233      36.893836      36.893836      36.893836    
    350000   0.29938669    -8.1370468     -7.6879732      1.0002591      50218.233      36.893836      36.893836      36.893836    
    351000   0.30024492    -8.1373539     -7.6869929      0.98712554     50218.233      36.893836      36.893836      36.893836    
    352000   0.29870672    -8.1350807     -7.687027       1.0053469      50218.233      36.893836      36.893836      36.893836    
    353000   0.30031518    -8.1387101     -7.6882438      0.98608993     50218.233      36.893836      36.893836      36.893836    
    354000   0.29805674    -8.1364874     -7.6894086      0.99596392     50218.233      36.893836      36.893836      36.893836    
    355000   0.30254979    -8.136951      -7.6831327      1.0003622      50218.233      36.893836      36.893836      36.893836    
    356000   0.30121536    -8.1370734     -7.6852567      0.99440605     50218.233      36.893836      36.893836      36.893836    
    357000   0.29936429    -8.1354266     -7.6863865      1.0023333      50218.233      36.893836      36.893836      36.893836    
    358000   0.30052886    -8.136696      -7.6859091      0.99609925     50218.233      36.893836      36.893836      36.893836    
    359000   0.30052561    -8.1365785     -7.6857965      0.99642639     50218.233      36.893836      36.893836      36.893836    
    360000   0.30029077    -8.1359209     -7.6854912      1.0090854      50218.233      36.893836      36.893836      36.893836    
    361000   0.29991888    -8.1361703     -7.6862984      1.0032982      50218.233      36.893836      36.893836      36.893836    
    362000   0.29897694    -8.1364132     -7.6879542      0.98995082     50218.233      36.893836      36.893836      36.893836    
    363000   0.29993717    -8.1363961     -7.6864967      0.99395505     50218.233      36.893836      36.893836      36.893836    
    364000   0.30005073    -8.138373      -7.6883033      0.98611666     50218.233      36.893836      36.893836      36.893836    
    365000   0.29934635    -8.1383135     -7.6893003      0.98549321     50218.233      36.893836      36.893836      36.893836    
    366000   0.30018978    -8.1354865     -7.6852083      1.0091496      50218.233      36.893836      36.893836      36.893836    
    367000   0.29818253    -8.1341402     -7.6868728      1.0099052      50218.233      36.893836      36.893836      36.893836    
    368000   0.2998483     -8.1342975     -7.6845314      1.0170415      50218.233      36.893836      36.893836      36.893836    
    369000   0.29960574    -8.1348464     -7.6854442      1.0102157      50218.233      36.893836      36.893836      36.893836    
    370000   0.3013394     -8.1357641     -7.6837614      1.0027683      50218.233      36.893836      36.893836      36.893836    
    371000   0.2990056     -8.1341908     -7.6856887      1.0132796      50218.233      36.893836      36.893836      36.893836    
    372000   0.30084178    -8.1352622     -7.6840059      1.0073488      50218.233      36.893836      36.893836      36.893836    
    373000   0.29891577    -8.1372272     -7.6888599      0.98855189     50218.233      36.893836      36.893836      36.893836    
    374000   0.30033805    -8.1375578     -7.6870571      0.98873901     50218.233      36.893836      36.893836      36.893836    
    375000   0.30083692    -8.1360197     -7.6847708      0.99730455     50218.233      36.893836      36.893836      36.893836    
    376000   0.29738722    -8.1347072     -7.6886328      1.0087498      50218.233      36.893836      36.893836      36.893836    
    377000   0.29860152    -8.1345736     -7.6866777      1.0128728      50218.233      36.893836      36.893836      36.893836    
    378000   0.29942311    -8.1361175     -7.6869892      0.9963792      50218.233      36.893836      36.893836      36.893836    
    379000   0.3018518     -8.134555      -7.6817838      1.0104159      50218.233      36.893836      36.893836      36.893836    
    380000   0.30163176    -8.1339366     -7.6814954      1.0195756      50218.233      36.893836      36.893836      36.893836    
    381000   0.30054378    -8.1365458     -7.6857366      1.0025252      50218.233      36.893836      36.893836      36.893836    
    382000   0.29825716    -8.1340865     -7.6867071      1.0167017      50218.233      36.893836      36.893836      36.893836    
    383000   0.30022747    -8.1366458     -7.686311       1.001902       50218.233      36.893836      36.893836      36.893836    
    384000   0.3015218     -8.134972      -7.6826957      1.0126976      50218.233      36.893836      36.893836      36.893836    
    385000   0.29958397    -8.1361885     -7.6868189      0.99762561     50218.233      36.893836      36.893836      36.893836    
    386000   0.29915633    -8.1347066     -7.6859785      1.0021447      50218.233      36.893836      36.893836      36.893836    
    387000   0.30193678    -8.1374506     -7.6845519      0.98110226     50218.233      36.893836      36.893836      36.893836    
    388000   0.30158873    -8.13712       -7.6847433      0.99691933     50218.233      36.893836      36.893836      36.893836    
    389000   0.30076042    -8.1344817     -7.6833474      1.0100542      50218.233      36.893836      36.893836      36.893836    
    390000   0.29855495    -8.1366935     -7.6888675      0.98919118     50218.233      36.893836      36.893836      36.893836    
    391000   0.30033801    -8.1368998     -7.6863992      0.99082242     50218.233      36.893836      36.893836      36.893836    
    392000   0.30036307    -8.1364727     -7.6859345      0.99732019     50218.233      36.893836      36.893836      36.893836    
    393000   0.30024492    -8.1356088     -7.6852478      1.0031227      50218.233      36.893836      36.893836      36.893836    
    394000   0.30019316    -8.1344596     -7.6841763      1.0177714      50218.233      36.893836      36.893836      36.893836    
    395000   0.30156313    -8.1380487     -7.6857104      0.98139301     50218.233      36.893836      36.893836      36.893836    
    396000   0.30111847    -8.1367349     -7.6850636      0.99217062     50218.233      36.893836      36.893836      36.893836    
    397000   0.30084171    -8.1359105     -7.6846544      0.99718111     50218.233      36.893836      36.893836      36.893836    
    398000   0.29935523    -8.137369      -7.6883425      0.98712957     50218.233      36.893836      36.893836      36.893836    
    399000   0.29923674    -8.1355465     -7.6866978      0.99916795     50218.233      36.893836      36.893836      36.893836    
    400000   0.29899537    -8.1357959     -7.6873092      0.99762063     50218.233      36.893836      36.893836      36.893836    
    401000   0.29949029    -8.1402959     -7.6910668      0.96973816     50218.233      36.893836      36.893836      36.893836    
    402000   0.29930981    -8.1326556     -7.6836973      1.0229873      50218.233      36.893836      36.893836      36.893836    
    403000   0.30060554    -8.1385474     -7.6876455      0.98514237     50218.233      36.893836      36.893836      36.893836    
    404000   0.30080479    -8.1362344     -7.6850336      1.005928       50218.233      36.893836      36.893836      36.893836    
    405000   0.30101847    -8.1381142     -7.6865929      0.985516       50218.233      36.893836      36.893836      36.893836    
    406000   0.29869815    -8.1372605     -7.6892196      0.99031679     50218.233      36.893836      36.893836      36.893836    
    407000   0.29899461    -8.1358991     -7.6874136      0.99912064     50218.233      36.893836      36.893836      36.893836    
    408000   0.30069687    -8.1366093     -7.6855704      1.000249       50218.233      36.893836      36.893836      36.893836    
    409000   0.30107806    -8.138386      -7.6867753      0.98887478     50218.233      36.893836      36.893836      36.893836    
    410000   0.29988737    -8.1356342     -7.6858096      1.0032742      50218.233      36.893836      36.893836      36.893836    
    411000   0.30100215    -8.1349447     -7.6834479      1.0133079      50218.233      36.893836      36.893836      36.893836    
    412000   0.29968677    -8.1357243     -7.6862005      1.0021686      50218.233      36.893836      36.893836      36.893836    
    413000   0.30067974    -8.1370078     -7.6859946      0.99637258     50218.233      36.893836      36.893836      36.893836    
    414000   0.30116944    -8.1356021     -7.6838544      0.99931802     50218.233      36.893836      36.893836      36.893836    
    415000   0.2981376     -8.1377447     -7.6905446      0.9842702      50218.233      36.893836      36.893836      36.893836    
    416000   0.30182311    -8.135896      -7.6831678      1.0047028      50218.233      36.893836      36.893836      36.893836    
    417000   0.30147056    -8.1369382     -7.6847388      0.99738189     50218.233      36.893836      36.893836      36.893836    
    418000   0.29933808    -8.1367047     -7.687704       0.99179485     50218.233      36.893836      36.893836      36.893836    
    419000   0.30023654    -8.1361567     -7.6858083      0.99588288     50218.233      36.893836      36.893836      36.893836    
    420000   0.30249023    -8.1334174     -7.6796885      1.0225094      50218.233      36.893836      36.893836      36.893836    
    421000   0.30050528    -8.1336888     -7.6829373      1.0173302      50218.233      36.893836      36.893836      36.893836    
    422000   0.30080203    -8.1377426     -7.686546       0.98801076     50218.233      36.893836      36.893836      36.893836    
    423000   0.29973445    -8.1364794     -7.6868841      0.99996385     50218.233      36.893836      36.893836      36.893836    
    424000   0.29982501    -8.1336054     -7.6838743      1.0161472      50218.233      36.893836      36.893836      36.893836    
    425000   0.3006041     -8.1353118     -7.6844121      1.0020662      50218.233      36.893836      36.893836      36.893836    
    426000   0.30008881    -8.1374699     -7.6873431      0.98677467     50218.233      36.893836      36.893836      36.893836    
    427000   0.30013045    -8.1358141     -7.6856248      0.99871766     50218.233      36.893836      36.893836      36.893836    
    428000   0.29923374    -8.1358207     -7.6869765      1.0028209      50218.233      36.893836      36.893836      36.893836    
    429000   0.29981858    -8.13664       -7.6869185      0.9921934      50218.233      36.893836      36.893836      36.893836    
    430000   0.29855216    -8.1362517     -7.6884299      0.99359019     50218.233      36.893836      36.893836      36.893836    
    431000   0.29939309    -8.134528      -7.6854447      1.0079655      50218.233      36.893836      36.893836      36.893836    
    432000   0.30074886    -8.1342327     -7.6831158      1.0084134      50218.233      36.893836      36.893836      36.893836    
    433000   0.29901568    -8.1351216     -7.6866044      1.0075455      50218.233      36.893836      36.893836      36.893836    
    434000   0.30006574    -8.1343362     -7.684244       1.0128581      50218.233      36.893836      36.893836      36.893836    
    435000   0.30004538    -8.1357304     -7.6856687      1.0062034      50218.233      36.893836      36.893836      36.893836    
    436000   0.30039034    -8.1367039     -7.6861248      1.0021607      50218.233      36.893836      36.893836      36.893836    
    437000   0.30027795    -8.1370877     -7.6866771      0.99708808     50218.233      36.893836      36.893836      36.893836    
    438000   0.30136637    -8.136336      -7.6842928      0.9915052      50218.233      36.893836      36.893836      36.893836    
    439000   0.29946861    -8.1369108     -7.6877142      0.98742207     50218.233      36.893836      36.893836      36.893836    
    440000   0.29960441    -8.1360163     -7.6866161      0.99580189     50218.233      36.893836      36.893836      36.893836    
    441000   0.29982746    -8.1343595     -7.6846247      1.0099922      50218.233      36.893836      36.893836      36.893836    
    442000   0.29948722    -8.1364799     -7.6872555      0.98657038     50218.233      36.893836      36.893836      36.893836    
    443000   0.29941702    -8.1366689     -7.6875497      0.99403104     50218.233      36.893836      36.893836      36.893836    
    444000   0.30041849    -8.1354423     -7.6848209      1.0029919      50218.233      36.893836      36.893836      36.893836    
    445000   0.30000778    -8.1362442     -7.6862389      0.99113599     50218.233      36.893836      36.893836      36.893836    
    446000   0.29987481    -8.1353212     -7.6855154      1.0062789      50218.233      36.893836      36.893836      36.893836    
    447000   0.30049847    -8.1382647     -7.6875235      0.98223735     50218.233      36.893836      36.893836      36.893836    
    448000   0.301063      -8.1357513     -7.6841632      1.0008346      50218.233      36.893836      36.893836      36.893836    
    449000   0.30187116    -8.1344569     -7.6816566      1.0112374      50218.233      36.893836      36.893836      36.893836    
    450000   0.29982956    -8.1370735     -7.6873356      0.99266041     50218.233      36.893836      36.893836      36.893836    
    451000   0.30074523    -8.1363284     -7.685217       1.0031314      50218.233      36.893836      36.893836      36.893836    
    452000   0.29964522    -8.1382349     -7.6887735      0.97942563     50218.233      36.893836      36.893836      36.893836    
    453000   0.29963797    -8.1376895     -7.688239       0.98236974     50218.233      36.893836      36.893836      36.893836    
    454000   0.29926315    -8.135933      -7.6870446      0.99700805     50218.233      36.893836      36.893836      36.893836    
    455000   0.30067415    -8.1379341     -7.6869292      0.99243869     50218.233      36.893836      36.893836      36.893836    
    456000   0.29976322    -8.1371005     -7.687462       0.98474019     50218.233      36.893836      36.893836      36.893836    
    457000   0.30011364    -8.1368856     -7.6867215      1.0021312      50218.233      36.893836      36.893836      36.893836    
    458000   0.29949226    -8.1377329     -7.6885009      0.9827474      50218.233      36.893836      36.893836      36.893836    
    459000   0.30030067    -8.1358015     -7.6853569      1.0033006      50218.233      36.893836      36.893836      36.893836    
    460000   0.29790511    -8.1365247     -7.6896734      0.99739222     50218.233      36.893836      36.893836      36.893836    
    461000   0.30170006    -8.1379674     -7.6854237      0.99004003     50218.233      36.893836      36.893836      36.893836    
    462000   0.30070733    -8.1350242     -7.6839696      1.0006004      50218.233      36.893836      36.893836      36.893836    
    463000   0.29995868    -8.1373686     -7.687437       0.99359512     50218.233      36.893836      36.893836      36.893836    
    464000   0.29877769    -8.1346711     -7.686511       1.0103677      50218.233      36.893836      36.893836      36.893836    
    465000   0.29976499    -8.1349778     -7.6853367      1.0031665      50218.233      36.893836      36.893836      36.893836    
    466000   0.29954476    -8.1329939     -7.6836832      1.0180685      50218.233      36.893836      36.893836      36.893836    
    467000   0.29859045    -8.1349604     -7.6870811      1.0084281      50218.233      36.893836      36.893836      36.893836    
    468000   0.3003993     -8.1328498     -7.6822572      1.0228178      50218.233      36.893836      36.893836      36.893836    
    469000   0.30018592    -8.1354691     -7.6851967      1.0090236      50218.233      36.893836      36.893836      36.893836    
    470000   0.3010325     -8.1331529     -7.6816105      1.0191855      50218.233      36.893836      36.893836      36.893836    
    471000   0.30037188    -8.1345229     -7.6839715      1.0203358      50218.233      36.893836      36.893836      36.893836    
    472000   0.3019747     -8.1316664     -7.6787108      1.0386299      50218.233      36.893836      36.893836      36.893836    
    473000   0.29960749    -8.1336261     -7.6842213      1.0180309      50218.233      36.893836      36.893836      36.893836    
    474000   0.29921752    -8.13584       -7.6870201      1.0081354      50218.233      36.893836      36.893836      36.893836    
    475000   0.30222241    -8.1347168     -7.6813897      1.0150357      50218.233      36.893836      36.893836      36.893836    
    476000   0.3013749     -8.1353809     -7.6833249      1.0165109      50218.233      36.893836      36.893836      36.893836    
    477000   0.30220675    -8.1358401     -7.6825364      1.0069709      50218.233      36.893836      36.893836      36.893836    
    478000   0.30140481    -8.1369437     -7.6848429      0.99132524     50218.233      36.893836      36.893836      36.893836    
    479000   0.3005187     -8.133448      -7.6826763      1.0124732      50218.233      36.893836      36.893836      36.893836    
    480000   0.29995104    -8.1337301     -7.6838099      1.0207459      50218.233      36.893836      36.893836      36.893836    
    481000   0.29994266    -8.1364414     -7.6865338      0.9982205      50218.233      36.893836      36.893836      36.893836    
    482000   0.30002925    -8.1308231     -7.6807857      1.0443319      50218.233      36.893836      36.893836      36.893836    
    483000   0.3005279     -8.1357778     -7.6849923      0.99987667     50218.233      36.893836      36.893836      36.893836    
    484000   0.30160988    -8.13619       -7.6837816      1.0022287      50218.233      36.893836      36.893836      36.893836    
    485000   0.30011165    -8.1365328     -7.6863718      1.0033613      50218.233      36.893836      36.893836      36.893836    
    486000   0.29913361    -8.1358808     -7.6871867      1.0030487      50218.233      36.893836      36.893836      36.893836    
    487000   0.30065493    -8.1353425     -7.6843665      1.00901        50218.233      36.893836      36.893836      36.893836    
    488000   0.29844945    -8.1363372     -7.6886694      0.99261707     50218.233      36.893836      36.893836      36.893836    
    489000   0.30022964    -8.1363512     -7.6860132      1.0085331      50218.233      36.893836      36.893836      36.893836    
    490000   0.29945147    -8.1342829     -7.6851121      1.0148749      50218.233      36.893836      36.893836      36.893836    
    491000   0.30052741    -8.1347894     -7.6840047      1.0133743      50218.233      36.893836      36.893836      36.893836    
    492000   0.29844363    -8.1382274     -7.6905683      0.9783861      50218.233      36.893836      36.893836      36.893836    
    493000   0.3001452     -8.1384411     -7.6882297      0.98435116     50218.233      36.893836      36.893836      36.893836    
    494000   0.30079272    -8.1368485     -7.6856658      0.98930452     50218.233      36.893836      36.893836      36.893836    
    495000   0.29986192    -8.1359762     -7.6861897      0.99474158     50218.233      36.893836      36.893836      36.893836    
    496000   0.30094101    -8.1356622     -7.6842571      1.0113114      50218.233      36.893836      36.893836      36.893836    
    497000   0.29963989    -8.1360029     -7.6865495      0.99827829     50218.233      36.893836      36.893836      36.893836    
    498000   0.29901012    -8.1371294     -7.6886206      0.98904531     50218.233      36.893836      36.893836      36.893836    
    499000   0.29888208    -8.1384578     -7.690141       0.98283192     50218.233      36.893836      36.893836      36.893836    
    500000   0.2994577     -8.1376602     -7.6884801      0.98409369     50218.233      36.893836      36.893836      36.893836    
    501000   0.29958891    -8.136025      -7.6866481      0.99825714     50218.233      36.893836      36.893836      36.893836    
    502000   0.3000745     -8.1365058     -7.6864005      0.99957925     50218.233      36.893836      36.893836      36.893836    
    503000   0.30113525    -8.1375625     -7.6858661      0.98813442     50218.233      36.893836      36.893836      36.893836    
    504000   0.29863891    -8.1364922     -7.6885402      0.98997121     50218.233      36.893836      36.893836      36.893836    
    505000   0.29866604    -8.1361621     -7.6881694      1.0024088      50218.233      36.893836      36.893836      36.893836    
    506000   0.3006377     -8.1375494     -7.6865993      0.98597063     50218.233      36.893836      36.893836      36.893836    
    507000   0.30113222    -8.1371897     -7.6854978      0.99447851     50218.233      36.893836      36.893836      36.893836    
    508000   0.30031024    -8.1352219     -7.684763       1.0039044      50218.233      36.893836      36.893836      36.893836    
    509000   0.30052102    -8.1347619     -7.6839868      1.0149937      50218.233      36.893836      36.893836      36.893836    
    510000   0.30103038    -8.1360373     -7.6844981      0.9903523      50218.233      36.893836      36.893836      36.893836    
    511000   0.30004595    -8.1354111     -7.6853486      1.0007143      50218.233      36.893836      36.893836      36.893836    
    512000   0.29993279    -8.1372568     -7.687364       0.99002135     50218.233      36.893836      36.893836      36.893836    
    513000   0.30126375    -8.1364763     -7.6845871      0.9992156      50218.233      36.893836      36.893836      36.893836    
    514000   0.29961718    -8.1344853     -7.6850659      1.0128337      50218.233      36.893836      36.893836      36.893836    
    515000   0.30004705    -8.1352287     -7.6851645      1.0066857      50218.233      36.893836      36.893836      36.893836    
    516000   0.29928194    -8.1349838     -7.6860673      1.0044022      50218.233      36.893836      36.893836      36.893836    
    517000   0.30080222    -8.1341295     -7.6829326      1.013785       50218.233      36.893836      36.893836      36.893836    
    518000   0.30061229    -8.132513      -7.681601       1.0176349      50218.233      36.893836      36.893836      36.893836    
    519000   0.29905003    -8.1352419     -7.6866732      1.0089221      50218.233      36.893836      36.893836      36.893836    
    520000   0.30058409    -8.1346188     -7.6837491      1.0133185      50218.233      36.893836      36.893836      36.893836    
    521000   0.3002175     -8.1350913     -7.6847715      1.0083098      50218.233      36.893836      36.893836      36.893836    
    522000   0.29808425    -8.134032      -7.6869119      1.0117237      50218.233      36.893836      36.893836      36.893836    
    523000   0.30048896    -8.1358907     -7.6851637      1.0054491      50218.233      36.893836      36.893836      36.893836    
    524000   0.29828085    -8.1336336     -7.6862187      1.0168176      50218.233      36.893836      36.893836      36.893836    
    525000   0.30275426    -8.1354067     -7.6812817      1.0149212      50218.233      36.893836      36.893836      36.893836    
    526000   0.30006402    -8.1368868     -7.6867972      0.98898098     50218.233      36.893836      36.893836      36.893836    
    527000   0.30051338    -8.1350783     -7.6843146      0.99958433     50218.233      36.893836      36.893836      36.893836    
    528000   0.30008341    -8.1352283     -7.6851096      0.99864396     50218.233      36.893836      36.893836      36.893836    
    529000   0.29950603    -8.1350148     -7.6857621      1.0062306      50218.233      36.893836      36.893836      36.893836    
    530000   0.29974657    -8.1362787     -7.6866652      0.99299417     50218.233      36.893836      36.893836      36.893836    
    531000   0.29906996    -8.1357392     -7.6871406      1.0002888      50218.233      36.893836      36.893836      36.893836    
    532000   0.29945598    -8.1339157     -7.6847381      1.0173422      50218.233      36.893836      36.893836      36.893836    
    533000   0.29989259    -8.1353874     -7.6855549      1.0081156      50218.233      36.893836      36.893836      36.893836    
    534000   0.30126572    -8.1330124     -7.6811203      1.0221962      50218.233      36.893836      36.893836      36.893836    
    535000   0.29962333    -8.1357086     -7.68628        0.99782772     50218.233      36.893836      36.893836      36.893836    
    536000   0.30070683    -8.1362917     -7.6852379      1.0003336      50218.233      36.893836      36.893836      36.893836    
    537000   0.29876395    -8.1342122     -7.6860727      1.0094658      50218.233      36.893836      36.893836      36.893836    
    538000   0.29816514    -8.1368644     -7.689623       0.99459466     50218.233      36.893836      36.893836      36.893836    
    539000   0.30086392    -8.133139      -7.6818495      1.0183138      50218.233      36.893836      36.893836      36.893836    
    540000   0.30017782    -8.1366175     -7.6863572      0.99554888     50218.233      36.893836      36.893836      36.893836    
    541000   0.29981157    -8.1345525     -7.6848415      1.0169999      50218.233      36.893836      36.893836      36.893836    
    542000   0.30084386    -8.1377314     -7.6864721      0.9917061      50218.233      36.893836      36.893836      36.893836    
    543000   0.3006508     -8.1376397     -7.6866699      0.98516744     50218.233      36.893836      36.893836      36.893836    
    544000   0.29979496    -8.1364039     -7.6867179      0.99189901     50218.233      36.893836      36.893836      36.893836    
    545000   0.29986082    -8.1353774     -7.6855926      1.0020789      50218.233      36.893836      36.893836      36.893836    
    546000   0.2997818     -8.134606      -7.6849397      1.0053351      50218.233      36.893836      36.893836      36.893836    
    547000   0.30007845    -8.1371146     -7.6870034      0.98442487     50218.233      36.893836      36.893836      36.893836    
    548000   0.299881      -8.1390907     -7.6892756      0.97723202     50218.233      36.893836      36.893836      36.893836    
    549000   0.30041889    -8.1364492     -7.6858273      1.0013627      50218.233      36.893836      36.893836      36.893836    
    550000   0.30129504    -8.1358185     -7.6838823      0.99762509     50218.233      36.893836      36.893836      36.893836    
    551000   0.29983457    -8.1368043     -7.6870588      0.99257238     50218.233      36.893836      36.893836      36.893836    
    552000   0.29973197    -8.1361725     -7.686581       0.99401893     50218.233      36.893836      36.893836      36.893836    
    553000   0.30040932    -8.1369017     -7.6862942      0.99811022     50218.233      36.893836      36.893836      36.893836    
    554000   0.29951369    -8.1374621     -7.688198       0.98582028     50218.233      36.893836      36.893836      36.893836    
    555000   0.30093263    -8.1375379     -7.6861454      0.99453805     50218.233      36.893836      36.893836      36.893836    
    556000   0.29917122    -8.1363125     -7.6875621      0.99902955     50218.233      36.893836      36.893836      36.893836    
    557000   0.30051232    -8.1355852     -7.6848231      1.0046106      50218.233      36.893836      36.893836      36.893836    
    558000   0.30180496    -8.1350487     -7.6823477      1.0103051      50218.233      36.893836      36.893836      36.893836    
    559000   0.30025091    -8.1376793     -7.6873094      0.98430306     50218.233      36.893836      36.893836      36.893836    
    560000   0.30067023    -8.1364639     -7.6854649      0.98702364     50218.233      36.893836      36.893836      36.893836    
    561000   0.29990214    -8.1327069     -7.6828601      1.0217113      50218.233      36.893836      36.893836      36.893836    
    562000   0.29913587    -8.1359302     -7.6872328      0.99671444     50218.233      36.893836      36.893836      36.893836    
    563000   0.29981078    -8.1345814     -7.6848716      1.0153412      50218.233      36.893836      36.893836      36.893836    
    564000   0.30241489    -8.1369396     -7.6833237      0.98735465     50218.233      36.893836      36.893836      36.893836    
    565000   0.30009491    -8.1351501     -7.6850142      1.0048756      50218.233      36.893836      36.893836      36.893836    
    566000   0.30015095    -8.1361568     -7.6859368      1.0045412      50218.233      36.893836      36.893836      36.893836    
    567000   0.30039155    -8.1343116     -7.6837307      1.0118168      50218.233      36.893836      36.893836      36.893836    
    568000   0.30027136    -8.1346533     -7.6842527      1.0109149      50218.233      36.893836      36.893836      36.893836    
    569000   0.30011695    -8.1361015     -7.6859324      1.0076442      50218.233      36.893836      36.893836      36.893836    
    570000   0.29921727    -8.1356554     -7.6868359      1.0087254      50218.233      36.893836      36.893836      36.893836    
    571000   0.30167787    -8.1347979     -7.6822875      1.0075937      50218.233      36.893836      36.893836      36.893836    
    572000   0.29997037    -8.1345998     -7.6846506      1.0053627      50218.233      36.893836      36.893836      36.893836    
    573000   0.29992742    -8.1345275     -7.6846428      1.0089319      50218.233      36.893836      36.893836      36.893836    
    574000   0.30012795    -8.1352704     -7.6850848      1.0008916      50218.233      36.893836      36.893836      36.893836    
    575000   0.30026972    -8.1356643     -7.6852662      0.99589887     50218.233      36.893836      36.893836      36.893836    
    576000   0.29978392    -8.1342001     -7.6845307      1.0190784      50218.233      36.893836      36.893836      36.893836    
    577000   0.29988263    -8.1347054     -7.6848879      1.0151651      50218.233      36.893836      36.893836      36.893836    
    578000   0.30058836    -8.1346141     -7.683738       1.0117233      50218.233      36.893836      36.893836      36.893836    
    579000   0.30135977    -8.1377578     -7.6857246      0.99111501     50218.233      36.893836      36.893836      36.893836    
    580000   0.29906551    -8.1353076     -7.6867157      1.0030776      50218.233      36.893836      36.893836      36.893836    
    581000   0.29866686    -8.1390048     -7.6910109      0.97727782     50218.233      36.893836      36.893836      36.893836    
    582000   0.30068819    -8.1362821     -7.6852562      1.006965       50218.233      36.893836      36.893836      36.893836    
    583000   0.29989207    -8.136705      -7.6868733      0.99702205     50218.233      36.893836      36.893836      36.893836    
    584000   0.30040971    -8.1362629     -7.6856547      1.0025683      50218.233      36.893836      36.893836      36.893836    
    585000   0.29918264    -8.1340128     -7.6852452      1.0140968      50218.233      36.893836      36.893836      36.893836    
    586000   0.29987866    -8.1346027     -7.6847912      1.0039567      50218.233      36.893836      36.893836      36.893836    
    587000   0.30106657    -8.1350858     -7.6834923      1.0022214      50218.233      36.893836      36.893836      36.893836    
    588000   0.29950986    -8.1358689     -7.6866105      1.0060611      50218.233      36.893836      36.893836      36.893836    
    589000   0.29947948    -8.1373265     -7.6881137      0.98653141     50218.233      36.893836      36.893836      36.893836    
    590000   0.30129279    -8.1371721     -7.6852393      0.99409945     50218.233      36.893836      36.893836      36.893836    
    591000   0.30045576    -8.1380829     -7.6874057      0.99410855     50218.233      36.893836      36.893836      36.893836    
    592000   0.29975169    -8.1371345     -7.6875134      0.99009474     50218.233      36.893836      36.893836      36.893836    
    593000   0.30026111    -8.1376763     -7.687291       0.99697699     50218.233      36.893836      36.893836      36.893836    
    594000   0.29960532    -8.1384495     -7.6890479      0.98011874     50218.233      36.893836      36.893836      36.893836    
    595000   0.29923839    -8.136994      -7.6881428      0.99066248     50218.233      36.893836      36.893836      36.893836    
    596000   0.30119013    -8.1350003     -7.6832215      1.0082049      50218.233      36.893836      36.893836      36.893836    
    597000   0.29934309    -8.1361522     -7.687144       0.99183843     50218.233      36.893836      36.893836      36.893836    
    598000   0.29964401    -8.1374282     -7.6879686      0.98380009     50218.233      36.893836      36.893836      36.893836    
    599000   0.29975684    -8.1329643     -7.6833354      1.0214633      50218.233      36.893836      36.893836      36.893836    
    600000   0.30142423    -8.1369264     -7.6847965      0.99282507     50218.233      36.893836      36.893836      36.893836    
    601000   0.30093349    -8.1358821     -7.6844883      1.0037032      50218.233      36.893836      36.893836      36.893836    
    602000   0.2989538     -8.1364771     -7.6880528      0.99620178     50218.233      36.893836      36.893836      36.893836    
    603000   0.30065523    -8.1360472     -7.6850708      0.99678413     50218.233      36.893836      36.893836      36.893836    
    604000   0.29978678    -8.1360828     -7.686409       1.002225       50218.233      36.893836      36.893836      36.893836    
    605000   0.29946349    -8.1369004     -7.6877116      0.99325391     50218.233      36.893836      36.893836      36.893836    
    606000   0.30108795    -8.136269      -7.6846435      1.0036661      50218.233      36.893836      36.893836      36.893836    
    607000   0.29941258    -8.1363698     -7.6872573      0.99481844     50218.233      36.893836      36.893836      36.893836    
    608000   0.30146203    -8.1361076     -7.683921       1.0076878      50218.233      36.893836      36.893836      36.893836    
    609000   0.30127552    -8.1357712     -7.6838643      1.0095564      50218.233      36.893836      36.893836      36.893836    
    610000   0.29927195    -8.1354924     -7.6865909      1.0004338      50218.233      36.893836      36.893836      36.893836    
    611000   0.29808072    -8.1343172     -7.6872024      1.0134286      50218.233      36.893836      36.893836      36.893836    
    612000   0.29878154    -8.1374802     -7.6893142      0.99265536     50218.233      36.893836      36.893836      36.893836    
    613000   0.30117872    -8.1354541     -7.6836924      1.0061013      50218.233      36.893836      36.893836      36.893836    
    614000   0.30059296    -8.1356597     -7.6847766      0.99478009     50218.233      36.893836      36.893836      36.893836    
    615000   0.29961405    -8.1370751     -7.6876605      0.99286488     50218.233      36.893836      36.893836      36.893836    
    616000   0.30167325    -8.1346143     -7.6821109      1.0159729      50218.233      36.893836      36.893836      36.893836    
    617000   0.29913462    -8.1341957     -7.6855002      1.014986       50218.233      36.893836      36.893836      36.893836    
    618000   0.29995382    -8.1366021     -7.6866778      0.99702518     50218.233      36.893836      36.893836      36.893836    
    619000   0.30107771    -8.1340018     -7.6823916      1.0116277      50218.233      36.893836      36.893836      36.893836    
    620000   0.29883583    -8.135563      -7.6873156      0.99732241     50218.233      36.893836      36.893836      36.893836    
    621000   0.29981889    -8.135036      -7.685314       1.0088135      50218.233      36.893836      36.893836      36.893836    
    622000   0.29925303    -8.1360622     -7.687189       0.99636987     50218.233      36.893836      36.893836      36.893836    
    623000   0.30204279    -8.1357382     -7.6826804      1.0097517      50218.233      36.893836      36.893836      36.893836    
    624000   0.29988583    -8.1333953     -7.6835729      1.0189745      50218.233      36.893836      36.893836      36.893836    
    625000   0.29888959    -8.1352253     -7.6868973      1.0018391      50218.233      36.893836      36.893836      36.893836    
    626000   0.29953225    -8.1357198     -7.6864278      0.99853233     50218.233      36.893836      36.893836      36.893836    
    627000   0.30074684    -8.1366168     -7.685503       0.9989903      50218.233      36.893836      36.893836      36.893836    
    628000   0.29973815    -8.1324881     -7.6828873      1.0274706      50218.233      36.893836      36.893836      36.893836    
    629000   0.29936192    -8.1335138     -7.6844773      1.0168935      50218.233      36.893836      36.893836      36.893836    
    630000   0.29877676    -8.1354942     -7.6873355      1.0062321      50218.233      36.893836      36.893836      36.893836    
    631000   0.30033858    -8.1354515     -7.68495        1.0046331      50218.233      36.893836      36.893836      36.893836    
    632000   0.2984955     -8.1348996     -7.6871627      1.009502       50218.233      36.893836      36.893836      36.893836    
    633000   0.29954521    -8.1381023     -7.6887908      0.98536237     50218.233      36.893836      36.893836      36.893836    
    634000   0.29969317    -8.1361153     -7.6865819      1.0002013      50218.233      36.893836      36.893836      36.893836    
    635000   0.29952698    -8.1336516     -7.6843675      1.0246329      50218.233      36.893836      36.893836      36.893836    
    636000   0.30060357    -8.1358485     -7.6849495      0.999873       50218.233      36.893836      36.893836      36.893836    
    637000   0.29995229    -8.1370048     -7.6870828      0.99117193     50218.233      36.893836      36.893836      36.893836    
    638000   0.3007523     -8.1359994     -7.6848774      1.0006698      50218.233      36.893836      36.893836      36.893836    
    639000   0.30088545    -8.137921      -7.6865992      0.98446354     50218.233      36.893836      36.893836      36.893836    
    640000   0.29911968    -8.1350628     -7.6863897      1.0091381      50218.233      36.893836      36.893836      36.893836    
    641000   0.30066952    -8.1368573     -7.6858595      0.99578466     50218.233      36.893836      36.893836      36.893836    
    642000   0.3011413     -8.1343515     -7.682646       1.0185091      50218.233      36.893836      36.893836      36.893836    
    643000   0.30038344    -8.1365384     -7.6859696      0.99429056     50218.233      36.893836      36.893836      36.893836    
    644000   0.2997024     -8.1330386     -7.6834914      1.0280515      50218.233      36.893836      36.893836      36.893836    
    645000   0.30147342    -8.1362711     -7.6840674      1.0022477      50218.233      36.893836      36.893836      36.893836    
    646000   0.29948583    -8.1349063     -7.6856839      1.0107467      50218.233      36.893836      36.893836      36.893836    
    647000   0.29855922    -8.138399      -7.6905666      0.97948038     50218.233      36.893836      36.893836      36.893836    
    648000   0.29944498    -8.1370812     -7.6879201      0.98967087     50218.233      36.893836      36.893836      36.893836    
    649000   0.30043503    -8.1361472     -7.685501       0.99611132     50218.233      36.893836      36.893836      36.893836    
    650000   0.29951188    -8.1367946     -7.6875331      0.98914044     50218.233      36.893836      36.893836      36.893836    
    651000   0.30036249    -8.1362177     -7.6856804      0.99514966     50218.233      36.893836      36.893836      36.893836    
    652000   0.30025499    -8.1383994     -7.6880233      0.98011429     50218.233      36.893836      36.893836      36.893836    
    653000   0.29991634    -8.1385313     -7.6886632      0.98314674     50218.233      36.893836      36.893836      36.893836    
    654000   0.29931038    -8.1391347     -7.6901755      0.98432441     50218.233      36.893836      36.893836      36.893836    
    655000   0.30019541    -8.1348824     -7.6845957      1.0090739      50218.233      36.893836      36.893836      36.893836    
    656000   0.30036325    -8.135584      -7.6850456      1.0045647      50218.233      36.893836      36.893836      36.893836    
    657000   0.29893328    -8.1379835     -7.68959        0.98206718     50218.233      36.893836      36.893836      36.893836    
    658000   0.30039565    -8.1371514     -7.6865643      0.98475889     50218.233      36.893836      36.893836      36.893836    
    659000   0.30045913    -8.1354969     -7.6848146      1.0022365      50218.233      36.893836      36.893836      36.893836    
    660000   0.29834002    -8.135464      -7.6879604      0.99783406     50218.233      36.893836      36.893836      36.893836    
    661000   0.30004267    -8.1377572     -7.6876996      0.98784551     50218.233      36.893836      36.893836      36.893836    
    662000   0.29997348    -8.1369969     -7.6870431      0.99916701     50218.233      36.893836      36.893836      36.893836    
    663000   0.29921254    -8.13692       -7.6881076      0.98160885     50218.233      36.893836      36.893836      36.893836    
    664000   0.3005076     -8.1344345     -7.6836795      1.0173286      50218.233      36.893836      36.893836      36.893836    
    665000   0.29868955    -8.1347865     -7.6867586      1.008803       50218.233      36.893836      36.893836      36.893836    
    666000   0.29933026    -8.1340614     -7.6850724      1.019061       50218.233      36.893836      36.893836      36.893836    
    667000   0.30037666    -8.1373549     -7.6867963      0.99265521     50218.233      36.893836      36.893836      36.893836    
    668000   0.29800231    -8.1346749     -7.6876778      1.0061007      50218.233      36.893836      36.893836      36.893836    
    669000   0.3000038     -8.1379737     -7.6879744      0.98634282     50218.233      36.893836      36.893836      36.893836    
    670000   0.30059271    -8.1322047     -7.6813221      1.0289528      50218.233      36.893836      36.893836      36.893836    
    671000   0.30035143    -8.1363838     -7.6858631      0.9936419      50218.233      36.893836      36.893836      36.893836    
    672000   0.301753      -8.1342338     -7.6816107      1.0218931      50218.233      36.893836      36.893836      36.893836    
    673000   0.30033628    -8.1347169     -7.6842189      1.0106065      50218.233      36.893836      36.893836      36.893836    
    674000   0.3001299     -8.1342416     -7.6840532      1.01621        50218.233      36.893836      36.893836      36.893836    
    675000   0.29847851    -8.1349776     -7.6872662      1.0072837      50218.233      36.893836      36.893836      36.893836    
    676000   0.29919157    -8.1349191     -7.6861382      1.010708       50218.233      36.893836      36.893836      36.893836    
    677000   0.29955216    -8.133024      -7.6837022      1.0190814      50218.233      36.893836      36.893836      36.893836    
    678000   0.30127681    -8.1349954     -7.6830866      1.0093734      50218.233      36.893836      36.893836      36.893836    
    679000   0.30083131    -8.1352078     -7.6839673      1.006049       50218.233      36.893836      36.893836      36.893836    
    680000   0.30068785    -8.1377972     -7.6867719      0.98522432     50218.233      36.893836      36.893836      36.893836    
    681000   0.30019406    -8.1343552     -7.6840705      1.0167154      50218.233      36.893836      36.893836      36.893836    
    682000   0.30146894    -8.1340221     -7.6818251      1.0193924      50218.233      36.893836      36.893836      36.893836    
    683000   0.30013132    -8.1356153     -7.6854247      0.99895171     50218.233      36.893836      36.893836      36.893836    
    684000   0.29811455    -8.1371442     -7.6899788      0.98686736     50218.233      36.893836      36.893836      36.893836    
    685000   0.29922908    -8.1342212     -7.685384       1.0125358      50218.233      36.893836      36.893836      36.893836    
    686000   0.3011984     -8.1358072     -7.684016       1.0033624      50218.233      36.893836      36.893836      36.893836    
    687000   0.29972931    -8.1371284     -7.6875408      0.98780204     50218.233      36.893836      36.893836      36.893836    
    688000   0.30136119    -8.1353187     -7.6832833      1.0105981      50218.233      36.893836      36.893836      36.893836    
    689000   0.30039545    -8.1354607     -7.684874       1.0011791      50218.233      36.893836      36.893836      36.893836    
    690000   0.30109666    -8.1361844     -7.6845459      0.99720652     50218.233      36.893836      36.893836      36.893836    
    691000   0.30058122    -8.1367929     -7.6859274      1.0001721      50218.233      36.893836      36.893836      36.893836    
    692000   0.30041651    -8.1388063     -7.688188       0.98048097     50218.233      36.893836      36.893836      36.893836    
    693000   0.30033735    -8.1360129     -7.6855133      1.0037213      50218.233      36.893836      36.893836      36.893836    
    694000   0.29950666    -8.1381048     -7.6888512      0.98315893     50218.233      36.893836      36.893836      36.893836    
    695000   0.29869304    -8.1361662     -7.688133       0.9900091      50218.233      36.893836      36.893836      36.893836    
    696000   0.29987569    -8.1390716     -7.6892645      0.97623509     50218.233      36.893836      36.893836      36.893836    
    697000   0.29962043    -8.1368149     -7.6873907      0.99331736     50218.233      36.893836      36.893836      36.893836    
    698000   0.29907333    -8.1354695     -7.6868659      0.99925839     50218.233      36.893836      36.893836      36.893836    
    699000   0.30103296    -8.1358115     -7.6842685      0.99841303     50218.233      36.893836      36.893836      36.893836    
    700000   0.29961787    -8.1386636     -7.6892432      0.9779762      50218.233      36.893836      36.893836      36.893836    
    701000   0.29869056    -8.1375534     -7.6895239      0.99448779     50218.233      36.893836      36.893836      36.893836    
    702000   0.29953245    -8.1362149     -7.6869226      0.99848906     50218.233      36.893836      36.893836      36.893836    
    703000   0.30057427    -8.1391532     -7.6882982      0.97572351     50218.233      36.893836      36.893836      36.893836    
    704000   0.30035175    -8.1381512     -7.68763        0.98489112     50218.233      36.893836      36.893836      36.893836    
    705000   0.29875812    -8.1383312     -7.6902004      0.9822712      50218.233      36.893836      36.893836      36.893836    
    706000   0.29962468    -8.1333642     -7.6839336      1.0276553      50218.233      36.893836      36.893836      36.893836    
    707000   0.29923161    -8.1355114     -7.6866704      1.0107256      50218.233      36.893836      36.893836      36.893836    
    708000   0.29872978    -8.1352476     -7.6871593      0.99885863     50218.233      36.893836      36.893836      36.893836    
    709000   0.29989396    -8.1374102     -7.6875757      0.98925111     50218.233      36.893836      36.893836      36.893836    
    710000   0.30150073    -8.1352321     -7.6829874      1.0061983      50218.233      36.893836      36.893836      36.893836    
    711000   0.2998277     -8.1336637     -7.6839286      1.0222528      50218.233      36.893836      36.893836      36.893836    
    712000   0.30018304    -8.1355598     -7.6852917      1.0024432      50218.233      36.893836      36.893836      36.893836    
    713000   0.30093914    -8.1352809     -7.6838786      1.0064361      50218.233      36.893836      36.893836      36.893836    
    714000   0.30141036    -8.1339047     -7.6817956      1.0259161      50218.233      36.893836      36.893836      36.893836    
    715000   0.30116674    -8.1346382     -7.6828945      1.0065827      50218.233      36.893836      36.893836      36.893836    
    716000   0.29978705    -8.1353437     -7.6856695      1.0050528      50218.233      36.893836      36.893836      36.893836    
    717000   0.30070156    -8.1368866     -7.6858407      0.99489575     50218.233      36.893836      36.893836      36.893836    
    718000   0.30037709    -8.1349042     -7.6843449      1.0081717      50218.233      36.893836      36.893836      36.893836    
    719000   0.30011254    -8.1366335     -7.6864711      0.99723849     50218.233      36.893836      36.893836      36.893836    
    720000   0.29966459    -8.1352499     -7.6857595      1.0009161      50218.233      36.893836      36.893836      36.893836    
    721000   0.29894417    -8.1368652     -7.6884553      0.99416346     50218.233      36.893836      36.893836      36.893836    
    722000   0.29969104    -8.1349825     -7.6854523      1.0109316      50218.233      36.893836      36.893836      36.893836    
    723000   0.29978165    -8.1356218     -7.6859557      1.0023063      50218.233      36.893836      36.893836      36.893836    
    724000   0.30080659    -8.1352938     -7.6840904      1.0145367      50218.233      36.893836      36.893836      36.893836    
    725000   0.29827155    -8.1353437     -7.6879427      1.0099683      50218.233      36.893836      36.893836      36.893836    
    726000   0.30014294    -8.1352323     -7.6850243      1.0126523      50218.233      36.893836      36.893836      36.893836    
    727000   0.30001072    -8.1355043     -7.6854947      1.0052093      50218.233      36.893836      36.893836      36.893836    
    728000   0.30069308    -8.1354805     -7.6844473      1.0114385      50218.233      36.893836      36.893836      36.893836    
    729000   0.30187751    -8.1338514     -7.6810416      1.0182157      50218.233      36.893836      36.893836      36.893836    
    730000   0.29903782    -8.1342545     -7.6857042      1.021297       50218.233      36.893836      36.893836      36.893836    
    731000   0.29868456    -8.1351512     -7.6871307      1.0021063      50218.233      36.893836      36.893836      36.893836    
    732000   0.30078389    -8.1341538     -7.6829844      1.0157941      50218.233      36.893836      36.893836      36.893836    
    733000   0.30031107    -8.1349491     -7.6844889      1.0072139      50218.233      36.893836      36.893836      36.893836    
    734000   0.29834005    -8.1369509     -7.6894472      0.98905034     50218.233      36.893836      36.893836      36.893836    
    735000   0.2972958     -8.1366231     -7.6906858      0.99552541     50218.233      36.893836      36.893836      36.893836    
    736000   0.30045375    -8.1360846     -7.6854104      1.0005769      50218.233      36.893836      36.893836      36.893836    
    737000   0.29928473    -8.1368465     -7.6879257      0.98995488     50218.233      36.893836      36.893836      36.893836    
    738000   0.30017677    -8.135636      -7.6853772      1.0053727      50218.233      36.893836      36.893836      36.893836    
    739000   0.2996768     -8.1341761     -7.6846672      1.0144483      50218.233      36.893836      36.893836      36.893836    
    740000   0.30030542    -8.1372336     -7.6867819      0.99916105     50218.233      36.893836      36.893836      36.893836    
    741000   0.29989234    -8.134126      -7.6842938      1.0119915      50218.233      36.893836      36.893836      36.893836    
    742000   0.29964116    -8.1362573     -7.6868019      0.99265259     50218.233      36.893836      36.893836      36.893836    
    743000   0.30086434    -8.1354506     -7.6841605      1.0024145      50218.233      36.893836      36.893836      36.893836    
    744000   0.29806858    -8.1364292     -7.6893326      0.99511324     50218.233      36.893836      36.893836      36.893836    
    745000   0.30144881    -8.1369171     -7.6847504      0.99368823     50218.233      36.893836      36.893836      36.893836    
    746000   0.29946344    -8.1366194     -7.6874306      0.99643848     50218.233      36.893836      36.893836      36.893836    
    747000   0.30050464    -8.1366819     -7.6859313      0.9976487      50218.233      36.893836      36.893836      36.893836    
    748000   0.30164041    -8.1367712     -7.6843171      0.99420605     50218.233      36.893836      36.893836      36.893836    
    749000   0.29979995    -8.1361177     -7.6864242      0.99719166     50218.233      36.893836      36.893836      36.893836    
    750000   0.29973316    -8.1364396     -7.6868463      0.98750814     50218.233      36.893836      36.893836      36.893836    
    751000   0.29838449    -8.1364253     -7.6888549      0.99805698     50218.233      36.893836      36.893836      36.893836    
    752000   0.30049919    -8.1347292     -7.6839868      1.0102619      50218.233      36.893836      36.893836      36.893836    
    753000   0.29867812    -8.1361898     -7.688179       1.0009882      50218.233      36.893836      36.893836      36.893836    
    754000   0.29995721    -8.1364666     -7.6865372      0.99300091     50218.233      36.893836      36.893836      36.893836    
    755000   0.29876966    -8.1362512     -7.6881031      1.0025891      50218.233      36.893836      36.893836      36.893836    
    756000   0.29958711    -8.1369408     -7.6875665      0.99250443     50218.233      36.893836      36.893836      36.893836    
    757000   0.30086798    -8.1348917     -7.6835962      1.0123039      50218.233      36.893836      36.893836      36.893836    
    758000   0.2992176     -8.1376841     -7.6888641      0.98211977     50218.233      36.893836      36.893836      36.893836    
    759000   0.29939167    -8.1330134     -7.6839323      1.0288567      50218.233      36.893836      36.893836      36.893836    
    760000   0.30014619    -8.1372351     -7.6870222      0.99095879     50218.233      36.893836      36.893836      36.893836    
    761000   0.2998194     -8.1362939     -7.6865711      1.0049938      50218.233      36.893836      36.893836      36.893836    
    762000   0.29912725    -8.1364799     -7.6877954      1.0007283      50218.233      36.893836      36.893836      36.893836    
    763000   0.30019841    -8.1360761     -7.6857849      1.0025542      50218.233      36.893836      36.893836      36.893836    
    764000   0.29932635    -8.1355682     -7.6865851      0.99304353     50218.233      36.893836      36.893836      36.893836    
    765000   0.29829156    -8.1371934     -7.6897624      0.9870794      50218.233      36.893836      36.893836      36.893836    
    766000   0.30101223    -8.1355404     -7.6840285      1.0112086      50218.233      36.893836      36.893836      36.893836    
    767000   0.30091455    -8.1340767     -7.6827113      1.0146231      50218.233      36.893836      36.893836      36.893836    
    768000   0.29938071    -8.1361498     -7.6870851      0.99546143     50218.233      36.893836      36.893836      36.893836    
    769000   0.29823409    -8.135654      -7.6883092      0.99663006     50218.233      36.893836      36.893836      36.893836    
    770000   0.30174446    -8.1354898     -7.6828796      1.01267        50218.233      36.893836      36.893836      36.893836    
    771000   0.30055919    -8.1374622     -7.6866299      0.99157722     50218.233      36.893836      36.893836      36.893836    
    772000   0.29870425    -8.1381082     -7.6900582      0.99141255     50218.233      36.893836      36.893836      36.893836    
    773000   0.30064678    -8.1341827     -7.683219       1.0110494      50218.233      36.893836      36.893836      36.893836    
    774000   0.30163695    -8.1342331     -7.6817841      1.0142702      50218.233      36.893836      36.893836      36.893836    
    775000   0.30036909    -8.1379368     -7.6873895      0.98494985     50218.233      36.893836      36.893836      36.893836    
    776000   0.30074964    -8.1345559     -7.6834379      1.0168621      50218.233      36.893836      36.893836      36.893836    
    777000   0.29967001    -8.1345947     -7.6850961      1.0042323      50218.233      36.893836      36.893836      36.893836    
    778000   0.30035615    -8.1351765     -7.6846487      1.015186       50218.233      36.893836      36.893836      36.893836    
    779000   0.30100721    -8.1349343     -7.6834299      1.0144912      50218.233      36.893836      36.893836      36.893836    
    780000   0.30062586    -8.1324022     -7.6814698      1.0306008      50218.233      36.893836      36.893836      36.893836    
    781000   0.30152627    -8.1368182     -7.6845352      0.99406877     50218.233      36.893836      36.893836      36.893836    
    782000   0.30034101    -8.1365509     -7.6860458      0.99767087     50218.233      36.893836      36.893836      36.893836    
    783000   0.29928853    -8.1371848     -7.6882584      0.98975871     50218.233      36.893836      36.893836      36.893836    
    784000   0.30073944    -8.1371314     -7.6860286      0.98876103     50218.233      36.893836      36.893836      36.893836    
    785000   0.3002988     -8.1349253     -7.6844835      1.009572       50218.233      36.893836      36.893836      36.893836    
    786000   0.3003833     -8.1374849     -7.6869164      0.9900597      50218.233      36.893836      36.893836      36.893836    
    787000   0.30110587    -8.1369736     -7.6853212      0.98623687     50218.233      36.893836      36.893836      36.893836    
    788000   0.29956699    -8.1340114     -7.6846673      1.0099733      50218.233      36.893836      36.893836      36.893836    
    789000   0.30122041    -8.1361341     -7.6843099      1.0008876      50218.233      36.893836      36.893836      36.893836    
    790000   0.29875665    -8.1348217     -7.6866931      1.0081258      50218.233      36.893836      36.893836      36.893836    
    791000   0.29857772    -8.1373983     -7.6895381      0.98508002     50218.233      36.893836      36.893836      36.893836    
    792000   0.29887612    -8.1378769     -7.6895691      0.98344474     50218.233      36.893836      36.893836      36.893836    
    793000   0.30202682    -8.1355046     -7.6824708      1.0056546      50218.233      36.893836      36.893836      36.893836    
    794000   0.29912343    -8.133824      -7.6851452      1.0096973      50218.233      36.893836      36.893836      36.893836    
    795000   0.29842808    -8.1380576     -7.6904218      0.98504981     50218.233      36.893836      36.893836      36.893836    
    796000   0.2996082     -8.13734       -7.6879341      0.98842762     50218.233      36.893836      36.893836      36.893836    
    797000   0.29988903    -8.1376225     -7.6877954      0.98925201     50218.233      36.893836      36.893836      36.893836    
    798000   0.30006636    -8.1367128     -7.6866197      0.99458155     50218.233      36.893836      36.893836      36.893836    
    799000   0.30186545    -8.135918      -7.6831262      1.013416       50218.233      36.893836      36.893836      36.893836    
    800000   0.29901312    -8.1365236     -7.6880103      1.0021589      50218.233      36.893836      36.893836      36.893836    
    801000   0.29977783    -8.1370644     -7.687404       0.99720569     50218.233      36.893836      36.893836      36.893836    
    802000   0.30040122    -8.1371232     -7.6865278      0.98710291     50218.233      36.893836      36.893836      36.893836    
    803000   0.29919298    -8.1346983     -7.6859152      1.006846       50218.233      36.893836      36.893836      36.893836    
    804000   0.29997678    -8.1366457     -7.686687       0.99396403     50218.233      36.893836      36.893836      36.893836    
    805000   0.29990767    -8.1372123     -7.6873572      0.98912434     50218.233      36.893836      36.893836      36.893836    
    806000   0.30029631    -8.135982      -7.685544       1.0065667      50218.233      36.893836      36.893836      36.893836    
    807000   0.29834926    -8.1371907     -7.6896732      0.99047046     50218.233      36.893836      36.893836      36.893836    
    808000   0.30026813    -8.1349205     -7.6845247      1.00476        50218.233      36.893836      36.893836      36.893836    
    809000   0.29911608    -8.1379658     -7.689298       0.98732974     50218.233      36.893836      36.893836      36.893836    
    810000   0.30074872    -8.1387059     -7.6875893      0.98677312     50218.233      36.893836      36.893836      36.893836    
    811000   0.29971444    -8.1349275     -7.6853622      0.99980855     50218.233      36.893836      36.893836      36.893836    
    812000   0.30075511    -8.1367255     -7.6855993      0.99756382     50218.233      36.893836      36.893836      36.893836    
    813000   0.30057446    -8.1382144     -7.6873591      0.98290402     50218.233      36.893836      36.893836      36.893836    
    814000   0.30096834    -8.1395604     -7.6881143      0.97074933     50218.233      36.893836      36.893836      36.893836    
    815000   0.30006114    -8.1351229     -7.6850376      1.0118224      50218.233      36.893836      36.893836      36.893836    
    816000   0.29890958    -8.134628      -7.6862701      1.0100024      50218.233      36.893836      36.893836      36.893836    
    817000   0.3005458     -8.1348204     -7.6840081      1.0166787      50218.233      36.893836      36.893836      36.893836    
    818000   0.30108268    -8.1343816     -7.682764       1.0125694      50218.233      36.893836      36.893836      36.893836    
    819000   0.29827336    -8.1343613     -7.6869576      1.0125038      50218.233      36.893836      36.893836      36.893836    
    820000   0.30055026    -8.1365042     -7.6856852      0.99797461     50218.233      36.893836      36.893836      36.893836    
    821000   0.30051739    -8.1365906     -7.6858209      1.0005389      50218.233      36.893836      36.893836      36.893836    
    822000   0.29943956    -8.1359381     -7.6867852      0.99414581     50218.233      36.893836      36.893836      36.893836    
    823000   0.29662354    -8.1355027     -7.6905737      0.99889486     50218.233      36.893836      36.893836      36.893836    
    824000   0.29976425    -8.1350145     -7.6853745      1.0109226      50218.233      36.893836      36.893836      36.893836    
    825000   0.29902711    -8.136857      -7.6883227      0.99606178     50218.233      36.893836      36.893836      36.893836    
    826000   0.30064852    -8.1339454     -7.6829791      1.0123264      50218.233      36.893836      36.893836      36.893836    
    827000   0.30091213    -8.1344192     -7.6830574      1.0144346      50218.233      36.893836      36.893836      36.893836    
    828000   0.30170963    -8.1327901     -7.680232       1.0319414      50218.233      36.893836      36.893836      36.893836    
    829000   0.29961291    -8.1345625     -7.6851495      1.0163833      50218.233      36.893836      36.893836      36.893836    
    830000   0.29879083    -8.1351934     -7.6870135      1.005723       50218.233      36.893836      36.893836      36.893836    
    831000   0.30063423    -8.1348541     -7.6839092      1.0047305      50218.233      36.893836      36.893836      36.893836    
    832000   0.3000571     -8.1339182     -7.6838389      1.0185982      50218.233      36.893836      36.893836      36.893836    
    833000   0.30191176    -8.1351605     -7.6822993      1.0053717      50218.233      36.893836      36.893836      36.893836    
    834000   0.29882082    -8.1347861     -7.6865612      1.0167245      50218.233      36.893836      36.893836      36.893836    
    835000   0.30049737    -8.1355624     -7.6848227      0.99847167     50218.233      36.893836      36.893836      36.893836    
    836000   0.30132004    -8.1344593     -7.6824857      1.0155974      50218.233      36.893836      36.893836      36.893836    
    837000   0.30098553    -8.1365146     -7.6850427      0.99996725     50218.233      36.893836      36.893836      36.893836    
    838000   0.30069135    -8.1361382     -7.6851076      1.0021703      50218.233      36.893836      36.893836      36.893836    
    839000   0.29957646    -8.135394      -7.6860357      0.99793422     50218.233      36.893836      36.893836      36.893836    
    840000   0.30024844    -8.1362307     -7.6858645      1.0004203      50218.233      36.893836      36.893836      36.893836    
    841000   0.30231425    -8.1366426     -7.6831777      1.003468       50218.233      36.893836      36.893836      36.893836    
    842000   0.29988451    -8.1336966     -7.6838763      1.020742       50218.233      36.893836      36.893836      36.893836    
    843000   0.2990949     -8.1347804     -7.6861444      1.0060726      50218.233      36.893836      36.893836      36.893836    
    844000   0.2985839     -8.1366282     -7.6887587      1.0018132      50218.233      36.893836      36.893836      36.893836    
    845000   0.299092      -8.1405365     -7.6919049      0.96373348     50218.233      36.893836      36.893836      36.893836    
    846000   0.30112765    -8.1379279     -7.6862428      0.99163988     50218.233      36.893836      36.893836      36.893836    
    847000   0.30176936    -8.1389558     -7.6863082      0.98403328     50218.233      36.893836      36.893836      36.893836    
    848000   0.29841491    -8.1374104     -7.6897944      0.9914704      50218.233      36.893836      36.893836      36.893836    
    849000   0.30014522    -8.1376428     -7.6874314      0.99052548     50218.233      36.893836      36.893836      36.893836    
    850000   0.3002972     -8.1377066     -7.6872672      0.98125702     50218.233      36.893836      36.893836      36.893836    
    851000   0.30088491    -8.1336677     -7.6823468      1.0171424      50218.233      36.893836      36.893836      36.893836    
    852000   0.30135427    -8.1377604     -7.6857354      0.9893873      50218.233      36.893836      36.893836      36.893836    
    853000   0.30006375    -8.1358929     -7.6858036      0.99098572     50218.233      36.893836      36.893836      36.893836    
    854000   0.29973352    -8.1370019     -7.687408       0.99118177     50218.233      36.893836      36.893836      36.893836    
    855000   0.29998912    -8.1360354     -7.6860581      1.0034745      50218.233      36.893836      36.893836      36.893836    
    856000   0.29970361    -8.1346126     -7.6850636      1.0085101      50218.233      36.893836      36.893836      36.893836    
    857000   0.30025818    -8.1358968     -7.6855159      1.0060164      50218.233      36.893836      36.893836      36.893836    
    858000   0.30049343    -8.1349989     -7.6842652      1.010717       50218.233      36.893836      36.893836      36.893836    
    859000   0.29985521    -8.1342663     -7.6844899      1.020256       50218.233      36.893836      36.893836      36.893836    
    860000   0.30027799    -8.1379673     -7.6875567      0.9873749      50218.233      36.893836      36.893836      36.893836    
    861000   0.30068756    -8.1356787     -7.6846538      0.99780821     50218.233      36.893836      36.893836      36.893836    
    862000   0.29824079    -8.1386777     -7.6913229      0.96917453     50218.233      36.893836      36.893836      36.893836    
    863000   0.29954152    -8.1344723     -7.6851664      1.0118525      50218.233      36.893836      36.893836      36.893836    
    864000   0.29822849    -8.1321567     -7.6848203      1.0218321      50218.233      36.893836      36.893836      36.893836    
    865000   0.29959837    -8.1345076     -7.6851164      1.0068164      50218.233      36.893836      36.893836      36.893836    
    866000   0.29933187    -8.1361043     -7.6871129      0.99758069     50218.233      36.893836      36.893836      36.893836    
    867000   0.29951661    -8.1370749     -7.6878064      0.98191821     50218.233      36.893836      36.893836      36.893836    
    868000   0.30100195    -8.1343578     -7.6828613      1.0152088      50218.233      36.893836      36.893836      36.893836    
    869000   0.29907404    -8.1350663     -7.6864617      1.0101385      50218.233      36.893836      36.893836      36.893836    
    870000   0.30015801    -8.1358346     -7.685604       1.0075955      50218.233      36.893836      36.893836      36.893836    
    871000   0.2983256     -8.1353022     -7.6878202      1.0011838      50218.233      36.893836      36.893836      36.893836    
    872000   0.29968024    -8.134425      -7.684911       1.0142426      50218.233      36.893836      36.893836      36.893836    
    873000   0.30102976    -8.1358716     -7.6843334      1.0045354      50218.233      36.893836      36.893836      36.893836    
    874000   0.29925466    -8.1350585     -7.6861829      1.00943        50218.233      36.893836      36.893836      36.893836    
    875000   0.29999068    -8.1355411     -7.6855615      0.99707159     50218.233      36.893836      36.893836      36.893836    
    876000   0.29893149    -8.135377      -7.6869861      0.99960628     50218.233      36.893836      36.893836      36.893836    
    877000   0.29871857    -8.1367417     -7.6886702      0.98789281     50218.233      36.893836      36.893836      36.893836    
    878000   0.29927452    -8.1378003     -7.6888949      0.98308305     50218.233      36.893836      36.893836      36.893836    
    879000   0.29932431    -8.1349412     -7.6859612      0.99796697     50218.233      36.893836      36.893836      36.893836    
    880000   0.29943788    -8.1336963     -7.6845459      1.0180782      50218.233      36.893836      36.893836      36.893836    
    881000   0.29979865    -8.1344995     -7.6848079      1.0123721      50218.233      36.893836      36.893836      36.893836    
    882000   0.30123906    -8.1362193     -7.6843671      1.00224        50218.233      36.893836      36.893836      36.893836    
    883000   0.30093428    -8.134634      -7.683239       1.0190609      50218.233      36.893836      36.893836      36.893836    
    884000   0.30091548    -8.1365445     -7.6851777      1.0008738      50218.233      36.893836      36.893836      36.893836    
    885000   0.30080955    -8.1355932     -7.6843853      1.0005688      50218.233      36.893836      36.893836      36.893836    
    886000   0.2985172     -8.1342108     -7.6864414      1.0119481      50218.233      36.893836      36.893836      36.893836    
    887000   0.30118926    -8.1342263     -7.6824488      1.0144685      50218.233      36.893836      36.893836      36.893836    
    888000   0.29960724    -8.137097      -7.6876925      0.9889853      50218.233      36.893836      36.893836      36.893836    
    889000   0.30022471    -8.1347775     -7.6844468      1.0152648      50218.233      36.893836      36.893836      36.893836    
    890000   0.29895244    -8.1384476     -7.6900253      0.97463709     50218.233      36.893836      36.893836      36.893836    
    891000   0.29867845    -8.1381011     -7.6900898      0.97853244     50218.233      36.893836      36.893836      36.893836    
    892000   0.30059739    -8.1362525     -7.6853628      0.99968028     50218.233      36.893836      36.893836      36.893836    
    893000   0.30065359    -8.1363613     -7.6853873      0.99937553     50218.233      36.893836      36.893836      36.893836    
    894000   0.29918538    -8.136833      -7.6880613      0.99406759     50218.233      36.893836      36.893836      36.893836    
    895000   0.29947507    -8.1349394     -7.6857332      0.99490728     50218.233      36.893836      36.893836      36.893836    
    896000   0.29961942    -8.1371623     -7.6877396      0.99094481     50218.233      36.893836      36.893836      36.893836    
    897000   0.2998328     -8.1395955     -7.6898527      0.97946655     50218.233      36.893836      36.893836      36.893836    
    898000   0.30014449    -8.1376376     -7.6874273      0.98084218     50218.233      36.893836      36.893836      36.893836    
    899000   0.30087502    -8.1377307     -7.6864246      0.98939638     50218.233      36.893836      36.893836      36.893836    
    900000   0.30113434    -8.1385754     -7.6868803      0.98385689     50218.233      36.893836      36.893836      36.893836    
    901000   0.29986659    -8.1360385     -7.686245       0.98930098     50218.233      36.893836      36.893836      36.893836    
    902000   0.30027889    -8.1362064     -7.6857945      0.99398571     50218.233      36.893836      36.893836      36.893836    
    903000   0.30068375    -8.1377512     -7.686732       0.99456051     50218.233      36.893836      36.893836      36.893836    
    904000   0.29898624    -8.1375243     -7.6890513      0.98395138     50218.233      36.893836      36.893836      36.893836    
    905000   0.29855531    -8.1373688     -7.6895422      0.9865079      50218.233      36.893836      36.893836      36.893836    
    906000   0.30018258    -8.1341967     -7.6839293      1.0180081      50218.233      36.893836      36.893836      36.893836    
    907000   0.30065432    -8.1373768     -7.6864017      0.99690204     50218.233      36.893836      36.893836      36.893836    
    908000   0.29978489    -8.1374297     -7.6877588      0.99862335     50218.233      36.893836      36.893836      36.893836    
    909000   0.29855675    -8.1353308     -7.687502       1.0017014      50218.233      36.893836      36.893836      36.893836    
    910000   0.29978142    -8.1372472     -7.6875815      0.99046113     50218.233      36.893836      36.893836      36.893836    
    911000   0.29998522    -8.1342812     -7.6843098      1.0164694      50218.233      36.893836      36.893836      36.893836    
    912000   0.29930803    -8.1368577     -7.6879021      0.99917625     50218.233      36.893836      36.893836      36.893836    
    913000   0.30066493    -8.1353801     -7.6843891      1.0122484      50218.233      36.893836      36.893836      36.893836    
    914000   0.30098621    -8.1386858     -7.6872129      0.98393745     50218.233      36.893836      36.893836      36.893836    
    915000   0.30003359    -8.136         -7.6859561      1.0048354      50218.233      36.893836      36.893836      36.893836    
    916000   0.29967215    -8.1349411     -7.6854393      1.0181489      50218.233      36.893836      36.893836      36.893836    
    917000   0.30035126    -8.1371097     -7.6865892      0.99007971     50218.233      36.893836      36.893836      36.893836    
    918000   0.30121862    -8.134248      -7.6824265      1.0114117      50218.233      36.893836      36.893836      36.893836    
    919000   0.30062859    -8.1354946     -7.6845581      1.0031983      50218.233      36.893836      36.893836      36.893836    
    920000   0.30028042    -8.135568      -7.6851538      1.0015236      50218.233      36.893836      36.893836      36.893836    
    921000   0.30057435    -8.1340036     -7.6831485      1.0180486      50218.233      36.893836      36.893836      36.893836    
    922000   0.30057097    -8.1374253     -7.6865753      0.98882234     50218.233      36.893836      36.893836      36.893836    
    923000   0.30097347    -8.1380811     -7.6866273      0.98730229     50218.233      36.893836      36.893836      36.893836    
    924000   0.29805735    -8.1347085     -7.6876288      1.0026435      50218.233      36.893836      36.893836      36.893836    
    925000   0.30002324    -8.1349094     -7.6848809      1.0039345      50218.233      36.893836      36.893836      36.893836    
    926000   0.30070423    -8.1320917     -7.6810418      1.0287587      50218.233      36.893836      36.893836      36.893836    
    927000   0.2986689     -8.137966      -7.689969       0.98626649     50218.233      36.893836      36.893836      36.893836    
    928000   0.29973871    -8.1357545     -7.6861528      0.99890424     50218.233      36.893836      36.893836      36.893836    
    929000   0.29952832    -8.133629      -7.6843429      1.0132951      50218.233      36.893836      36.893836      36.893836    
    930000   0.29883072    -8.1334453     -7.6852056      1.0212906      50218.233      36.893836      36.893836      36.893836    
    931000   0.29912127    -8.1354282     -7.6867527      0.99433562     50218.233      36.893836      36.893836      36.893836    
    932000   0.29857412    -8.1369206     -7.6890658      0.98837689     50218.233      36.893836      36.893836      36.893836    
    933000   0.29860198    -8.1354166     -7.68752        0.99708756     50218.233      36.893836      36.893836      36.893836    
    934000   0.30069719    -8.1360198     -7.6849804      0.99690195     50218.233      36.893836      36.893836      36.893836    
    935000   0.30018125    -8.1337772     -7.6835118      1.0254496      50218.233      36.893836      36.893836      36.893836    
    936000   0.3001722     -8.1367406     -7.6864887      0.99222675     50218.233      36.893836      36.893836      36.893836    
    937000   0.29912769    -8.136408      -7.6877229      0.99272571     50218.233      36.893836      36.893836      36.893836    
    938000   0.29835326    -8.1400083     -7.6924848      0.9663748      50218.233      36.893836      36.893836      36.893836    
    939000   0.30018113    -8.1352978     -7.6850325      1.0094829      50218.233      36.893836      36.893836      36.893836    
    940000   0.30075308    -8.1358108     -7.6846875      1.003005       50218.233      36.893836      36.893836      36.893836    
    941000   0.29999704    -8.1373153     -7.6873262      0.98381936     50218.233      36.893836      36.893836      36.893836    
    942000   0.29746521    -8.1373711     -7.6911797      0.99289849     50218.233      36.893836      36.893836      36.893836    
    943000   0.30036216    -8.1344911     -7.6839542      1.0125044      50218.233      36.893836      36.893836      36.893836    
    944000   0.30088041    -8.136742      -7.6854278      0.99738082     50218.233      36.893836      36.893836      36.893836    
    945000   0.30139577    -8.1354661     -7.6833788      1.0078279      50218.233      36.893836      36.893836      36.893836    
    946000   0.30149817    -8.1373537     -7.6851129      0.99515969     50218.233      36.893836      36.893836      36.893836    
    947000   0.30092302    -8.1376024     -7.6862243      0.98158493     50218.233      36.893836      36.893836      36.893836    
    948000   0.29955502    -8.137543      -7.6882169      0.9898165      50218.233      36.893836      36.893836      36.893836    
    949000   0.30051198    -8.1374778     -7.6867162      0.98973273     50218.233      36.893836      36.893836      36.893836    
    950000   0.30026279    -8.1378905     -7.6875027      0.9831301      50218.233      36.893836      36.893836      36.893836    
    951000   0.30101621    -8.13907       -7.6875521      0.98009294     50218.233      36.893836      36.893836      36.893836    
    952000   0.29938473    -8.1373362     -7.6882655      0.98609474     50218.233      36.893836      36.893836      36.893836    
    953000   0.30052794    -8.1366962     -7.6859107      0.99525515     50218.233      36.893836      36.893836      36.893836    
    954000   0.30164154    -8.1363664     -7.6839105      1.0015984      50218.233      36.893836      36.893836      36.893836    
    955000   0.29990074    -8.1397352     -7.6898904      0.96827148     50218.233      36.893836      36.893836      36.893836    
    956000   0.29966828    -8.1353267     -7.6858307      1.0051977      50218.233      36.893836      36.893836      36.893836    
    957000   0.30059209    -8.1372003     -7.6863185      0.99856439     50218.233      36.893836      36.893836      36.893836    
    958000   0.30072786    -8.1355318     -7.6844464      1.0092231      50218.233      36.893836      36.893836      36.893836    
    959000   0.29745941    -8.136577      -7.6903942      0.99012926     50218.233      36.893836      36.893836      36.893836    
    960000   0.30007586    -8.1356995     -7.6855921      0.99780965     50218.233      36.893836      36.893836      36.893836    
    961000   0.30007996    -8.1383669     -7.6882534      0.98731093     50218.233      36.893836      36.893836      36.893836    
    962000   0.30074883    -8.1364228     -7.6853059      0.99593385     50218.233      36.893836      36.893836      36.893836    
    963000   0.29983214    -8.1376051     -7.6878633      0.98873349     50218.233      36.893836      36.893836      36.893836    
    964000   0.3015742     -8.1351245     -7.6827696      1.010465       50218.233      36.893836      36.893836      36.893836    
    965000   0.29760839    -8.1353451     -7.6889389      0.99590272     50218.233      36.893836      36.893836      36.893836    
    966000   0.3002945     -8.135624      -7.6851887      0.99807128     50218.233      36.893836      36.893836      36.893836    
    967000   0.29937621    -8.133447      -7.6843891      1.0204995      50218.233      36.893836      36.893836      36.893836    
    968000   0.29935575    -8.1336313     -7.6846041      1.0182303      50218.233      36.893836      36.893836      36.893836    
    969000   0.30081611    -8.1371166     -7.6858989      0.99324984     50218.233      36.893836      36.893836      36.893836    
    970000   0.29900426    -8.1352877     -7.6867877      0.99874846     50218.233      36.893836      36.893836      36.893836    
    971000   0.29842543    -8.1337522     -7.6861204      1.0057691      50218.233      36.893836      36.893836      36.893836    
    972000   0.30092474    -8.1335414     -7.6821607      1.0187474      50218.233      36.893836      36.893836      36.893836    
    973000   0.30038747    -8.1345978     -7.684023       1.0070296      50218.233      36.893836      36.893836      36.893836    
    974000   0.29855344    -8.1369142     -7.6890904      0.98061881     50218.233      36.893836      36.893836      36.893836    
    975000   0.30028763    -8.1339628     -7.6835377      1.0185524      50218.233      36.893836      36.893836      36.893836    
    976000   0.29888562    -8.1374703     -7.6891482      0.99741804     50218.233      36.893836      36.893836      36.893836    
    977000   0.29903388    -8.1338857     -7.6853412      1.0138755      50218.233      36.893836      36.893836      36.893836    
    978000   0.30028217    -8.1341952     -7.6837783      1.0209875      50218.233      36.893836      36.893836      36.893836    
    979000   0.30017701    -8.1367971     -7.686538       0.99794266     50218.233      36.893836      36.893836      36.893836    
    980000   0.29863577    -8.1367745     -7.6888272      0.99017405     50218.233      36.893836      36.893836      36.893836    
    981000   0.30162672    -8.136745      -7.6843113      0.99890485     50218.233      36.893836      36.893836      36.893836    
    982000   0.29877734    -8.1336593     -7.6854997      1.0202501      50218.233      36.893836      36.893836      36.893836    
    983000   0.29990834    -8.133878      -7.6840219      1.0150195      50218.233      36.893836      36.893836      36.893836    
    984000   0.29979194    -8.1349008     -7.6852192      1.0064422      50218.233      36.893836      36.893836      36.893836    
    985000   0.29779485    -8.1353756     -7.6886896      1.0122316      50218.233      36.893836      36.893836      36.893836    
    986000   0.30088996    -8.1349031     -7.6835746      1.0036917      50218.233      36.893836      36.893836      36.893836    
    987000   0.30036424    -8.1369232     -7.6863833      0.99190994     50218.233      36.893836      36.893836      36.893836    
    988000   0.29922005    -8.1354165     -7.6865928      1.0011523      50218.233      36.893836      36.893836      36.893836    
    989000   0.29980767    -8.1376453     -7.6879402      0.98450029     50218.233      36.893836      36.893836      36.893836    
    990000   0.29868031    -8.1361705     -7.6881564      1.0016017      50218.233      36.893836      36.893836      36.893836    
    991000   0.30097123    -8.1359913     -7.6845409      1.0020903      50218.233      36.893836      36.893836      36.893836    
    992000   0.3003663     -8.1355438     -7.6850008      0.99938344     50218.233      36.893836      36.893836      36.893836    
    993000   0.30164301    -8.13586       -7.683402       1.0048834      50218.233      36.893836      36.893836      36.893836    
    994000   0.29877459    -8.1363034     -7.6881479      1.0026402      50218.233      36.893836      36.893836      36.893836    
    995000   0.29861882    -8.1354564     -7.6875346      0.99183241     50218.233      36.893836      36.893836      36.893836    
    996000   0.30013122    -8.1378671     -7.6876766      0.98199879     50218.233      36.893836      36.893836      36.893836    
    997000   0.2994208     -8.1381608     -7.689036       0.98503912     50218.233      36.893836      36.893836      36.893836    
    998000   0.30029941    -8.1358522     -7.6854095      1.0043997      50218.233      36.893836      36.893836      36.893836    
    999000   0.30016106    -8.1374874     -7.6872522      0.9809756      50218.233      36.893836      36.893836      36.893836    
   1000000   0.30150528    -8.1386329     -7.6863814      0.98718994     50218.233      36.893836      36.893836      36.893836    
Loop time of 1573.65 on 4 procs for 1000000 steps with 70304 atoms

Performance: 549043.604 tau/day, 635.467 timesteps/s, 44.676 Matom-step/s
95.0% CPU use with 4 MPI tasks x 1 OpenMP threads

MPI task timing breakdown:
Section |  min time  |  avg time  |  max time  |%varavg| %total
---------------------------------------------------------------
Pair    | 492.36     | 547.33     | 599.04     | 165.3 | 34.78
Neigh   | 5.1733     | 5.456      | 5.8021     |  10.1 |  0.35
Comm    | 219.44     | 222.48     | 225.65     |  15.0 | 14.14
Output  | 0.19902    | 0.20576    | 0.21763    |   1.6 |  0.01
Modify  | 662.31     | 712.46     | 767.62     | 142.3 | 45.27
Other   |            | 85.71      |            |       |  5.45

Nlocal:          17576 ave       17640 max       17523 min
Histogram: 1 0 0 1 1 0 0 0 0 1
Nghost:        16825.5 ave       16874 max       16789 min
Histogram: 1 0 1 0 1 0 0 0 0 1
Neighs:              0 ave           0 max           0 min
Histogram: 4 0 0 0 0 0 0 0 0 0

Total # of neighbors = 0
Ave neighs/atom = 0
Neighbor list builds = 164896
Dangerous builds = 0
clear
OMP_NUM_THREADS environment is not set. Defaulting to 1 thread. (src/comm.cpp:98)
  using 1 OpenMP thread(s) per MPI task
package gpu 0
jump dms280.lmp

variable T equal 280
# T = 1000* (temp in LJ unit)
variable f equal 1000
log log.${T}
log log.280
